<?xml version="1.0"?>
<VTKFile type="UnstructuredGrid" version="0.1" byte_order="LittleEndian">
<UnstructuredGrid>
<Piece NumberOfPoints="31898" NumberOfCells="11152">
<Points>
<DataArray type="Float64" NumberOfComponents="3" format="ascii">
-0.5 -0.5 0 -0.47620991077874902 -0.44978878706170539 0 -0.49999999999999473 -0.42132396840504388 0 -0.5 -0.5 0 -0.47160970827802529 -0.4793630013852106 0 -0.47620991077874902 -0.44978878706170539 0 -0.5 -0.5 0 -0.47160970827802529 -0.4793630013852106 0 -0.44860394795025399 -0.5 0 -0.47160970827802529 -0.4793630013852106 0 -0.44860394795025399 -0.5 0 -0.4490820238307246 -0.45820516232899983 0 -0.44860394795025399 -0.5 0 -0.4490820238307246 -0.45820516232899983 0 -0.42881687682924802 -0.47781464288736519 0 -0.4490820238307246 -0.45820516232899983 0 -0.45555437223955858 -0.42914059360647611 0 -0.4490820238307246 -0.45820516232899983 0 -0.45555437223955858 -0.42914059360647611 0 -0.43867285131603428 -0.4271457417558665 0 -0.4490820238307246 -0.45820516232899983 0 -0.43867285131603428 -0.4271457417558665 0 -0.4263356171060747 -0.44269880333887462 0 -0.47160970827802529 -0.4793630013852106 0 -0.4490820238307246 -0.45820516232899983 0 -0.47620991077874902 -0.44978878706170539 0 -0.4490820238307246 -0.45820516232899983 0 -0.47620991077874902 -0.44978878706170539 0 -0.45555437223955858 -0.42914059360647611 0 -0.47620991077874902 -0.44978878706170539 0 -0.48101336032419229 -0.41069999664450008 0 -0.45555437223955858 -0.42914059360647611 0 -0.47620991077874902 -0.44978878706170539 0 -0.49999999999999473 -0.42132396840504388 0 -0.48101336032419229 -0.41069999664450008 0 -0.49999999999999473 -0.42132396840504388 0 -0.48101336032419229 -0.41069999664450008 0 -0.5 -0.393886241813306 0 -0.49999999999999473 -0.42132396840504388 0 -0.48101336032419229 -0.41069999664450008 0 -0.5 -0.393886241813306 0 -0.47854472220918332 -0.38978458738689759 0 -0.48422759779560409 -0.37130120630367158 0 -0.5 -0.393886241813306 0 -0.5 -0.36644851522156802 0 -0.48422759779560409 -0.37130120630367158 0 -0.48101336032419229 -0.41069999664450008 0 -0.5 -0.393886241813306 0 -0.47854472220918332 -0.38978458738689759 0 -0.48101336032419229 -0.41069999664450008 0 -0.47854472220918332 -0.38978458738689759 0 -0.46202672064839212 -0.40007602488395211 0 -0.48101336032419229 -0.41069999664450008 0 -0.46202672064839212 -0.40007602488395211 0 -0.47854472220918332 -0.38978458738689759 0 -0.46725442735267431 -0.37660061361585562 0 -0.46202672064839212 -0.40007602488395211 0 -0.47854472220918332 -0.38978458738689759 0 -0.46725442735267431 -0.37660061361585562 0 -0.48422759779560409 -0.37130120630367158 0 -0.46725442735267431 -0.37660061361585562 0 -0.46202672064839212 -0.40007602488395211 0 -0.46725442735267431 -0.37660061361585562 0 -0.45645674801697989 -0.38644133236760531 0 -0.46202672064839212 -0.40007602488395211 0 -0.46725442735267431 -0.37660061361585562 0 -0.45645674801697989 -0.38644133236760531 0 -0.4540003998136638 -0.37455519391687309 0 -0.45645674801697989 -0.38644133236760531 0 -0.46202672064839212 -0.40007602488395211 0 -0.44257020456291563 -0.38918913383950271 0 -0.46202672064839212 -0.40007602488395211 0 -0.44257020456291563 -0.38918913383950271 0 -0.44727608925983742 -0.41095911152778891 0 -0.46202672064839212 -0.40007602488395211 0 -0.44257020456291563 -0.38918913383950271 0 -0.44257020456291563 -0.38918913383950271 0 -0.44727608925983742 -0.41095911152778891 0 -0.43479358559901082 -0.4041454901736512 0 -0.44257020456291563 -0.38918913383950271 0 -0.4540003998136638 -0.37455519391687309 0 -0.44172858264042247 -0.37082207246888088 0 -0.45645674801697989 -0.38644133236760531 0 -0.44257020456291563 -0.38918913383950271 0 -0.4540003998136638 -0.37455519391687309 0 -0.46202672064839212 -0.40007602488395211 0 -0.45555437223955858 -0.42914059360647611 0 -0.44727608925983742 -0.41095911152778891 0 -0.46202672064839212 -0.40007602488395211 0 -0.45555437223955858 -0.42914059360647611 0 -0.48101336032419229 -0.41069999664450008 0 -0.46202672064839212 -0.40007602488395211 0 -0.45555437223955858 -0.42914059360647611 0 -0.44727608925983742 -0.41095911152778891 0 -0.43867285131603428 -0.4271457417558665 0 -0.43676601469929588 -0.41441201227470881 0 -0.44727608925983742 -0.41095911152778891 0 -0.43676601469929588 -0.41441201227470881 0 -0.43479358559901082 -0.4041454901736512 0 -0.45555437223955858 -0.42914059360647611 0 -0.44727608925983742 -0.41095911152778891 0 -0.43867285131603428 -0.4271457417558665 0 -0.43867285131603428 -0.4271457417558665 0 -0.42681803064840879 -0.42717069814352421 0 -0.4263356171060747 -0.44269880333887462 0 -0.42681803064840879 -0.42717069814352421 0 -0.41531815884496182 -0.42985383783075998 0 -0.4263356171060747 -0.44269880333887462 0 -0.42681803064840879 -0.42717069814352421 0 -0.42624289495594048 -0.42089725947505818 0 -0.42083332353326591 -0.42146747131641099 0 -0.42681803064840879 -0.42717069814352421 0 -0.43096994786351572 -0.41951492446283251 0 -0.42624289495594048 -0.42089725947505818 0 -0.43867285131603428 -0.4271457417558665 0 -0.42681803064840879 -0.42717069814352421 0 -0.43096994786351572 -0.41951492446283251 0 -0.43867285131603428 -0.4271457417558665 0 -0.43676601469929588 -0.41441201227470881 0 -0.43096994786351572 -0.41951492446283251 0 -0.43676601469929588 -0.41441201227470881 0 -0.43096994786351572 -0.41951492446283251 0 -0.42907264086257813 -0.41311715872526122 0 -0.43676601469929588 -0.41441201227470881 0 -0.42907264086257813 -0.41311715872526122 0 -0.43479358559901082 -0.4041454901736512 0 -0.42907264086257813 -0.41311715872526122 0 -0.43479358559901082 -0.4041454901736512 0 -0.42460885511582858 -0.40417321677700252 0 -0.42907264086257813 -0.41311715872526122 0 -0.41997834854398469 -0.41180534796019508 0 -0.42907264086257813 -0.41311715872526122 0 -0.42635027777857132 -0.41543594397746519 0 -0.41997834854398469 -0.41180534796019508 0 -0.42907264086257813 -0.41311715872526122 0 -0.41997834854398469 -0.41180534796019508 0 -0.42460885511582858 -0.40417321677700252 0 -0.42635027777857132 -0.41543594397746519 0 -0.41997834854398469 -0.41180534796019508 0 -0.42635027777857132 -0.41543594397746519 0 -0.42083332353326591 -0.42146747131641099 0 -0.41997834854398469 -0.41180534796019508 0 -0.43096994786351572 -0.41951492446283251 0 -0.42624289495594048 -0.42089725947505818 0 -0.42635027777857132 -0.41543594397746519 0 -0.43096994786351572 -0.41951492446283251 0 -0.42907264086257813 -0.41311715872526122 0 -0.42635027777857132 -0.41543594397746519 0 -0.42624289495594048 -0.42089725947505818 0 -0.42635027777857132 -0.41543594397746519 0 -0.42083332353326591 -0.42146747131641099 0 -0.42083332353326591 -0.42146747131641099 0 -0.41997834854398469 -0.41180534796019508 0 -0.40992282953163789 -0.42011435591993562 0 -0.41997834854398469 -0.41180534796019508 0 -0.39756877647335259 -0.40857286797681719 0 -0.41997834854398469 -0.41180534796019508 0 -0.40992282953163789 -0.42011435591993562 0 -0.39756877647335259 -0.40857286797681719 0 -0.40992282953163789 -0.42011435591993562 0 -0.41531815884496182 -0.42985383783075998 0 -0.39591554026262499 -0.42887225451549271 0 -0.41531815884496182 -0.42985383783075998 0 -0.39591554026262499 -0.42887225451549271 0 -0.41160927495564159 -0.44339431233754628 0 -0.42083332353326591 -0.42146747131641099 0 -0.40992282953163789 -0.42011435591993562 0 -0.41531815884496182 -0.42985383783075998 0 -0.42681803064840879 -0.42717069814352421 0 -0.42083332353326591 -0.42146747131641099 0 -0.41531815884496182 -0.42985383783075998 0 -0.44257020456291563 -0.38918913383950271 0 -0.42311368847744002 -0.37830224279505142 0 -0.42594061475171041 -0.39368797999533162 0 -0.44257020456291563 -0.38918913383950271 0 -0.42311368847744002 -0.37830224279505142 0 -0.44172858264042247 -0.37082207246888088 0 -0.44257020456291563 -0.38918913383950271 0 -0.42311368847744002 -0.37830224279505142 0 -0.42311368847744002 -0.37830224279505142 0 -0.42594061475171041 -0.39368797999533162 0 -0.416587075656149 -0.38785930376960043 0 -0.44257020456291563 -0.38918913383950271 0 -0.42594061475171041 -0.39368797999533162 0 -0.43479358559901082 -0.4041454901736512 0 -0.42594061475171041 -0.39368797999533162 0 -0.43479358559901082 -0.4041454901736512 0 -0.42460885511582858 -0.40417321677700252 0 -0.41997834854398469 -0.41180534796019508 0 -0.41325908582185972 -0.39811010703057192 0 -0.39770572831670092 -0.39911486077581648 0 -0.41997834854398469 -0.41180534796019508 0 -0.39770572831670092 -0.39911486077581648 0 -0.42594061475171041 -0.39368797999533162 0 -0.42460885511582858 -0.40417321677700252 0 -0.41325908582185972 -0.39811010703057192 0 -0.41997834854398469 -0.41180534796019508 0 -0.42460885511582858 -0.40417321677700252 0 -0.41325908582185972 -0.39811010703057192 0 -0.42594061475171041 -0.39368797999533162 0 -0.41325908582185972 -0.39811010703057192 0 -0.416587075656149 -0.38785930376960043 0 -0.41325908582185972 -0.39811010703057192 0 -0.416587075656149 -0.38785930376960043 0 -0.40403491357358612 -0.38133688525744702 0 -0.42311368847744002 -0.37830224279505142 0 -0.40403491357358612 -0.38133688525744702 0 -0.40365717239196519 -0.36741535175059892 0 -0.42311368847744002 -0.37830224279505142 0 -0.416587075656149 -0.38785930376960043 0 -0.40403491357358612 -0.38133688525744702 0 -0.40403491357358612 -0.38133688525744702 0 -0.39190790742475001 -0.38540387676521748 0 -0.39770572831670092 -0.39911486077581648 0 -0.40403491357358612 -0.38133688525744702 0 -0.39190790742475001 -0.38540387676521748 0 -0.3904578797192948 -0.37473938743617019 0 -0.41325908582185972 -0.39811010703057192 0 -0.40403491357358612 -0.38133688525744702 0 -0.39770572831670092 -0.39911486077581648 0 -0.39770572831670092 -0.39911486077581648 0 -0.37543310808941849 -0.38642437359143528 0 -0.39770572831670092 -0.39911486077581648 0 -0.37515920440272033 -0.40534038799344108 0 -0.37543310808941849 -0.38642437359143528 0 -0.39770572831670092 -0.39911486077581648 0 -0.37515920440272033 -0.40534038799344108 0 -0.39756877647335259 -0.40857286797681719 0 -0.37515920440272033 -0.40534038799344108 0 -0.37543310808941849 -0.38642437359143528 0 -0.37543310808941849 -0.38642437359143528 0 -0.3904578797192948 -0.37473938743617019 0 -0.37568304780698558 -0.36916333065311507 0 -0.39190790742475001 -0.38540387676521748 0 -0.37543310808941849 -0.38642437359143528 0 -0.3904578797192948 -0.37473938743617019 0 -0.37543310808941849 -0.38642437359143528 0 -0.37568304780698558 -0.36916333065311507 0 -0.39190790742475001 -0.38540387676521748 0 -0.39770572831670092 -0.39911486077581648 0 -0.37543310808941849 -0.38642437359143528 0 -0.41997834854398469 -0.41180534796019508 0 -0.39770572831670092 -0.39911486077581648 0 -0.39756877647335259 -0.40857286797681719 0 -0.40992282953163789 -0.42011435591993562 0 -0.39591554026262499 -0.42887225451549271 0 -0.39756877647335259 -0.40857286797681719 0 -0.37515920440272033 -0.40534038799344108 0 -0.39591554026262499 -0.42887225451549271 0 -0.39756877647335259 -0.40857286797681719 0 -0.37515920440272033 -0.40534038799344108 0 -0.39756877647335259 -0.40857286797681719 0 -0.37515920440272033 -0.40534038799344108 0 -0.39591554026262499 -0.42887225451549271 0 -0.37472313619600889 -0.43545561783144832 0 -0.39591554026262499 -0.42887225451549271 0 -0.39301703415267508 -0.44654444244683272 0 -0.37472313619600889 -0.43545561783144832 0 -0.39301703415267508 -0.44654444244683272 0 -0.37428706798929601 -0.46557084766945539 0 -0.37472313619600889 -0.43545561783144832 0 -0.39591554026262499 -0.42887225451549271 0 -0.39301703415267508 -0.44654444244683272 0 -0.41160927495564159 -0.44339431233754628 0 -0.39301703415267508 -0.44654444244683272 0 -0.40396056051613372 -0.45751466911048011 0 -0.41160927495564159 -0.44339431233754628 0 -0.40396056051613372 -0.45751466911048011 0 -0.39245383412573559 -0.47875733455523922 0 -0.41207507163844148 -0.46917161410542801 0 -0.40396056051613372 -0.45751466911048011 0 -0.38912381425271458 -0.46154275838996711 0 -0.39245383412573559 -0.47875733455523922 0 -0.40396056051613372 -0.45751466911048011 0 -0.39245383412573559 -0.47875733455523922 0 -0.40396056051613372 -0.45751466911048011 0 -0.40649676728151513 -0.45682610390212369 0 -0.40396056051613372 -0.45751466911048011 0 -0.38912381425271458 -0.46154275838996711 0 -0.39301703415267508 -0.44654444244683272 0 -0.40396056051613372 -0.45751466911048011 0 -0.38912381425271458 -0.46154275838996711 0 -0.39301703415267508 -0.44654444244683272 0 -0.38912381425271458 -0.46154275838996711 0 -0.37428706798929601 -0.46557084766945539 0 -0.38912381425271458 -0.46154275838996711 0 -0.37428706798929601 -0.46557084766945539 0 -0.38912381425271458 -0.46154275838996711 0 -0.38378714202547332 -0.47159002408209011 0 -0.37428706798929601 -0.46557084766945539 0 -0.38378714202547332 -0.47159002408209011 0 -0.39245383412573559 -0.47875733455523922 0 -0.37411677223754131 -0.47733161267270968 0 -0.39245383412573559 -0.47875733455523922 0 -0.37240076261097882 -0.48974555046165519 0 -0.37411677223754131 -0.47733161267270968 0 -0.38378714202547332 -0.47159002408209011 0 -0.37411677223754131 -0.47733161267270968 0 -0.37428706798929601 -0.46557084766945539 0 -0.38912381425271458 -0.46154275838996711 0 -0.38378714202547332 -0.47159002408209011 0 -0.39245383412573559 -0.47875733455523922 0 -0.38094710773533791 -0.49999999999999839 0 -0.39245383412573559 -0.47875733455523922 0 -0.38094710773533791 -0.49999999999999839 0 -0.39245383412573559 -0.47875733455523922 0 -0.37240076261097882 -0.48974555046165519 0 -0.38094710773533791 -0.49999999999999839 0 -0.39245383412573559 -0.47875733455523922 0 -0.40997732063196057 -0.5 0 -0.39245383412573559 -0.47875733455523922 0 -0.41207507163844148 -0.46917161410542801 0 -0.40997732063196057 -0.5 0 -0.41207507163844148 -0.46917161410542801 0 -0.40997732063196057 -0.5 0 -0.42881687682924802 -0.47781464288736519 0 -0.44860394795025399 -0.5 0 -0.40997732063196057 -0.5 0 -0.42881687682924802 -0.47781464288736519 0 -0.41207507163844148 -0.46917161410542801 0 -0.42881687682924802 -0.47781464288736519 0 -0.42627766738448791 -0.46032764904509182 0 -0.4490820238307246 -0.45820516232899983 0 -0.42881687682924802 -0.47781464288736519 0 -0.42627766738448791 -0.46032764904509182 0 -0.4490820238307246 -0.45820516232899983 0 -0.42627766738448791 -0.46032764904509182 0 -0.4263356171060747 -0.44269880333887462 0 -0.42627766738448791 -0.46032764904509182 0 -0.4263356171060747 -0.44269880333887462 0 -0.41655419253802572 -0.45404861160063659 0 -0.4263356171060747 -0.44269880333887462 0 -0.41160927495564159 -0.44339431233754628 0 -0.41655419253802572 -0.45404861160063659 0 -0.41531815884496182 -0.42985383783075998 0 -0.4263356171060747 -0.44269880333887462 0 -0.41160927495564159 -0.44339431233754628 0 -0.40396056051613372 -0.45751466911048011 0 -0.41160927495564159 -0.44339431233754628 0 -0.40649676728151513 -0.45682610390212369 0 -0.41160927495564159 -0.44339431233754628 0 -0.40649676728151513 -0.45682610390212369 0 -0.41655419253802572 -0.45404861160063659 0 -0.40396056051613372 -0.45751466911048011 0 -0.41160927495564159 -0.44339431233754628 0 -0.41207507163844148 -0.46917161410542801 0 -0.40649676728151513 -0.45682610390212369 0 -0.41655419253802572 -0.45404861160063659 0 -0.40396056051613372 -0.45751466911048011 0 -0.41207507163844148 -0.46917161410542801 0 -0.40649676728151513 -0.45682610390212369 0 -0.41207507163844148 -0.46917161410542801 0 -0.42627766738448791 -0.46032764904509182 0 -0.41655419253802572 -0.45404861160063659 0 -0.45662330498375908 -0.25656877445722759 0 -0.43445882011373449 -0.25478651907497341 0 -0.45662330498375908 -0.25656877445722759 0 -0.43445882011373449 -0.25478651907497341 0 -0.45034617445999431 -0.24335722649563979 0 -0.44999384684511368 -0.2755750489792308 0 -0.45662330498375908 -0.25656877445722759 0 -0.43445882011373449 -0.25478651907497341 0 -0.44999384684511368 -0.2755750489792308 0 -0.43077531442077321 -0.27459050524281542 0 -0.43445882011373449 -0.25478651907497341 0 -0.44999384684511368 -0.2755750489792308 0 -0.441361257405879 -0.29303276451920029 0 -0.43077531442077321 -0.27459050524281542 0 -0.44999384684511368 -0.2755750489792308 0 -0.4670541169931961 -0.26846056693166809 0 -0.46910519348062618 -0.28320526693770848 0 -0.44999384684511368 -0.2755750489792308 0 -0.4670541169931961 -0.26846056693166809 0 -0.45662330498375908 -0.25656877445722759 0 -0.45662330498375908 -0.25656877445722759 0 -0.47878778985378329 -0.25835102983948688 0 -0.4670541169931961 -0.26846056693166809 0 -0.45662330498375908 -0.25656877445722759 0 -0.47878778985378329 -0.25835102983948688 0 -0.45662330498375908 -0.25656877445722759 0 -0.47878778985378329 -0.25835102983948688 0 -0.47142395938804471 -0.23802335247430181 0 -0.47878778985378329 -0.25835102983948688 0 -0.5 -0.25669760885461612 0 -0.48361763707807442 -0.27426406281091331 0 -0.47878778985378329 -0.25835102983948688 0 -0.5 -0.25669760885461612 0 -0.4875835208682564 -0.24248539692068891 0 -0.5 -0.25669760885461612 0 -0.48361763707807442 -0.27426406281091331 0 -0.5 -0.28413533544635422 0 -0.4670541169931961 -0.26846056693166809 0 -0.47878778985378329 -0.25835102983948688 0 -0.48361763707807442 -0.27426406281091331 0 -0.4670541169931961 -0.26846056693166809 0 -0.48361763707807442 -0.27426406281091331 0 -0.46910519348062618 -0.28320526693770848 0 -0.46910519348062618 -0.28320526693770848 0 -0.48580896399913942 -0.29193665231809679 0 -0.47164434439118558 -0.29859902487093259 0 -0.48361763707807442 -0.27426406281091331 0 -0.46910519348062618 -0.28320526693770848 0 -0.48580896399913942 -0.29193665231809679 0 -0.5 -0.28413533544635422 0 -0.48580896399913942 -0.29193665231809679 0 -0.5 -0.3115730620380921 0 -0.48361763707807442 -0.27426406281091331 0 -0.5 -0.28413533544635422 0 -0.48580896399913942 -0.29193665231809679 0 -0.48580896399913942 -0.29193665231809679 0 -0.5 -0.3115730620380921 0 -0.48293754746551898 -0.30617437981156609 0 -0.48293754746551898 -0.30617437981156609 0 -0.47164434439118558 -0.29859902487093259 0 -0.47203566342767839 -0.31514771464943409 0 -0.48580896399913942 -0.29193665231809679 0 -0.48293754746551898 -0.30617437981156609 0 -0.47164434439118558 -0.29859902487093259 0 -0.47164434439118558 -0.29859902487093259 0 -0.46096111539772322 -0.3069557537098867 0 -0.47203566342767839 -0.31514771464943409 0 -0.46096111539772322 -0.3069557537098867 0 -0.44739706002137658 -0.30395698434733032 0 -0.45229582611609759 -0.31444164243390338 0 -0.46096111539772322 -0.3069557537098867 0 -0.45682111422556548 -0.29317658806621089 0 -0.44739706002137658 -0.30395698434733032 0 -0.47164434439118558 -0.29859902487093259 0 -0.46096111539772322 -0.3069557537098867 0 -0.45682111422556548 -0.29317658806621089 0 -0.44999384684511368 -0.2755750489792308 0 -0.46910519348062618 -0.28320526693770848 0 -0.45682111422556548 -0.29317658806621089 0 -0.46910519348062618 -0.28320526693770848 0 -0.47164434439118558 -0.29859902487093259 0 -0.45682111422556548 -0.29317658806621089 0 -0.44999384684511368 -0.2755750489792308 0 -0.45682111422556548 -0.29317658806621089 0 -0.441361257405879 -0.29303276451920029 0 -0.45682111422556548 -0.29317658806621089 0 -0.441361257405879 -0.29303276451920029 0 -0.44739706002137658 -0.30395698434733032 0 -0.441361257405879 -0.29303276451920029 0 -0.44739706002137658 -0.30395698434733032 0 -0.43527018611072049 -0.30465000121327751 0 -0.44739706002137658 -0.30395698434733032 0 -0.44024276041750632 -0.31887045497680111 0 -0.43527018611072049 -0.30465000121327751 0 -0.44739706002137658 -0.30395698434733032 0 -0.45229582611609759 -0.31444164243390338 0 -0.44024276041750632 -0.31887045497680111 0 -0.44024276041750632 -0.31887045497680111 0 -0.45653421084860168 -0.32646185290925811 0 -0.44024276041750632 -0.31887045497680111 0 -0.43930980958642257 -0.33554338078202212 0 -0.45653421084860168 -0.32646185290925811 0 -0.45229582611609759 -0.31444164243390338 0 -0.44024276041750632 -0.31887045497680111 0 -0.45653421084860168 -0.32646185290925811 0 -0.43930980958642257 -0.33554338078202212 0 -0.44966367396753332 -0.33841986907325933 0 -0.46855294336124231 -0.32873531729210143 0 -0.43930980958642257 -0.33554338078202212 0 -0.4507851133594416 -0.34910720111649318 0 -0.43930980958642257 -0.33554338078202212 0 -0.44966367396753332 -0.33841986907325933 0 -0.4507851133594416 -0.34910720111649318 0 -0.44966367396753332 -0.33841986907325933 0 -0.46855294336124231 -0.32873531729210143 0 -0.46386644800117471 -0.33586508895417932 0 -0.43930980958642257 -0.33554338078202212 0 -0.46855294336124231 -0.32873531729210143 0 -0.43930980958642257 -0.33554338078202212 0 -0.46855294336124231 -0.32873531729210143 0 -0.45653421084860168 -0.32646185290925811 0 -0.44966367396753332 -0.33841986907325933 0 -0.4586808436472537 -0.3401528003513713 0 -0.45711636988675219 -0.34547487934353349 0 -0.44966367396753332 -0.33841986907325933 0 -0.4586808436472537 -0.3401528003513713 0 -0.46386644800117471 -0.33586508895417932 0 -0.4586808436472537 -0.3401528003513713 0 -0.46472493826860672 -0.34236766697450172 0 -0.45711636988675219 -0.34547487934353349 0 -0.4586808436472537 -0.3401528003513713 0 -0.46472493826860672 -0.34236766697450172 0 -0.46386644800117471 -0.33586508895417932 0 -0.46855294336124231 -0.32873531729210143 0 -0.46207595183026873 -0.31834845619891672 0 -0.47203566342767839 -0.31514771464943409 0 -0.46855294336124231 -0.32873531729210143 0 -0.45653421084860168 -0.32646185290925811 0 -0.46207595183026873 -0.31834845619891672 0 -0.46096111539772322 -0.3069557537098867 0 -0.45229582611609759 -0.31444164243390338 0 -0.46207595183026873 -0.31834845619891672 0 -0.45229582611609759 -0.31444164243390338 0 -0.45653421084860168 -0.32646185290925811 0 -0.46207595183026873 -0.31834845619891672 0 -0.46096111539772322 -0.3069557537098867 0 -0.46207595183026873 -0.31834845619891672 0 -0.47203566342767839 -0.31514771464943409 0 -0.48293754746551898 -0.30617437981156609 0 -0.47203566342767839 -0.31514771464943409 0 -0.47770984076123751 -0.32964979107966252 0 -0.48293754746551898 -0.30617437981156609 0 -0.47770984076123751 -0.32964979107966252 0 -0.48293754746551898 -0.30617437981156609 0 -0.48763303240419292 -0.31981883507337211 0 -0.47770984076123751 -0.32964979107966252 0 -0.46855294336124231 -0.32873531729210143 0 -0.47203566342767839 -0.31514771464943409 0 -0.47770984076123751 -0.32964979107966252 0 -0.5 -0.3115730620380921 0 -0.5 -0.33901078862982997 0 -0.49048543526404831 -0.32960291085151988 0 -0.5 -0.3115730620380921 0 -0.48763303240419292 -0.31981883507337211 0 -0.49048543526404831 -0.32960291085151988 0 -0.5 -0.3115730620380921 0 -0.48293754746551898 -0.30617437981156609 0 -0.48763303240419292 -0.31981883507337211 0 -0.48763303240419292 -0.31981883507337211 0 -0.49048543526404831 -0.32960291085151988 0 -0.47770984076123751 -0.32964979107966252 0 -0.49048543526404831 -0.32960291085151988 0 -0.47770984076123751 -0.32964979107966252 0 -0.48708430315481122 -0.3479620774366432 0 -0.5 -0.33901078862982997 0 -0.49048543526404831 -0.32960291085151988 0 -0.48708430315481122 -0.3479620774366432 0 -0.47770984076123751 -0.32964979107966252 0 -0.47248213405695583 -0.35312520234775913 0 -0.47770984076123751 -0.32964979107966252 0 -0.47248213405695583 -0.35312520234775913 0 -0.48708430315481122 -0.3479620774366432 0 -0.46472493826860672 -0.34236766697450172 0 -0.47770984076123751 -0.32964979107966252 0 -0.47248213405695583 -0.35312520234775913 0 -0.46855294336124231 -0.32873531729210143 0 -0.46386644800117471 -0.33586508895417932 0 -0.47770984076123751 -0.32964979107966252 0 -0.46472493826860672 -0.34236766697450172 0 -0.46386644800117471 -0.33586508895417932 0 -0.47770984076123751 -0.32964979107966252 0 -0.47248213405695583 -0.35312520234775913 0 -0.48708430315481122 -0.3479620774366432 0 -0.48422759779560409 -0.37130120630367158 0 -0.5 -0.33901078862982997 0 -0.48708430315481122 -0.3479620774366432 0 -0.5 -0.36644851522156802 0 -0.48708430315481122 -0.3479620774366432 0 -0.5 -0.36644851522156802 0 -0.48422759779560409 -0.37130120630367158 0 -0.46725442735267431 -0.37660061361585562 0 -0.47248213405695583 -0.35312520234775913 0 -0.48422759779560409 -0.37130120630367158 0 -0.46725442735267431 -0.37660061361585562 0 -0.47248213405695583 -0.35312520234775913 0 -0.46725442735267431 -0.37660061361585562 0 -0.4540003998136638 -0.37455519391687309 0 -0.46226041713245919 -0.36267102145096558 0 -0.46725442735267431 -0.37660061361585562 0 -0.47248213405695583 -0.35312520234775913 0 -0.46226041713245919 -0.36267102145096558 0 -0.4540003998136638 -0.37455519391687309 0 -0.46226041713245919 -0.36267102145096558 0 -0.45167034254705118 -0.36337553476545958 0 -0.47248213405695583 -0.35312520234775913 0 -0.46226041713245919 -0.36267102145096558 0 -0.46130034509645268 -0.35111989715704561 0 -0.46472493826860672 -0.34236766697450172 0 -0.47248213405695583 -0.35312520234775913 0 -0.46130034509645268 -0.35111989715704561 0 -0.46472493826860672 -0.34236766697450172 0 -0.46130034509645268 -0.35111989715704561 0 -0.45711636988675219 -0.34547487934353349 0 -0.46130034509645268 -0.35111989715704561 0 -0.45711636988675219 -0.34547487934353349 0 -0.4507851133594416 -0.34910720111649318 0 -0.46226041713245919 -0.36267102145096558 0 -0.4507851133594416 -0.34910720111649318 0 -0.45167034254705118 -0.36337553476545958 0 -0.46226041713245919 -0.36267102145096558 0 -0.46130034509645268 -0.35111989715704561 0 -0.4507851133594416 -0.34910720111649318 0 -0.46226041713245919 -0.36267102145096558 0 -0.4507851133594416 -0.34910720111649318 0 -0.4507851133594416 -0.34910720111649318 0 -0.44504098357239391 -0.35771747353496869 0 -0.45167034254705118 -0.36337553476545958 0 -0.44966367396753332 -0.33841986907325933 0 -0.45711636988675219 -0.34547487934353349 0 -0.4507851133594416 -0.34910720111649318 0 -0.4507851133594416 -0.34910720111649318 0 -0.44408457896710762 -0.34741130507322732 0 -0.44504098357239391 -0.35771747353496869 0 -0.43930980958642257 -0.33554338078202212 0 -0.4507851133594416 -0.34910720111649318 0 -0.44408457896710762 -0.34741130507322732 0 -0.44408457896710762 -0.34741130507322732 0 -0.43834809566141358 -0.35386966642967582 0 -0.4310745521241639 -0.35060051531725012 0 -0.44408457896710762 -0.34741130507322732 0 -0.43834809566141358 -0.35386966642967582 0 -0.44504098357239391 -0.35771747353496869 0 -0.43834809566141358 -0.35386966642967582 0 -0.44504098357239391 -0.35771747353496869 0 -0.43256408976529492 -0.36260533289695268 0 -0.44504098357239391 -0.35771747353496869 0 -0.44172858264042247 -0.37082207246888088 0 -0.43256408976529492 -0.36260533289695268 0 -0.4540003998136638 -0.37455519391687309 0 -0.44172858264042247 -0.37082207246888088 0 -0.45167034254705118 -0.36337553476545958 0 -0.44504098357239391 -0.35771747353496869 0 -0.44172858264042247 -0.37082207246888088 0 -0.45167034254705118 -0.36337553476545958 0 -0.42311368847744002 -0.37830224279505142 0 -0.44172858264042247 -0.37082207246888088 0 -0.43256408976529492 -0.36260533289695268 0 -0.42311368847744002 -0.37830224279505142 0 -0.43256408976529492 -0.36260533289695268 0 -0.41867380740831611 -0.36398836527224071 0 -0.43256408976529492 -0.36260533289695268 0 -0.42210656065146929 -0.35476551363046099 0 -0.41867380740831611 -0.36398836527224071 0 -0.44408457896710762 -0.34741130507322732 0 -0.4310745521241639 -0.35060051531725012 0 -0.42443636388738298 -0.3390060521705498 0 -0.43834809566141358 -0.35386966642967582 0 -0.43256408976529492 -0.36260533289695268 0 -0.4310745521241639 -0.35060051531725012 0 -0.4310745521241639 -0.35060051531725012 0 -0.42266042161335821 -0.34652378860874011 0 -0.42210656065146929 -0.35476551363046099 0 -0.4310745521241639 -0.35060051531725012 0 -0.42266042161335821 -0.34652378860874011 0 -0.42443636388738298 -0.3390060521705498 0 -0.43256408976529492 -0.36260533289695268 0 -0.4310745521241639 -0.35060051531725012 0 -0.42210656065146929 -0.35476551363046099 0 -0.42210656065146929 -0.35476551363046099 0 -0.41243440171204931 -0.35621682403100541 0 -0.41867380740831611 -0.36398836527224071 0 -0.41243440171204931 -0.35621682403100541 0 -0.40365717239196519 -0.36741535175059892 0 -0.40302160193259851 -0.3439916005776541 0 -0.42210656065146929 -0.35476551363046099 0 -0.41714587076776338 -0.34786779488983011 0 -0.41243440171204931 -0.35621682403100541 0 -0.42266042161335821 -0.34652378860874011 0 -0.42210656065146929 -0.35476551363046099 0 -0.41714587076776338 -0.34786779488983011 0 -0.42266042161335821 -0.34652378860874011 0 -0.41714587076776338 -0.34786779488983011 0 -0.41853876063601031 -0.34037906703560689 0 -0.41714587076776338 -0.34786779488983011 0 -0.41853876063601031 -0.34037906703560689 0 -0.41714587076776338 -0.34786779488983011 0 -0.41243440171204931 -0.35621682403100541 0 -0.40302160193259851 -0.3439916005776541 0 -0.41714587076776338 -0.34786779488983011 0 -0.40302160193259851 -0.3439916005776541 0 -0.41853876063601031 -0.34037906703560689 0 -0.42311368847744002 -0.37830224279505142 0 -0.41867380740831611 -0.36398836527224071 0 -0.40365717239196519 -0.36741535175059892 0 -0.42311368847744002 -0.37830224279505142 0 -0.40365717239196519 -0.36741535175059892 0 -0.41243440171204931 -0.35621682403100541 0 -0.41867380740831611 -0.36398836527224071 0 -0.40365717239196519 -0.36741535175059892 0 -0.40403491357358612 -0.38133688525744702 0 -0.40365717239196519 -0.36741535175059892 0 -0.40403491357358612 -0.38133688525744702 0 -0.40365717239196519 -0.36741535175059892 0 -0.3904578797192948 -0.37473938743617019 0 -0.40365717239196519 -0.36741535175059892 0 -0.38979507995825918 -0.35965881973269581 0 -0.40365717239196519 -0.36741535175059892 0 -0.3904578797192948 -0.37473938743617019 0 -0.38979507995825918 -0.35965881973269581 0 -0.3904578797192948 -0.37473938743617019 0 -0.38979507995825918 -0.35965881973269581 0 -0.37568304780698558 -0.36916333065311507 0 -0.37568304780698558 -0.36916333065311507 0 -0.37593298752455201 -0.35190228771479481 0 -0.38979507995825918 -0.35965881973269581 0 -0.37568304780698558 -0.36916333065311507 0 -0.37593298752455201 -0.35190228771479481 0 -0.38979507995825918 -0.35965881973269581 0 -0.37595629511297179 -0.35029264644438168 0 -0.40302160193259851 -0.3439916005776541 0 -0.37595629511297179 -0.35029264644438168 0 -0.40302160193259851 -0.3439916005776541 0 -0.38842354837557669 -0.33756560667471242 0 -0.37595629511297179 -0.35029264644438168 0 -0.40302160193259851 -0.3439916005776541 0 -0.37595629511297179 -0.35029264644438168 0 -0.37607676276689278 -0.3419730509543204 0 -0.37390838074359528 -0.35076941925389299 0 -0.37595629511297179 -0.35029264644438168 0 -0.37607676276689278 -0.3419730509543204 0 -0.37595629511297179 -0.35029264644438168 0 -0.37593298752455201 -0.35190228771479481 0 -0.37390838074359528 -0.35076941925389299 0 -0.37595629511297179 -0.35029264644438168 0 -0.37593298752455201 -0.35190228771479481 0 -0.38979507995825918 -0.35965881973269581 0 -0.37595629511297179 -0.35029264644438168 0 -0.37593298752455201 -0.35190228771479481 0 -0.38979507995825918 -0.35965881973269581 0 -0.37593298752455201 -0.35190228771479481 0 -0.40365717239196519 -0.36741535175059892 0 -0.40302160193259851 -0.3439916005776541 0 -0.40365717239196519 -0.36741535175059892 0 -0.38979507995825918 -0.35965881973269581 0 -0.40302160193259851 -0.3439916005776541 0 -0.40302160193259851 -0.3439916005776541 0 -0.40263324863316441 -0.32967896077653092 0 -0.40263324863316441 -0.32967896077653092 0 -0.38842354837557669 -0.33756560667471242 0 -0.38442983343225828 -0.32189177462067481 0 -0.40302160193259851 -0.3439916005776541 0 -0.40263324863316441 -0.32967896077653092 0 -0.38842354837557669 -0.33756560667471242 0 -0.37607676276689278 -0.3419730509543204 0 -0.37641717267996733 -0.3184640617331177 0 -0.38842354837557669 -0.33756560667471242 0 -0.37607676276689278 -0.3419730509543204 0 -0.38442983343225828 -0.32189177462067481 0 -0.37607676276689278 -0.3419730509543204 0 -0.38442983343225828 -0.32189177462067481 0 -0.37595629511297179 -0.35029264644438168 0 -0.38842354837557669 -0.33756560667471242 0 -0.37607676276689278 -0.3419730509543204 0 -0.37607676276689278 -0.3419730509543204 0 -0.37641717267996733 -0.3184640617331177 0 -0.38442983343225828 -0.32189177462067481 0 -0.37641717267996733 -0.3184640617331177 0 -0.38442983343225828 -0.32189177462067481 0 -0.3841914044669909 -0.30132118344037401 0 -0.37641717267996733 -0.3184640617331177 0 -0.38442983343225828 -0.32189177462067481 0 -0.40263324863316441 -0.32967896077653092 0 -0.38442983343225828 -0.32189177462067481 0 -0.40185461233875269 -0.30098256284660307 0 -0.40263324863316441 -0.32967896077653092 0 -0.38442983343225828 -0.32189177462067481 0 -0.40263324863316441 -0.32967896077653092 0 -0.40185461233875269 -0.30098256284660307 0 -0.40263324863316441 -0.32967896077653092 0 -0.41242695344044827 -0.31820451366256841 0 -0.40185461233875269 -0.30098256284660307 0 -0.41242695344044827 -0.31820451366256841 0 -0.41920998916455232 -0.33677027649670849 0 -0.42301959421646518 -0.31628833020920039 0 -0.41920998916455232 -0.33677027649670849 0 -0.42301959421646518 -0.31628833020920039 0 -0.41242695344044827 -0.31820451366256841 0 -0.42301959421646518 -0.31628833020920039 0 -0.41541732284930832 -0.30730243798379953 0 -0.40302160193259851 -0.3439916005776541 0 -0.41920998916455232 -0.33677027649670849 0 -0.41853876063601031 -0.34037906703560689 0 -0.40302160193259851 -0.3439916005776541 0 -0.40263324863316441 -0.32967896077653092 0 -0.41920998916455232 -0.33677027649670849 0 -0.40263324863316441 -0.32967896077653092 0 -0.41920998916455232 -0.33677027649670849 0 -0.40263324863316441 -0.32967896077653092 0 -0.41242695344044827 -0.31820451366256841 0 -0.41920998916455232 -0.33677027649670849 0 -0.40302160193259851 -0.3439916005776541 0 -0.41853876063601031 -0.34037906703560689 0 -0.41853876063601031 -0.34037906703560689 0 -0.42443636388738298 -0.3390060521705498 0 -0.41920998916455232 -0.33677027649670849 0 -0.42443636388738298 -0.3390060521705498 0 -0.41920998916455232 -0.33677027649670849 0 -0.41853876063601031 -0.34037906703560689 0 -0.42443636388738298 -0.3390060521705498 0 -0.41920998916455232 -0.33677027649670849 0 -0.41853876063601031 -0.34037906703560689 0 -0.43930980958642257 -0.33554338078202212 0 -0.44408457896710762 -0.34741130507322732 0 -0.42443636388738298 -0.3390060521705498 0 -0.43930980958642257 -0.33554338078202212 0 -0.42443636388738298 -0.3390060521705498 0 -0.42301959421646518 -0.31628833020920039 0 -0.41920998916455232 -0.33677027649670849 0 -0.42443636388738298 -0.3390060521705498 0 -0.42301959421646518 -0.31628833020920039 0 -0.44408457896710762 -0.34741130507322732 0 -0.42443636388738298 -0.3390060521705498 0 -0.42266042161335821 -0.34652378860874011 0 -0.41853876063601031 -0.34037906703560689 0 -0.42443636388738298 -0.3390060521705498 0 -0.43930980958642257 -0.33554338078202212 0 -0.42443636388738298 -0.3390060521705498 0 -0.43930980958642257 -0.33554338078202212 0 -0.42301959421646518 -0.31628833020920039 0 -0.44024276041750632 -0.31887045497680111 0 -0.42395130998641067 -0.31127905704434472 0 -0.44024276041750632 -0.31887045497680111 0 -0.43930980958642257 -0.33554338078202212 0 -0.42301959421646518 -0.31628833020920039 0 -0.44024276041750632 -0.31887045497680111 0 -0.42301959421646518 -0.31628833020920039 0 -0.42395130998641067 -0.31127905704434472 0 -0.42301959421646518 -0.31628833020920039 0 -0.42395130998641067 -0.31127905704434472 0 -0.42395130998641067 -0.31127905704434472 0 -0.42709180872781188 -0.29439449141065738 0 -0.44024276041750632 -0.31887045497680111 0 -0.42395130998641067 -0.31127905704434472 0 -0.43527018611072049 -0.30465000121327751 0 -0.42395130998641067 -0.31127905704434472 0 -0.42709180872781188 -0.29439449141065738 0 -0.41541732284930832 -0.30730243798379953 0 -0.42395130998641067 -0.31127905704434472 0 -0.43527018611072049 -0.30465000121327751 0 -0.42709180872781188 -0.29439449141065738 0 -0.441361257405879 -0.29303276451920029 0 -0.43527018611072049 -0.30465000121327751 0 -0.42709180872781188 -0.29439449141065738 0 -0.42709180872781188 -0.29439449141065738 0 -0.43077531442077321 -0.27459050524281542 0 -0.42709180872781188 -0.29439449141065738 0 -0.41684225135067149 -0.28376244362903152 0 -0.43077531442077321 -0.27459050524281542 0 -0.441361257405879 -0.29303276451920029 0 -0.42709180872781188 -0.29439449141065738 0 -0.441361257405879 -0.29303276451920029 0 -0.42709180872781188 -0.29439449141065738 0 -0.43077531442077321 -0.27459050524281542 0 -0.42709180872781188 -0.29439449141065738 0 -0.41684225135067149 -0.28376244362903152 0 -0.40618483967714292 -0.29638963380315841 0 -0.42709180872781188 -0.29439449141065738 0 -0.40618483967714292 -0.29638963380315841 0 -0.41684225135067149 -0.28376244362903152 0 -0.40690107601488551 -0.28490397733270861 0 -0.40618483967714292 -0.29638963380315841 0 -0.41541732284930832 -0.30730243798379953 0 -0.40185461233875269 -0.30098256284660307 0 -0.40618483967714292 -0.29638963380315841 0 -0.42709180872781188 -0.29439449141065738 0 -0.41541732284930832 -0.30730243798379953 0 -0.40618483967714292 -0.29638963380315841 0 -0.41541732284930832 -0.30730243798379953 0 -0.40618483967714292 -0.29638963380315841 0 -0.41242695344044827 -0.31820451366256841 0 -0.41541732284930832 -0.30730243798379953 0 -0.40185461233875269 -0.30098256284660307 0 -0.41541732284930832 -0.30730243798379953 0 -0.40185461233875269 -0.30098256284660307 0 -0.42301959421646518 -0.31628833020920039 0 -0.41541732284930832 -0.30730243798379953 0 -0.42395130998641067 -0.31127905704434472 0 -0.41541732284930832 -0.30730243798379953 0 -0.42301959421646518 -0.31628833020920039 0 -0.42395130998641067 -0.31127905704434472 0 -0.41541732284930832 -0.30730243798379953 0 -0.38442983343225828 -0.32189177462067481 0 -0.40185461233875269 -0.30098256284660307 0 -0.39448508010510541 -0.297525044214214 0 -0.40185461233875269 -0.30098256284660307 0 -0.40174149504185092 -0.29681366012781812 0 -0.40618483967714292 -0.29638963380315841 0 -0.40185461233875269 -0.30098256284660307 0 -0.40174149504185092 -0.29681366012781812 0 -0.40185461233875269 -0.30098256284660307 0 -0.39448508010510541 -0.297525044214214 0 -0.40174149504185092 -0.29681366012781812 0 -0.40185461233875269 -0.30098256284660307 0 -0.39448508010510541 -0.297525044214214 0 -0.39448508010510541 -0.297525044214214 0 -0.40174149504185092 -0.29681366012781812 0 -0.37641717267996733 -0.3184640617331177 0 -0.37669606201677502 -0.29920373422444158 0 -0.38442983343225828 -0.32189177462067481 0 -0.39448508010510541 -0.297525044214214 0 -0.38442983343225828 -0.32189177462067481 0 -0.39448508010510541 -0.297525044214214 0 -0.3841914044669909 -0.30132118344037401 0 -0.37641717267996733 -0.3184640617331177 0 -0.3841914044669909 -0.30132118344037401 0 -0.37669606201677502 -0.29920373422444158 0 -0.39448508010510541 -0.297525044214214 0 -0.3841914044669909 -0.30132118344037401 0 -0.37928718982873688 -0.29895646409505849 0 -0.39448508010510541 -0.297525044214214 0 -0.37928718982873688 -0.29895646409505849 0 -0.3841914044669909 -0.30132118344037401 0 -0.37928718982873688 -0.29895646409505849 0 -0.3841914044669909 -0.30132118344037401 0 -0.37928718982873688 -0.29895646409505849 0 -0.37669606201677502 -0.29920373422444158 0 -0.37928718982873688 -0.29895646409505849 0 -0.37669606201677502 -0.29920373422444158 0 -0.37671758341694961 -0.29771744858697219 0 -0.37928718982873688 -0.29895646409505849 0 -0.37671758341694961 -0.29771744858697219 0 -0.37928718982873688 -0.29895646409505849 0 -0.37669606201677502 -0.29920373422444158 0 -0.37669606201677502 -0.29920373422444158 0 -0.37671758341694961 -0.29771744858697219 0 -0.37671758341694961 -0.29771744858697219 0 -0.38607699004493318 -0.28757386461908069 0 -0.38483052758877101 -0.28123782127595193 0 -0.37671758341694961 -0.29771744858697219 0 -0.3770412393053626 -0.27536550612006683 0 -0.37671758341694961 -0.29771744858697219 0 -0.38483052758877101 -0.28123782127595193 0 -0.3770412393053626 -0.27536550612006683 0 -0.37928718982873688 -0.29895646409505849 0 -0.37671758341694961 -0.29771744858697219 0 -0.38467000758835601 -0.29297497791584359 0 -0.37671758341694961 -0.29771744858697219 0 -0.38467000758835601 -0.29297497791584359 0 -0.38607699004493318 -0.28757386461908069 0 -0.39448508010510541 -0.297525044214214 0 -0.37928718982873688 -0.29895646409505849 0 -0.38467000758835601 -0.29297497791584359 0 -0.39448508010510541 -0.297525044214214 0 -0.38467000758835601 -0.29297497791584359 0 -0.39448508010510541 -0.297525044214214 0 -0.38467000758835601 -0.29297497791584359 0 -0.39217701296355612 -0.28987936211692023 0 -0.38467000758835601 -0.29297497791584359 0 -0.38607699004493318 -0.28757386461908069 0 -0.39217701296355612 -0.28987936211692023 0 -0.38607699004493318 -0.28757386461908069 0 -0.39049541959166939 -0.28414526237041138 0 -0.39217701296355612 -0.28987936211692023 0 -0.39049541959166939 -0.28414526237041138 0 -0.39420405367365152 -0.27853706101481662 0 -0.38483052758877101 -0.28123782127595193 0 -0.38607699004493318 -0.28757386461908069 0 -0.39049541959166939 -0.28414526237041138 0 -0.38483052758877101 -0.28123782127595193 0 -0.39597078832761667 -0.28551153658085893 0 -0.40174149504185092 -0.29681366012781812 0 -0.40123596036735593 -0.27818233727432817 0 -0.39049541959166939 -0.28414526237041138 0 -0.39597078832761667 -0.28551153658085893 0 -0.39420405367365152 -0.27853706101481662 0 -0.40174149504185092 -0.29681366012781812 0 -0.40123596036735593 -0.27818233727432817 0 -0.40174149504185092 -0.29681366012781812 0 -0.40322207619149192 -0.29288764445213411 0 -0.40123596036735593 -0.27818233727432817 0 -0.39049541959166939 -0.28414526237041138 0 -0.39597078832761667 -0.28551153658085893 0 -0.39217701296355612 -0.28987936211692023 0 -0.39597078832761667 -0.28551153658085893 0 -0.39217701296355612 -0.28987936211692023 0 -0.40174149504185092 -0.29681366012781812 0 -0.39448508010510541 -0.297525044214214 0 -0.39217701296355612 -0.28987936211692023 0 -0.40174149504185092 -0.29681366012781812 0 -0.40690107601488551 -0.28490397733270861 0 -0.40322207619149192 -0.29288764445213411 0 -0.40618483967714292 -0.29638963380315841 0 -0.40174149504185092 -0.29681366012781812 0 -0.40322207619149192 -0.29288764445213411 0 -0.40618483967714292 -0.29638963380315841 0 -0.40174149504185092 -0.29681366012781812 0 -0.40618483967714292 -0.29638963380315841 0 -0.40322207619149192 -0.29288764445213411 0 -0.40618483967714292 -0.29638963380315841 0 -0.40690107601488551 -0.28490397733270861 0 -0.40322207619149192 -0.29288764445213411 0 -0.40123596036735593 -0.27818233727432817 0 -0.39420405367365152 -0.27853706101481662 0 -0.37710287173325818 -0.2711091198417086 0 -0.40073042569286338 -0.25955101442083811 0 -0.40123596036735593 -0.27818233727432817 0 -0.39420405367365152 -0.27853706101481662 0 -0.40073042569286338 -0.25955101442083811 0 -0.40123596036735593 -0.27818233727432817 0 -0.40073042569286338 -0.25955101442083811 0 -0.40123596036735593 -0.27818233727432817 0 -0.40073042569286338 -0.25955101442083811 0 -0.41341650638623911 -0.27076301679274262 0 -0.39597078832761667 -0.28551153658085893 0 -0.40123596036735593 -0.27818233727432817 0 -0.39420405367365152 -0.27853706101481662 0 -0.39420405367365152 -0.27853706101481662 0 -0.37710287173325818 -0.2711091198417086 0 -0.3770412393053626 -0.27536550612006683 0 -0.39420405367365152 -0.27853706101481662 0 -0.3770412393053626 -0.27536550612006683 0 -0.39420405367365152 -0.27853706101481662 0 -0.38483052758877101 -0.28123782127595193 0 -0.3770412393053626 -0.27536550612006683 0 -0.37710287173325818 -0.2711091198417086 0 -0.3770412393053626 -0.27536550612006683 0 -0.37710287173325818 -0.2711091198417086 0 -0.38543722149146659 -0.25821727905458303 0 -0.40073042569286338 -0.25955101442083811 0 -0.37710287173325818 -0.2711091198417086 0 -0.37747963509906429 -0.24508953120583671 0 -0.37710287173325818 -0.2711091198417086 0 -0.40073042569286338 -0.25955101442083811 0 -0.37710287173325818 -0.2711091198417086 0 -0.38543722149146659 -0.25821727905458303 0 -0.37747963509906429 -0.24508953120583671 0 -0.38543722149146659 -0.25821727905458303 0 -0.3938256931015453 -0.25037754026629511 0 -0.37747963509906429 -0.24508953120583671 0 -0.38543722149146659 -0.25821727905458303 0 -0.3938256931015453 -0.25037754026629511 0 -0.40073042569286338 -0.25955101442083811 0 -0.40073042569286338 -0.25955101442083811 0 -0.40282532782868952 -0.25224285689579767 0 -0.40022281387448849 -0.24084313907701979 0 -0.40073042569286338 -0.25955101442083811 0 -0.40022281387448849 -0.24084313907701979 0 -0.3938256931015453 -0.25037754026629511 0 -0.40073042569286338 -0.25955101442083811 0 -0.40022281387448849 -0.24084313907701979 0 -0.40073042569286338 -0.25955101442083811 0 -0.40282532782868952 -0.25224285689579767 0 -0.41385673751816382 -0.25312989710486528 0 -0.40073042569286338 -0.25955101442083811 0 -0.41385673751816382 -0.25312989710486528 0 -0.40073042569286338 -0.25955101442083811 0 -0.41385673751816382 -0.25312989710486528 0 -0.41341650638623911 -0.27076301679274262 0 -0.41385673751816382 -0.25312989710486528 0 -0.41341650638623911 -0.27076301679274262 0 -0.42312684460972783 -0.26331748455384929 0 -0.41385673751816382 -0.25312989710486528 0 -0.41679144862722167 -0.25169429778568547 0 -0.43445882011373449 -0.25478651907497341 0 -0.40282532782868952 -0.25224285689579767 0 -0.41385673751816382 -0.25312989710486528 0 -0.4086566941719203 -0.24778871483445111 0 -0.40282532782868952 -0.25224285689579767 0 -0.41385673751816382 -0.25312989710486528 0 -0.41385673751816382 -0.25312989710486528 0 -0.41679144862722167 -0.25169429778568547 0 -0.41627810448972868 -0.24641300060905449 0 -0.41385673751816382 -0.25312989710486528 0 -0.41679144862722167 -0.25169429778568547 0 -0.41684225135067149 -0.28376244362903152 0 -0.41341650638623911 -0.27076301679274262 0 -0.43077531442077321 -0.27459050524281542 0 -0.40690107601488551 -0.28490397733270861 0 -0.40123596036735593 -0.27818233727432817 0 -0.41341650638623911 -0.27076301679274262 0 -0.41684225135067149 -0.28376244362903152 0 -0.40690107601488551 -0.28490397733270861 0 -0.41341650638623911 -0.27076301679274262 0 -0.41341650638623911 -0.27076301679274262 0 -0.43077531442077321 -0.27459050524281542 0 -0.42312684460972783 -0.26331748455384929 0 -0.43077531442077321 -0.27459050524281542 0 -0.42312684460972783 -0.26331748455384929 0 -0.43445882011373449 -0.25478651907497341 0 -0.41385673751816382 -0.25312989710486528 0 -0.43445882011373449 -0.25478651907497341 0 -0.43077531442077321 -0.27459050524281542 0 -0.43445882011373449 -0.25478651907497341 0 -0.41385673751816382 -0.25312989710486528 0 -0.42312684460972783 -0.26331748455384929 0 -0.43445882011373449 -0.25478651907497341 0 -0.41679144862722167 -0.25169429778568547 0 -0.43445882011373449 -0.25478651907497341 0 -0.42335340856967768 -0.24893549408922019 0 -0.32580796388430833 -0.26195871891040218 0 -0.34139866608006603 -0.2687790352098644 0 -0.31202674084989918 -0.26335133138269068 0 -0.32580796388430833 -0.26195871891040218 0 -0.33345250408021371 -0.25331871279766999 0 -0.32023222063025569 -0.2489608815952247 0 -0.32580796388430833 -0.26195871891040218 0 -0.31664960680882542 -0.25714232151458272 0 -0.32023222063025569 -0.2489608815952247 0 -0.31664960680882542 -0.25714232151458272 0 -0.30853150187083839 -0.25429835417001312 0 -0.32023222063025569 -0.2489608815952247 0 -0.32580796388430833 -0.26195871891040218 0 -0.31664960680882542 -0.25714232151458272 0 -0.31202674084989918 -0.26335133138269068 0 -0.33223611708196649 -0.27626932861073827 0 -0.31972670239926188 -0.28454160199560091 0 -0.31187737399160442 -0.27618124236115132 0 -0.34139866608006603 -0.2687790352098644 0 -0.31202674084989918 -0.26335133138269068 0 -0.33223611708196649 -0.27626932861073827 0 -0.31202674084989918 -0.26335133138269068 0 -0.3062135479255173 -0.26372173898871692 0 -0.33223611708196649 -0.27626932861073827 0 -0.31187737399160442 -0.27618124236115132 0 -0.3062135479255173 -0.26372173898871692 0 -0.33260241140844943 -0.2743168067351805 0 -0.33223611708196649 -0.27626932861073827 0 -0.31202674084989918 -0.26335133138269068 0 -0.33223611708196649 -0.27626932861073827 0 -0.3062135479255173 -0.26372173898871692 0 -0.33260241140844943 -0.2743168067351805 0 -0.34139866608006603 -0.2687790352098644 0 -0.31202674084989918 -0.26335133138269068 0 -0.33223611708196649 -0.27626932861073827 0 -0.34139866608006603 -0.2687790352098644 0 -0.34951875912658742 -0.28460269103381453 0 -0.33223611708196649 -0.27626932861073827 0 -0.34951875912658742 -0.28460269103381453 0 -0.33260241140844943 -0.2743168067351805 0 -0.33223611708196649 -0.27626932861073827 0 -0.34139866608006603 -0.2687790352098644 0 -0.33260241140844943 -0.2743168067351805 0 -0.33223611708196649 -0.27626932861073827 0 -0.34139866608006603 -0.2687790352098644 0 -0.3363084638556994 -0.26041051377605268 0 -0.34457472137820933 -0.25758558818627408 0 -0.32580796388430833 -0.26195871891040218 0 -0.34139866608006603 -0.2687790352098644 0 -0.3363084638556994 -0.26041051377605268 0 -0.32580796388430833 -0.26195871891040218 0 -0.3363084638556994 -0.26041051377605268 0 -0.33345250408021371 -0.25331871279766999 0 -0.3363084638556994 -0.26041051377605268 0 -0.33345250408021371 -0.25331871279766999 0 -0.34457472137820933 -0.25758558818627408 0 -0.33345250408021371 -0.25331871279766999 0 -0.34457472137820933 -0.25758558818627408 0 -0.34395992200845399 -0.24382677409400949 0 -0.34139866608006603 -0.2687790352098644 0 -0.34457472137820933 -0.25758558818627408 0 -0.35733732661955131 -0.26288598862094092 0 -0.34457472137820933 -0.25758558818627408 0 -0.35872453044413888 -0.25078889886649508 0 -0.34395992200845399 -0.24382677409400949 0 -0.34457472137820933 -0.25758558818627408 0 -0.35733732661955131 -0.26288598862094092 0 -0.35872453044413888 -0.25078889886649508 0 -0.37710287173325818 -0.2711091198417086 0 -0.36828299104124951 -0.26081605551440462 0 -0.37747963509906429 -0.24508953120583671 0 -0.35872453044413888 -0.25078889886649508 0 -0.36828299104124951 -0.26081605551440462 0 -0.37747963509906429 -0.24508953120583671 0 -0.35733732661955131 -0.26288598862094092 0 -0.35872453044413888 -0.25078889886649508 0 -0.36828299104124951 -0.26081605551440462 0 -0.37077059131023282 -0.27420673903703829 0 -0.34951875912658742 -0.28460269103381453 0 -0.37710287173325818 -0.2711091198417086 0 -0.3770412393053626 -0.27536550612006683 0 -0.37077059131023282 -0.27420673903703829 0 -0.3770412393053626 -0.27536550612006683 0 -0.37077059131023282 -0.27420673903703829 0 -0.37710287173325818 -0.2711091198417086 0 -0.36828299104124951 -0.26081605551440462 0 -0.37077059131023282 -0.27420673903703829 0 -0.37710287173325818 -0.2711091198417086 0 -0.37077059131023282 -0.27420673903703829 0 -0.35733732661955131 -0.26288598862094092 0 -0.36828299104124951 -0.26081605551440462 0 -0.37077059131023282 -0.27420673903703829 0 -0.34139866608006603 -0.2687790352098644 0 -0.35733732661955131 -0.26288598862094092 0 -0.37077059131023282 -0.27420673903703829 0 -0.34139866608006603 -0.2687790352098644 0 -0.37077059131023282 -0.27420673903703829 0 -0.34951875912658742 -0.28460269103381453 0 -0.34139866608006603 -0.2687790352098644 0 -0.37077059131023282 -0.27420673903703829 0 -0.34951875912658742 -0.28460269103381453 0 -0.3581763596052473 -0.30097106086504849 0 -0.34010739644885768 -0.2892065328944351 0 -0.34951875912658742 -0.28460269103381453 0 -0.34010739644885768 -0.2892065328944351 0 -0.37671758341694961 -0.29771744858697219 0 -0.37077059131023282 -0.27420673903703829 0 -0.34951875912658742 -0.28460269103381453 0 -0.37671758341694961 -0.29771744858697219 0 -0.34951875912658742 -0.28460269103381453 0 -0.37671758341694961 -0.29771744858697219 0 -0.3770412393053626 -0.27536550612006683 0 -0.37077059131023282 -0.27420673903703829 0 -0.37671758341694961 -0.29771744858697219 0 -0.34951875912658742 -0.28460269103381453 0 -0.3581763596052473 -0.30097106086504849 0 -0.37669606201677502 -0.29920373422444158 0 -0.37671758341694961 -0.29771744858697219 0 -0.3581763596052473 -0.30097106086504849 0 -0.37641717267996733 -0.3184640617331177 0 -0.37669606201677502 -0.29920373422444158 0 -0.36799370156123501 -0.30592930732763762 0 -0.37641717267996733 -0.3184640617331177 0 -0.36799370156123501 -0.30592930732763762 0 -0.35803691493684492 -0.31060122461938489 0 -0.37669606201677502 -0.29920373422444158 0 -0.36799370156123501 -0.30592930732763762 0 -0.3581763596052473 -0.30097106086504849 0 -0.37669606201677502 -0.29920373422444158 0 -0.3581763596052473 -0.30097106086504849 0 -0.36799370156123501 -0.30592930732763762 0 -0.35803691493684492 -0.31060122461938489 0 -0.3581763596052473 -0.30097106086504849 0 -0.35803691493684492 -0.31060122461938489 0 -0.33965665719371979 -0.30273838750565862 0 -0.35803691493684492 -0.31060122461938489 0 -0.33965665719371979 -0.30273838750565862 0 -0.34514704515453298 -0.31300544250539297 0 -0.3581763596052473 -0.30097106086504849 0 -0.33965665719371979 -0.30273838750565862 0 -0.34010739644885768 -0.2892065328944351 0 -0.35803691493684492 -0.31060122461938489 0 -0.3581763596052473 -0.30097106086504849 0 -0.33965665719371979 -0.30273838750565862 0 -0.3581763596052473 -0.30097106086504849 0 -0.33965665719371979 -0.30273838750565862 0 -0.33676996251121621 -0.31158184422573892 0 -0.33965665719371979 -0.30273838750565862 0 -0.34514704515453298 -0.31300544250539297 0 -0.33676996251121621 -0.31158184422573892 0 -0.33965665719371979 -0.30273838750565862 0 -0.32704471803945162 -0.30394193902942662 0 -0.33676996251121621 -0.31158184422573892 0 -0.32594772137393307 -0.30978944971135602 0 -0.32704471803945162 -0.30394193902942662 0 -0.33965665719371979 -0.30273838750565862 0 -0.32704471803945162 -0.30394193902942662 0 -0.32819068517220462 -0.29783339261299951 0 -0.33965665719371979 -0.30273838750565862 0 -0.32704471803945162 -0.30394193902942662 0 -0.32819068517220462 -0.29783339261299951 0 -0.33965665719371979 -0.30273838750565862 0 -0.33223611708196649 -0.27626932861073827 0 -0.32819068517220462 -0.29783339261299951 0 -0.33223611708196649 -0.27626932861073827 0 -0.32819068517220462 -0.29783339261299951 0 -0.34010739644885768 -0.2892065328944351 0 -0.33223611708196649 -0.27626932861073827 0 -0.34951875912658742 -0.28460269103381453 0 -0.34010739644885768 -0.2892065328944351 0 -0.32819068517220462 -0.29783339261299951 0 -0.33965665719371979 -0.30273838750565862 0 -0.34010739644885768 -0.2892065328944351 0 -0.32819068517220462 -0.29783339261299951 0 -0.31972670239926188 -0.28454160199560091 0 -0.31332574866090718 -0.291474364566292 0 -0.32819068517220462 -0.29783339261299951 0 -0.31332574866090718 -0.291474364566292 0 -0.33223611708196649 -0.27626932861073827 0 -0.32819068517220462 -0.29783339261299951 0 -0.31972670239926188 -0.28454160199560091 0 -0.31972670239926188 -0.28454160199560091 0 -0.31332574866090718 -0.291474364566292 0 -0.30937392239009109 -0.28339120160471948 0 -0.31972670239926188 -0.28454160199560091 0 -0.30937392239009109 -0.28339120160471948 0 -0.31187737399160442 -0.27618124236115132 0 -0.31992409361072222 -0.30462145692723192 0 -0.32594772137393307 -0.30978944971135602 0 -0.31307430431717392 -0.31869978567557272 0 -0.31992409361072222 -0.30462145692723192 0 -0.32594772137393307 -0.30978944971135602 0 -0.32594772137393307 -0.30978944971135602 0 -0.32704471803945162 -0.30394193902942662 0 -0.31992409361072222 -0.30462145692723192 0 -0.32594772137393307 -0.30978944971135602 0 -0.32704471803945162 -0.30394193902942662 0 -0.32819068517220462 -0.29783339261299951 0 -0.31332574866090718 -0.291474364566292 0 -0.31992409361072222 -0.30462145692723192 0 -0.32819068517220462 -0.29783339261299951 0 -0.32704471803945162 -0.30394193902942662 0 -0.32819068517220462 -0.29783339261299951 0 -0.31992409361072222 -0.30462145692723192 0 -0.32704471803945162 -0.30394193902942662 0 -0.31992409361072222 -0.30462145692723192 0 -0.32704471803945162 -0.30394193902942662 0 -0.32594772137393307 -0.30978944971135602 0 -0.31307430431717392 -0.31869978567557272 0 -0.32184288384298337 -0.33167017375041419 0 -0.32594772137393307 -0.30978944971135602 0 -0.32184288384298337 -0.33167017375041419 0 -0.32184288384298337 -0.33167017375041419 0 -0.31773804631203251 -0.35355089778947202 0 -0.32184288384298337 -0.33167017375041419 0 -0.34475024534571441 -0.34586667392980902 0 -0.31773804631203251 -0.35355089778947202 0 -0.32184288384298337 -0.33167017375041419 0 -0.34612464597635118 -0.32710031367078812 0 -0.34475024534571441 -0.34586667392980902 0 -0.33676996251121621 -0.31158184422573892 0 -0.32594772137393307 -0.30978944971135602 0 -0.34612464597635118 -0.32710031367078812 0 -0.32594772137393307 -0.30978944971135602 0 -0.34612464597635118 -0.32710031367078812 0 -0.32594772137393307 -0.30978944971135602 0 -0.32184288384298337 -0.33167017375041419 0 -0.34612464597635118 -0.32710031367078812 0 -0.33676996251121621 -0.31158184422573892 0 -0.34514704515453298 -0.31300544250539297 0 -0.34612464597635118 -0.32710031367078812 0 -0.35803691493684492 -0.31060122461938489 0 -0.34514704515453298 -0.31300544250539297 0 -0.34612464597635118 -0.32710031367078812 0 -0.35803691493684492 -0.31060122461938489 0 -0.34612464597635118 -0.32710031367078812 0 -0.35600230731325749 -0.33324145173106873 0 -0.37641717267996733 -0.3184640617331177 0 -0.35803691493684492 -0.31060122461938489 0 -0.37641717267996733 -0.3184640617331177 0 -0.35803691493684492 -0.31060122461938489 0 -0.36719759625642318 -0.33008752154143739 0 -0.35803691493684492 -0.31060122461938489 0 -0.36719759625642318 -0.33008752154143739 0 -0.35600230731325749 -0.33324145173106873 0 -0.37607676276689278 -0.3419730509543204 0 -0.37641717267996733 -0.3184640617331177 0 -0.36719759625642318 -0.33008752154143739 0 -0.37607676276689278 -0.3419730509543204 0 -0.3688763256213185 -0.34309961767568647 0 -0.36719759625642318 -0.33008752154143739 0 -0.36719759625642318 -0.33008752154143739 0 -0.36118874601324108 -0.3436521492952741 0 -0.35600230731325749 -0.33324145173106873 0 -0.3688763256213185 -0.34309961767568647 0 -0.36719759625642318 -0.33008752154143739 0 -0.36118874601324108 -0.3436521492952741 0 -0.34612464597635118 -0.32710031367078812 0 -0.35600230731325749 -0.33324145173106873 0 -0.34475024534571441 -0.34586667392980902 0 -0.36118874601324108 -0.3436521492952741 0 -0.35600230731325749 -0.33324145173106873 0 -0.34475024534571441 -0.34586667392980902 0 -0.36118874601324108 -0.3436521492952741 0 -0.34475024534571441 -0.34586667392980902 0 -0.35925477447714671 -0.35134479444962452 0 -0.34475024534571441 -0.34586667392980902 0 -0.35480891830463612 -0.3592101017575729 0 -0.33937201587241012 -0.36587749477948078 0 -0.34475024534571441 -0.34586667392980902 0 -0.35480891830463612 -0.3592101017575729 0 -0.35925477447714671 -0.35134479444962452 0 -0.36118874601324108 -0.3436521492952741 0 -0.37225797237559449 -0.35115364910559932 0 -0.36118874601324108 -0.3436521492952741 0 -0.35925477447714671 -0.35134479444962452 0 -0.36985982957495511 -0.35171195823109852 0 -0.37568304780698558 -0.36916333065311507 0 -0.37593298752455201 -0.35190228771479481 0 -0.37225797237559449 -0.35115364910559932 0 -0.35480891830463612 -0.3592101017575729 0 -0.35925477447714671 -0.35134479444962452 0 -0.36985982957495511 -0.35171195823109852 0 -0.37607676276689278 -0.3419730509543204 0 -0.3688763256213185 -0.34309961767568647 0 -0.37225797237559449 -0.35115364910559932 0 -0.37607676276689278 -0.3419730509543204 0 -0.37225797237559449 -0.35115364910559932 0 -0.37607676276689278 -0.3419730509543204 0 -0.37390838074359528 -0.35076941925389299 0 -0.37225797237559449 -0.35115364910559932 0 -0.37593298752455201 -0.35190228771479481 0 -0.37390838074359528 -0.35076941925389299 0 -0.37225797237559449 -0.35115364910559932 0 -0.3688763256213185 -0.34309961767568647 0 -0.36118874601324108 -0.3436521492952741 0 -0.37225797237559449 -0.35115364910559932 0 -0.37593298752455201 -0.35190228771479481 0 -0.37390838074359528 -0.35076941925389299 0 -0.36118874601324108 -0.3436521492952741 0 -0.36985982957495511 -0.35171195823109852 0 -0.37225797237559449 -0.35115364910559932 0 -0.37595629511297179 -0.35029264644438168 0 -0.37390838074359528 -0.35076941925389299 0 -0.37390838074359528 -0.35076941925389299 0 -0.37225797237559449 -0.35115364910559932 0 -0.36985982957495511 -0.35171195823109852 0 -0.37225797237559449 -0.35115364910559932 0 -0.37568304780698558 -0.36916333065311507 0 -0.37225797237559449 -0.35115364910559932 0 -0.36100598543278789 -0.37820409176948921 0 -0.35480891830463612 -0.3592101017575729 0 -0.36985982957495511 -0.35171195823109852 0 -0.36100598543278789 -0.37820409176948921 0 -0.36985982957495511 -0.35171195823109852 0 -0.37225797237559449 -0.35115364910559932 0 -0.36100598543278789 -0.37820409176948921 0 -0.37225797237559449 -0.35115364910559932 0 -0.36100598543278789 -0.37820409176948921 0 -0.33937201587241012 -0.36587749477948078 0 -0.36100598543278789 -0.37820409176948921 0 -0.35480891830463612 -0.3592101017575729 0 -0.33937201587241012 -0.36587749477948078 0 -0.36100598543278789 -0.37820409176948921 0 -0.33937201587241012 -0.36587749477948078 0 -0.31773804631203251 -0.35355089778947202 0 -0.33937201587241012 -0.36587749477948078 0 -0.31773804631203251 -0.35355089778947202 0 -0.32803705280137402 -0.37447550275240871 0 -0.34475024534571441 -0.34586667392980902 0 -0.33937201587241012 -0.36587749477948078 0 -0.31773804631203251 -0.35355089778947202 0 -0.31773804631203251 -0.35355089778947202 0 -0.31381007312398762 -0.37448885129246268 0 -0.31773804631203251 -0.35355089778947202 0 -0.31381007312398762 -0.37448885129246268 0 -0.32803705280137402 -0.37447550275240871 0 -0.31381007312398762 -0.37448885129246268 0 -0.29871455833571747 -0.36148408621311728 0 -0.29196992941862432 -0.3825632544476108 0 -0.31773804631203251 -0.35355089778947202 0 -0.31381007312398762 -0.37448885129246268 0 -0.29871455833571747 -0.36148408621311728 0 -0.31773804631203251 -0.35355089778947202 0 -0.29871455833571747 -0.36148408621311728 0 -0.29282778547957722 -0.33935753649529382 0 -0.31773804631203251 -0.35355089778947202 0 -0.29282778547957722 -0.33935753649529382 0 -0.29871455833571747 -0.36148408621311728 0 -0.27675503022224163 -0.36681377825091099 0 -0.29282778547957722 -0.33935753649529382 0 -0.29871455833571747 -0.36148408621311728 0 -0.27675503022224163 -0.36681377825091099 0 -0.29196992941862432 -0.3825632544476108 0 -0.27675503022224163 -0.36681377825091099 0 -0.25757508569408222 -0.36424633604315798 0 -0.26546808025963542 -0.34847395767735678 0 -0.27675503022224163 -0.36681377825091099 0 -0.25757508569408222 -0.36424633604315798 0 -0.25812358553267323 -0.37605355791306738 0 -0.25757508569408222 -0.36424633604315798 0 -0.24839247009954951 -0.37292447016044328 0 -0.24532753696728959 -0.36501789644951049 0 -0.25757508569408222 -0.36424633604315798 0 -0.25812358553267323 -0.37605355791306738 0 -0.24839247009954951 -0.37292447016044328 0 -0.25757508569408222 -0.36424633604315798 0 -0.26546808025963542 -0.34847395767735678 0 -0.24650166737573331 -0.3569693529562265 0 -0.26546808025963542 -0.34847395767735678 0 -0.24650166737573331 -0.3569693529562265 0 -0.24881121389389799 -0.33838995723746451 0 -0.27675503022224163 -0.36681377825091099 0 -0.26546808025963542 -0.34847395767735678 0 -0.29282778547957722 -0.33935753649529382 0 -0.26791752464712137 -0.32516417520111718 0 -0.27544300416693679 -0.31995488319631832 0 -0.29282778547957722 -0.33935753649529382 0 -0.26546808025963542 -0.34847395767735678 0 -0.26791752464712137 -0.32516417520111718 0 -0.29282778547957722 -0.33935753649529382 0 -0.26791752464712137 -0.32516417520111718 0 -0.29282778547957722 -0.33935753649529382 0 -0.26791752464712137 -0.32516417520111718 0 -0.24881121389389799 -0.33838995723746451 0 -0.26546808025963542 -0.34847395767735678 0 -0.26791752464712137 -0.32516417520111718 0 -0.24881121389389799 -0.33838995723746451 0 -0.26791752464712137 -0.32516417520111718 0 -0.24881121389389799 -0.33838995723746451 0 -0.2441082332202735 -0.32380704628422963 0 -0.26791752464712137 -0.32516417520111718 0 -0.2444966906846206 -0.31181945912301329 0 -0.26791752464712137 -0.32516417520111718 0 -0.26963915832665503 -0.30942012505775762 0 -0.2444966906846206 -0.31181945912301329 0 -0.26791752464712137 -0.32516417520111718 0 -0.2441082332202735 -0.32380704628422963 0 -0.2444966906846206 -0.31181945912301329 0 -0.26791752464712137 -0.32516417520111718 0 -0.27544300416693679 -0.31995488319631832 0 -0.26963915832665503 -0.30942012505775762 0 -0.26791752464712137 -0.32516417520111718 0 -0.27544300416693679 -0.31995488319631832 0 -0.27544300416693679 -0.31995488319631832 0 -0.29403167998309421 -0.32125824908992018 0 -0.29478162596868879 -0.30702079099249591 0 -0.27544300416693679 -0.31995488319631832 0 -0.29403167998309421 -0.32125824908992018 0 -0.29282778547957722 -0.33935753649529382 0 -0.31307430431717392 -0.31869978567557272 0 -0.32184288384298337 -0.33167017375041419 0 -0.29282778547957722 -0.33935753649529382 0 -0.32184288384298337 -0.33167017375041419 0 -0.31773804631203251 -0.35355089778947202 0 -0.29282778547957722 -0.33935753649529382 0 -0.31307430431717392 -0.31869978567557272 0 -0.29403167998309421 -0.32125824908992018 0 -0.29282778547957722 -0.33935753649529382 0 -0.31307430431717392 -0.31869978567557272 0 -0.29403167998309421 -0.32125824908992018 0 -0.29478162596868879 -0.30702079099249591 0 -0.31992409361072222 -0.30462145692723192 0 -0.29478162596868879 -0.30702079099249591 0 -0.31992409361072222 -0.30462145692723192 0 -0.31307430431717392 -0.31869978567557272 0 -0.29478162596868879 -0.30702079099249591 0 -0.31992409361072222 -0.30462145692723192 0 -0.30687808727867438 -0.29770175581860719 0 -0.29478162596868879 -0.30702079099249591 0 -0.30687808727867438 -0.29770175581860719 0 -0.29813438661480679 -0.29530641477552327 0 -0.29478162596868879 -0.30702079099249591 0 -0.31992409361072222 -0.30462145692723192 0 -0.2984608121496099 -0.28511533651958437 0 -0.31992409361072222 -0.30462145692723192 0 -0.30687808727867438 -0.29770175581860719 0 -0.2984608121496099 -0.28511533651958437 0 -0.31332574866090718 -0.291474364566292 0 -0.31992409361072222 -0.30462145692723192 0 -0.2984608121496099 -0.28511533651958437 0 -0.31332574866090718 -0.291474364566292 0 -0.30937392239009109 -0.28339120160471948 0 -0.2984608121496099 -0.28511533651958437 0 -0.31332574866090718 -0.291474364566292 0 -0.2984608121496099 -0.28511533651958437 0 -0.30937392239009109 -0.28339120160471948 0 -0.2984608121496099 -0.28511533651958437 0 -0.30347897474907187 -0.279643462580969 0 -0.30687808727867438 -0.29770175581860719 0 -0.29951482580247829 -0.29240083595456018 0 -0.29813438661480679 -0.29530641477552327 0 -0.30687808727867438 -0.29770175581860719 0 -0.2984608121496099 -0.28511533651958437 0 -0.29951482580247829 -0.29240083595456018 0 -0.29951482580247829 -0.29240083595456018 0 -0.29813438661480679 -0.29530641477552327 0 -0.29499124589990039 -0.29073588210889412 0 -0.2984608121496099 -0.28511533651958437 0 -0.29951482580247829 -0.29240083595456018 0 -0.29499124589990039 -0.29073588210889412 0 -0.29499124589990039 -0.29073588210889412 0 -0.29148170063899659 -0.29460773718781319 0 -0.28586576089235322 -0.28577101837165192 0 -0.29813438661480679 -0.29530641477552327 0 -0.29499124589990039 -0.29073588210889412 0 -0.29148170063899659 -0.29460773718781319 0 -0.2984608121496099 -0.28511533651958437 0 -0.29499124589990039 -0.29073588210889412 0 -0.28586576089235322 -0.28577101837165192 0 -0.29148170063899659 -0.29460773718781319 0 -0.28586576089235322 -0.28577101837165192 0 -0.2798353156189245 -0.29508903771003908 0 -0.29148170063899659 -0.29460773718781319 0 -0.29478162596868879 -0.30702079099249591 0 -0.2798353156189245 -0.29508903771003908 0 -0.29478162596868879 -0.30702079099249591 0 -0.26963915832665503 -0.30942012505775762 0 -0.2798353156189245 -0.29508903771003908 0 -0.29478162596868879 -0.30702079099249591 0 -0.26963915832665503 -0.30942012505775762 0 -0.29813438661480679 -0.29530641477552327 0 -0.29148170063899659 -0.29460773718781319 0 -0.29478162596868879 -0.30702079099249591 0 -0.27544300416693679 -0.31995488319631832 0 -0.29478162596868879 -0.30702079099249591 0 -0.26963915832665503 -0.30942012505775762 0 -0.26963915832665503 -0.30942012505775762 0 -0.26057201890547982 -0.29344093798311832 0 -0.2798353156189245 -0.29508903771003908 0 -0.26963915832665503 -0.30942012505775762 0 -0.2444966906846206 -0.31181945912301329 0 -0.26963915832665503 -0.30942012505775762 0 -0.26057201890547982 -0.29344093798311832 0 -0.2444966906846206 -0.31181945912301329 0 -0.26057201890547982 -0.29344093798311832 0 -0.27108878797196961 -0.28331686931735522 0 -0.25298377122075039 -0.27518622721876451 0 -0.26057201890547982 -0.29344093798311832 0 -0.25298377122075039 -0.27518622721876451 0 -0.2435111179254994 -0.29490773243705071 0 -0.26057201890547982 -0.29344093798311832 0 -0.27108878797196961 -0.28331686931735522 0 -0.2798353156189245 -0.29508903771003908 0 -0.28586576089235322 -0.28577101837165192 0 -0.27108878797196961 -0.28331686931735522 0 -0.2798353156189245 -0.29508903771003908 0 -0.27108878797196961 -0.28331686931735522 0 -0.27618707322233982 -0.26709712530320262 0 -0.25298377122075039 -0.27518622721876451 0 -0.28586576089235322 -0.28577101837165192 0 -0.27108878797196961 -0.28331686931735522 0 -0.27618707322233982 -0.26709712530320262 0 -0.27618707322233982 -0.26709712530320262 0 -0.25431856302814809 -0.24833495949118861 0 -0.27618707322233982 -0.26709712530320262 0 -0.25298377122075039 -0.27518622721876451 0 -0.25431856302814809 -0.24833495949118861 0 -0.27618707322233982 -0.26709712530320262 0 -0.27309361240676189 -0.24179026653703889 0 -0.25431856302814809 -0.24833495949118861 0 -0.27618707322233982 -0.26709712530320262 0 -0.2907170577323625 -0.25177677077710309 0 -0.27309361240676189 -0.24179026653703889 0 -0.27618707322233982 -0.26709712530320262 0 -0.2907170577323625 -0.25177677077710309 0 -0.29477899871119112 -0.26293378760569941 0 -0.2984608121496099 -0.28511533651958437 0 -0.28586576089235322 -0.28577101837165192 0 -0.27618707322233982 -0.26709712530320262 0 -0.2984608121496099 -0.28511533651958437 0 -0.27618707322233982 -0.26709712530320262 0 -0.27618707322233982 -0.26709712530320262 0 -0.29477899871119112 -0.26293378760569941 0 -0.29948479845841441 -0.27338487519771032 0 -0.2984608121496099 -0.28511533651958437 0 -0.27618707322233982 -0.26709712530320262 0 -0.29948479845841441 -0.27338487519771032 0 -0.29477899871119112 -0.26293378760569941 0 -0.29948479845841441 -0.27338487519771032 0 -0.30156079933714469 -0.26765617134954151 0 -0.30156079933714469 -0.26765617134954151 0 -0.30403476516136241 -0.27459464834518948 0 -0.30588444940973558 -0.27063474712059482 0 -0.29948479845841441 -0.27338487519771032 0 -0.30156079933714469 -0.26765617134954151 0 -0.30403476516136241 -0.27459464834518948 0 -0.30156079933714469 -0.26765617134954151 0 -0.30588444940973558 -0.27063474712059482 0 -0.3062135479255173 -0.26372173898871692 0 -0.2984608121496099 -0.28511533651958437 0 -0.29948479845841441 -0.27338487519771032 0 -0.30347897474907187 -0.279643462580969 0 -0.29948479845841441 -0.27338487519771032 0 -0.30403476516136241 -0.27459464834518948 0 -0.30347897474907187 -0.279643462580969 0 -0.30937392239009109 -0.28339120160471948 0 -0.30347897474907187 -0.279643462580969 0 -0.31187737399160442 -0.27618124236115132 0 -0.30403476516136241 -0.27459464834518948 0 -0.30347897474907187 -0.279643462580969 0 -0.31187737399160442 -0.27618124236115132 0 -0.30403476516136241 -0.27459464834518948 0 -0.31187737399160442 -0.27618124236115132 0 -0.30588444940973558 -0.27063474712059482 0 -0.31187737399160442 -0.27618124236115132 0 -0.30588444940973558 -0.27063474712059482 0 -0.3062135479255173 -0.26372173898871692 0 -0.31664960680882542 -0.25714232151458272 0 -0.31202674084989918 -0.26335133138269068 0 -0.30853150187083839 -0.25429835417001312 0 -0.2907170577323625 -0.25177677077710309 0 -0.29477899871119112 -0.26293378760569941 0 -0.30853150187083839 -0.25429835417001312 0 -0.31202674084989918 -0.26335133138269068 0 -0.3062135479255173 -0.26372173898871692 0 -0.30853150187083839 -0.25429835417001312 0 -0.29477899871119112 -0.26293378760569941 0 -0.30156079933714469 -0.26765617134954151 0 -0.3062135479255173 -0.26372173898871692 0 -0.29477899871119112 -0.26293378760569941 0 -0.3062135479255173 -0.26372173898871692 0 -0.30853150187083839 -0.25429835417001312 0 -0.33709504481289931 -0.46474263175187808 0 -0.33075086723682939 -0.45093918684289991 0 -0.35302422329502631 -0.44785824460859458 0 -0.33709504481289931 -0.46474263175187808 0 -0.33075086723682939 -0.45093918684289991 0 -0.32054712240525829 -0.47546959342145068 0 -0.33075086723682939 -0.45093918684289991 0 -0.34095461206840061 -0.42640878026434909 0 -0.33075086723682939 -0.45093918684289991 0 -0.35302422329502631 -0.44785824460859458 0 -0.34095461206840061 -0.42640878026434909 0 -0.33075086723682939 -0.45093918684289991 0 -0.32054706720266329 -0.44859283512714471 0 -0.3206124180200437 -0.43193612962395289 0 -0.33075086723682939 -0.45093918684289991 0 -0.32054706720266329 -0.44859283512714471 0 -0.31571728338184601 -0.45752087103574601 0 -0.32054706720266329 -0.44859283512714471 0 -0.31571728338184601 -0.45752087103574601 0 -0.30706080135445341 -0.45057148265483188 0 -0.33075086723682939 -0.45093918684289991 0 -0.32054712240525829 -0.47546959342145068 0 -0.33075086723682939 -0.45093918684289991 0 -0.31571728338184601 -0.45752087103574601 0 -0.32054712240525829 -0.47546959342145068 0 -0.32054712240525829 -0.47546959342145068 0 -0.32750579650535672 -0.48798687004089669 0 -0.32933965142182292 -0.47777380670114528 0 -0.32054712240525829 -0.47546959342145068 0 -0.31034337757368669 -0.50000000000000133 0 -0.32750579650535672 -0.48798687004089669 0 -0.33387795429423722 -0.5 0 -0.31034337757368669 -0.50000000000000133 0 -0.32054712240525829 -0.47546959342145068 0 -0.32750579650535672 -0.48798687004089669 0 -0.31034337757368669 -0.50000000000000133 0 -0.32750579650535672 -0.48798687004089669 0 -0.34342087683177741 -0.48669095008188618 0 -0.33387795429423722 -0.5 0 -0.33709504481289931 -0.46474263175187808 0 -0.32933965142182292 -0.47777380670114528 0 -0.35181335970555933 -0.47167232718529989 0 -0.34342087683177741 -0.48669095008188618 0 -0.32933965142182292 -0.47777380670114528 0 -0.35181335970555933 -0.47167232718529989 0 -0.32750579650535672 -0.48798687004089669 0 -0.34342087683177741 -0.48669095008188618 0 -0.32933965142182292 -0.47777380670114528 0 -0.33709504481289931 -0.46474263175187808 0 -0.32054712240525829 -0.47546959342145068 0 -0.32933965142182292 -0.47777380670114528 0 -0.32933965142182292 -0.47777380670114528 0 -0.35181335970555933 -0.47167232718529989 0 -0.34342087683177741 -0.48669095008188618 0 -0.35181335970555933 -0.47167232718529989 0 -0.35979455825166368 -0.48519290092039941 0 -0.34342087683177741 -0.48669095008188618 0 -0.35741253101478748 -0.5 0 -0.35979455825166368 -0.48519290092039941 0 -0.34342087683177741 -0.48669095008188618 0 -0.33387795429423722 -0.5 0 -0.35741253101478748 -0.5 0 -0.38094710773533791 -0.49999999999999839 0 -0.35741253101478748 -0.5 0 -0.37240076261097882 -0.48974555046165519 0 -0.35741253101478748 -0.5 0 -0.35979455825166368 -0.48519290092039941 0 -0.37240076261097882 -0.48974555046165519 0 -0.35181335970555933 -0.47167232718529989 0 -0.35979455825166368 -0.48519290092039941 0 -0.37411677223754131 -0.47733161267270968 0 -0.35181335970555933 -0.47167232718529989 0 -0.37411677223754131 -0.47733161267270968 0 -0.37428706798929601 -0.46557084766945539 0 -0.35979455825166368 -0.48519290092039941 0 -0.37240076261097882 -0.48974555046165519 0 -0.37411677223754131 -0.47733161267270968 0 -0.37411677223754131 -0.47733161267270968 0 -0.37428706798929601 -0.46557084766945539 0 -0.35181335970555933 -0.47167232718529989 0 -0.37428706798929601 -0.46557084766945539 0 -0.35302422329502631 -0.44785824460859458 0 -0.35181335970555933 -0.47167232718529989 0 -0.37428706798929601 -0.46557084766945539 0 -0.33709504481289931 -0.46474263175187808 0 -0.35181335970555933 -0.47167232718529989 0 -0.35302422329502631 -0.44785824460859458 0 -0.37428706798929601 -0.46557084766945539 0 -0.35302422329502631 -0.44785824460859458 0 -0.37472313619600889 -0.43545561783144832 0 -0.37428706798929601 -0.46557084766945539 0 -0.37472313619600889 -0.43545561783144832 0 -0.35302422329502631 -0.44785824460859458 0 -0.37472313619600889 -0.43545561783144832 0 -0.36076670325611282 -0.42019275678090617 0 -0.37515920440272033 -0.40534038799344108 0 -0.37472313619600889 -0.43545561783144832 0 -0.36076670325611282 -0.42019275678090617 0 -0.37515920440272033 -0.40534038799344108 0 -0.36076670325611282 -0.42019275678090617 0 -0.35115835689997099 -0.40187837368579798 0 -0.37515920440272033 -0.40534038799344108 0 -0.37472313619600889 -0.43545561783144832 0 -0.36076670325611282 -0.42019275678090617 0 -0.35115835689997099 -0.40187837368579798 0 -0.34095461206840061 -0.42640878026434909 0 -0.34815033243380111 -0.40144447968524521 0 -0.35115835689997099 -0.40187837368579798 0 -0.34095461206840061 -0.42640878026434909 0 -0.35115835689997099 -0.40187837368579798 0 -0.34095461206840061 -0.42640878026434909 0 -0.35302422329502631 -0.44785824460859458 0 -0.36076670325611282 -0.42019275678090617 0 -0.34095461206840061 -0.42640878026434909 0 -0.37543310808941849 -0.38642437359143528 0 -0.36100598543278789 -0.37820409176948921 0 -0.35115835689997099 -0.40187837368579798 0 -0.37543310808941849 -0.38642437359143528 0 -0.37568304780698558 -0.36916333065311507 0 -0.36100598543278789 -0.37820409176948921 0 -0.37543310808941849 -0.38642437359143528 0 -0.36100598543278789 -0.37820409176948921 0 -0.37515920440272033 -0.40534038799344108 0 -0.37543310808941849 -0.38642437359143528 0 -0.35115835689997099 -0.40187837368579798 0 -0.37515920440272033 -0.40534038799344108 0 -0.35115835689997099 -0.40187837368579798 0 -0.35115835689997099 -0.40187837368579798 0 -0.34646966066369161 -0.38533898881774881 0 -0.34316085436749 -0.39382471367395527 0 -0.34815033243380111 -0.40144447968524521 0 -0.35115835689997099 -0.40187837368579798 0 -0.34316085436749 -0.39382471367395527 0 -0.34815033243380111 -0.40144447968524521 0 -0.35115835689997099 -0.40187837368579798 0 -0.33937201587241012 -0.36587749477948078 0 -0.36100598543278789 -0.37820409176948921 0 -0.34646966066369161 -0.38533898881774881 0 -0.36100598543278789 -0.37820409176948921 0 -0.35115835689997099 -0.40187837368579798 0 -0.36100598543278789 -0.37820409176948921 0 -0.35115835689997099 -0.40187837368579798 0 -0.34646966066369161 -0.38533898881774881 0 -0.33937201587241012 -0.36587749477948078 0 -0.32803705280137402 -0.37447550275240871 0 -0.34646966066369161 -0.38533898881774881 0 -0.32803705280137402 -0.37447550275240871 0 -0.34646966066369161 -0.38533898881774881 0 -0.32931529664348408 -0.38869437358142001 0 -0.34646966066369161 -0.38533898881774881 0 -0.32931529664348408 -0.38869437358142001 0 -0.34316085436749 -0.39382471367395527 0 -0.34815033243380111 -0.40144447968524521 0 -0.33486919938690762 -0.39884665705885908 0 -0.32944617452305069 -0.41182817437998842 0 -0.32931529664348408 -0.38869437358142001 0 -0.34316085436749 -0.39382471367395527 0 -0.33486919938690762 -0.39884665705885908 0 -0.32931529664348408 -0.38869437358142001 0 -0.33486919938690762 -0.39884665705885908 0 -0.32365381597648563 -0.39942827076698811 0 -0.34815033243380111 -0.40144447968524521 0 -0.34316085436749 -0.39382471367395527 0 -0.33486919938690762 -0.39884665705885908 0 -0.33486919938690762 -0.39884665705885908 0 -0.32365381597648563 -0.39942827076698811 0 -0.32944617452305069 -0.41182817437998842 0 -0.32931529664348408 -0.38869437358142001 0 -0.32365381597648563 -0.39942827076698811 0 -0.30988209993594379 -0.39542680479545339 0 -0.32365381597648563 -0.39942827076698811 0 -0.30595412674790001 -0.41636475829844438 0 -0.30988209993594379 -0.39542680479545339 0 -0.31381007312398762 -0.37448885129246268 0 -0.32931529664348408 -0.38869437358142001 0 -0.30988209993594379 -0.39542680479545339 0 -0.31381007312398762 -0.37448885129246268 0 -0.32803705280137402 -0.37447550275240871 0 -0.32931529664348408 -0.38869437358142001 0 -0.34095461206840061 -0.42640878026434909 0 -0.32944617452305069 -0.41182817437998842 0 -0.3206124180200437 -0.43193612962395289 0 -0.33075086723682939 -0.45093918684289991 0 -0.34095461206840061 -0.42640878026434909 0 -0.3206124180200437 -0.43193612962395289 0 -0.34815033243380111 -0.40144447968524521 0 -0.34095461206840061 -0.42640878026434909 0 -0.32944617452305069 -0.41182817437998842 0 -0.32944617452305069 -0.41182817437998842 0 -0.3206124180200437 -0.43193612962395289 0 -0.30595412674790001 -0.41636475829844438 0 -0.32365381597648563 -0.39942827076698811 0 -0.32944617452305069 -0.41182817437998842 0 -0.30595412674790001 -0.41636475829844438 0 -0.3206124180200437 -0.43193612962395289 0 -0.30595412674790001 -0.41636475829844438 0 -0.29602166034141808 -0.43748304283089118 0 -0.30595412674790001 -0.41636475829844438 0 -0.28680587137917263 -0.41476105187328532 0 -0.29502227998321778 -0.40112933436643161 0 -0.30595412674790001 -0.41636475829844438 0 -0.28680587137917263 -0.41476105187328532 0 -0.29602166034141808 -0.43748304283089118 0 -0.28680587137917263 -0.41476105187328532 0 -0.29602166034141808 -0.43748304283089118 0 -0.27149625348017281 -0.42637325053463759 0 -0.29602166034141808 -0.43748304283089118 0 -0.27149625348017281 -0.42637325053463759 0 -0.29602166034141808 -0.43748304283089118 0 -0.27149625348017281 -0.42637325053463759 0 -0.27906578537949278 -0.44687665772048962 0 -0.31381007312398762 -0.37448885129246268 0 -0.30988209993594379 -0.39542680479545339 0 -0.31381007312398762 -0.37448885129246268 0 -0.30988209993594379 -0.39542680479545339 0 -0.29196992941862432 -0.3825632544476108 0 -0.30595412674790001 -0.41636475829844438 0 -0.30988209993594379 -0.39542680479545339 0 -0.30595412674790001 -0.41636475829844438 0 -0.30988209993594379 -0.39542680479545339 0 -0.29502227998321778 -0.40112933436643161 0 -0.30988209993594379 -0.39542680479545339 0 -0.29502227998321778 -0.40112933436643161 0 -0.29196992941862432 -0.3825632544476108 0 -0.28680587137917263 -0.41476105187328532 0 -0.29502227998321778 -0.40112933436643161 0 -0.2806661672136338 -0.39648987600255969 0 -0.29502227998321778 -0.40112933436643161 0 -0.29196992941862432 -0.3825632544476108 0 -0.2806661672136338 -0.39648987600255969 0 -0.27675503022224163 -0.36681377825091099 0 -0.29196992941862432 -0.3825632544476108 0 -0.26924588117792803 -0.38334910629271668 0 -0.29196992941862432 -0.3825632544476108 0 -0.26924588117792803 -0.38334910629271668 0 -0.2806661672136338 -0.39648987600255969 0 -0.27675503022224163 -0.36681377825091099 0 -0.26924588117792803 -0.38334910629271668 0 -0.25812358553267323 -0.37605355791306738 0 -0.28680587137917263 -0.41476105187328532 0 -0.2806661672136338 -0.39648987600255969 0 -0.26326431180229581 -0.40282557300305732 0 -0.26924588117792803 -0.38334910629271668 0 -0.2806661672136338 -0.39648987600255969 0 -0.26326431180229581 -0.40282557300305732 0 -0.26326431180229581 -0.40282557300305732 0 -0.2504897110532438 -0.38524934403489181 0 -0.24394706363899241 -0.39877073912243299 0 -0.26326431180229581 -0.40282557300305732 0 -0.24697084661892749 -0.41526345823838401 0 -0.24394706363899241 -0.39877073912243299 0 -0.26924588117792803 -0.38334910629271668 0 -0.26326431180229581 -0.40282557300305732 0 -0.2504897110532438 -0.38524934403489181 0 -0.26924588117792803 -0.38334910629271668 0 -0.2504897110532438 -0.38524934403489181 0 -0.25812358553267323 -0.37605355791306738 0 -0.2504897110532438 -0.38524934403489181 0 -0.25812358553267323 -0.37605355791306738 0 -0.24839247009954951 -0.37292447016044328 0 -0.28680587137917263 -0.41476105187328532 0 -0.26326431180229581 -0.40282557300305732 0 -0.27149625348017281 -0.42637325053463759 0 -0.27149625348017281 -0.42637325053463759 0 -0.24697084661892749 -0.41526345823838401 0 -0.26326431180229581 -0.40282557300305732 0 -0.27149625348017281 -0.42637325053463759 0 -0.24697084661892749 -0.41526345823838401 0 -0.27149625348017281 -0.42637325053463759 0 -0.25687425522332558 -0.44642006451091643 0 -0.24697084661892749 -0.41526345823838401 0 -0.25687425522332558 -0.44642006451091643 0 -0.27607931301277078 -0.46657199895299017 0 -0.25409384940020791 -0.47271975939701871 0 -0.25687425522332558 -0.44642006451091643 0 -0.27607931301277078 -0.46657199895299017 0 -0.27906578537949278 -0.44687665772048962 0 -0.27149625348017281 -0.42637325053463759 0 -0.25687425522332558 -0.44642006451091643 0 -0.27906578537949278 -0.44687665772048962 0 -0.29602166034141808 -0.43748304283089118 0 -0.27906578537949278 -0.44687665772048962 0 -0.29968055871002541 -0.46203125713240301 0 -0.27607931301277078 -0.46657199895299017 0 -0.27906578537949278 -0.44687665772048962 0 -0.29968055871002541 -0.46203125713240301 0 -0.31571728338184601 -0.45752087103574601 0 -0.29968055871002541 -0.46203125713240301 0 -0.30706080135445341 -0.45057148265483188 0 -0.31571728338184601 -0.45752087103574601 0 -0.32054712240525829 -0.47546959342145068 0 -0.29968055871002541 -0.46203125713240301 0 -0.32054706720266329 -0.44859283512714471 0 -0.29602166034141808 -0.43748304283089118 0 -0.32054706720266329 -0.44859283512714471 0 -0.3206124180200437 -0.43193612962395289 0 -0.29602166034141808 -0.43748304283089118 0 -0.32054706720266329 -0.44859283512714471 0 -0.29602166034141808 -0.43748304283089118 0 -0.30706080135445341 -0.45057148265483188 0 -0.29602166034141808 -0.43748304283089118 0 -0.29968055871002541 -0.46203125713240301 0 -0.30706080135445341 -0.45057148265483188 0 -0.32054712240525829 -0.47546959342145068 0 -0.31034337757368669 -0.50000000000000133 0 -0.2941570887960146 -0.48201569375099518 0 -0.32054712240525829 -0.47546959342145068 0 -0.29968055871002541 -0.46203125713240301 0 -0.2941570887960146 -0.48201569375099518 0 -0.27607931301277078 -0.46657199895299017 0 -0.29968055871002541 -0.46203125713240301 0 -0.2941570887960146 -0.48201569375099518 0 -0.2941570887960146 -0.48201569375099518 0 -0.28248249767631262 -0.5 0 -0.27039562620846602 -0.48462576079096858 0 -0.31034337757368669 -0.50000000000000133 0 -0.2941570887960146 -0.48201569375099518 0 -0.28248249767631262 -0.5 0 -0.28248249767631262 -0.5 0 -0.27039562620846602 -0.48462576079096858 0 -0.25462161777893849 -0.5 0 -0.27607931301277078 -0.46657199895299017 0 -0.2941570887960146 -0.48201569375099518 0 -0.27039562620846602 -0.48462576079096858 0 -0.27607931301277078 -0.46657199895299017 0 -0.27039562620846602 -0.48462576079096858 0 -0.25409384940020791 -0.47271975939701871 0 -0.27039562620846602 -0.48462576079096858 0 -0.25409384940020791 -0.47271975939701871 0 -0.25462161777893849 -0.5 0 -0.25462161777893849 -0.5 0 -0.23155232774708009 -0.47932355884050398 0 -0.22676073788156451 -0.5 0 -0.25409384940020791 -0.47271975939701871 0 -0.25462161777893849 -0.5 0 -0.23155232774708009 -0.47932355884050398 0 -0.25409384940020791 -0.47271975939701871 0 -0.23155232774708009 -0.47932355884050398 0 -0.2350399564306665 -0.45937717328673289 0 -0.23155232774708009 -0.47932355884050398 0 -0.2350399564306665 -0.45937717328673289 0 -0.2080224731694312 -0.47403962225972662 0 -0.23155232774708009 -0.47932355884050398 0 -0.22676073788156451 -0.5 0 -0.2080224731694312 -0.47403962225972662 0 -0.25687425522332558 -0.44642006451091643 0 -0.2350399564306665 -0.45937717328673289 0 -0.23180750449586429 -0.4343742486430574 0 -0.25687425522332558 -0.44642006451091643 0 -0.25409384940020791 -0.47271975939701871 0 -0.2350399564306665 -0.45937717328673289 0 -0.2350399564306665 -0.45937717328673289 0 -0.21590660946663959 -0.44883644739355771 0 -0.2080224731694312 -0.47403962225972662 0 -0.2350399564306665 -0.45937717328673289 0 -0.21590660946663959 -0.44883644739355771 0 -0.23180750449586429 -0.4343742486430574 0 -0.21590660946663959 -0.44883644739355771 0 -0.1943898331460783 -0.4473597119794826 0 -0.20910912931781811 -0.42543372189632289 0 -0.21590660946663959 -0.44883644739355771 0 -0.1943898331460783 -0.4473597119794826 0 -0.2080224731694312 -0.47403962225972662 0 -0.1943898331460783 -0.4473597119794826 0 -0.2080224731694312 -0.47403962225972662 0 -0.17967053697433849 -0.46928570206264231 0 -0.22676073788156451 -0.5 0 -0.2080224731694312 -0.47403962225972662 0 -0.19889985798419041 -0.5 0 -0.2080224731694312 -0.47403962225972662 0 -0.1821948971586228 -0.48648437486529872 0 -0.17967053697433849 -0.46928570206264231 0 -0.2080224731694312 -0.47403962225972662 0 -0.19889985798419041 -0.5 0 -0.1821948971586228 -0.48648437486529872 0 -0.19889985798419041 -0.5 0 -0.1821948971586228 -0.48648437486529872 0 -0.17103897808681609 -0.49999999999999778 0 -0.1821948971586228 -0.48648437486529872 0 -0.17103897808681609 -0.49999999999999778 0 -0.16495124080259491 -0.49121169214579941 0 -0.17103897808681609 -0.49999999999999778 0 -0.16495124080259491 -0.49121169214579941 0 -0.17103897808681609 -0.49999999999999778 0 -0.16495124080259491 -0.49121169214579941 0 -0.15905149781887321 -0.49999999999999961 0 -0.16495124080259491 -0.49121169214579941 0 -0.15905149781887321 -0.49999999999999961 0 -0.1545750311736096 -0.49062041690426861 0 -0.16495124080259491 -0.49121169214579941 0 -0.15905149781887321 -0.49999999999999961 0 -0.16495124080259491 -0.49121169214579941 0 -0.16530166315622061 -0.47155300009798301 0 -0.17967053697433849 -0.46928570206264231 0 -0.16495124080259491 -0.49121169214579941 0 -0.16530166315622061 -0.47155300009798301 0 -0.15083103946930049 -0.47082765280793248 0 -0.16495124080259491 -0.49121169214579941 0 -0.1545750311736096 -0.49062041690426861 0 -0.15083103946930049 -0.47082765280793248 0 -0.16495124080259491 -0.49121169214579941 0 -0.15083103946930049 -0.47082765280793248 0 -0.16495124080259491 -0.49121169214579941 0 -0.17967053697433849 -0.46928570206264231 0 -0.1821948971586228 -0.48648437486529872 0 -0.16495124080259491 -0.49121169214579941 0 -0.17967053697433849 -0.46928570206264231 0 -0.1943898331460783 -0.4473597119794826 0 -0.17967053697433849 -0.46928570206264231 0 -0.1943898331460783 -0.4473597119794826 0 -0.17967053697433849 -0.46928570206264231 0 -0.1657538353786501 -0.45488695337555668 0 -0.1943898331460783 -0.4473597119794826 0 -0.1657538353786501 -0.45488695337555668 0 -0.1755027511393909 -0.43471579892562301 0 -0.1657538353786501 -0.45488695337555668 0 -0.15761868306950341 -0.43586407366366631 0 -0.1755027511393909 -0.43471579892562301 0 -0.16530166315622061 -0.47155300009798301 0 -0.1657538353786501 -0.45488695337555668 0 -0.15083103946930049 -0.47082765280793248 0 -0.16530166315622061 -0.47155300009798301 0 -0.17967053697433849 -0.46928570206264231 0 -0.1657538353786501 -0.45488695337555668 0 -0.13671083813600751 -0.45044361347006462 0 -0.15083103946930049 -0.47082765280793248 0 -0.13671083813600751 -0.45044361347006462 0 -0.13441782301728619 -0.47175980973682791 0 -0.15083103946930049 -0.47082765280793248 0 -0.1657538353786501 -0.45488695337555668 0 -0.13671083813600751 -0.45044361347006462 0 -0.15083103946930049 -0.47082765280793248 0 -0.13671083813600751 -0.45044361347006462 0 -0.13816776916695811 -0.432543871779144 0 -0.15761868306950341 -0.43586407366366631 0 -0.1657538353786501 -0.45488695337555668 0 -0.13671083813600751 -0.45044361347006462 0 -0.15761868306950341 -0.43586407366366631 0 -0.13671083813600751 -0.45044361347006462 0 -0.13816776916695811 -0.432543871779144 0 -0.1225906368027144 -0.43005957413219659 0 -0.13671083813600751 -0.45044361347006462 0 -0.1225906368027144 -0.43005957413219659 0 -0.13671083813600751 -0.45044361347006462 0 -0.13441782301728619 -0.47175980973682791 0 -0.1201929706126502 -0.46127799294672761 0 -0.13441782301728619 -0.47175980973682791 0 -0.12605423818426559 -0.48707922202292669 0 -0.14429533434837091 -0.48908967660720287 0 -0.13441782301728619 -0.47175980973682791 0 -0.12605423818426559 -0.48707922202292669 0 -0.1201929706126502 -0.46127799294672761 0 -0.1295391708778694 -0.5 0 -0.12605423818426559 -0.48707922202292669 0 -0.14429533434837091 -0.48908967660720287 0 -0.15905149781887321 -0.49999999999999961 0 -0.1295391708778694 -0.5 0 -0.14429533434837091 -0.48908967660720287 0 -0.15905149781887321 -0.49999999999999961 0 -0.14429533434837091 -0.48908967660720287 0 -0.1545750311736096 -0.49062041690426861 0 -0.14429533434837091 -0.48908967660720287 0 -0.1545750311736096 -0.49062041690426861 0 -0.15083103946930049 -0.47082765280793248 0 -0.13441782301728619 -0.47175980973682791 0 -0.14429533434837091 -0.48908967660720287 0 -0.15083103946930049 -0.47082765280793248 0 -0.15345949684661231 -0.4053237642064671 0 -0.15136585988972451 -0.39002590355483568 0 -0.13982663417143551 -0.39933000433158738 0 -0.15136585988972451 -0.39002590355483568 0 -0.1368738238800834 -0.3880397179408614 0 -0.13982663417143551 -0.39933000433158738 0 -0.15345949684661231 -0.4053237642064671 0 -0.13982663417143551 -0.39933000433158738 0 -0.1398029654186671 -0.41064466143528439 0 -0.15136585988972451 -0.39002590355483568 0 -0.1368738238800834 -0.3880397179408614 0 -0.13959568407155781 -0.37291875636350952 0 -0.15136585988972451 -0.39002590355483568 0 -0.15951650330528561 -0.37856285477961621 0 -0.13959568407155781 -0.37291875636350952 0 -0.1368738238800834 -0.3880397179408614 0 -0.12625141541498519 -0.38197991289387551 0 -0.13959568407155781 -0.37291875636350952 0 -0.1368738238800834 -0.3880397179408614 0 -0.12625141541498519 -0.38197991289387551 0 -0.1273295258527142 -0.39594401256049883 0 -0.1368738238800834 -0.3880397179408614 0 -0.1273295258527142 -0.39594401256049883 0 -0.13982663417143551 -0.39933000433158738 0 -0.13982663417143551 -0.39933000433158738 0 -0.1295768038857959 -0.40463739140698729 0 -0.1398029654186671 -0.41064466143528439 0 -0.1273295258527142 -0.39594401256049883 0 -0.13982663417143551 -0.39933000433158738 0 -0.1295768038857959 -0.40463739140698729 0 -0.1273295258527142 -0.39594401256049883 0 -0.1295768038857959 -0.40463739140698729 0 -0.1219584454402414 -0.40406961642135292 0 -0.1295768038857959 -0.40463739140698729 0 -0.1296119374269841 -0.41417592727859581 0 -0.1225700411049412 -0.40994677461386392 0 -0.1296119374269841 -0.41417592727859581 0 -0.12315425937001 -0.41747458531602638 0 -0.1225700411049412 -0.40994677461386392 0 -0.1296119374269841 -0.41417592727859581 0 -0.13713184062407599 -0.42036644340313623 0 -0.12908399078123631 -0.42243277819987513 0 -0.1296119374269841 -0.41417592727859581 0 -0.12908399078123631 -0.42243277819987513 0 -0.12315425937001 -0.41747458531602638 0 -0.1296119374269841 -0.41417592727859581 0 -0.13713184062407599 -0.42036644340313623 0 -0.1398029654186671 -0.41064466143528439 0 -0.1295768038857959 -0.40463739140698729 0 -0.1296119374269841 -0.41417592727859581 0 -0.1398029654186671 -0.41064466143528439 0 -0.12908399078123631 -0.42243277819987513 0 -0.13816776916695811 -0.432543871779144 0 -0.1225906368027144 -0.43005957413219659 0 -0.13713184062407599 -0.42036644340313623 0 -0.12908399078123631 -0.42243277819987513 0 -0.13816776916695811 -0.432543871779144 0 -0.13816776916695811 -0.432543871779144 0 -0.14921107955709881 -0.42003443798493328 0 -0.15761868306950341 -0.43586407366366631 0 -0.13713184062407599 -0.42036644340313623 0 -0.13816776916695811 -0.432543871779144 0 -0.14921107955709881 -0.42003443798493328 0 -0.15345949684661231 -0.4053237642064671 0 -0.1398029654186671 -0.41064466143528439 0 -0.14921107955709881 -0.42003443798493328 0 -0.13713184062407599 -0.42036644340313623 0 -0.1398029654186671 -0.41064466143528439 0 -0.14921107955709881 -0.42003443798493328 0 -0.15345949684661231 -0.4053237642064671 0 -0.14921107955709881 -0.42003443798493328 0 -0.17009787391258249 -0.41611158199907422 0 -0.14921107955709881 -0.42003443798493328 0 -0.17009787391258249 -0.41611158199907422 0 -0.15761868306950341 -0.43586407366366631 0 -0.17009787391258249 -0.41611158199907422 0 -0.15761868306950341 -0.43586407366366631 0 -0.1755027511393909 -0.43471579892562301 0 -0.1943898331460783 -0.4473597119794826 0 -0.1755027511393909 -0.43471579892562301 0 -0.18951413900105801 -0.42212105940109063 0 -0.17009787391258249 -0.41611158199907422 0 -0.1755027511393909 -0.43471579892562301 0 -0.18951413900105801 -0.42212105940109063 0 -0.17009787391258249 -0.41611158199907422 0 -0.18562609472684241 -0.40161550393767448 0 -0.18951413900105801 -0.42212105940109063 0 -0.18562609472684241 -0.40161550393767448 0 -0.16863204450281991 -0.39380366607865908 0 -0.18254917963999329 -0.38971973427100182 0 -0.17009787391258249 -0.41611158199907422 0 -0.18562609472684241 -0.40161550393767448 0 -0.16863204450281991 -0.39380366607865908 0 -0.18562609472684241 -0.40161550393767448 0 -0.18254917963999329 -0.38971973427100182 0 -0.19364364155811911 -0.391297223908462 0 -0.15345949684661231 -0.4053237642064671 0 -0.17009787391258249 -0.41611158199907422 0 -0.16863204450281991 -0.39380366607865908 0 -0.15345949684661231 -0.4053237642064671 0 -0.15136585988972451 -0.39002590355483568 0 -0.16863204450281991 -0.39380366607865908 0 -0.15951650330528561 -0.37856285477961621 0 -0.17625218554490921 -0.38180729220612769 0 -0.1663610822414904 -0.3702523776444529 0 -0.16863204450281991 -0.39380366607865908 0 -0.15951650330528561 -0.37856285477961621 0 -0.17625218554490921 -0.38180729220612769 0 -0.15136585988972451 -0.39002590355483568 0 -0.16863204450281991 -0.39380366607865908 0 -0.15951650330528561 -0.37856285477961621 0 -0.17625218554490921 -0.38180729220612769 0 -0.1663610822414904 -0.3702523776444529 0 -0.18579747934449059 -0.37379744869579251 0 -0.16863204450281991 -0.39380366607865908 0 -0.17625218554490921 -0.38180729220612769 0 -0.18254917963999329 -0.38971973427100182 0 -0.17625218554490921 -0.38180729220612769 0 -0.18254917963999329 -0.38971973427100182 0 -0.18859193186727599 -0.38007498522408562 0 -0.17625218554490921 -0.38180729220612769 0 -0.18859193186727599 -0.38007498522408562 0 -0.18579747934449059 -0.37379744869579251 0 -0.18859193186727599 -0.38007498522408562 0 -0.2014200033848125 -0.37119512976538899 0 -0.18859193186727599 -0.38007498522408562 0 -0.2014200033848125 -0.37119512976538899 0 -0.18579747934449059 -0.37379744869579251 0 -0.18859193186727599 -0.38007498522408562 0 -0.1989719328316337 -0.38216032023399737 0 -0.2014200033848125 -0.37119512976538899 0 -0.1989719328316337 -0.38216032023399737 0 -0.20694960464083431 -0.38128159833907621 0 -0.2014200033848125 -0.37119512976538899 0 -0.1989719328316337 -0.38216032023399737 0 -0.19364364155811911 -0.391297223908462 0 -0.20620014074293039 -0.39180645285032889 0 -0.18859193186727599 -0.38007498522408562 0 -0.1989719328316337 -0.38216032023399737 0 -0.19364364155811911 -0.391297223908462 0 -0.18254917963999329 -0.38971973427100182 0 -0.18859193186727599 -0.38007498522408562 0 -0.19364364155811911 -0.391297223908462 0 -0.18562609472684241 -0.40161550393767448 0 -0.19364364155811911 -0.391297223908462 0 -0.20208872018367391 -0.4070926974887904 0 -0.19364364155811911 -0.391297223908462 0 -0.20620014074293039 -0.39180645285032889 0 -0.20208872018367391 -0.4070926974887904 0 -0.20620014074293039 -0.39180645285032889 0 -0.21479853281951461 -0.38638530273916921 0 -0.22382842548955789 -0.4035077318131633 0 -0.20620014074293039 -0.39180645285032889 0 -0.20208872018367391 -0.4070926974887904 0 -0.22382842548955789 -0.4035077318131633 0 -0.21479853281951461 -0.38638530273916921 0 -0.20694960464083431 -0.38128159833907621 0 -0.21335741342528061 -0.3748607861064962 0 -0.21479853281951461 -0.38638530273916921 0 -0.22412886374227589 -0.38235217247817599 0 -0.21335741342528061 -0.3748607861064962 0 -0.20694960464083431 -0.38128159833907621 0 -0.2014200033848125 -0.37119512976538899 0 -0.21335741342528061 -0.3748607861064962 0 -0.20620014074293039 -0.39180645285032889 0 -0.21479853281951461 -0.38638530273916921 0 -0.20694960464083431 -0.38128159833907621 0 -0.1989719328316337 -0.38216032023399737 0 -0.20620014074293039 -0.39180645285032889 0 -0.20694960464083431 -0.38128159833907621 0 -0.1943898331460783 -0.4473597119794826 0 -0.20910912931781811 -0.42543372189632289 0 -0.1943898331460783 -0.4473597119794826 0 -0.18951413900105801 -0.42212105940109063 0 -0.20910912931781811 -0.42543372189632289 0 -0.18951413900105801 -0.42212105940109063 0 -0.20208872018367391 -0.4070926974887904 0 -0.20910912931781811 -0.42543372189632289 0 -0.18562609472684241 -0.40161550393767448 0 -0.18951413900105801 -0.42212105940109063 0 -0.20208872018367391 -0.4070926974887904 0 -0.20208872018367391 -0.4070926974887904 0 -0.20910912931781811 -0.42543372189632289 0 -0.22382842548955789 -0.4035077318131633 0 -0.20910912931781811 -0.42543372189632289 0 -0.22382842548955789 -0.4035077318131633 0 -0.21590660946663959 -0.44883644739355771 0 -0.20910912931781811 -0.42543372189632289 0 -0.23180750449586429 -0.4343742486430574 0 -0.20910912931781811 -0.42543372189632289 0 -0.23180750449586429 -0.4343742486430574 0 -0.22382842548955789 -0.4035077318131633 0 -0.23180750449586429 -0.4343742486430574 0 -0.24697084661892749 -0.41526345823838401 0 -0.22382842548955789 -0.4035077318131633 0 -0.25687425522332558 -0.44642006451091643 0 -0.23180750449586429 -0.4343742486430574 0 -0.24697084661892749 -0.41526345823838401 0 -0.22412886374227589 -0.38235217247817599 0 -0.2351820232309369 -0.38700758852266848 0 -0.22952037500089251 -0.37311519752493849 0 -0.22412886374227589 -0.38235217247817599 0 -0.22186900287429051 -0.37074082218821958 0 -0.21335741342528061 -0.3748607861064962 0 -0.22412886374227589 -0.38235217247817599 0 -0.22952037500089251 -0.37311519752493849 0 -0.22186900287429051 -0.37074082218821958 0 -0.22382842548955789 -0.4035077318131633 0 -0.24394706363899241 -0.39877073912243299 0 -0.2351820232309369 -0.38700758852266848 0 -0.21479853281951461 -0.38638530273916921 0 -0.22412886374227589 -0.38235217247817599 0 -0.22382842548955789 -0.4035077318131633 0 -0.22412886374227589 -0.38235217247817599 0 -0.22382842548955789 -0.4035077318131633 0 -0.2351820232309369 -0.38700758852266848 0 -0.24697084661892749 -0.41526345823838401 0 -0.22382842548955789 -0.4035077318131633 0 -0.24394706363899241 -0.39877073912243299 0 -0.2504897110532438 -0.38524934403489181 0 -0.24394706363899241 -0.39877073912243299 0 -0.2351820232309369 -0.38700758852266848 0 -0.2504897110532438 -0.38524934403489181 0 -0.2351820232309369 -0.38700758852266848 0 -0.24036284435674521 -0.37772398595485779 0 -0.2351820232309369 -0.38700758852266848 0 -0.24036284435674521 -0.37772398595485779 0 -0.22952037500089251 -0.37311519752493849 0 -0.2504897110532438 -0.38524934403489181 0 -0.24036284435674521 -0.37772398595485779 0 -0.24839247009954951 -0.37292447016044328 0 -0.24839247009954951 -0.37292447016044328 0 -0.24532753696728959 -0.36501789644951049 0 -0.23861636880082099 -0.36955921174380651 0 -0.24036284435674521 -0.37772398595485779 0 -0.24839247009954951 -0.37292447016044328 0 -0.23861636880082099 -0.36955921174380651 0 -0.25757508569408222 -0.36424633604315798 0 -0.24532753696728959 -0.36501789644951049 0 -0.24650166737573331 -0.3569693529562265 0 -0.24532753696728959 -0.36501789644951049 0 -0.24234943749700691 -0.36154613291017651 0 -0.24650166737573331 -0.3569693529562265 0 -0.24532753696728959 -0.36501789644951049 0 -0.24234943749700691 -0.36154613291017651 0 -0.23928568589256061 -0.36455139619594779 0 -0.24234943749700691 -0.36154613291017651 0 -0.23928568589256061 -0.36455139619594779 0 -0.23696933381926599 -0.3585493042599866 0 -0.24532753696728959 -0.36501789644951049 0 -0.23928568589256061 -0.36455139619594779 0 -0.23861636880082099 -0.36955921174380651 0 -0.23928568589256061 -0.36455139619594779 0 -0.23861636880082099 -0.36955921174380651 0 -0.23345080570298909 -0.36409891217005902 0 -0.23928568589256061 -0.36455139619594779 0 -0.23345080570298909 -0.36409891217005902 0 -0.23696933381926599 -0.3585493042599866 0 -0.24036284435674521 -0.37772398595485779 0 -0.23861636880082099 -0.36955921174380651 0 -0.22952037500089251 -0.37311519752493849 0 -0.23345080570298909 -0.36409891217005902 0 -0.22186900287429051 -0.37074082218821958 0 -0.21424807490234879 -0.36231527430669241 0 -0.22952037500089251 -0.37311519752493849 0 -0.23345080570298909 -0.36409891217005902 0 -0.22186900287429051 -0.37074082218821958 0 -0.23696933381926599 -0.3585493042599866 0 -0.21424807490234879 -0.36231527430669241 0 -0.23861636880082099 -0.36955921174380651 0 -0.22952037500089251 -0.37311519752493849 0 -0.23345080570298909 -0.36409891217005902 0 -0.23345080570298909 -0.36409891217005902 0 -0.23696933381926599 -0.3585493042599866 0 -0.21424807490234879 -0.36231527430669241 0 -0.22913587473404851 -0.35200963246311751 0 -0.2097464541822805 -0.33582260124732738 0 -0.22913587473404851 -0.35200963246311751 0 -0.23696933381926599 -0.3585493042599866 0 -0.21424807490234879 -0.36231527430669241 0 -0.22913587473404851 -0.35200963246311751 0 -0.21998707993494029 -0.33959044394559312 0 -0.22913587473404851 -0.35200963246311751 0 -0.21424807490234879 -0.36231527430669241 0 -0.22913587473404851 -0.35200963246311751 0 -0.23696933381926599 -0.3585493042599866 0 -0.22913587473404851 -0.35200963246311751 0 -0.24881121389389799 -0.33838995723746451 0 -0.22913587473404851 -0.35200963246311751 0 -0.23696933381926599 -0.3585493042599866 0 -0.24650166737573331 -0.3569693529562265 0 -0.22913587473404851 -0.35200963246311751 0 -0.24650166737573331 -0.3569693529562265 0 -0.24881121389389799 -0.33838995723746451 0 -0.23696933381926599 -0.3585493042599866 0 -0.24650166737573331 -0.3569693529562265 0 -0.24234943749700691 -0.36154613291017651 0 -0.23696933381926599 -0.3585493042599866 0 -0.24650166737573331 -0.3569693529562265 0 -0.22913587473404851 -0.35200963246311751 0 -0.24881121389389799 -0.33838995723746451 0 -0.2325545649384867 -0.33453283978227571 0 -0.24881121389389799 -0.33838995723746451 0 -0.2441082332202735 -0.32380704628422963 0 -0.2325545649384867 -0.33453283978227571 0 -0.23613058105125781 -0.31890710479075163 0 -0.2279063026952847 -0.3135077128279592 0 -0.2444966906846206 -0.31181945912301329 0 -0.2441082332202735 -0.32380704628422963 0 -0.23498207165859719 -0.32537142019391418 0 -0.23613058105125781 -0.31890710479075163 0 -0.2441082332202735 -0.32380704628422963 0 -0.23498207165859719 -0.32537142019391418 0 -0.2325545649384867 -0.33453283978227571 0 -0.2441082332202735 -0.32380704628422963 0 -0.23613058105125781 -0.31890710479075163 0 -0.2444966906846206 -0.31181945912301329 0 -0.2279063026952847 -0.3135077128279592 0 -0.2193464910840433 -0.31976030368968739 0 -0.21134622408423179 -0.310554889255794 0 -0.23613058105125781 -0.31890710479075163 0 -0.2279063026952847 -0.3135077128279592 0 -0.22829430606921119 -0.32293804105388452 0 -0.23498207165859719 -0.32537142019391418 0 -0.22829430606921119 -0.32293804105388452 0 -0.2325545649384867 -0.33453283978227571 0 -0.23498207165859719 -0.32537142019391418 0 -0.23613058105125781 -0.31890710479075163 0 -0.22829430606921119 -0.32293804105388452 0 -0.22829430606921119 -0.32293804105388452 0 -0.2193464910840433 -0.31976030368968739 0 -0.22209033975117781 -0.32887735541776358 0 -0.2279063026952847 -0.3135077128279592 0 -0.22829430606921119 -0.32293804105388452 0 -0.2193464910840433 -0.31976030368968739 0 -0.22913587473404851 -0.35200963246311751 0 -0.2325545649384867 -0.33453283978227571 0 -0.21998707993494029 -0.33959044394559312 0 -0.22913587473404851 -0.35200963246311751 0 -0.21998707993494029 -0.33959044394559312 0 -0.2097464541822805 -0.33582260124732738 0 -0.22829430606921119 -0.32293804105388452 0 -0.2325545649384867 -0.33453283978227571 0 -0.22209033975117781 -0.32887735541776358 0 -0.2325545649384867 -0.33453283978227571 0 -0.22209033975117781 -0.32887735541776358 0 -0.21998707993494029 -0.33959044394559312 0 -0.21998707993494029 -0.33959044394559312 0 -0.21026925672920721 -0.32756514861737779 0 -0.22209033975117781 -0.32887735541776358 0 -0.21998707993494029 -0.33959044394559312 0 -0.21026925672920721 -0.32756514861737779 0 -0.21998707993494029 -0.33959044394559312 0 -0.2097464541822805 -0.33582260124732738 0 -0.21026925672920721 -0.32756514861737779 0 -0.2097464541822805 -0.33582260124732738 0 -0.21026925672920721 -0.32756514861737779 0 -0.21026925672920721 -0.32756514861737779 0 -0.21134622408423179 -0.310554889255794 0 -0.19267178705524021 -0.30578920503631912 0 -0.21026925672920721 -0.32756514861737779 0 -0.21134622408423179 -0.310554889255794 0 -0.2097464541822805 -0.33582260124732738 0 -0.21026925672920721 -0.32756514861737779 0 -0.19254159852174429 -0.31996122112867409 0 -0.2193464910840433 -0.31976030368968739 0 -0.21026925672920721 -0.32756514861737779 0 -0.21134622408423179 -0.310554889255794 0 -0.2193464910840433 -0.31976030368968739 0 -0.22209033975117781 -0.32887735541776358 0 -0.21026925672920721 -0.32756514861737779 0 -0.2097464541822805 -0.33582260124732738 0 -0.1943588054861482 -0.32297640251143073 0 -0.19254159852174429 -0.31996122112867409 0 -0.21026925672920721 -0.32756514861737779 0 -0.19267178705524021 -0.30578920503631912 0 -0.21026925672920721 -0.32756514861737779 0 -0.19254159852174429 -0.31996122112867409 0 -0.19267178705524021 -0.30578920503631912 0 -0.2097464541822805 -0.33582260124732738 0 -0.19254159852174429 -0.31996122112867409 0 -0.1943588054861482 -0.32297640251143073 0 -0.18737083868624629 -0.33075534874643497 0 -0.18479650728396149 -0.32227615663527998 0 -0.1943588054861482 -0.32297640251143073 0 -0.19254159852174429 -0.31996122112867409 0 -0.1789711567900161 -0.3101302037755338 0 -0.2097464541822805 -0.33582260124732738 0 -0.19466829689393059 -0.33824472710720138 0 -0.19565175395430129 -0.3512554891803924 0 -0.2097464541822805 -0.33582260124732738 0 -0.1943588054861482 -0.32297640251143073 0 -0.19466829689393059 -0.33824472710720138 0 -0.2097464541822805 -0.33582260124732738 0 -0.1943588054861482 -0.32297640251143073 0 -0.1943588054861482 -0.32297640251143073 0 -0.19466829689393059 -0.33824472710720138 0 -0.18737083868624629 -0.33075534874643497 0 -0.19466829689393059 -0.33824472710720138 0 -0.18164424501215659 -0.34621916084723381 0 -0.18737083868624629 -0.33075534874643497 0 -0.19466829689393059 -0.33824472710720138 0 -0.19565175395430129 -0.3512554891803924 0 -0.18164424501215659 -0.34621916084723381 0 -0.20800359978069241 -0.36335027445133922 0 -0.18480326185087809 -0.36719565018674682 0 -0.19565175395430129 -0.3512554891803924 0 -0.20800359978069241 -0.36335027445133922 0 -0.18480326185087809 -0.36719565018674682 0 -0.2014200033848125 -0.37119512976538899 0 -0.18480326185087809 -0.36719565018674682 0 -0.18579747934449059 -0.37379744869579251 0 -0.2014200033848125 -0.37119512976538899 0 -0.20800359978069241 -0.36335027445133922 0 -0.18480326185087809 -0.36719565018674682 0 -0.2014200033848125 -0.37119512976538899 0 -0.20800359978069241 -0.36335027445133922 0 -0.20803809997708481 -0.36661394692190907 0 -0.20800359978069241 -0.36335027445133922 0 -0.20803809997708481 -0.36661394692190907 0 -0.21424807490234879 -0.36231527430669241 0 -0.20800359978069241 -0.36335027445133922 0 -0.20803809997708481 -0.36661394692190907 0 -0.2014200033848125 -0.37119512976538899 0 -0.20803809997708481 -0.36661394692190907 0 -0.21335741342528061 -0.3748607861064962 0 -0.2014200033848125 -0.37119512976538899 0 -0.20803809997708481 -0.36661394692190907 0 -0.20803809997708481 -0.36661394692190907 0 -0.21335741342528061 -0.3748607861064962 0 -0.21424807490234879 -0.36231527430669241 0 -0.22186900287429051 -0.37074082218821958 0 -0.21335741342528061 -0.3748607861064962 0 -0.21424807490234879 -0.36231527430669241 0 -0.20800359978069241 -0.36335027445133922 0 -0.21424807490234879 -0.36231527430669241 0 -0.20803809997708481 -0.36661394692190907 0 -0.21424807490234879 -0.36231527430669241 0 -0.2097464541822805 -0.33582260124732738 0 -0.19565175395430129 -0.3512554891803924 0 -0.20800359978069241 -0.36335027445133922 0 -0.2097464541822805 -0.33582260124732738 0 -0.20800359978069241 -0.36335027445133922 0 -0.2097464541822805 -0.33582260124732738 0 -0.20800359978069241 -0.36335027445133922 0 -0.21424807490234879 -0.36231527430669241 0 -0.22913587473404851 -0.35200963246311751 0 -0.2097464541822805 -0.33582260124732738 0 -0.21424807490234879 -0.36231527430669241 0 -0.2335542019388327 -0.26090262277066528 0 -0.21472073189145299 -0.25725591714607071 0 -0.22837296648480071 -0.23789375384220129 0 -0.2335542019388327 -0.26090262277066528 0 -0.21357196166535461 -0.27540027352014051 0 -0.21472073189145299 -0.25725591714607071 0 -0.25298377122075039 -0.27518622721876451 0 -0.2335542019388327 -0.26090262277066528 0 -0.25431856302814809 -0.24833495949118861 0 -0.25298377122075039 -0.27518622721876451 0 -0.2335542019388327 -0.26090262277066528 0 -0.23093648268818689 -0.28342115129973 0 -0.2335542019388327 -0.26090262277066528 0 -0.23093648268818689 -0.28342115129973 0 -0.21357196166535461 -0.27540027352014051 0 -0.23093648268818689 -0.28342115129973 0 -0.21242319143925911 -0.29354462989421048 0 -0.21357196166535461 -0.27540027352014051 0 -0.23093648268818689 -0.28342115129973 0 -0.2435111179254994 -0.29490773243705071 0 -0.2284599410619414 -0.30268204450860919 0 -0.23093648268818689 -0.28342115129973 0 -0.2284599410619414 -0.30268204450860919 0 -0.21242319143925911 -0.29354462989421048 0 -0.25298377122075039 -0.27518622721876451 0 -0.23093648268818689 -0.28342115129973 0 -0.2435111179254994 -0.29490773243705071 0 -0.2444966906846206 -0.31181945912301329 0 -0.2284599410619414 -0.30268204450860919 0 -0.2435111179254994 -0.29490773243705071 0 -0.2444966906846206 -0.31181945912301329 0 -0.2284599410619414 -0.30268204450860919 0 -0.26057201890547982 -0.29344093798311832 0 -0.2435111179254994 -0.29490773243705071 0 -0.2444966906846206 -0.31181945912301329 0 -0.2279063026952847 -0.3135077128279592 0 -0.2444966906846206 -0.31181945912301329 0 -0.2284599410619414 -0.30268204450860919 0 -0.2284599410619414 -0.30268204450860919 0 -0.21242319143925911 -0.29354462989421048 0 -0.2279063026952847 -0.3135077128279592 0 -0.2284599410619414 -0.30268204450860919 0 -0.21134622408423179 -0.310554889255794 0 -0.2284599410619414 -0.30268204450860919 0 -0.21134622408423179 -0.310554889255794 0 -0.21242319143925911 -0.29354462989421048 0 -0.21134622408423179 -0.310554889255794 0 -0.19267178705524021 -0.30578920503631912 0 -0.21242319143925911 -0.29354462989421048 0 -0.21134622408423179 -0.310554889255794 0 -0.21242319143925911 -0.29354462989421048 0 -0.19267178705524021 -0.30578920503631912 0 -0.19410774352861071 -0.2831088592208712 0 -0.21242319143925911 -0.29354462989421048 0 -0.19410774352861071 -0.2831088592208712 0 -0.21242319143925911 -0.29354462989421048 0 -0.21357196166535461 -0.27540027352014051 0 -0.19410774352861071 -0.2831088592208712 0 -0.21242319143925911 -0.29354462989421048 0 -0.21242319143925911 -0.29354462989421048 0 -0.21357196166535461 -0.27540027352014051 0 -0.21357196166535461 -0.27540027352014051 0 -0.21472073189145299 -0.25725591714607071 0 -0.19410774352861071 -0.2831088592208712 0 -0.21357196166535461 -0.27540027352014051 0 -0.1965391795889786 -0.26204425282134669 0 -0.19410774352861071 -0.2831088592208712 0 -0.1965391795889786 -0.26204425282134669 0 -0.17579229561796161 -0.27267308854753308 0 -0.1965391795889786 -0.26204425282134669 0 -0.20565562739327201 -0.24334207984173631 0 -0.18863044441395099 -0.24733650333174401 0 -0.1965391795889786 -0.26204425282134669 0 -0.18340152769721799 -0.25642831405215172 0 -0.18863044441395099 -0.24733650333174401 0 -0.1965391795889786 -0.26204425282134669 0 -0.21472073189145299 -0.25725591714607071 0 -0.20565562739327201 -0.24334207984173631 0 -0.21357196166535461 -0.27540027352014051 0 -0.1965391795889786 -0.26204425282134669 0 -0.21472073189145299 -0.25725591714607071 0 -0.15747684770731041 -0.26223731787419863 0 -0.16344648285301799 -0.25937253054906129 0 -0.17579229561796161 -0.27267308854753308 0 -0.1593809120407062 -0.25278805690175971 0 -0.16344648285301799 -0.25937253054906129 0 -0.1534429259631987 -0.25724555178864622 0 -0.1593809120407062 -0.25278805690175971 0 -0.16344648285301799 -0.25937253054906129 0 -0.16709258238786229 -0.25188408856254202 0 -0.1593809120407062 -0.25278805690175971 0 -0.16709258238786229 -0.25188408856254202 0 -0.1601832428566283 -0.24550858739866141 0 -0.15747684770731041 -0.26223731787419863 0 -0.16344648285301799 -0.25937253054906129 0 -0.1534429259631987 -0.25724555178864622 0 -0.16344648285301799 -0.25937253054906129 0 -0.1534429259631987 -0.25724555178864622 0 -0.16344648285301799 -0.25937253054906129 0 -0.17379217291466831 -0.25992581321180469 0 -0.17579229561796161 -0.27267308854753308 0 -0.16344648285301799 -0.25937253054906129 0 -0.16709258238786229 -0.25188408856254202 0 -0.17379217291466831 -0.25992581321180469 0 -0.16709258238786229 -0.25188408856254202 0 -0.17679077873490559 -0.25046109420941731 0 -0.17379217291466831 -0.25992581321180469 0 -0.1965391795889786 -0.26204425282134669 0 -0.18340152769721799 -0.25642831405215172 0 -0.17579229561796161 -0.27267308854753308 0 -0.17679077873490559 -0.25046109420941731 0 -0.18340152769721799 -0.25642831405215172 0 -0.17379217291466831 -0.25992581321180469 0 -0.18340152769721799 -0.25642831405215172 0 -0.17379217291466831 -0.25992581321180469 0 -0.17579229561796161 -0.27267308854753308 0 -0.17679077873490559 -0.25046109420941731 0 -0.18340152769721799 -0.25642831405215172 0 -0.18863044441395099 -0.24733650333174401 0 -0.19410774352861071 -0.2831088592208712 0 -0.17579229561796161 -0.27267308854753308 0 -0.17507431738127369 -0.28401326145526029 0 -0.19410774352861071 -0.2831088592208712 0 -0.17579229561796161 -0.27267308854753308 0 -0.15747684770731041 -0.26223731787419863 0 -0.17507431738127369 -0.28401326145526029 0 -0.15747684770731041 -0.26223731787419863 0 -0.17579229561796161 -0.27267308854753308 0 -0.15747684770731041 -0.26223731787419863 0 -0.17579229561796161 -0.27267308854753308 0 -0.17507431738127369 -0.28401326145526029 0 -0.15747684770731041 -0.26223731787419863 0 -0.1596399504195592 -0.27820623095404468 0 -0.17507431738127369 -0.28401326145526029 0 -0.1596399504195592 -0.27820623095404468 0 -0.1624028041075358 -0.29248408411088062 0 -0.1494793968803598 -0.28070198605355251 0 -0.1624028041075358 -0.29248408411088062 0 -0.15973767967650701 -0.30493196891575292 0 -0.15108397830665751 -0.29236825921418419 0 -0.1624028041075358 -0.29248408411088062 0 -0.17507431738127369 -0.28401326145526029 0 -0.17391538329452061 -0.29489800819007239 0 -0.1596399504195592 -0.27820623095404468 0 -0.1624028041075358 -0.29248408411088062 0 -0.17507431738127369 -0.28401326145526029 0 -0.19267178705524021 -0.30578920503631912 0 -0.19410774352861071 -0.2831088592208712 0 -0.17507431738127369 -0.28401326145526029 0 -0.19267178705524021 -0.30578920503631912 0 -0.17507431738127369 -0.28401326145526029 0 -0.17391538329452061 -0.29489800819007239 0 -0.19267178705524021 -0.30578920503631912 0 -0.17507431738127369 -0.28401326145526029 0 -0.17391538329452061 -0.29489800819007239 0 -0.17532621133471249 -0.30426618216820789 0 -0.19254159852174429 -0.31996122112867409 0 -0.19267178705524021 -0.30578920503631912 0 -0.17532621133471249 -0.30426618216820789 0 -0.19267178705524021 -0.30578920503631912 0 -0.17391538329452061 -0.29489800819007239 0 -0.17532621133471249 -0.30426618216820789 0 -0.19254159852174429 -0.31996122112867409 0 -0.17532621133471249 -0.30426618216820789 0 -0.1789711567900161 -0.3101302037755338 0 -0.19254159852174429 -0.31996122112867409 0 -0.17532621133471249 -0.30426618216820789 0 -0.17532621133471249 -0.30426618216820789 0 -0.15973767967650701 -0.30493196891575292 0 -0.16582550601247259 -0.31644195918285489 0 -0.1624028041075358 -0.29248408411088062 0 -0.17532621133471249 -0.30426618216820789 0 -0.15973767967650701 -0.30493196891575292 0 -0.1624028041075358 -0.29248408411088062 0 -0.17532621133471249 -0.30426618216820789 0 -0.1624028041075358 -0.29248408411088062 0 -0.17391538329452061 -0.29489800819007239 0 -0.17532621133471249 -0.30426618216820789 0 -0.144593184228827 -0.30237793828586917 0 -0.15261731536399281 -0.31699983390472031 0 -0.1327552185807534 -0.31482398186879779 0 -0.15973767967650701 -0.30493196891575292 0 -0.144593184228827 -0.30237793828586917 0 -0.15261731536399281 -0.31699983390472031 0 -0.15973767967650701 -0.30493196891575292 0 -0.144593184228827 -0.30237793828586917 0 -0.15108397830665751 -0.29236825921418419 0 -0.144593184228827 -0.30237793828586917 0 -0.1304175251842298 -0.30012492429455973 0 -0.1327552185807534 -0.31482398186879779 0 -0.1304175251842298 -0.30012492429455973 0 -0.1327552185807534 -0.31482398186879779 0 -0.11567190875339491 -0.3081878681979589 0 -0.1304175251842298 -0.30012492429455973 0 -0.13697378053928061 -0.28594316463020741 0 -0.11725087491461519 -0.29108504565108578 0 -0.144593184228827 -0.30237793828586917 0 -0.1304175251842298 -0.30012492429455973 0 -0.13697378053928061 -0.28594316463020741 0 -0.13697378053928061 -0.28594316463020741 0 -0.15108397830665751 -0.29236825921418419 0 -0.1494793968803598 -0.28070198605355251 0 -0.144593184228827 -0.30237793828586917 0 -0.13697378053928061 -0.28594316463020741 0 -0.15108397830665751 -0.29236825921418419 0 -0.1624028041075358 -0.29248408411088062 0 -0.15108397830665751 -0.29236825921418419 0 -0.1494793968803598 -0.28070198605355251 0 -0.1624028041075358 -0.29248408411088062 0 -0.1494793968803598 -0.28070198605355251 0 -0.15747684770731041 -0.26223731787419863 0 -0.1596399504195592 -0.27820623095404468 0 -0.1503927610565664 -0.27179087804580171 0 -0.1596399504195592 -0.27820623095404468 0 -0.1494793968803598 -0.28070198605355251 0 -0.1503927610565664 -0.27179087804580171 0 -0.15747684770731041 -0.26223731787419863 0 -0.1503927610565664 -0.27179087804580171 0 -0.1469785187108 -0.2635474229235048 0 -0.1503927610565664 -0.27179087804580171 0 -0.13966748117377659 -0.26847157538705668 0 -0.1469785187108 -0.2635474229235048 0 -0.1503927610565664 -0.27179087804580171 0 -0.14153524490660671 -0.2763029116229278 0 -0.13966748117377659 -0.26847157538705668 0 -0.1494793968803598 -0.28070198605355251 0 -0.1503927610565664 -0.27179087804580171 0 -0.14153524490660671 -0.2763029116229278 0 -0.13697378053928061 -0.28594316463020741 0 -0.1494793968803598 -0.28070198605355251 0 -0.14153524490660671 -0.2763029116229278 0 -0.13697378053928061 -0.28594316463020741 0 -0.14153524490660671 -0.2763029116229278 0 -0.13219795163187159 -0.27110871778552531 0 -0.13697378053928061 -0.28594316463020741 0 -0.1173011125765811 -0.2721428964285707 0 -0.13697378053928061 -0.28594316463020741 0 -0.13219795163187159 -0.27110871778552531 0 -0.1173011125765811 -0.2721428964285707 0 -0.13219795163187159 -0.27110871778552531 0 -0.1333337708168415 -0.26377523499205202 0 -0.12600056203783161 -0.26301541000095829 0 -0.13219795163187159 -0.27110871778552531 0 -0.12600056203783161 -0.26301541000095829 0 -0.1173011125765811 -0.2721428964285707 0 -0.13219795163187159 -0.27110871778552531 0 -0.13966748117377659 -0.26847157538705668 0 -0.1333337708168415 -0.26377523499205202 0 -0.14153524490660671 -0.2763029116229278 0 -0.13219795163187159 -0.27110871778552531 0 -0.13966748117377659 -0.26847157538705668 0 -0.13966748117377659 -0.26847157538705668 0 -0.13807993829988649 -0.25979154560904222 0 -0.1333337708168415 -0.26377523499205202 0 -0.13807993829988649 -0.25979154560904222 0 -0.1333337708168415 -0.26377523499205202 0 -0.13072292094084129 -0.25648892617767749 0 -0.12600056203783161 -0.26301541000095829 0 -0.13072292094084129 -0.25648892617767749 0 -0.1187556211832122 -0.25814451816493872 0 -0.1333337708168415 -0.26377523499205202 0 -0.12600056203783161 -0.26301541000095829 0 -0.13072292094084129 -0.25648892617767749 0 -0.13072292094084129 -0.25648892617767749 0 -0.13218950310710981 -0.25272660122947088 0 -0.1187556211832122 -0.25814451816493872 0 -0.13072292094084129 -0.25648892617767749 0 -0.13218950310710981 -0.25272660122947088 0 -0.13218950310710981 -0.25272660122947088 0 -0.1459019403517107 -0.25564217047089421 0 -0.13375162957080131 -0.24871916986845621 0 -0.13218950310710981 -0.25272660122947088 0 -0.1459019403517107 -0.25564217047089421 0 -0.13218950310710981 -0.25272660122947088 0 -0.13375162957080131 -0.24871916986845621 0 -0.1459019403517107 -0.25564217047089421 0 -0.13375162957080131 -0.24871916986845621 0 -0.13807993829988649 -0.25979154560904222 0 -0.13218950310710981 -0.25272660122947088 0 -0.1459019403517107 -0.25564217047089421 0 -0.13807993829988649 -0.25979154560904222 0 -0.13072292094084129 -0.25648892617767749 0 -0.13218950310710981 -0.25272660122947088 0 -0.1459019403517107 -0.25564217047089421 0 -0.1534429259631987 -0.25724555178864622 0 -0.1378886282313006 -0.2381062402767252 0 -0.13966748117377659 -0.26847157538705668 0 -0.13807993829988649 -0.25979154560904222 0 -0.1469785187108 -0.2635474229235048 0 -0.13807993829988649 -0.25979154560904222 0 -0.1459019403517107 -0.25564217047089421 0 -0.1469785187108 -0.2635474229235048 0 -0.15747684770731041 -0.26223731787419863 0 -0.1459019403517107 -0.25564217047089421 0 -0.1534429259631987 -0.25724555178864622 0 -0.15747684770731041 -0.26223731787419863 0 -0.1459019403517107 -0.25564217047089421 0 -0.1469785187108 -0.2635474229235048 0 -0.15747684770731041 -0.26223731787419863 0 -0.1459019403517107 -0.25564217047089421 0 -0.15747684770731041 -0.26223731787419863 0 -0.1534429259631987 -0.25724555178864622 0 -0.1593809120407062 -0.25278805690175971 0 -0.1534429259631987 -0.25724555178864622 0 -0.15289321433053751 -0.246830478479277 0 -0.1459019403517107 -0.25564217047089421 0 -0.1534429259631987 -0.25724555178864622 0 -0.17143624801538501 -0.35840063883308271 0 -0.1580141783998408 -0.34710035810185619 0 -0.15489216358121211 -0.36256913283011211 0 -0.17143624801538501 -0.35840063883308271 0 -0.1580141783998408 -0.34710035810185619 0 -0.18164424501215659 -0.34621916084723381 0 -0.17143624801538501 -0.35840063883308271 0 -0.1663610822414904 -0.3702523776444529 0 -0.15489216358121211 -0.36256913283011211 0 -0.15951650330528561 -0.37856285477961621 0 -0.1663610822414904 -0.3702523776444529 0 -0.15489216358121211 -0.36256913283011211 0 -0.17143624801538501 -0.35840063883308271 0 -0.1663610822414904 -0.3702523776444529 0 -0.18480326185087809 -0.36719565018674682 0 -0.1663610822414904 -0.3702523776444529 0 -0.18480326185087809 -0.36719565018674682 0 -0.1663610822414904 -0.3702523776444529 0 -0.18480326185087809 -0.36719565018674682 0 -0.18579747934449059 -0.37379744869579251 0 -0.18480326185087809 -0.36719565018674682 0 -0.18579747934449059 -0.37379744869579251 0 -0.18480326185087809 -0.36719565018674682 0 -0.18164424501215659 -0.34621916084723381 0 -0.19565175395430129 -0.3512554891803924 0 -0.18480326185087809 -0.36719565018674682 0 -0.18164424501215659 -0.34621916084723381 0 -0.17143624801538501 -0.35840063883308271 0 -0.18480326185087809 -0.36719565018674682 0 -0.18164424501215659 -0.34621916084723381 0 -0.18164424501215659 -0.34621916084723381 0 -0.17848522817343529 -0.32524267150772068 0 -0.1629610955137164 -0.33076913941787212 0 -0.18164424501215659 -0.34621916084723381 0 -0.17848522817343529 -0.32524267150772068 0 -0.18164424501215659 -0.34621916084723381 0 -0.18737083868624629 -0.33075534874643497 0 -0.17848522817343529 -0.32524267150772068 0 -0.17532621133471249 -0.30426618216820789 0 -0.17848522817343529 -0.32524267150772068 0 -0.17532621133471249 -0.30426618216820789 0 -0.1789711567900161 -0.3101302037755338 0 -0.17848522817343529 -0.32524267150772068 0 -0.17532621133471249 -0.30426618216820789 0 -0.17848522817343529 -0.32524267150772068 0 -0.16582550601247259 -0.31644195918285489 0 -0.1943588054861482 -0.32297640251143073 0 -0.1789711567900161 -0.3101302037755338 0 -0.18479650728396149 -0.32227615663527998 0 -0.1789711567900161 -0.3101302037755338 0 -0.18479650728396149 -0.32227615663527998 0 -0.17848522817343529 -0.32524267150772068 0 -0.1943588054861482 -0.32297640251143073 0 -0.1789711567900161 -0.3101302037755338 0 -0.18737083868624629 -0.33075534874643497 0 -0.18479650728396149 -0.32227615663527998 0 -0.17848522817343529 -0.32524267150772068 0 -0.17848522817343529 -0.32524267150772068 0 -0.16582550601247259 -0.31644195918285489 0 -0.1629610955137164 -0.33076913941787212 0 -0.16582550601247259 -0.31644195918285489 0 -0.1629610955137164 -0.33076913941787212 0 -0.15261731536399281 -0.31699983390472031 0 -0.15973767967650701 -0.30493196891575292 0 -0.16582550601247259 -0.31644195918285489 0 -0.15261731536399281 -0.31699983390472031 0 -0.1580141783998408 -0.34710035810185619 0 -0.18164424501215659 -0.34621916084723381 0 -0.1629610955137164 -0.33076913941787212 0 -0.1580141783998408 -0.34710035810185619 0 -0.1629610955137164 -0.33076913941787212 0 -0.14559484309128301 -0.3331209990743299 0 -0.14559484309128301 -0.3331209990743299 0 -0.15261731536399281 -0.31699983390472031 0 -0.1327552185807534 -0.31482398186879779 0 -0.1629610955137164 -0.33076913941787212 0 -0.14559484309128301 -0.3331209990743299 0 -0.15261731536399281 -0.31699983390472031 0 -0.14559484309128301 -0.3331209990743299 0 -0.1327552185807534 -0.31482398186879779 0 -0.12678352480283511 -0.3369129194106073 0 -0.14559484309128301 -0.3331209990743299 0 -0.12678352480283511 -0.3369129194106073 0 -0.14043772588655989 -0.35211976174212622 0 -0.12678352480283511 -0.3369129194106073 0 -0.14043772588655989 -0.35211976174212622 0 -0.1203130985899742 -0.35955571918490481 0 -0.1580141783998408 -0.34710035810185619 0 -0.14043772588655989 -0.35211976174212622 0 -0.15489216358121211 -0.36256913283011211 0 -0.1580141783998408 -0.34710035810185619 0 -0.14559484309128301 -0.3331209990743299 0 -0.14043772588655989 -0.35211976174212622 0 -0.14043772588655989 -0.35211976174212622 0 -0.15489216358121211 -0.36256913283011211 0 -0.13959568407155781 -0.37291875636350952 0 -0.15951650330528561 -0.37856285477961621 0 -0.15489216358121211 -0.36256913283011211 0 -0.13959568407155781 -0.37291875636350952 0 -0.12625141541498519 -0.38197991289387551 0 -0.13959568407155781 -0.37291875636350952 0 -0.1203130985899742 -0.35955571918490481 0 -0.14043772588655989 -0.35211976174212622 0 -0.13959568407155781 -0.37291875636350952 0 -0.1203130985899742 -0.35955571918490481 0 -0.1203130985899742 -0.35955571918490481 0 -0.11384267237711319 -0.38219851895920232 0 -0.1203130985899742 -0.35955571918490481 0 -0.10849363524981311 -0.36442991456039969 0 -0.11384267237711319 -0.38219851895920232 0 -0.12625141541498519 -0.38197991289387551 0 -0.1203130985899742 -0.35955571918490481 0 -0.11384267237711319 -0.38219851895920232 0 -0.10849363524981311 -0.36442991456039969 0 -0.096157591159299352 -0.35547454281719221 0 -0.10176491866177829 -0.38015793077534599 0 -0.096157591159299352 -0.35547454281719221 0 -0.10176491866177829 -0.38015793077534599 0 -0.096157591159299352 -0.35547454281719221 0 -0.10176491866177829 -0.38015793077534599 0 -0.085276019388031976 -0.37619188405436782 0 -0.096157591159299352 -0.35547454281719221 0 -0.10964553082547281 -0.34513317088572909 0 -0.090550263656820479 -0.33079115485903843 0 -0.10849363524981311 -0.36442991456039969 0 -0.096157591159299352 -0.35547454281719221 0 -0.10964553082547281 -0.34513317088572909 0 -0.1203130985899742 -0.35955571918490481 0 -0.10849363524981311 -0.36442991456039969 0 -0.10964553082547281 -0.34513317088572909 0 -0.12678352480283511 -0.3369129194106073 0 -0.1203130985899742 -0.35955571918490481 0 -0.10964553082547281 -0.34513317088572909 0 -0.12678352480283511 -0.3369129194106073 0 -0.1203130985899742 -0.35955571918490481 0 -0.12678352480283511 -0.3369129194106073 0 -0.10964553082547281 -0.34513317088572909 0 -0.1112875311940303 -0.32576775904759792 0 -0.1327552185807534 -0.31482398186879779 0 -0.12678352480283511 -0.3369129194106073 0 -0.1112875311940303 -0.32576775904759792 0 -0.1327552185807534 -0.31482398186879779 0 -0.1112875311940303 -0.32576775904759792 0 -0.11567190875339491 -0.3081878681979589 0 -0.1112875311940303 -0.32576775904759792 0 -0.1011365257202933 -0.31403431577096802 0 -0.11567190875339491 -0.3081878681979589 0 -0.1112875311940303 -0.32576775904759792 0 -0.1011365257202933 -0.31403431577096802 0 -0.090550263656820479 -0.33079115485903843 0 -0.10964553082547281 -0.34513317088572909 0 -0.1112875311940303 -0.32576775904759792 0 -0.090550263656820479 -0.33079115485903843 0 -0.096157591159299352 -0.35547454281719221 0 -0.090550263656820479 -0.33079115485903843 0 -0.096157591159299352 -0.35547454281719221 0 -0.090550263656820479 -0.33079115485903843 0 -0.073144777225565616 -0.33606175945158517 0 -0.090550263656820479 -0.33079115485903843 0 -0.084942936154341619 -0.30610776690088481 0 -0.090550263656820479 -0.33079115485903843 0 -0.073144777225565616 -0.33606175945158517 0 -0.084942936154341619 -0.30610776690088481 0 -0.1011365257202933 -0.31403431577096802 0 -0.090550263656820479 -0.33079115485903843 0 -0.084942936154341619 -0.30610776690088481 0 -0.073144777225565616 -0.33606175945158517 0 -0.084942936154341619 -0.30610776690088481 0 -0.060613113796085999 -0.32288269869712272 0 -0.073144777225565616 -0.33606175945158517 0 -0.076755031766953086 -0.35884624094615858 0 -0.063306301319701316 -0.35299520754669739 0 -0.076755031766953086 -0.35884624094615858 0 -0.063306301319701316 -0.35299520754669739 0 -0.065890469742167113 -0.37350781086095058 0 -0.076755031766953086 -0.35884624094615858 0 -0.065890469742167113 -0.37350781086095058 0 -0.085276019388031976 -0.37619188405436782 0 -0.096157591159299352 -0.35547454281719221 0 -0.076755031766953086 -0.35884624094615858 0 -0.085276019388031976 -0.37619188405436782 0 -0.096157591159299352 -0.35547454281719221 0 -0.073144777225565616 -0.33606175945158517 0 -0.076755031766953086 -0.35884624094615858 0 -0.097628444613881649 -0.25834262822693399 0 -0.1173011125765811 -0.2721428964285707 0 -0.097628444613881649 -0.25834262822693399 0 -0.1187556211832122 -0.25814451816493872 0 -0.1098930818979398 -0.24798588601512411 0 -0.13218950310710981 -0.25272660122947088 0 -0.1187556211832122 -0.25814451816493872 0 -0.1098930818979398 -0.24798588601512411 0 -0.097628444613881649 -0.25834262822693399 0 -0.1187556211832122 -0.25814451816493872 0 -0.1173011125765811 -0.2721428964285707 0 -0.13218950310710981 -0.25272660122947088 0 -0.1098930818979398 -0.24798588601512411 0 -0.12600056203783161 -0.26301541000095829 0 -0.1187556211832122 -0.25814451816493872 0 -0.1173011125765811 -0.2721428964285707 0 -0.097628444613881649 -0.25834262822693399 0 -0.1173011125765811 -0.2721428964285707 0 -0.090762408808148426 -0.27102181932101072 0 -0.1173011125765811 -0.2721428964285707 0 -0.096655829275762523 -0.28444542957314378 0 -0.090762408808148426 -0.27102181932101072 0 -0.096655829275762523 -0.28444542957314378 0 -0.10322998884287909 -0.29931702984935987 0 -0.084942936154341619 -0.30610776690088481 0 -0.096655829275762523 -0.28444542957314378 0 -0.11725087491461519 -0.29108504565108578 0 -0.10322998884287909 -0.29931702984935987 0 -0.13697378053928061 -0.28594316463020741 0 -0.1173011125765811 -0.2721428964285707 0 -0.11725087491461519 -0.29108504565108578 0 -0.1173011125765811 -0.2721428964285707 0 -0.096655829275762523 -0.28444542957314378 0 -0.11725087491461519 -0.29108504565108578 0 -0.11725087491461519 -0.29108504565108578 0 -0.11567190875339491 -0.3081878681979589 0 -0.10322998884287909 -0.29931702984935987 0 -0.1304175251842298 -0.30012492429455973 0 -0.11725087491461519 -0.29108504565108578 0 -0.11567190875339491 -0.3081878681979589 0 -0.1011365257202933 -0.31403431577096802 0 -0.10322998884287909 -0.29931702984935987 0 -0.084942936154341619 -0.30610776690088481 0 -0.1011365257202933 -0.31403431577096802 0 -0.11567190875339491 -0.3081878681979589 0 -0.10322998884287909 -0.29931702984935987 0 -0.084942936154341619 -0.30610776690088481 0 -0.066237696895848033 -0.30175990202967712 0 -0.078368201618682937 -0.28822753231137022 0 -0.084942936154341619 -0.30610776690088481 0 -0.066237696895848033 -0.30175990202967712 0 -0.060613113796085999 -0.32288269869712272 0 -0.066237696895848033 -0.30175990202967712 0 -0.078368201618682937 -0.28822753231137022 0 -0.057136779716869042 -0.28712205926022771 0 -0.078368201618682937 -0.28822753231137022 0 -0.072744725061100565 -0.27289296274949931 0 -0.057136779716869042 -0.28712205926022771 0 -0.096655829275762523 -0.28444542957314378 0 -0.084942936154341619 -0.30610776690088481 0 -0.078368201618682937 -0.28822753231137022 0 -0.096655829275762523 -0.28444542957314378 0 -0.078368201618682937 -0.28822753231137022 0 -0.090762408808148426 -0.27102181932101072 0 -0.078368201618682937 -0.28822753231137022 0 -0.090762408808148426 -0.27102181932101072 0 -0.072744725061100565 -0.27289296274949931 0 -0.090762408808148426 -0.27102181932101072 0 -0.072744725061100565 -0.27289296274949931 0 -0.081281336266817772 -0.26097832242812891 0 -0.072744725061100565 -0.27289296274949931 0 -0.067161912638977472 -0.25903173736147111 0 -0.055745381016590281 -0.2682223094504298 0 -0.072744725061100565 -0.27289296274949931 0 -0.067161912638977472 -0.25903173736147111 0 -0.081281336266817772 -0.26097832242812891 0 -0.067161912638977472 -0.25903173736147111 0 -0.081281336266817772 -0.26097832242812891 0 -0.077955776651182085 -0.24454236002529731 0 -0.067161912638977472 -0.25903173736147111 0 -0.056939497423126581 -0.24878681181634871 0 -0.077955776651182085 -0.24454236002529731 0 -0.097628444613881649 -0.25834262822693399 0 -0.081281336266817772 -0.26097832242812891 0 -0.077955776651182085 -0.24454236002529731 0 -0.097628444613881649 -0.25834262822693399 0 -0.090762408808148426 -0.27102181932101072 0 -0.081281336266817772 -0.26097832242812891 0 -0.097628444613881649 -0.25834262822693399 0 -0.077955776651182085 -0.24454236002529731 0 -0.025857267464119819 -0.25506418495113531 0 -0.050191684441297867 -0.2485850187836515 0 -0.034199021844566052 -0.25740496373097072 0 -0.056939497423126581 -0.24878681181634871 0 -0.034199021844566052 -0.25740496373097072 0 -0.041398382443623198 -0.25192549838374201 0 -0.056939497423126581 -0.24878681181634871 0 -0.041398382443623198 -0.25192549838374201 0 -0.025857267464119819 -0.25506418495113531 0 -0.050191684441297867 -0.2485850187836515 0 -0.034199021844566052 -0.25740496373097072 0 -0.048255079716108998 -0.25800015923011232 0 -0.056939497423126581 -0.24878681181634871 0 -0.034199021844566052 -0.25740496373097072 0 -0.041398382443623198 -0.25192549838374201 0 -0.025857267464119819 -0.25506418495113531 0 -0.041398382443623198 -0.25192549838374201 0 -0.025857267464119819 -0.25506418495113531 0 -0.034199021844566052 -0.25740496373097072 0 -0.037307574571523318 -0.26201401924185519 0 -0.024854767991187229 -0.26705994663832661 0 -0.037307574571523318 -0.26201401924185519 0 -0.048255079716108998 -0.25800015923011232 0 -0.046606779304586107 -0.26584835010199509 0 -0.034199021844566052 -0.25740496373097072 0 -0.037307574571523318 -0.26201401924185519 0 -0.048255079716108998 -0.25800015923011232 0 -0.05702546769870083 -0.25851025446459042 0 -0.048255079716108998 -0.25800015923011232 0 -0.056939497423126581 -0.24878681181634871 0 -0.041398382443623198 -0.25192549838374201 0 -0.056939497423126581 -0.24878681181634871 0 -0.067161912638977472 -0.25903173736147111 0 -0.05702546769870083 -0.25851025446459042 0 -0.056939497423126581 -0.24878681181634871 0 -0.067161912638977472 -0.25903173736147111 0 -0.05702546769870083 -0.25851025446459042 0 -0.055745381016590281 -0.2682223094504298 0 -0.05702546769870083 -0.25851025446459042 0 -0.048255079716108998 -0.25800015923011232 0 -0.055745381016590281 -0.2682223094504298 0 -0.048255079716108998 -0.25800015923011232 0 -0.055745381016590281 -0.2682223094504298 0 -0.046606779304586107 -0.26584835010199509 0 -0.055745381016590281 -0.2682223094504298 0 -0.045119081914121867 -0.27515691248558288 0 -0.046606779304586107 -0.26584835010199509 0 -0.055745381016590281 -0.2682223094504298 0 -0.045119081914121867 -0.27515691248558288 0 -0.057136779716869042 -0.28712205926022771 0 -0.072744725061100565 -0.27289296274949931 0 -0.055745381016590281 -0.2682223094504298 0 -0.057136779716869042 -0.28712205926022771 0 -0.037307574571523318 -0.26201401924185519 0 -0.034478529498429812 -0.28951379058442123 0 -0.037307574571523318 -0.26201401924185519 0 -0.034478529498429812 -0.28951379058442123 0 -0.024854767991187229 -0.26705994663832661 0 -0.037307574571523318 -0.26201401924185519 0 -0.045119081914121867 -0.27515691248558288 0 -0.034478529498429812 -0.28951379058442123 0 -0.037307574571523318 -0.26201401924185519 0 -0.045119081914121867 -0.27515691248558288 0 -0.046606779304586107 -0.26584835010199509 0 -0.045119081914121867 -0.27515691248558288 0 -0.034478529498429812 -0.28951379058442123 0 -0.057136779716869042 -0.28712205926022771 0 -0.034478529498429812 -0.28951379058442123 0 -0.057136779716869042 -0.28712205926022771 0 -0.05012745319326059 -0.30445945297878008 0 -0.066237696895848033 -0.30175990202967712 0 -0.05012745319326059 -0.30445945297878008 0 -0.060613113796085999 -0.32288269869712272 0 -0.066237696895848033 -0.30175990202967712 0 -0.057136779716869042 -0.28712205926022771 0 -0.05012745319326059 -0.30445945297878008 0 -0.034478529498429812 -0.28951379058442123 0 -0.05012745319326059 -0.30445945297878008 0 -0.031649484425336299 -0.31701356192698721 0 -0.034478529498429812 -0.28951379058442123 0 -0.031649484425336299 -0.31701356192698721 0 -0.034478529498429812 -0.28951379058442123 0 -0.020284114256294641 -0.29759304008048471 0 -0.031649484425336299 -0.31701356192698721 0 -0.020284114256294641 -0.29759304008048471 0 -0.01007927323019326 -0.3103345258507364 0 -0.031649484425336299 -0.31701356192698721 0 -0.020284114256294641 -0.29759304008048471 0 -0.01007927323019326 -0.3103345258507364 0 -0.0080748459131490501 -0.2914060437848453 0 -0.01007927323019326 -0.3103345258507364 0 -0.0080748459131490501 -0.2914060437848453 0 0.0017563221397047381 -0.2997067901486577 0 -0.020284114256294641 -0.29759304008048471 0 -0.0080748459131490501 -0.2914060437848453 0 -0.017138438214364771 -0.27969727825543328 0 -0.0080748459131490501 -0.2914060437848453 0 -0.002848760243290064 -0.27761611820401882 0 0.0066437179820165657 -0.2861171845936395 0 -0.0080748459131490501 -0.2914060437848453 0 -0.017138438214364771 -0.27969727825543328 0 -0.002848760243290064 -0.27761611820401882 0 -0.034478529498429812 -0.28951379058442123 0 -0.020284114256294641 -0.29759304008048471 0 -0.017138438214364771 -0.27969727825543328 0 -0.034478529498429812 -0.28951379058442123 0 -0.024854767991187229 -0.26705994663832661 0 -0.017138438214364771 -0.27969727825543328 0 -0.024854767991187229 -0.26705994663832661 0 -0.01588915841142927 -0.27169793716392882 0 -0.01145854626600548 -0.26602311564559261 0 -0.024854767991187229 -0.26705994663832661 0 -0.01588915841142927 -0.27169793716392882 0 -0.017138438214364771 -0.27969727825543328 0 -0.017138438214364771 -0.27969727825543328 0 -0.011833725783772399 -0.27375861231724341 0 -0.002848760243290064 -0.27761611820401882 0 -0.01145854626600548 -0.26602311564559261 0 0.01128192931255503 -0.27464126756021451 0 -0.002848760243290064 -0.27761611820401882 0 -0.01145854626600548 -0.26602311564559261 0 0.01128192931255503 -0.27464126756021451 0 -0.01588915841142927 -0.27169793716392882 0 -0.017138438214364771 -0.27969727825543328 0 -0.011833725783772399 -0.27375861231724341 0 -0.011833725783772399 -0.27375861231724341 0 -0.002848760243290064 -0.27761611820401882 0 -0.01145854626600548 -0.26602311564559261 0 -0.01588915841142927 -0.27169793716392882 0 -0.011833725783772399 -0.27375861231724341 0 -0.01145854626600548 -0.26602311564559261 0 -0.01269776775011346 -0.25850600500130039 0 -0.0051360078472848583 -0.25701396995817721 0 0.0057158633005241696 -0.26337829885565528 0 -0.01145854626600548 -0.26602311564559261 0 -0.01269776775011346 -0.25850600500130039 0 0.0057158633005241696 -0.26337829885565528 0 -0.01269776775011346 -0.25850600500130039 0 0.0057158633005241696 -0.26337829885565528 0 -0.0009620894167222515 -0.25496392916579452 0 -0.0051360078472848583 -0.25701396995817721 0 0.0057158633005241696 -0.26337829885565528 0 -0.0071971320314794382 -0.2528457057960789 0 -0.01082738352359053 -0.24876902592697839 0 -0.0029313858115674811 -0.24854412401401971 0 -0.0009620894167222515 -0.25496392916579452 0 -0.0071971320314794382 -0.2528457057960789 0 -0.0029313858115674811 -0.24854412401401971 0 -0.0009620894167222515 -0.25496392916579452 0 -0.0051360078472848583 -0.25701396995817721 0 -0.0071971320314794382 -0.2528457057960789 0 -0.0051360078472848583 -0.25701396995817721 0 -0.0071971320314794382 -0.2528457057960789 0 -0.0094143843739788544 -0.25459574361389747 0 -0.0071971320314794382 -0.2528457057960789 0 -0.0094143843739788544 -0.25459574361389747 0 -0.01082738352359053 -0.24876902592697839 0 -0.01269776775011346 -0.25850600500130039 0 -0.0094143843739788544 -0.25459574361389747 0 -0.01082738352359053 -0.24876902592697839 0 -0.01269776775011346 -0.25850600500130039 0 -0.0051360078472848583 -0.25701396995817721 0 -0.0094143843739788544 -0.25459574361389747 0 -0.01269776775011346 -0.25850600500130039 0 -0.025857267464119819 -0.25506418495113531 0 -0.034199021844566052 -0.25740496373097072 0 -0.01145854626600548 -0.26602311564559261 0 -0.025857267464119819 -0.25506418495113531 0 -0.01269776775011346 -0.25850600500130039 0 -0.025857267464119819 -0.25506418495113531 0 -0.02368513365757598 -0.23851275990414511 0 -0.034199021844566052 -0.25740496373097072 0 -0.024854767991187229 -0.26705994663832661 0 -0.01145854626600548 -0.26602311564559261 0 -0.034199021844566052 -0.25740496373097072 0 -0.01145854626600548 -0.26602311564559261 0 -0.01145854626600548 -0.26602311564559261 0 -0.01269776775011346 -0.25850600500130039 0 -0.025857267464119819 -0.25506418495113531 0 -0.046940286889098168 -0.35955036210978841 0 -0.050269733973634309 -0.3392354021108881 0 -0.02882043935224279 -0.34451333326955308 0 -0.046940286889098168 -0.35955036210978841 0 -0.02882043935224279 -0.34451333326955308 0 -0.026419717968229769 -0.36867473508972981 0 -0.046940286889098168 -0.35955036210978841 0 -0.026419717968229769 -0.36867473508972981 0 -0.046935058978613817 -0.3783756837809118 0 -0.065890469742167113 -0.37350781086095058 0 -0.046940286889098168 -0.35955036210978841 0 -0.046935058978613817 -0.3783756837809118 0 -0.063306301319701316 -0.35299520754669739 0 -0.065890469742167113 -0.37350781086095058 0 -0.046940286889098168 -0.35955036210978841 0 -0.063306301319701316 -0.35299520754669739 0 -0.046940286889098168 -0.35955036210978841 0 -0.050269733973634309 -0.3392354021108881 0 -0.073144777225565616 -0.33606175945158517 0 -0.063306301319701316 -0.35299520754669739 0 -0.050269733973634309 -0.3392354021108881 0 -0.073144777225565616 -0.33606175945158517 0 -0.050269733973634309 -0.3392354021108881 0 -0.060613113796085999 -0.32288269869712272 0 -0.050269733973634309 -0.3392354021108881 0 -0.060613113796085999 -0.32288269869712272 0 -0.031649484425336299 -0.31701356192698721 0 -0.05012745319326059 -0.30445945297878008 0 -0.060613113796085999 -0.32288269869712272 0 -0.031649484425336299 -0.31701356192698721 0 -0.050269733973634309 -0.3392354021108881 0 -0.031649484425336299 -0.31701356192698721 0 -0.02882043935224279 -0.34451333326955308 0 -0.031649484425336299 -0.31701356192698721 0 -0.02882043935224279 -0.34451333326955308 0 -0.031649484425336299 -0.31701356192698721 0 -0.0038616663111063101 -0.33241552487502413 0 -0.02882043935224279 -0.34451333326955308 0 -0.01007927323019326 -0.3103345258507364 0 -0.031649484425336299 -0.31701356192698721 0 -0.0038616663111063101 -0.33241552487502413 0 -0.01007927323019326 -0.3103345258507364 0 -0.0038616663111063101 -0.33241552487502413 0 0.0094652366165251054 -0.31053241408104548 0 -0.0038616663111063101 -0.33241552487502413 0 -0.0043130761299947744 -0.35643483176966217 0 -0.02882043935224279 -0.34451333326955308 0 -0.0043130761299947744 -0.35643483176966217 0 -0.02882043935224279 -0.34451333326955308 0 -0.026419717968229769 -0.36867473508972981 0 -0.0043130761299947744 -0.35643483176966217 0 -0.026419717968229769 -0.36867473508972981 0 -0.0064694903547723136 -0.38059021958606692 0 -0.0064694903547723136 -0.38059021958606692 0 -0.0080625817845775948 -0.40608726553411861 0 -0.026496984295852101 -0.39226102623928111 0 -0.0064694903547723136 -0.38059021958606692 0 -0.0080625817845775948 -0.40608726553411861 0 0.009690974369139977 -0.39295199195252922 0 -0.0080625817845775948 -0.40608726553411861 0 -0.026496984295852101 -0.39226102623928111 0 -0.029852467816379728 -0.41236872525256307 0 -0.026419717968229769 -0.36867473508972981 0 -0.0064694903547723136 -0.38059021958606692 0 -0.026496984295852101 -0.39226102623928111 0 -0.026496984295852101 -0.39226102623928111 0 -0.048213792324517578 -0.39768762776665978 0 -0.046935058978613817 -0.3783756837809118 0 -0.026419717968229769 -0.36867473508972981 0 -0.026496984295852101 -0.39226102623928111 0 -0.046935058978613817 -0.3783756837809118 0 -0.026496984295852101 -0.39226102623928111 0 -0.048213792324517578 -0.39768762776665978 0 -0.029852467816379728 -0.41236872525256307 0 -0.048213792324517578 -0.39768762776665978 0 -0.065379196062645584 -0.39052657147488062 0 -0.06528413140028641 -0.40548789039177052 0 -0.048213792324517578 -0.39768762776665978 0 -0.046935058978613817 -0.3783756837809118 0 -0.065379196062645584 -0.39052657147488062 0 -0.065890469742167113 -0.37350781086095058 0 -0.046935058978613817 -0.3783756837809118 0 -0.065379196062645584 -0.39052657147488062 0 -0.052630130657334448 -0.42871109396582502 0 -0.036803499053157718 -0.43392585985635063 0 -0.055908543568221357 -0.44353945242809251 0 -0.052630130657334448 -0.42871109396582502 0 -0.048282499091199083 -0.41684649723306111 0 -0.065713266975248902 -0.42040157794015642 0 -0.052630130657334448 -0.42871109396582502 0 -0.055908543568221357 -0.44353945242809251 0 -0.077753046024815156 -0.43509142098737241 0 -0.048282499091199083 -0.41684649723306111 0 -0.06528413140028641 -0.40548789039177052 0 -0.065713266975248902 -0.42040157794015642 0 -0.048213792324517578 -0.39768762776665978 0 -0.048282499091199083 -0.41684649723306111 0 -0.06528413140028641 -0.40548789039177052 0 -0.048213792324517578 -0.39768762776665978 0 -0.048282499091199083 -0.41684649723306111 0 -0.029852467816379728 -0.41236872525256307 0 -0.048282499091199083 -0.41684649723306111 0 -0.036803499053157718 -0.43392585985635063 0 -0.029852467816379728 -0.41236872525256307 0 -0.052630130657334448 -0.42871109396582502 0 -0.048282499091199083 -0.41684649723306111 0 -0.036803499053157718 -0.43392585985635063 0 -0.036803499053157718 -0.43392585985635063 0 -0.01686747062211669 -0.42668809062348251 0 -0.022482277956740859 -0.44034230556013138 0 -0.036803499053157718 -0.43392585985635063 0 -0.01686747062211669 -0.42668809062348251 0 -0.029852467816379728 -0.41236872525256307 0 -0.0080625817845775948 -0.40608726553411861 0 -0.01686747062211669 -0.42668809062348251 0 -0.029852467816379728 -0.41236872525256307 0 -0.0080625817845775948 -0.40608726553411861 0 -0.01686747062211669 -0.42668809062348251 0 0.01224976062295041 -0.42183763890738629 0 -0.01686747062211669 -0.42668809062348251 0 -0.008216644178786571 -0.4466179140804285 0 0.01224976062295041 -0.42183763890738629 0 -0.008216644178786571 -0.4466179140804285 0 -0.0021957942935651631 -0.46571035637089769 0 -0.016151777162071251 -0.46269316979172348 0 -0.0021957942935651631 -0.46571035637089769 0 -0.016151777162071251 -0.46269316979172348 0 -0.01292321871024151 -0.47600360382280887 0 -0.008216644178786571 -0.4466179140804285 0 -0.016151777162071251 -0.46269316979172348 0 -0.028753682251359231 -0.45370767630375852 0 -0.016151777162071251 -0.46269316979172348 0 -0.030722049445265721 -0.46513815794063051 0 -0.025757536927686689 -0.47561542944709773 0 -0.016151777162071251 -0.46269316979172348 0 -0.030722049445265721 -0.46513815794063051 0 -0.028753682251359231 -0.45370767630375852 0 -0.036803499053157718 -0.43392585985635063 0 -0.028753682251359231 -0.45370767630375852 0 -0.022482277956740859 -0.44034230556013138 0 -0.01686747062211669 -0.42668809062348251 0 -0.008216644178786571 -0.4466179140804285 0 -0.022482277956740859 -0.44034230556013138 0 -0.008216644178786571 -0.4466179140804285 0 -0.028753682251359231 -0.45370767630375852 0 -0.022482277956740859 -0.44034230556013138 0 -0.011489863113854141 -0.5 0 -0.010144146689038991 -0.48941639725935437 0 0.012735562036971701 -0.48508522326900949 0 -0.010144146689038991 -0.48941639725935437 0 -0.00065605929082254884 -0.47874224407546379 0 -0.01292321871024151 -0.47600360382280887 0 -0.010144146689038991 -0.48941639725935437 0 -0.01292321871024151 -0.47600360382280887 0 -0.022633997898264431 -0.48384402599231691 0 -0.0021957942935651631 -0.46571035637089769 0 -0.00065605929082254884 -0.47874224407546379 0 -0.01292321871024151 -0.47600360382280887 0 -0.016151777162071251 -0.46269316979172348 0 -0.01292321871024151 -0.47600360382280887 0 -0.025757536927686689 -0.47561542944709773 0 -0.025757536927686689 -0.47561542944709773 0 -0.022633997898264431 -0.48384402599231691 0 -0.032724513000240443 -0.48384135401243772 0 -0.01292321871024151 -0.47600360382280887 0 -0.025757536927686689 -0.47561542944709773 0 -0.022633997898264431 -0.48384402599231691 0 -0.011489863113854141 -0.5 0 -0.010144146689038991 -0.48941639725935437 0 -0.033023855415049652 -0.49374757124969931 0 -0.010144146689038991 -0.48941639725935437 0 -0.022633997898264431 -0.48384402599231691 0 -0.033023855415049652 -0.49374757124969931 0 -0.011489863113854141 -0.5 0 -0.041002190054857779 -0.5 0 -0.033023855415049652 -0.49374757124969931 0 -0.010144146689038991 -0.48941639725935437 0 -0.033023855415049652 -0.49374757124969931 0 -0.022633997898264431 -0.48384402599231691 0 -0.033023855415049652 -0.49374757124969931 0 -0.032724513000240443 -0.48384135401243772 0 -0.041002190054857779 -0.5 0 -0.040644419244316249 -0.48874723383863622 0 -0.055758353525359711 -0.48944453406372251 0 -0.041002190054857779 -0.5 0 -0.033023855415049652 -0.49374757124969931 0 -0.040644419244316249 -0.48874723383863622 0 -0.033023855415049652 -0.49374757124969931 0 -0.040644419244316249 -0.48874723383863622 0 -0.032724513000240443 -0.48384135401243772 0 -0.040644419244316249 -0.48874723383863622 0 -0.040713184226073652 -0.47670270986732172 0 -0.055758353525359711 -0.48944453406372251 0 -0.040644419244316249 -0.48874723383863622 0 -0.040713184226073652 -0.47670270986732172 0 -0.032724513000240443 -0.48384135401243772 0 -0.025757536927686689 -0.47561542944709773 0 -0.040713184226073652 -0.47670270986732172 0 -0.032724513000240443 -0.48384135401243772 0 -0.030722049445265721 -0.46513815794063051 0 -0.025757536927686689 -0.47561542944709773 0 -0.040713184226073652 -0.47670270986732172 0 -0.040713184226073652 -0.47670270986732172 0 -0.05604151524233808 -0.47085547185542692 0 -0.042137987481662489 -0.46199998676314519 0 -0.040713184226073652 -0.47670270986732172 0 -0.05604151524233808 -0.47085547185542692 0 -0.055758353525359711 -0.48944453406372251 0 -0.05604151524233808 -0.47085547185542692 0 -0.055758353525359711 -0.48944453406372251 0 -0.068357021366280857 -0.47830767763467641 0 -0.041002190054857779 -0.5 0 -0.055758353525359711 -0.48944453406372251 0 -0.070514516995861642 -0.5 0 -0.036803499053157718 -0.43392585985635063 0 -0.028753682251359231 -0.45370767630375852 0 -0.042591220718736618 -0.44931976272637059 0 -0.036803499053157718 -0.43392585985635063 0 -0.042591220718736618 -0.44931976272637059 0 -0.055908543568221357 -0.44353945242809251 0 -0.028753682251359231 -0.45370767630375852 0 -0.042591220718736618 -0.44931976272637059 0 -0.042137987481662489 -0.46199998676314519 0 -0.030722049445265721 -0.46513815794063051 0 -0.028753682251359231 -0.45370767630375852 0 -0.042137987481662489 -0.46199998676314519 0 -0.030722049445265721 -0.46513815794063051 0 -0.040713184226073652 -0.47670270986732172 0 -0.042137987481662489 -0.46199998676314519 0 -0.042591220718736618 -0.44931976272637059 0 -0.042137987481662489 -0.46199998676314519 0 -0.054601469153056192 -0.45704509188174619 0 -0.05604151524233808 -0.47085547185542692 0 -0.054601469153056192 -0.45704509188174619 0 -0.071896784036839162 -0.45711427830285839 0 -0.05604151524233808 -0.47085547185542692 0 -0.042137987481662489 -0.46199998676314519 0 -0.054601469153056192 -0.45704509188174619 0 -0.054601469153056192 -0.45704509188174619 0 -0.055908543568221357 -0.44353945242809251 0 -0.071896784036839162 -0.45711427830285839 0 -0.042591220718736618 -0.44931976272637059 0 -0.054601469153056192 -0.45704509188174619 0 -0.055908543568221357 -0.44353945242809251 0 -0.055908543568221357 -0.44353945242809251 0 -0.071896784036839162 -0.45711427830285839 0 -0.077753046024815156 -0.43509142098737241 0 -0.071896784036839162 -0.45711427830285839 0 -0.087573937031005744 -0.47412410395137422 0 -0.093954286744555499 -0.45179652052777369 0 -0.087573937031005744 -0.47412410395137422 0 -0.093954286744555499 -0.45179652052777369 0 -0.071896784036839162 -0.45711427830285839 0 -0.093954286744555499 -0.45179652052777369 0 -0.077753046024815156 -0.43509142098737241 0 -0.093954286744555499 -0.45179652052777369 0 -0.10033463645810529 -0.42946893710417328 0 -0.077753046024815156 -0.43509142098737241 0 -0.055758353525359711 -0.48944453406372251 0 -0.070514516995861642 -0.5 0 -0.068357021366280857 -0.47830767763467641 0 -0.05604151524233808 -0.47085547185542692 0 -0.071896784036839162 -0.45711427830285839 0 -0.068357021366280857 -0.47830767763467641 0 -0.071896784036839162 -0.45711427830285839 0 -0.068357021366280857 -0.47830767763467641 0 -0.087573937031005744 -0.47412410395137422 0 -0.070514516995861642 -0.5 0 -0.068357021366280857 -0.47830767763467641 0 -0.087573937031005744 -0.47412410395137422 0 -0.070514516995861642 -0.5 0 -0.087573937031005744 -0.47412410395137422 0 -0.10002684393686551 -0.5 0 -0.087573937031005744 -0.47412410395137422 0 -0.10002684393686551 -0.5 0 -0.10780494223314389 -0.47765854937150709 0 -0.087573937031005744 -0.47412410395137422 0 -0.10780494223314389 -0.47765854937150709 0 -0.1029954147344513 -0.46359439800738522 0 -0.12605423818426559 -0.48707922202292669 0 -0.10780494223314389 -0.47765854937150709 0 -0.1201929706126502 -0.46127799294672761 0 -0.12605423818426559 -0.48707922202292669 0 -0.1201929706126502 -0.46127799294672761 0 -0.12605423818426559 -0.48707922202292669 0 -0.10002684393686551 -0.5 0 -0.10780494223314389 -0.47765854937150709 0 -0.1295391708778694 -0.5 0 -0.12605423818426559 -0.48707922202292669 0 -0.10002684393686551 -0.5 0 -0.093954286744555499 -0.45179652052777369 0 -0.10033463645810529 -0.42946893710417328 0 -0.10636180231815941 -0.44832292249131772 0 -0.11433170304103479 -0.43547676387052858 0 -0.10033463645810529 -0.42946893710417328 0 -0.10636180231815941 -0.44832292249131772 0 -0.093954286744555499 -0.45179652052777369 0 -0.10033463645810529 -0.42946893710417328 0 -0.087573937031005744 -0.47412410395137422 0 -0.093954286744555499 -0.45179652052777369 0 -0.1029954147344513 -0.46359439800738522 0 -0.10636180231815941 -0.44832292249131772 0 -0.093954286744555499 -0.45179652052777369 0 -0.1029954147344513 -0.46359439800738522 0 -0.10780494223314389 -0.47765854937150709 0 -0.1029954147344513 -0.46359439800738522 0 -0.1201929706126502 -0.46127799294672761 0 -0.10636180231815941 -0.44832292249131772 0 -0.1029954147344513 -0.46359439800738522 0 -0.1201929706126502 -0.46127799294672761 0 -0.13671083813600751 -0.45044361347006462 0 -0.1201929706126502 -0.46127799294672761 0 -0.11433170304103479 -0.43547676387052858 0 -0.10636180231815941 -0.44832292249131772 0 -0.1201929706126502 -0.46127799294672761 0 -0.11433170304103479 -0.43547676387052858 0 -0.13671083813600751 -0.45044361347006462 0 -0.1225906368027144 -0.43005957413219659 0 -0.11433170304103479 -0.43547676387052858 0 -0.1201929706126502 -0.46127799294672761 0 -0.11433170304103479 -0.43547676387052858 0 -0.1225906368027144 -0.43005957413219659 0 -0.11433170304103479 -0.43547676387052858 0 -0.10847043546942051 -0.40967553479432928 0 -0.11433170304103479 -0.43547676387052858 0 -0.10847043546942051 -0.40967553479432928 0 -0.12908399078123631 -0.42243277819987513 0 -0.1225906368027144 -0.43005957413219659 0 -0.12315425937001 -0.41747458531602638 0 -0.11433170304103479 -0.43547676387052858 0 -0.10033463645810529 -0.42946893710417328 0 -0.10847043546942051 -0.40967553479432928 0 -0.10033463645810529 -0.42946893710417328 0 -0.094107383989168333 -0.41562629379671062 0 -0.1067149861716557 -0.40714135368057303 0 -0.10033463645810529 -0.42946893710417328 0 -0.1067149861716557 -0.40714135368057303 0 -0.10847043546942051 -0.40967553479432928 0 -0.10033463645810529 -0.42946893710417328 0 -0.1067149861716557 -0.40714135368057303 0 -0.094107383989168333 -0.41562629379671062 0 -0.1067149861716557 -0.40714135368057303 0 -0.093615658715422545 -0.40476526464288082 0 -0.10847043546942051 -0.40967553479432928 0 -0.1105756132387118 -0.40676785322215941 0 -0.1073722461642546 -0.40484131873350049 0 -0.10847043546942051 -0.40967553479432928 0 -0.1073722461642546 -0.40484131873350049 0 -0.1067149861716557 -0.40714135368057303 0 -0.10847043546942051 -0.40967553479432928 0 -0.1073722461642546 -0.40484131873350049 0 -0.1067149861716557 -0.40714135368057303 0 -0.10847043546942051 -0.40967553479432928 0 -0.1225906368027144 -0.43005957413219659 0 -0.1163272184937543 -0.41351727508190028 0 -0.12315425937001 -0.41747458531602638 0 -0.10847043546942051 -0.40967553479432928 0 -0.1125412123036873 -0.40894162881917728 0 -0.1163272184937543 -0.41351727508190028 0 -0.1125412123036873 -0.40894162881917728 0 -0.1105756132387118 -0.40676785322215941 0 -0.1147915820128618 -0.40580585217832088 0 -0.1225906368027144 -0.43005957413219659 0 -0.10847043546942051 -0.40967553479432928 0 -0.1163272184937543 -0.41351727508190028 0 -0.10847043546942051 -0.40967553479432928 0 -0.1125412123036873 -0.40894162881917728 0 -0.1105756132387118 -0.40676785322215941 0 -0.1225906368027144 -0.43005957413219659 0 -0.10847043546942051 -0.40967553479432928 0 -0.1125412123036873 -0.40894162881917728 0 -0.1163272184937543 -0.41351727508190028 0 -0.1147915820128618 -0.40580585217832088 0 -0.1225700411049412 -0.40994677461386392 0 -0.1219584454402414 -0.40406961642135292 0 -0.1147915820128618 -0.40580585217832088 0 -0.1163272184937543 -0.41351727508190028 0 -0.1225700411049412 -0.40994677461386392 0 -0.1147915820128618 -0.40580585217832088 0 -0.1163272184937543 -0.41351727508190028 0 -0.12315425937001 -0.41747458531602638 0 -0.1225700411049412 -0.40994677461386392 0 -0.1273295258527142 -0.39594401256049883 0 -0.1219584454402414 -0.40406961642135292 0 -0.1190781430676657 -0.39944145851713192 0 -0.11305295545189779 -0.39895005080087959 0 -0.11384267237711319 -0.38219851895920232 0 -0.1073722461642546 -0.40484131873350049 0 -0.1295768038857959 -0.40463739140698729 0 -0.1225700411049412 -0.40994677461386392 0 -0.1219584454402414 -0.40406961642135292 0 -0.1182582065806136 -0.392437760624607 0 -0.11305295545189779 -0.39895005080087959 0 -0.11384267237711319 -0.38219851895920232 0 -0.11384267237711319 -0.38219851895920232 0 -0.1073722461642546 -0.40484131873350049 0 -0.1219584454402414 -0.40406961642135292 0 -0.1190781430676657 -0.39944145851713192 0 -0.1147915820128618 -0.40580585217832088 0 -0.1273295258527142 -0.39594401256049883 0 -0.1190781430676657 -0.39944145851713192 0 -0.1182582065806136 -0.392437760624607 0 -0.1190781430676657 -0.39944145851713192 0 -0.1182582065806136 -0.392437760624607 0 -0.11305295545189779 -0.39895005080087959 0 -0.1105756132387118 -0.40676785322215941 0 -0.1114480992169309 -0.40409126873371493 0 -0.1073722461642546 -0.40484131873350049 0 -0.1105756132387118 -0.40676785322215941 0 -0.1114480992169309 -0.40409126873371493 0 -0.1147915820128618 -0.40580585217832088 0 -0.11305295545189779 -0.39895005080087959 0 -0.1114480992169309 -0.40409126873371493 0 -0.1147915820128618 -0.40580585217832088 0 -0.11305295545189779 -0.39895005080087959 0 -0.1114480992169309 -0.40409126873371493 0 -0.1073722461642546 -0.40484131873350049 0 -0.1190781430676657 -0.39944145851713192 0 -0.11305295545189779 -0.39895005080087959 0 -0.1147915820128618 -0.40580585217832088 0 -0.12625141541498519 -0.38197991289387551 0 -0.1182582065806136 -0.392437760624607 0 -0.11384267237711319 -0.38219851895920232 0 -0.12625141541498519 -0.38197991289387551 0 -0.1273295258527142 -0.39594401256049883 0 -0.1182582065806136 -0.392437760624607 0 -0.11384267237711319 -0.38219851895920232 0 -0.10176491866177829 -0.38015793077534599 0 -0.1073722461642546 -0.40484131873350049 0 -0.10176491866177829 -0.38015793077534599 0 -0.095995502779844255 -0.39166661886747001 0 -0.085276019388031976 -0.37619188405436782 0 -0.10849363524981311 -0.36442991456039969 0 -0.11384267237711319 -0.38219851895920232 0 -0.10176491866177829 -0.38015793077534599 0 -0.10176491866177829 -0.38015793077534599 0 -0.1073722461642546 -0.40484131873350049 0 -0.095995502779844255 -0.39166661886747001 0 -0.10176491866177829 -0.38015793077534599 0 -0.1073722461642546 -0.40484131873350049 0 -0.1067149861716557 -0.40714135368057303 0 -0.1073722461642546 -0.40484131873350049 0 -0.095995502779844255 -0.39166661886747001 0 -0.1067149861716557 -0.40714135368057303 0 -0.1073722461642546 -0.40484131873350049 0 -0.1067149861716557 -0.40714135368057303 0 -0.095995502779844255 -0.39166661886747001 0 -0.1067149861716557 -0.40714135368057303 0 -0.095995502779844255 -0.39166661886747001 0 -0.093615658715422545 -0.40476526464288082 0 -0.093615658715422545 -0.40476526464288082 0 -0.081664681120336771 -0.39582842074610342 0 -0.082451352827770552 -0.41163664718976212 0 -0.095995502779844255 -0.39166661886747001 0 -0.093615658715422545 -0.40476526464288082 0 -0.081664681120336771 -0.39582842074610342 0 -0.095995502779844255 -0.39166661886747001 0 -0.081664681120336771 -0.39582842074610342 0 -0.085276019388031976 -0.37619188405436782 0 -0.081664681120336771 -0.39582842074610342 0 -0.085276019388031976 -0.37619188405436782 0 -0.074552591578295357 -0.38401367178407558 0 -0.095995502779844255 -0.39166661886747001 0 -0.085276019388031976 -0.37619188405436782 0 -0.081664681120336771 -0.39582842074610342 0 -0.065379196062645584 -0.39052657147488062 0 -0.074552591578295357 -0.38401367178407558 0 -0.065890469742167113 -0.37350781086095058 0 -0.085276019388031976 -0.37619188405436782 0 -0.074552591578295357 -0.38401367178407558 0 -0.065890469742167113 -0.37350781086095058 0 -0.065379196062645584 -0.39052657147488062 0 -0.074552591578295357 -0.38401367178407558 0 -0.081664681120336771 -0.39582842074610342 0 -0.06528413140028641 -0.40548789039177052 0 -0.082451352827770552 -0.41163664718976212 0 -0.081664681120336771 -0.39582842074610342 0 -0.065379196062645584 -0.39052657147488062 0 -0.06528413140028641 -0.40548789039177052 0 -0.065713266975248902 -0.42040157794015642 0 -0.085028608260126398 -0.42320905853578622 0 -0.082451352827770552 -0.41163664718976212 0 -0.06528413140028641 -0.40548789039177052 0 -0.065713266975248902 -0.42040157794015642 0 -0.082451352827770552 -0.41163664718976212 0 -0.065713266975248902 -0.42040157794015642 0 -0.077753046024815156 -0.43509142098737241 0 -0.085028608260126398 -0.42320905853578622 0 -0.052630130657334448 -0.42871109396582502 0 -0.065713266975248902 -0.42040157794015642 0 -0.077753046024815156 -0.43509142098737241 0 -0.10033463645810529 -0.42946893710417328 0 -0.077753046024815156 -0.43509142098737241 0 -0.085028608260126398 -0.42320905853578622 0 -0.10033463645810529 -0.42946893710417328 0 -0.094107383989168333 -0.41562629379671062 0 -0.085028608260126398 -0.42320905853578622 0 -0.094107383989168333 -0.41562629379671062 0 -0.085028608260126398 -0.42320905853578622 0 -0.082451352827770552 -0.41163664718976212 0 -0.094107383989168333 -0.41562629379671062 0 -0.093615658715422545 -0.40476526464288082 0 -0.082451352827770552 -0.41163664718976212 0 -0.080832567710134945 -0.085265223789800185 0 -0.09573268077664969 -0.090624673380050064 0 -0.094924188455715333 -0.074372309221374736 0 -0.080832567710134945 -0.085265223789800185 0 -0.0944050220014645 -0.1050702242089397 0 -0.09573268077664969 -0.090624673380050064 0 -0.094924188455715333 -0.074372309221374736 0 -0.077079431972146645 -0.050953682142663811 0 -0.080832567710134945 -0.085265223789800185 0 -0.077460787511610923 -0.070469280456870842 0 -0.094924188455715333 -0.074372309221374736 0 -0.077460787511610923 -0.070469280456870842 0 -0.094924188455715333 -0.074372309221374736 0 -0.078535685693175539 -0.061573663464548622 0 -0.080832567710134945 -0.085265223789800185 0 -0.072736864716213656 -0.076885636419884412 0 -0.077460787511610923 -0.070469280456870842 0 -0.072736864716213656 -0.076885636419884412 0 -0.077460787511610923 -0.070469280456870842 0 -0.067174029152377468 -0.071022972744677337 0 -0.077460787511610923 -0.070469280456870842 0 -0.067174029152377468 -0.071022972744677337 0 -0.070308423821052124 -0.061023041189074957 0 -0.077460787511610923 -0.070469280456870842 0 -0.078535685693175539 -0.061573663464548622 0 -0.070308423821052124 -0.061023041189074957 0 -0.067174029152377468 -0.071022972744677337 0 -0.070308423821052124 -0.061023041189074957 0 -0.060830035872249492 -0.064558057335980773 0 -0.072736864716213656 -0.076885636419884412 0 -0.067174029152377468 -0.071022972744677337 0 -0.063732237529271596 -0.080733089011810297 0 -0.067174029152377468 -0.071022972744677337 0 -0.063732237529271596 -0.080733089011810297 0 -0.058000192015007383 -0.073011667883306972 0 -0.080832567710134945 -0.085265223789800185 0 -0.063732237529271596 -0.080733089011810297 0 -0.066023591375222151 -0.09957098179305135 0 -0.080832567710134945 -0.085265223789800185 0 -0.072736864716213656 -0.076885636419884412 0 -0.063732237529271596 -0.080733089011810297 0 -0.066023591375222151 -0.09957098179305135 0 -0.069466171350113709 -0.1135628440840601 0 -0.0944050220014645 -0.1050702242089397 0 -0.066023591375222151 -0.09957098179305135 0 -0.069466171350113709 -0.1135628440840601 0 -0.054384952187449757 -0.110609208962567 0 -0.077516787342341589 -0.1242022911324857 0 -0.069466171350113709 -0.1135628440840601 0 -0.059238207921678762 -0.13024384051707169 0 -0.077516787342341589 -0.1242022911324857 0 -0.093262550211769629 -0.1231040070079162 0 -0.0944050220014645 -0.1050702242089397 0 -0.077516787342341589 -0.1242022911324857 0 -0.069466171350113709 -0.1135628440840601 0 -0.0944050220014645 -0.1050702242089397 0 -0.066023591375222151 -0.09957098179305135 0 -0.0944050220014645 -0.1050702242089397 0 -0.080832567710134945 -0.085265223789800185 0 -0.066023591375222151 -0.09957098179305135 0 -0.0944050220014645 -0.1050702242089397 0 -0.0944050220014645 -0.1050702242089397 0 -0.1071147179002416 -0.1244919901550422 0 -0.11276894493928399 -0.097790936300085646 0 -0.0944050220014645 -0.1050702242089397 0 -0.11276894493928399 -0.097790936300085646 0 -0.09573268077664969 -0.090624673380050064 0 -0.093262550211769629 -0.1231040070079162 0 -0.0944050220014645 -0.1050702242089397 0 -0.1071147179002416 -0.1244919901550422 0 -0.1071147179002416 -0.1244919901550422 0 -0.11276894493928399 -0.097790936300085646 0 -0.1306137014228527 -0.1212095633787966 0 -0.11276894493928399 -0.097790936300085646 0 -0.1306137014228527 -0.1212095633787966 0 -0.112702195828283 -0.076339248342475546 0 -0.13438499311011279 -0.096174695905308166 0 -0.11276894493928399 -0.097790936300085646 0 -0.112702195828283 -0.076339248342475546 0 -0.13438499311011279 -0.096174695905308166 0 -0.11276894493928399 -0.097790936300085646 0 -0.094924188455715333 -0.074372309221374736 0 -0.112702195828283 -0.076339248342475546 0 -0.11276894493928399 -0.097790936300085646 0 -0.094924188455715333 -0.074372309221374736 0 -0.11276894493928399 -0.097790936300085646 0 -0.09573268077664969 -0.090624673380050064 0 -0.094924188455715333 -0.074372309221374736 0 -0.094924188455715333 -0.074372309221374736 0 -0.1026030192468113 -0.064894788769428779 0 -0.112702195828283 -0.076339248342475546 0 -0.094924188455715333 -0.074372309221374736 0 -0.1026030192468113 -0.064894788769428779 0 -0.090333769324138391 -0.059362086744932152 0 -0.1026030192468113 -0.064894788769428779 0 -0.112702195828283 -0.076339248342475546 0 -0.1158705629695205 -0.060236298698018297 0 -0.112702195828283 -0.076339248342475546 0 -0.1158705629695205 -0.060236298698018297 0 -0.13497135686491851 -0.078315161523928284 0 -0.1158705629695205 -0.060236298698018297 0 -0.1150956899200111 -0.045830426672337207 0 -0.1070798181065768 -0.041876824406217303 0 -0.1158705629695205 -0.060236298698018297 0 -0.1150956899200111 -0.045830426672337207 0 -0.12809376798702951 -0.047905065599393698 0 -0.1163329610324388 -0.034474533447810513 0 -0.12530131535501859 -0.034952786400489197 0 -0.12809376798702951 -0.047905065599393698 0 -0.11023593420079281 -0.033339602888773932 0 -0.1150956899200111 -0.045830426672337207 0 -0.12809376798702951 -0.047905065599393698 0 -0.11023593420079281 -0.033339602888773932 0 -0.1163329610324388 -0.034474533447810513 0 -0.12809376798702951 -0.047905065599393698 0 -0.11023593420079281 -0.033339602888773932 0 -0.12809376798702951 -0.047905065599393698 0 -0.1163329610324388 -0.034474533447810513 0 -0.1221370268088495 -0.025998648103035 0 -0.12530131535501859 -0.034952786400489197 0 -0.11023593420079281 -0.033339602888773932 0 -0.1150956899200111 -0.045830426672337207 0 -0.1070798181065768 -0.041876824406217303 0 -0.11023593420079281 -0.033339602888773932 0 -0.1163329610324388 -0.034474533447810513 0 -0.097427134368436918 -0.027820357899848831 0 -0.11023593420079281 -0.033339602888773932 0 -0.1070798181065768 -0.041876824406217303 0 -0.097427134368436918 -0.027820357899848831 0 -0.1070798181065768 -0.041876824406217303 0 -0.096769769074122519 -0.04215743587210824 0 -0.097427134368436918 -0.027820357899848831 0 -0.1158705629695205 -0.060236298698018297 0 -0.1070798181065768 -0.041876824406217303 0 -0.096769769074122519 -0.04215743587210824 0 -0.1026030192468113 -0.064894788769428779 0 -0.1158705629695205 -0.060236298698018297 0 -0.099264754381345577 -0.055060356505970513 0 -0.1158705629695205 -0.060236298698018297 0 -0.096769769074122519 -0.04215743587210824 0 -0.099264754381345577 -0.055060356505970513 0 -0.096769769074122519 -0.04215743587210824 0 -0.099264754381345577 -0.055060356505970513 0 -0.090746651292135133 -0.048651172445365112 0 -0.1158705629695205 -0.060236298698018297 0 -0.096769769074122519 -0.04215743587210824 0 -0.1026030192468113 -0.064894788769428779 0 -0.099264754381345577 -0.055060356505970513 0 -0.090333769324138391 -0.059362086744932152 0 -0.1029392013539359 -0.0085751277431150782 0 -0.12735709500343681 0.004015926865657337 0 -0.1236693299605585 -0.0137973575501921 0 -0.1110604598185659 -0.0207882196779367 0 -0.1029392013539359 -0.0085751277431150782 0 -0.1236693299605585 -0.0137973575501921 0 -0.1029392013539359 -0.0085751277431150782 0 -0.12735709500343681 0.004015926865657337 0 -0.1236693299605585 -0.0137973575501921 0 -0.1110604598185659 -0.0207882196779367 0 -0.1221370268088495 -0.025998648103035 0 -0.1163329610324388 -0.034474533447810513 0 -0.1221370268088495 -0.025998648103035 0 -0.11173939550707281 -0.027270439782157759 0 -0.1110604598185659 -0.0207882196779367 0 -0.1221370268088495 -0.025998648103035 0 -0.11173939550707281 -0.027270439782157759 0 -0.1163329610324388 -0.034474533447810513 0 -0.097427134368436918 -0.027820357899848831 0 -0.1110604598185659 -0.0207882196779367 0 -0.097427134368436918 -0.027820357899848831 0 -0.1029392013539359 -0.0085751277431150782 0 -0.1163329610324388 -0.034474533447810513 0 -0.11173939550707281 -0.027270439782157759 0 -0.097427134368436918 -0.027820357899848831 0 -0.1110604598185659 -0.0207882196779367 0 -0.11173939550707281 -0.027270439782157759 0 -0.097427134368436918 -0.027820357899848831 0 -0.1029392013539359 -0.0085751277431150782 0 -0.086097875964997059 -0.0058870606910941042 0 -0.078521307704434995 -0.021166182351887271 0 -0.1029392013539359 -0.0085751277431150782 0 -0.078521307704434995 -0.021166182351887271 0 -0.1029392013539359 -0.0085751277431150782 0 -0.086097875964997059 -0.0058870606910941042 0 -0.091682611010439896 0.0063963380850077774 0 -0.086097875964997059 -0.0058870606910941042 0 -0.073830544796709738 -0.0078542708917730738 0 -0.078933949510919491 0.00072378658541613432 0 -0.086097875964997059 -0.0058870606910941042 0 -0.078521307704434995 -0.021166182351887271 0 -0.073830544796709738 -0.0078542708917730738 0 -0.097427134368436918 -0.027820357899848831 0 -0.078521307704434995 -0.021166182351887271 0 -0.097427134368436918 -0.027820357899848831 0 -0.078521307704434995 -0.021166182351887271 0 -0.077668975178724509 -0.024078573046198169 0 -0.097427134368436918 -0.027820357899848831 0 -0.1029392013539359 -0.0085751277431150782 0 -0.078521307704434995 -0.021166182351887271 0 -0.078521307704434995 -0.021166182351887271 0 -0.055132092173872667 -0.033226800447327051 0 -0.05822397002114936 -0.01402224463886402 0 -0.078521307704434995 -0.021166182351887271 0 -0.055132092173872667 -0.033226800447327051 0 -0.077668975178724509 -0.024078573046198169 0 -0.075465350998538308 -0.032772608828030472 0 -0.055132092173872667 -0.033226800447327051 0 -0.078521307704434995 -0.021166182351887271 0 -0.077668975178724509 -0.024078573046198169 0 -0.055132092173872667 -0.033226800447327051 0 -0.078521307704434995 -0.021166182351887271 0 -0.05822397002114936 -0.01402224463886402 0 -0.078521307704434995 -0.021166182351887271 0 -0.073830544796709738 -0.0078542708917730738 0 -0.05822397002114936 -0.01402224463886402 0 -0.073830544796709738 -0.0078542708917730738 0 -0.05822397002114936 -0.01402224463886402 0 -0.068462160169621672 0.0025537029525893409 0 -0.073830544796709738 -0.0078542708917730738 0 -0.078933949510919491 0.00072378658541613432 0 -0.068462160169621672 0.0025537029525893409 0 -0.094924188455715333 -0.074372309221374736 0 -0.090333769324138391 -0.059362086744932152 0 -0.077079431972146645 -0.050953682142663811 0 -0.094924188455715333 -0.074372309221374736 0 -0.078535685693175539 -0.061573663464548622 0 -0.077079431972146645 -0.050953682142663811 0 -0.084868245962835154 -0.053326759561897898 0 -0.090333769324138391 -0.059362086744932152 0 -0.077079431972146645 -0.050953682142663811 0 -0.084868245962835154 -0.053326759561897898 0 -0.080876314157704687 -0.04955372347343575 0 -0.082849096915408454 -0.045583035938281863 0 -0.080876314157704687 -0.04955372347343575 0 -0.078708481780428496 -0.048351416250899462 0 -0.082849096915408454 -0.045583035938281863 0 -0.080876314157704687 -0.04955372347343575 0 -0.078708481780428496 -0.048351416250899462 0 -0.077079431972146645 -0.050953682142663811 0 -0.084868245962835154 -0.053326759561897898 0 -0.080876314157704687 -0.04955372347343575 0 -0.077079431972146645 -0.050953682142663811 0 -0.084868245962835154 -0.053326759561897898 0 -0.090746651292135133 -0.048651172445365112 0 -0.082849096915408454 -0.045583035938281863 0 -0.084868245962835154 -0.053326759561897898 0 -0.090333769324138391 -0.059362086744932152 0 -0.090746651292135133 -0.048651172445365112 0 -0.099264754381345577 -0.055060356505970513 0 -0.090333769324138391 -0.059362086744932152 0 -0.090746651292135133 -0.048651172445365112 0 -0.096769769074122519 -0.04215743587210824 0 -0.088481073739883592 -0.043344290748051233 0 -0.083558777677868248 -0.036985518736449702 0 -0.096769769074122519 -0.04215743587210824 0 -0.097427134368436918 -0.027820357899848831 0 -0.077668975178724509 -0.024078573046198169 0 -0.096769769074122519 -0.04215743587210824 0 -0.077668975178724509 -0.024078573046198169 0 -0.083558777677868248 -0.036985518736449702 0 -0.096769769074122519 -0.04215743587210824 0 -0.077668975178724509 -0.024078573046198169 0 -0.090746651292135133 -0.048651172445365112 0 -0.088481073739883592 -0.043344290748051233 0 -0.082849096915408454 -0.045583035938281863 0 -0.096769769074122519 -0.04215743587210824 0 -0.090746651292135133 -0.048651172445365112 0 -0.088481073739883592 -0.043344290748051233 0 -0.077668975178724509 -0.024078573046198169 0 -0.083558777677868248 -0.036985518736449702 0 -0.075465350998538308 -0.032772608828030472 0 -0.083558777677868248 -0.036985518736449702 0 -0.082849096915408454 -0.045583035938281863 0 -0.075062618692292638 -0.040325846155841297 0 -0.088481073739883592 -0.043344290748051233 0 -0.083558777677868248 -0.036985518736449702 0 -0.082849096915408454 -0.045583035938281863 0 -0.082849096915408454 -0.045583035938281863 0 -0.078067002861142085 -0.04575568247049161 0 -0.075062618692292638 -0.040325846155841297 0 -0.078708481780428496 -0.048351416250899462 0 -0.082849096915408454 -0.045583035938281863 0 -0.078067002861142085 -0.04575568247049161 0 -0.075647814056438792 -0.048762431536943832 0 -0.055132092173872667 -0.033226800447327051 0 -0.078067002861142085 -0.04575568247049161 0 -0.075062618692292638 -0.040325846155841297 0 -0.075647814056438792 -0.048762431536943832 0 -0.075062618692292638 -0.040325846155841297 0 -0.075465350998538308 -0.032772608828030472 0 -0.055132092173872667 -0.033226800447327051 0 -0.075647814056438792 -0.048762431536943832 0 -0.061428605263776047 -0.046553119166432878 0 -0.055132092173872667 -0.033226800447327051 0 -0.075062618692292638 -0.040325846155841297 0 -0.075647814056438792 -0.048762431536943832 0 -0.055132092173872667 -0.033226800447327051 0 -0.083558777677868248 -0.036985518736449702 0 -0.075062618692292638 -0.040325846155841297 0 -0.075465350998538308 -0.032772608828030472 0 -0.065722760200719738 -0.052253177456942877 0 -0.075647814056438792 -0.048762431536943832 0 -0.061428605263776047 -0.046553119166432878 0 -0.065722760200719738 -0.052253177456942877 0 -0.07269306068786438 -0.052406879740114577 0 -0.069833853901725543 -0.055329661047837618 0 -0.065722760200719738 -0.052253177456942877 0 -0.07269306068786438 -0.052406879740114577 0 -0.075647814056438792 -0.048762431536943832 0 -0.07269306068786438 -0.052406879740114577 0 -0.073703714626092445 -0.056102563442451223 0 -0.069833853901725543 -0.055329661047837618 0 -0.07269306068786438 -0.052406879740114577 0 -0.077079431972146645 -0.050953682142663811 0 -0.073703714626092445 -0.056102563442451223 0 -0.078708481780428496 -0.048351416250899462 0 -0.077079431972146645 -0.050953682142663811 0 -0.075647814056438792 -0.048762431536943832 0 -0.07269306068786438 -0.052406879740114577 0 -0.077079431972146645 -0.050953682142663811 0 -0.075647814056438792 -0.048762431536943832 0 -0.078708481780428496 -0.048351416250899462 0 -0.078067002861142085 -0.04575568247049161 0 -0.075647814056438792 -0.048762431536943832 0 -0.078535685693175539 -0.061573663464548622 0 -0.073703714626092445 -0.056102563442451223 0 -0.070308423821052124 -0.061023041189074957 0 -0.078535685693175539 -0.061573663464548622 0 -0.077079431972146645 -0.050953682142663811 0 -0.073703714626092445 -0.056102563442451223 0 -0.073703714626092445 -0.056102563442451223 0 -0.070308423821052124 -0.061023041189074957 0 -0.069833853901725543 -0.055329661047837618 0 -0.070308423821052124 -0.061023041189074957 0 -0.064391701294429504 -0.057679717025484439 0 -0.060830035872249492 -0.064558057335980773 0 -0.070308423821052124 -0.061023041189074957 0 -0.069833853901725543 -0.055329661047837618 0 -0.064391701294429504 -0.057679717025484439 0 -0.065722760200719738 -0.052253177456942877 0 -0.069833853901725543 -0.055329661047837618 0 -0.064391701294429504 -0.057679717025484439 0 -0.064391701294429504 -0.057679717025484439 0 -0.055978059279945473 -0.056388284161067823 0 -0.060830035872249492 -0.064558057335980773 0 -0.065722760200719738 -0.052253177456942877 0 -0.064391701294429504 -0.057679717025484439 0 -0.055978059279945473 -0.056388284161067823 0 -0.055978059279945473 -0.056388284161067823 0 -0.041230103293456458 -0.058058117591144771 0 -0.049479852383656611 -0.067543566470139038 0 -0.055978059279945473 -0.056388284161067823 0 -0.049741921456861897 -0.048697412542500033 0 -0.041230103293456458 -0.058058117591144771 0 -0.055978059279945473 -0.056388284161067823 0 -0.049741921456861897 -0.048697412542500033 0 -0.061428605263776047 -0.046553119166432878 0 -0.065722760200719738 -0.052253177456942877 0 -0.055978059279945473 -0.056388284161067823 0 -0.061428605263776047 -0.046553119166432878 0 -0.049741921456861897 -0.048697412542500033 0 -0.061428605263776047 -0.046553119166432878 0 -0.055132092173872667 -0.033226800447327051 0 -0.049741921456861897 -0.048697412542500033 0 -0.055132092173872667 -0.033226800447327051 0 -0.032367863380537598 -0.044965144957206583 0 -0.055132092173872667 -0.033226800447327051 0 -0.032367863380537598 -0.044965144957206583 0 -0.055132092173872667 -0.033226800447327051 0 -0.032367863380537598 -0.044965144957206583 0 -0.031233838643279398 -0.031193199633022049 0 -0.049741921456861897 -0.048697412542500033 0 -0.032367863380537598 -0.044965144957206583 0 -0.041230103293456458 -0.058058117591144771 0 -0.032367863380537598 -0.044965144957206583 0 -0.041230103293456458 -0.058058117591144771 0 -0.026902341230915561 -0.060374551747501753 0 -0.05822397002114936 -0.01402224463886402 0 -0.057836245250817257 0.0062936453779614283 0 -0.044352522143416888 0.0050416822031405977 0 -0.05822397002114936 -0.01402224463886402 0 -0.037926632337863607 -0.0068783069258408786 0 -0.05822397002114936 -0.01402224463886402 0 -0.068462160169621672 0.0025537029525893409 0 -0.057836245250817257 0.0062936453779614283 0 -0.055132092173872667 -0.033226800447327051 0 -0.05822397002114936 -0.01402224463886402 0 -0.036243114184870161 -0.018923029155399909 0 -0.055132092173872667 -0.033226800447327051 0 -0.036243114184870161 -0.018923029155399909 0 -0.031233838643279398 -0.031193199633022049 0 -0.055132092173872667 -0.033226800447327051 0 -0.036243114184870161 -0.018923029155399909 0 -0.05822397002114936 -0.01402224463886402 0 -0.036243114184870161 -0.018923029155399909 0 -0.037926632337863607 -0.0068783069258408786 0 -0.05822397002114936 -0.01402224463886402 0 -0.037926632337863607 -0.0068783069258408786 0 -0.044352522143416888 0.0050416822031405977 0 -0.036243114184870161 -0.018923029155399909 0 -0.037926632337863607 -0.0068783069258408786 0 -0.029121832422534862 -0.0067169982391169078 0 -0.037926632337863607 -0.0068783069258408786 0 -0.029539197120254941 -0.00051038393964639519 0 -0.029121832422534862 -0.0067169982391169078 0 -0.037926632337863607 -0.0068783069258408786 0 -0.029539197120254941 -0.00051038393964639519 0 -0.03614709390981162 0.0015378833132510439 0 -0.037926632337863607 -0.0068783069258408786 0 -0.03614709390981162 0.0015378833132510439 0 -0.044352522143416888 0.0050416822031405977 0 -0.036243114184870161 -0.018923029155399909 0 -0.017354136195868258 -0.0046192578634720229 0 -0.01819617019275287 -0.0061732580868559192 0 -0.036243114184870161 -0.018923029155399909 0 -0.017354136195868258 -0.0046192578634720229 0 -0.029121832422534862 -0.0067169982391169078 0 -0.036243114184870161 -0.018923029155399909 0 -0.01819617019275287 -0.0061732580868559192 0 -0.019637671972121611 -0.02148729346067638 0 -0.036243114184870161 -0.018923029155399909 0 -0.017354136195868258 -0.0046192578634720229 0 -0.017354136195868258 -0.0046192578634720229 0 -0.01819617019275287 -0.0061732580868559192 0 -0.013500839782477779 -0.0058155532537883976 0 -0.017354136195868258 -0.0046192578634720229 0 -0.01819617019275287 -0.0061732580868559192 0 -0.017354136195868258 -0.0046192578634720229 0 -0.024546082273817361 -0.00265401331122534 0 -0.02112675760807068 0.0030512678310729521 0 -0.024546082273817361 -0.00265401331122534 0 -0.029539197120254941 -0.00051038393964639519 0 -0.02112675760807068 0.0030512678310729521 0 -0.017354136195868258 -0.0046192578634720229 0 -0.024546082273817361 -0.00265401331122534 0 -0.029121832422534862 -0.0067169982391169078 0 -0.024546082273817361 -0.00265401331122534 0 -0.029539197120254941 -0.00051038393964639519 0 -0.029121832422534862 -0.0067169982391169078 0 -0.01819617019275287 -0.0061732580868559192 0 -0.019637671972121611 -0.02148729346067638 0 -0.011008321991883009 -0.01057962122923565 0 -0.036243114184870161 -0.018923029155399909 0 -0.019637671972121611 -0.02148729346067638 0 -0.031233838643279398 -0.031193199633022049 0 -0.019637671972121611 -0.02148729346067638 0 -0.031233838643279398 -0.031193199633022049 0 -0.016064986363794779 -0.036441041599790329 0 -0.0077215053668332834 -0.022860670268973711 0 -0.00118246574067416 -0.01324232368796026 0 0.0015263381015913891 -0.033415212413580753 0 -0.0077215053668332834 -0.022860670268973711 0 -0.016064986363794779 -0.036441041599790329 0 0.0015263381015913891 -0.033415212413580753 0 -0.019637671972121611 -0.02148729346067638 0 -0.0077215053668332834 -0.022860670268973711 0 -0.016064986363794779 -0.036441041599790329 0 -0.019637671972121611 -0.02148729346067638 0 -0.0077215053668332834 -0.022860670268973711 0 -0.011008321991883009 -0.01057962122923565 0 -0.011008321991883009 -0.01057962122923565 0 -0.00118246574067416 -0.01324232368796026 0 -0.0072764121498596901 -0.0036325873431357339 0 -0.0077215053668332834 -0.022860670268973711 0 -0.011008321991883009 -0.01057962122923565 0 -0.00118246574067416 -0.01324232368796026 0 -0.00118246574067416 -0.01324232368796026 0 -0.0072764121498596901 -0.0036325873431357339 0 0.0012074066645448821 -0.00065723147797176382 0 -0.0072764121498596901 -0.0036325873431357339 0 -0.013500839782477779 -0.0058155532537883976 0 -0.013607688627124061 -0.00178224205395049 0 -0.011008321991883009 -0.01057962122923565 0 -0.0072764121498596901 -0.0036325873431357339 0 -0.013500839782477779 -0.0058155532537883976 0 -0.01819617019275287 -0.0061732580868559192 0 -0.011008321991883009 -0.01057962122923565 0 -0.013500839782477779 -0.0058155532537883976 0 -0.017354136195868258 -0.0046192578634720229 0 -0.013500839782477779 -0.0058155532537883976 0 -0.013607688627124061 -0.00178224205395049 0 -0.017354136195868258 -0.0046192578634720229 0 -0.013607688627124061 -0.00178224205395049 0 -0.032367863380537598 -0.044965144957206583 0 -0.0096036345872028556 -0.056703489467087059 0 -0.032367863380537598 -0.044965144957206583 0 -0.026902341230915561 -0.060374551747501753 0 -0.0096036345872028556 -0.056703489467087059 0 -0.032367863380537598 -0.044965144957206583 0 -0.031233838643279398 -0.031193199633022049 0 -0.016064986363794779 -0.036441041599790329 0 -0.032367863380537598 -0.044965144957206583 0 -0.016064986363794779 -0.036441041599790329 0 -0.0096036345872028556 -0.056703489467087059 0 -0.0096036345872028556 -0.056703489467087059 0 0.0015263381015913891 -0.033415212413580753 0 -0.016064986363794779 -0.036441041599790329 0 -0.0096036345872028556 -0.056703489467087059 0 0.0015263381015913891 -0.033415212413580753 0 -0.0096036345872028556 -0.056703489467087059 0 0.0015263381015913891 -0.033415212413580753 0 0.007298405735321048 -0.051477207310420908 0 -0.0096036345872028556 -0.056703489467087059 0 0.0052181775422467033 -0.064346337314722044 0 -0.0096036345872028556 -0.056703489467087059 0 -0.0043762627118289626 -0.071729097412358583 0 0.0052181775422467033 -0.064346337314722044 0 -0.0043762627118289626 -0.071729097412358583 0 -0.0092607301227374331 -0.088572496961274561 0 -0.01646375475339092 -0.071057556949349329 0 -0.0096036345872028556 -0.056703489467087059 0 -0.01646375475339092 -0.071057556949349329 0 -0.0096036345872028556 -0.056703489467087059 0 -0.0043762627118289626 -0.071729097412358583 0 -0.01646375475339092 -0.071057556949349329 0 -0.0092607301227374331 -0.088572496961274561 0 -0.00044729776891663488 -0.1011528385718463 0 0.0042106568376920582 -0.081118225430045127 0 -0.0043762627118289626 -0.071729097412358583 0 -0.0092607301227374331 -0.088572496961274561 0 0.0042106568376920582 -0.081118225430045127 0 -0.0092607301227374331 -0.088572496961274561 0 -0.037642160748979789 -0.094071739377162955 0 -0.0092607301227374331 -0.088572496961274561 0 -0.023323874919582349 -0.085411624431610003 0 -0.01646375475339092 -0.071057556949349329 0 -0.0092607301227374331 -0.088572496961274561 0 -0.023323874919582349 -0.085411624431610003 0 -0.037642160748979789 -0.094071739377162955 0 -0.023323874919582349 -0.085411624431610003 0 -0.01646375475339092 -0.071057556949349329 0 -0.023323874919582349 -0.085411624431610003 0 -0.01646375475339092 -0.071057556949349329 0 -0.034846350139989962 -0.07108844977272101 0 -0.026902341230915561 -0.060374551747501753 0 -0.01646375475339092 -0.071057556949349329 0 -0.034846350139989962 -0.07108844977272101 0 -0.026902341230915561 -0.060374551747501753 0 -0.0096036345872028556 -0.056703489467087059 0 -0.01646375475339092 -0.071057556949349329 0 -0.041230103293456458 -0.058058117591144771 0 -0.026902341230915561 -0.060374551747501753 0 -0.034846350139989962 -0.07108844977272101 0 -0.041230103293456458 -0.058058117591144771 0 -0.034846350139989962 -0.07108844977272101 0 -0.049479852383656611 -0.067543566470139038 0 -0.034846350139989962 -0.07108844977272101 0 -0.048784805137481749 -0.081200653853927454 0 -0.049479852383656611 -0.067543566470139038 0 -0.023323874919582349 -0.085411624431610003 0 -0.034846350139989962 -0.07108844977272101 0 -0.036149297736508462 -0.082943116858855345 0 -0.023323874919582349 -0.085411624431610003 0 -0.036149297736508462 -0.082943116858855345 0 -0.037642160748979789 -0.094071739377162955 0 -0.036149297736508462 -0.082943116858855345 0 -0.048784805137481749 -0.081200653853927454 0 -0.037642160748979789 -0.094071739377162955 0 -0.034846350139989962 -0.07108844977272101 0 -0.036149297736508462 -0.082943116858855345 0 -0.048784805137481749 -0.081200653853927454 0 -0.063732237529271596 -0.080733089011810297 0 -0.066023591375222151 -0.09957098179305135 0 -0.048784805137481749 -0.081200653853927454 0 -0.066023591375222151 -0.09957098179305135 0 -0.048784805137481749 -0.081200653853927454 0 -0.037642160748979789 -0.094071739377162955 0 -0.063732237529271596 -0.080733089011810297 0 -0.048784805137481749 -0.081200653853927454 0 -0.058000192015007383 -0.073011667883306972 0 -0.055978059279945473 -0.056388284161067823 0 -0.060830035872249492 -0.064558057335980773 0 -0.049479852383656611 -0.067543566470139038 0 -0.058000192015007383 -0.073011667883306972 0 -0.060830035872249492 -0.064558057335980773 0 -0.049479852383656611 -0.067543566470139038 0 -0.067174029152377468 -0.071022972744677337 0 -0.058000192015007383 -0.073011667883306972 0 -0.060830035872249492 -0.064558057335980773 0 -0.048784805137481749 -0.081200653853927454 0 -0.058000192015007383 -0.073011667883306972 0 -0.049479852383656611 -0.067543566470139038 0 -0.069466171350113709 -0.1135628440840601 0 -0.054384952187449757 -0.110609208962567 0 -0.059238207921678762 -0.13024384051707169 0 -0.054384952187449757 -0.110609208962567 0 -0.059238207921678762 -0.13024384051707169 0 -0.032945469352336033 -0.1293562392835419 0 -0.066023591375222151 -0.09957098179305135 0 -0.054384952187449757 -0.110609208962567 0 -0.037642160748979789 -0.094071739377162955 0 -0.066023591375222151 -0.09957098179305135 0 -0.037642160748979789 -0.094071739377162955 0 -0.054384952187449757 -0.110609208962567 0 -0.037642160748979789 -0.094071739377162955 0 -0.035661083064217503 -0.11124856921529409 0 -0.054384952187449757 -0.110609208962567 0 -0.032945469352336033 -0.1293562392835419 0 -0.054384952187449757 -0.110609208962567 0 -0.035661083064217503 -0.11124856921529409 0 -0.032945469352336033 -0.1293562392835419 0 -0.01767174996810443 -0.1109570892379047 0 -0.012892303975098539 -0.12786221844410239 0 -0.032945469352336033 -0.1293562392835419 0 -0.035661083064217503 -0.11124856921529409 0 -0.01767174996810443 -0.1109570892379047 0 -0.032945469352336033 -0.1293562392835419 0 -0.0092607301227374331 -0.088572496961274561 0 -0.037642160748979789 -0.094071739377162955 0 -0.01767174996810443 -0.1109570892379047 0 -0.037642160748979789 -0.094071739377162955 0 -0.035661083064217503 -0.11124856921529409 0 -0.01767174996810443 -0.1109570892379047 0 -0.01767174996810443 -0.1109570892379047 0 -0.00044729776891663488 -0.1011528385718463 0 0.005085065621477718 -0.1151057880332567 0 -0.0092607301227374331 -0.088572496961274561 0 -0.01767174996810443 -0.1109570892379047 0 -0.00044729776891663488 -0.1011528385718463 0 -0.01767174996810443 -0.1109570892379047 0 -0.012892303975098539 -0.12786221844410239 0 0.005085065621477718 -0.1151057880332567 0 -0.012892303975098539 -0.12786221844410239 0 0.0027021066240326768 -0.1317064378292063 0 0.005085065621477718 -0.1151057880332567 0 -0.011505986517222349 -0.14810326960451681 0 -0.033736789854580403 -0.16402697950055581 0 -0.032945469352336033 -0.1293562392835419 0 -0.012892303975098539 -0.12786221844410239 0 -0.011505986517222349 -0.14810326960451681 0 0.0027021066240326768 -0.1317064378292063 0 -0.011505986517222349 -0.14810326960451681 0 -0.032945469352336033 -0.1293562392835419 0 -0.012892303975098539 -0.12786221844410239 0 -0.011505986517222349 -0.14810326960451681 0 -0.032945469352336033 -0.1293562392835419 0 -0.011505986517222349 -0.14810326960451681 0 0.009933496317892726 -0.16685029992549011 0 -0.011505986517222349 -0.14810326960451681 0 -0.0085976242789068957 -0.177408956520272 0 0.009933496317892726 -0.16685029992549011 0 -0.0085976242789068957 -0.177408956520272 0 -0.003739977245034012 -0.19168309442994089 0 -0.02712874487570623 -0.18796761311505439 0 -0.0085976242789068957 -0.177408956520272 0 -0.003739977245034012 -0.19168309442994089 0 0.0034571977838801569 -0.17702496179755631 0 -0.0085976242789068957 -0.177408956520272 0 -0.02712874487570623 -0.18796761311505439 0 -0.0085976242789068957 -0.177408956520272 0 -0.033736789854580403 -0.16402697950055581 0 -0.02712874487570623 -0.18796761311505439 0 -0.011505986517222349 -0.14810326960451681 0 -0.0085976242789068957 -0.177408956520272 0 -0.033736789854580403 -0.16402697950055581 0 -0.033736789854580403 -0.16402697950055581 0 -0.041678182321736049 -0.18065303021324261 0 -0.02712874487570623 -0.18796761311505439 0 -0.033736789854580403 -0.16402697950055581 0 -0.041678182321736049 -0.18065303021324261 0 -0.060187329084152079 -0.17209125852752319 0 -0.041678182321736049 -0.18065303021324261 0 -0.060187329084152079 -0.17209125852752319 0 -0.045659865472505487 -0.198526269709837 0 -0.060187329084152079 -0.17209125852752319 0 -0.045659865472505487 -0.198526269709837 0 -0.033736789854580403 -0.16402697950055581 0 -0.060187329084152079 -0.17209125852752319 0 -0.051699405537506939 -0.14899167338562519 0 -0.060187329084152079 -0.17209125852752319 0 -0.051699405537506939 -0.14899167338562519 0 -0.072389231474787458 -0.1492400490994332 0 -0.051699405537506939 -0.14899167338562519 0 -0.059238207921678762 -0.13024384051707169 0 -0.072389231474787458 -0.1492400490994332 0 -0.033736789854580403 -0.16402697950055581 0 -0.051699405537506939 -0.14899167338562519 0 -0.032945469352336033 -0.1293562392835419 0 -0.051699405537506939 -0.14899167338562519 0 -0.059238207921678762 -0.13024384051707169 0 -0.032945469352336033 -0.1293562392835419 0 -0.025857267464119819 -0.25506418495113531 0 -0.02368513365757598 -0.23851275990414511 0 -0.036167443228362108 -0.24337299090061551 0 -0.01269776775011346 -0.25850600500130039 0 -0.02368513365757598 -0.23851275990414511 0 -0.01269776775011346 -0.25850600500130039 0 -0.02368513365757598 -0.23851275990414511 0 -0.01082738352359053 -0.24876902592697839 0 -0.02368513365757598 -0.23851275990414511 0 -0.0067432183097289999 -0.239968376336817 0 -0.0090267388034834407 -0.23007068799598671 0 -0.02368513365757598 -0.23851275990414511 0 -0.01082738352359053 -0.24876902592697839 0 -0.0067432183097289999 -0.239968376336817 0 -0.01082738352359053 -0.24876902592697839 0 -0.0029313858115674811 -0.24854412401401971 0 -0.0067432183097289999 -0.239968376336817 0 -0.0029313858115674811 -0.24854412401401971 0 -0.0067432183097289999 -0.239968376336817 0 0.0026199421412959989 -0.2430643023623929 0 -0.0067432183097289999 -0.239968376336817 0 0.0026199421412959989 -0.2430643023623929 0 0.0017465435191736189 -0.23378549097037141 0 -0.0067432183097289999 -0.239968376336817 0 -0.0090267388034834407 -0.23007068799598671 0 0.0017465435191736189 -0.23378549097037141 0 -0.0090267388034834407 -0.23007068799598671 0 -0.00080535468136348092 -0.21995366459000901 0 -0.01839049427805331 -0.2195873775130934 0 -0.0090267388034834407 -0.23007068799598671 0 -0.00080535468136348092 -0.21995366459000901 0 0.0017465435191736189 -0.23378549097037141 0 -0.02368513365757598 -0.23851275990414511 0 -0.0090267388034834407 -0.23007068799598671 0 -0.01839049427805331 -0.2195873775130934 0 -0.02368513365757598 -0.23851275990414511 0 -0.01839049427805331 -0.2195873775130934 0 -0.034672499565036527 -0.2185195148069887 0 -0.02368513365757598 -0.23851275990414511 0 -0.034672499565036527 -0.2185195148069887 0 -0.01839049427805331 -0.2195873775130934 0 -0.027127261386640289 -0.20489204062456881 0 -0.034672499565036527 -0.2185195148069887 0 -0.01839049427805331 -0.2195873775130934 0 -0.027127261386640289 -0.20489204062456881 0 -0.01084996336714465 -0.20584666152463099 0 -0.00080535468136348092 -0.21995366459000901 0 -0.01839049427805331 -0.2195873775130934 0 -0.01084996336714465 -0.20584666152463099 0 -0.00080535468136348092 -0.21995366459000901 0 -0.01084996336714465 -0.20584666152463099 0 0.01016515501406726 -0.20926501301563591 0 -0.01084996336714465 -0.20584666152463099 0 -0.003739977245034012 -0.19168309442994089 0 0.01016515501406726 -0.20926501301563591 0 -0.01084996336714465 -0.20584666152463099 0 -0.003739977245034012 -0.19168309442994089 0 -0.02712874487570623 -0.18796761311505439 0 -0.027127261386640289 -0.20489204062456881 0 -0.01084996336714465 -0.20584666152463099 0 -0.02712874487570623 -0.18796761311505439 0 -0.041678182321736049 -0.18065303021324261 0 -0.02712874487570623 -0.18796761311505439 0 -0.045659865472505487 -0.198526269709837 0 -0.02712874487570623 -0.18796761311505439 0 -0.045659865472505487 -0.198526269709837 0 -0.027127261386640289 -0.20489204062456881 0 -0.02712874487570623 -0.18796761311505439 0 -0.045659865472505487 -0.198526269709837 0 -0.045659865472505487 -0.198526269709837 0 -0.067682806497079445 -0.21107449474949169 0 -0.062708331551170268 -0.19442045911658551 0 -0.060187329084152079 -0.17209125852752319 0 -0.045659865472505487 -0.198526269709837 0 -0.062708331551170268 -0.19442045911658551 0 -0.045659865472505487 -0.198526269709837 0 -0.067682806497079445 -0.21107449474949169 0 -0.045659865472505487 -0.198526269709837 0 -0.054546183461555722 -0.22015285450131489 0 -0.067682806497079445 -0.21107449474949169 0 -0.045659865472505487 -0.198526269709837 0 -0.034672499565036527 -0.2185195148069887 0 -0.054546183461555722 -0.22015285450131489 0 -0.045659865472505487 -0.198526269709837 0 -0.034672499565036527 -0.2185195148069887 0 -0.027127261386640289 -0.20489204062456881 0 -0.045659865472505487 -0.198526269709837 0 -0.034672499565036527 -0.2185195148069887 0 -0.034672499565036527 -0.2185195148069887 0 -0.044145410485190079 -0.23242073182379891 0 -0.054546183461555722 -0.22015285450131489 0 -0.02368513365757598 -0.23851275990414511 0 -0.034672499565036527 -0.2185195148069887 0 -0.044145410485190079 -0.23242073182379891 0 -0.044145410485190079 -0.23242073182379891 0 -0.054546183461555722 -0.22015285450131489 0 -0.061280333386656921 -0.23284462843810469 0 -0.061280333386656921 -0.23284462843810469 0 -0.050191684441297867 -0.2485850187836515 0 -0.071591358857016049 -0.2429226102204386 0 -0.050191684441297867 -0.2485850187836515 0 -0.071591358857016049 -0.2429226102204386 0 -0.056939497423126581 -0.24878681181634871 0 -0.050191684441297867 -0.2485850187836515 0 -0.071591358857016049 -0.2429226102204386 0 -0.044145410485190079 -0.23242073182379891 0 -0.061280333386656921 -0.23284462843810469 0 -0.050191684441297867 -0.2485850187836515 0 -0.041398382443623198 -0.25192549838374201 0 -0.056939497423126581 -0.24878681181634871 0 -0.050191684441297867 -0.2485850187836515 0 -0.044145410485190079 -0.23242073182379891 0 -0.050191684441297867 -0.2485850187836515 0 -0.036167443228362108 -0.24337299090061551 0 -0.02368513365757598 -0.23851275990414511 0 -0.044145410485190079 -0.23242073182379891 0 -0.036167443228362108 -0.24337299090061551 0 -0.025857267464119819 -0.25506418495113531 0 -0.050191684441297867 -0.2485850187836515 0 -0.036167443228362108 -0.24337299090061551 0 -0.097628444613881649 -0.25834262822693399 0 -0.087470553331264578 -0.24262075389877999 0 -0.077955776651182085 -0.24454236002529731 0 -0.087470553331264578 -0.24262075389877999 0 -0.087928467376508473 -0.23859976953689591 0 -0.1005617376665941 -0.23997685579502359 0 -0.087928467376508473 -0.23859976953689591 0 -0.07453604668454375 -0.2421434382925548 0 -0.07383618536286593 -0.22753148747966839 0 -0.087928467376508473 -0.23859976953689591 0 -0.07453604668454375 -0.2421434382925548 0 -0.087928467376508473 -0.23859976953689591 0 -0.077955776651182085 -0.24454236002529731 0 -0.07453604668454375 -0.2421434382925548 0 -0.087470553331264578 -0.24262075389877999 0 -0.087928467376508473 -0.23859976953689591 0 -0.077955776651182085 -0.24454236002529731 0 -0.087470553331264578 -0.24262075389877999 0 -0.077955776651182085 -0.24454236002529731 0 -0.056939497423126581 -0.24878681181634871 0 -0.077955776651182085 -0.24454236002529731 0 -0.071591358857016049 -0.2429226102204386 0 -0.056939497423126581 -0.24878681181634871 0 -0.077955776651182085 -0.24454236002529731 0 -0.077955776651182085 -0.24454236002529731 0 -0.071591358857016049 -0.2429226102204386 0 -0.07453604668454375 -0.2421434382925548 0 -0.077955776651182085 -0.24454236002529731 0 -0.07453604668454375 -0.2421434382925548 0 -0.071591358857016049 -0.2429226102204386 0 -0.07453604668454375 -0.2421434382925548 0 -0.056939497423126581 -0.24878681181634871 0 -0.071591358857016049 -0.2429226102204386 0 -0.061280333386656921 -0.23284462843810469 0 -0.071591358857016049 -0.2429226102204386 0 -0.07453604668454375 -0.2421434382925548 0 -0.061280333386656921 -0.23284462843810469 0 -0.07453604668454375 -0.2421434382925548 0 -0.07383618536286593 -0.22753148747966839 0 -0.089705747521653334 -0.22362271978914661 0 -0.067682806497079445 -0.21107449474949169 0 -0.054546183461555722 -0.22015285450131489 0 -0.061280333386656921 -0.23284462843810469 0 -0.07383618536286593 -0.22753148747966839 0 -0.054546183461555722 -0.22015285450131489 0 -0.07383618536286593 -0.22753148747966839 0 -0.067682806497079445 -0.21107449474949169 0 -0.061280333386656921 -0.23284462843810469 0 -0.07453604668454375 -0.2421434382925548 0 -0.07383618536286593 -0.22753148747966839 0 -0.087928467376508473 -0.23859976953689591 0 -0.07383618536286593 -0.22753148747966839 0 -0.089705747521653334 -0.22362271978914661 0 -0.087928467376508473 -0.23859976953689591 0 -0.089705747521653334 -0.22362271978914661 0 -0.1005617376665941 -0.23997685579502359 0 -0.089705747521653334 -0.22362271978914661 0 -0.067682806497079445 -0.21107449474949169 0 -0.089705747521653334 -0.22362271978914661 0 -0.084027466008495671 -0.20735524824550181 0 -0.09921486728828334 -0.20109800384388701 0 -0.089705747521653334 -0.22362271978914661 0 -0.084027466008495671 -0.20735524824550181 0 -0.067682806497079445 -0.21107449474949169 0 -0.084027466008495671 -0.20735524824550181 0 -0.067682806497079445 -0.21107449474949169 0 -0.079506442726966622 -0.19362577459948219 0 -0.067682806497079445 -0.21107449474949169 0 -0.062708331551170268 -0.19442045911658551 0 -0.079506442726966622 -0.19362577459948219 0 -0.079506442726966622 -0.19362577459948219 0 -0.09921486728828334 -0.20109800384388701 0 -0.089369030920126963 -0.1732707743578942 0 -0.084027466008495671 -0.20735524824550181 0 -0.079506442726966622 -0.19362577459948219 0 -0.09921486728828334 -0.20109800384388701 0 -0.09921486728828334 -0.20109800384388701 0 -0.1156293974943295 -0.1822747327150937 0 -0.1210853022939376 -0.205467400633562 0 -0.1156293974943295 -0.1822747327150937 0 -0.13505851963374399 -0.18906788910329131 0 -0.09921486728828334 -0.20109800384388701 0 -0.1210853022939376 -0.205467400633562 0 -0.1156293974943295 -0.1822747327150937 0 -0.1210853022939376 -0.205467400633562 0 -0.10755849924533691 -0.2178899443088799 0 -0.11989889803527461 -0.22145143588075511 0 -0.1210853022939376 -0.205467400633562 0 -0.11989889803527461 -0.22145143588075511 0 -0.13086176299679239 -0.21746526838305219 0 -0.089705747521653334 -0.22362271978914661 0 -0.09921486728828334 -0.20109800384388701 0 -0.10755849924533691 -0.2178899443088799 0 -0.09921486728828334 -0.20109800384388701 0 -0.1210853022939376 -0.205467400633562 0 -0.10755849924533691 -0.2178899443088799 0 -0.089705747521653334 -0.22362271978914661 0 -0.11172868854622731 -0.23617094482880149 0 -0.1005617376665941 -0.23997685579502359 0 -0.089705747521653334 -0.22362271978914661 0 -0.11172868854622731 -0.23617094482880149 0 -0.089705747521653334 -0.22362271978914661 0 -0.10755849924533691 -0.2178899443088799 0 -0.11172868854622731 -0.23617094482880149 0 -0.11989889803527461 -0.22145143588075511 0 -0.11172868854622731 -0.23617094482880149 0 -0.127825895831608 -0.22987551408160201 0 -0.10755849924533691 -0.2178899443088799 0 -0.11989889803527461 -0.22145143588075511 0 -0.11172868854622731 -0.23617094482880149 0 -0.13218950310710981 -0.25272660122947088 0 -0.1218823470606431 -0.24640061544388489 0 -0.1098930818979398 -0.24798588601512411 0 -0.11172868854622731 -0.23617094482880149 0 -0.13375162957080131 -0.24871916986845621 0 -0.11172868854622731 -0.23617094482880149 0 -0.1218823470606431 -0.24640061544388489 0 -0.13375162957080131 -0.24871916986845621 0 -0.11172868854622731 -0.23617094482880149 0 -0.13375162957080131 -0.24871916986845621 0 -0.127825895831608 -0.22987551408160201 0 -0.11172868854622731 -0.23617094482880149 0 -0.1218823470606431 -0.24640061544388489 0 -0.1098930818979398 -0.24798588601512411 0 -0.097628444613881649 -0.25834262822693399 0 -0.087470553331264578 -0.24262075389877999 0 -0.1098930818979398 -0.24798588601512411 0 -0.087470553331264578 -0.24262075389877999 0 -0.1098930818979398 -0.24798588601512411 0 -0.1005617376665941 -0.23997685579502359 0 -0.087470553331264578 -0.24262075389877999 0 -0.1098930818979398 -0.24798588601512411 0 -0.11172868854622731 -0.23617094482880149 0 -0.1098930818979398 -0.24798588601512411 0 -0.1005617376665941 -0.23997685579502359 0 -0.087470553331264578 -0.24262075389877999 0 -0.1005617376665941 -0.23997685579502359 0 -0.072389231474787458 -0.1492400490994332 0 -0.089369030920126963 -0.1732707743578942 0 -0.096011965921864201 -0.14265464397282879 0 -0.077516787342341589 -0.1242022911324857 0 -0.093262550211769629 -0.1231040070079162 0 -0.096011965921864201 -0.14265464397282879 0 -0.077516787342341589 -0.1242022911324857 0 -0.072389231474787458 -0.1492400490994332 0 -0.096011965921864201 -0.14265464397282879 0 -0.077516787342341589 -0.1242022911324857 0 -0.059238207921678762 -0.13024384051707169 0 -0.072389231474787458 -0.1492400490994332 0 -0.060187329084152079 -0.17209125852752319 0 -0.072389231474787458 -0.1492400490994332 0 -0.089369030920126963 -0.1732707743578942 0 -0.060187329084152079 -0.17209125852752319 0 -0.079506442726966622 -0.19362577459948219 0 -0.089369030920126963 -0.1732707743578942 0 -0.060187329084152079 -0.17209125852752319 0 -0.062708331551170268 -0.19442045911658551 0 -0.079506442726966622 -0.19362577459948219 0 -0.089369030920126963 -0.1732707743578942 0 -0.1107512355661594 -0.16096683979900789 0 -0.096011965921864201 -0.14265464397282879 0 -0.09921486728828334 -0.20109800384388701 0 -0.089369030920126963 -0.1732707743578942 0 -0.1156293974943295 -0.1822747327150937 0 -0.089369030920126963 -0.1732707743578942 0 -0.1156293974943295 -0.1822747327150937 0 -0.1107512355661594 -0.16096683979900789 0 -0.1156293974943295 -0.1822747327150937 0 -0.13204392770037571 -0.1634514615863005 0 -0.1156293974943295 -0.1822747327150937 0 -0.1107512355661594 -0.16096683979900789 0 -0.13204392770037571 -0.1634514615863005 0 -0.1107512355661594 -0.16096683979900789 0 -0.12070185579410091 -0.1431825863629223 0 -0.13204392770037571 -0.1634514615863005 0 -0.1107512355661594 -0.16096683979900789 0 -0.12070185579410091 -0.1431825863629223 0 -0.096011965921864201 -0.14265464397282879 0 -0.1071147179002416 -0.1244919901550422 0 -0.12070185579410091 -0.1431825863629223 0 -0.096011965921864201 -0.14265464397282879 0 -0.093262550211769629 -0.1231040070079162 0 -0.1071147179002416 -0.1244919901550422 0 -0.096011965921864201 -0.14265464397282879 0 -0.1071147179002416 -0.1244919901550422 0 -0.12070185579410091 -0.1431825863629223 0 -0.1306137014228527 -0.1212095633787966 0 -0.12070185579410091 -0.1431825863629223 0 -0.14845845790642179 -0.14462819045750719 0 -0.1306137014228527 -0.1212095633787966 0 -0.14845845790642179 -0.14462819045750719 0 -0.1306137014228527 -0.1212095633787966 0 -0.15036797716661271 -0.14243845987679379 0 -0.14845845790642179 -0.14462819045750719 0 -0.1306137014228527 -0.1212095633787966 0 -0.15406265534163929 -0.1294064941378926 0 -0.15036797716661271 -0.14243845987679379 0 -0.1306137014228527 -0.1212095633787966 0 -0.15406265534163929 -0.1294064941378926 0 -0.15036797716661271 -0.14243845987679379 0 -0.1564494690737798 -0.13971242061594299 0 -0.1543278084257422 -0.1453912472931165 0 -0.14845845790642179 -0.14462819045750719 0 -0.15894149653025619 -0.15184230729274609 0 -0.15519343748037609 -0.14309809199123349 0 -0.15036797716661271 -0.14243845987679379 0 -0.1564494690737798 -0.13971242061594299 0 -0.1543278084257422 -0.1453912472931165 0 -0.15519343748037609 -0.14309809199123349 0 -0.15036797716661271 -0.14243845987679379 0 -0.1543278084257422 -0.1453912472931165 0 -0.15036797716661271 -0.14243845987679379 0 -0.14845845790642179 -0.14462819045750719 0 -0.15036797716661271 -0.14243845987679379 0 -0.14845845790642179 -0.14462819045750719 0 -0.12070185579410091 -0.1431825863629223 0 -0.14845845790642179 -0.14462819045750719 0 -0.13204392770037571 -0.1634514615863005 0 -0.14845845790642179 -0.14462819045750719 0 -0.13204392770037571 -0.1634514615863005 0 -0.13204392770037571 -0.1634514615863005 0 -0.1475860696211248 -0.17640031700015249 0 -0.13505851963374399 -0.18906788910329131 0 -0.1156293974943295 -0.1822747327150937 0 -0.13204392770037571 -0.1634514615863005 0 -0.13505851963374399 -0.18906788910329131 0 -0.1475860696211248 -0.17640031700015249 0 -0.1655722477793394 -0.1670875310098065 0 -0.15496537504316019 -0.19429807729602311 0 -0.1475860696211248 -0.17640031700015249 0 -0.13505851963374399 -0.18906788910329131 0 -0.15496537504316019 -0.19429807729602311 0 -0.1475860696211248 -0.17640031700015249 0 -0.14862352044039201 -0.16347018067920821 0 -0.1655722477793394 -0.1670875310098065 0 -0.14845845790642179 -0.14462819045750719 0 -0.13204392770037571 -0.1634514615863005 0 -0.14862352044039201 -0.16347018067920821 0 -0.14845845790642179 -0.14462819045750719 0 -0.14862352044039201 -0.16347018067920821 0 -0.1655722477793394 -0.1670875310098065 0 -0.13204392770037571 -0.1634514615863005 0 -0.1475860696211248 -0.17640031700015249 0 -0.14862352044039201 -0.16347018067920821 0 -0.1655722477793394 -0.1670875310098065 0 -0.1716614177265566 -0.15146656102038991 0 -0.1655722477793394 -0.1670875310098065 0 -0.15894149653025619 -0.15184230729274609 0 -0.1716614177265566 -0.15146656102038991 0 -0.1655722477793394 -0.1670875310098065 0 -0.17557921295501691 -0.18022020591375351 0 -0.1689483943248192 -0.19264195369377959 0 -0.1655722477793394 -0.1670875310098065 0 -0.15496537504316019 -0.19429807729602311 0 -0.1689483943248192 -0.19264195369377959 0 -0.1655722477793394 -0.1670875310098065 0 -0.15496537504316019 -0.19429807729602311 0 -0.1655722477793394 -0.1670875310098065 0 -0.17557921295501691 -0.18022020591375351 0 -0.17557921295501691 -0.18022020591375351 0 -0.18239484980351819 -0.16464781923938721 0 -0.1907059301477185 -0.18468107337543721 0 -0.1655722477793394 -0.1670875310098065 0 -0.17557921295501691 -0.18022020591375351 0 -0.18239484980351819 -0.16464781923938721 0 -0.1655722477793394 -0.1670875310098065 0 -0.18239484980351819 -0.16464781923938721 0 -0.1716614177265566 -0.15146656102038991 0 -0.18239484980351819 -0.16464781923938721 0 -0.1716614177265566 -0.15146656102038991 0 -0.1894311146879058 -0.1465309504005988 0 -0.17775058767377289 -0.13584559103097291 0 -0.1716614177265566 -0.15146656102038991 0 -0.1894311146879058 -0.1465309504005988 0 -0.17775058767377289 -0.13584559103097291 0 -0.1716614177265566 -0.15146656102038991 0 -0.17775058767377289 -0.13584559103097291 0 -0.1894311146879058 -0.1465309504005988 0 -0.17775058767377289 -0.13584559103097291 0 -0.19823449762692411 -0.13229999761030051 0 -0.18534812722118199 -0.1163550958908785 0 -0.17775058767377289 -0.13584559103097291 0 -0.18534812722118199 -0.1163550958908785 0 -0.15406265534163929 -0.1294064941378926 0 -0.16394560233522651 -0.1386698702264933 0 -0.15606779039194271 -0.1160101434681408 0 -0.17775058767377289 -0.13584559103097291 0 -0.16394560233522651 -0.1386698702264933 0 -0.15606779039194271 -0.1160101434681408 0 -0.17775058767377289 -0.13584559103097291 0 -0.15606779039194271 -0.1160101434681408 0 -0.15406265534163929 -0.1294064941378926 0 -0.16394560233522651 -0.1386698702264933 0 -0.1564494690737798 -0.13971242061594299 0 -0.16394560233522651 -0.1386698702264933 0 -0.1564494690737798 -0.13971242061594299 0 -0.15962849525536979 -0.1448502401790808 0 -0.14845845790642179 -0.14462819045750719 0 -0.1655722477793394 -0.1670875310098065 0 -0.14845845790642179 -0.14462819045750719 0 -0.1655722477793394 -0.1670875310098065 0 -0.15894149653025619 -0.15184230729274609 0 -0.15519343748037609 -0.14309809199123349 0 -0.1564494690737798 -0.13971242061594299 0 -0.15962849525536979 -0.1448502401790808 0 -0.1543278084257422 -0.1453912472931165 0 -0.15519343748037609 -0.14309809199123349 0 -0.15962849525536979 -0.1448502401790808 0 -0.1543278084257422 -0.1453912472931165 0 -0.15962849525536979 -0.1448502401790808 0 -0.15894149653025619 -0.15184230729274609 0 -0.15962849525536979 -0.1448502401790808 0 -0.15894149653025619 -0.15184230729274609 0 -0.1716614177265566 -0.15146656102038991 0 -0.17775058767377289 -0.13584559103097291 0 -0.16394560233522651 -0.1386698702264933 0 -0.1716614177265566 -0.15146656102038991 0 -0.16394560233522651 -0.1386698702264933 0 -0.15962849525536979 -0.1448502401790808 0 -0.1716614177265566 -0.15146656102038991 0 -0.1534429259631987 -0.25724555178864622 0 -0.15289321433053751 -0.246830478479277 0 -0.1378886282313006 -0.2381062402767252 0 -0.1534429259631987 -0.25724555178864622 0 -0.1378886282313006 -0.2381062402767252 0 -0.15348527020851541 -0.23913552791147211 0 -0.1378886282313006 -0.2381062402767252 0 -0.15430752157141919 -0.22794821467022949 0 -0.15289321433053751 -0.246830478479277 0 -0.15348527020851541 -0.23913552791147211 0 -0.1601832428566283 -0.24550858739866141 0 -0.15289321433053751 -0.246830478479277 0 -0.15348527020851541 -0.23913552791147211 0 -0.1378886282313006 -0.2381062402767252 0 -0.1459019403517107 -0.25564217047089421 0 -0.13375162957080131 -0.24871916986845621 0 -0.1378886282313006 -0.2381062402767252 0 -0.13375162957080131 -0.24871916986845621 0 -0.1378886282313006 -0.2381062402767252 0 -0.127825895831608 -0.22987551408160201 0 -0.13375162957080131 -0.24871916986845621 0 -0.1378886282313006 -0.2381062402767252 0 -0.13218950310710981 -0.25272660122947088 0 -0.1218823470606431 -0.24640061544388489 0 -0.13375162957080131 -0.24871916986845621 0 -0.127825895831608 -0.22987551408160201 0 -0.14435850230698141 -0.22150862358223991 0 -0.13086176299679239 -0.21746526838305219 0 -0.1378886282313006 -0.2381062402767252 0 -0.127825895831608 -0.22987551408160201 0 -0.14435850230698141 -0.22150862358223991 0 -0.11989889803527461 -0.22145143588075511 0 -0.127825895831608 -0.22987551408160201 0 -0.13086176299679239 -0.21746526838305219 0 -0.1378886282313006 -0.2381062402767252 0 -0.14435850230698141 -0.22150862358223991 0 -0.14435850230698141 -0.22150862358223991 0 -0.15430752157141919 -0.22794821467022949 0 -0.16410544360365359 -0.21493654602220469 0 -0.1378886282313006 -0.2381062402767252 0 -0.14435850230698141 -0.22150862358223991 0 -0.15430752157141919 -0.22794821467022949 0 -0.14435850230698141 -0.22150862358223991 0 -0.15496537504316019 -0.19429807729602311 0 -0.14435850230698141 -0.22150862358223991 0 -0.1373527607074172 -0.20563907323320921 0 -0.15496537504316019 -0.19429807729602311 0 -0.14435850230698141 -0.22150862358223991 0 -0.15496537504316019 -0.19429807729602311 0 -0.16410544360365359 -0.21493654602220469 0 -0.14435850230698141 -0.22150862358223991 0 -0.1373527607074172 -0.20563907323320921 0 -0.13086176299679239 -0.21746526838305219 0 -0.1210853022939376 -0.205467400633562 0 -0.1373527607074172 -0.20563907323320921 0 -0.13086176299679239 -0.21746526838305219 0 -0.1210853022939376 -0.205467400633562 0 -0.1373527607074172 -0.20563907323320921 0 -0.13505851963374399 -0.18906788910329131 0 -0.1373527607074172 -0.20563907323320921 0 -0.13505851963374399 -0.18906788910329131 0 -0.15496537504316019 -0.19429807729602311 0 -0.1689483943248192 -0.19264195369377959 0 -0.17994482166635981 -0.2014366202218163 0 -0.16410544360365359 -0.21493654602220469 0 -0.15496537504316019 -0.19429807729602311 0 -0.1689483943248192 -0.19264195369377959 0 -0.16410544360365359 -0.21493654602220469 0 -0.17557921295501691 -0.18022020591375351 0 -0.1689483943248192 -0.19264195369377959 0 -0.17994482166635981 -0.2014366202218163 0 -0.17557921295501691 -0.18022020591375351 0 -0.17994482166635981 -0.2014366202218163 0 -0.1907059301477185 -0.18468107337543721 0 -0.17994482166635981 -0.2014366202218163 0 -0.1784102433228649 -0.21681777692650089 0 -0.16410544360365359 -0.21493654602220469 0 -0.17994482166635981 -0.2014366202218163 0 -0.18904495760185211 -0.20873870471059999 0 -0.19252771524915421 -0.19930647688205899 0 -0.17994482166635981 -0.2014366202218163 0 -0.1784102433228649 -0.21681777692650089 0 -0.18904495760185211 -0.20873870471059999 0 -0.1784102433228649 -0.21681777692650089 0 -0.19175951728552271 -0.21959172261586679 0 -0.18904495760185211 -0.20873870471059999 0 -0.15430752157141919 -0.22794821467022949 0 -0.16410544360365359 -0.21493654602220469 0 -0.16877954452522659 -0.2255120540677526 0 -0.15430752157141919 -0.22794821467022949 0 -0.16877954452522659 -0.2255120540677526 0 -0.16324537569009509 -0.2357306359809743 0 -0.15348527020851541 -0.23913552791147211 0 -0.15430752157141919 -0.22794821467022949 0 -0.16324537569009509 -0.2357306359809743 0 -0.16877954452522659 -0.2255120540677526 0 -0.17781387366555559 -0.23090770197000129 0 -0.16324537569009509 -0.2357306359809743 0 -0.1784102433228649 -0.21681777692650089 0 -0.16410544360365359 -0.21493654602220469 0 -0.16877954452522659 -0.2255120540677526 0 -0.1784102433228649 -0.21681777692650089 0 -0.16877954452522659 -0.2255120540677526 0 -0.17781387366555559 -0.23090770197000129 0 -0.1784102433228649 -0.21681777692650089 0 -0.17781387366555559 -0.23090770197000129 0 -0.19175951728552271 -0.21959172261586679 0 -0.17781387366555559 -0.23090770197000129 0 -0.1805311654956796 -0.2411950136452527 0 -0.19410287643929239 -0.23312434657521411 0 -0.17781387366555559 -0.23090770197000129 0 -0.1805311654956796 -0.2411950136452527 0 -0.16955513552828311 -0.24305067226283769 0 -0.17679077873490559 -0.25046109420941731 0 -0.1805311654956796 -0.2411950136452527 0 -0.18863044441395099 -0.24733650333174401 0 -0.17679077873490559 -0.25046109420941731 0 -0.1805311654956796 -0.2411950136452527 0 -0.16955513552828311 -0.24305067226283769 0 -0.16709258238786229 -0.25188408856254202 0 -0.17679077873490559 -0.25046109420941731 0 -0.16955513552828311 -0.24305067226283769 0 -0.16709258238786229 -0.25188408856254202 0 -0.16955513552828311 -0.24305067226283769 0 -0.1601832428566283 -0.24550858739866141 0 -0.17781387366555559 -0.23090770197000129 0 -0.16955513552828311 -0.24305067226283769 0 -0.16324537569009509 -0.2357306359809743 0 -0.16955513552828311 -0.24305067226283769 0 -0.16324537569009509 -0.2357306359809743 0 -0.1601832428566283 -0.24550858739866141 0 -0.15348527020851541 -0.23913552791147211 0 -0.16324537569009509 -0.2357306359809743 0 -0.1601832428566283 -0.24550858739866141 0 -0.1593809120407062 -0.25278805690175971 0 -0.15289321433053751 -0.246830478479277 0 -0.1601832428566283 -0.24550858739866141 0 -0.20565562739327201 -0.24334207984173631 0 -0.19410287643929239 -0.23312434657521411 0 -0.21201774175915139 -0.2290986139018284 0 -0.21472073189145299 -0.25725591714607071 0 -0.20565562739327201 -0.24334207984173631 0 -0.22837296648480071 -0.23789375384220129 0 -0.20565562739327201 -0.24334207984173631 0 -0.21201774175915139 -0.2290986139018284 0 -0.22837296648480071 -0.23789375384220129 0 -0.20565562739327201 -0.24334207984173631 0 -0.18863044441395099 -0.24733650333174401 0 -0.19410287643929239 -0.23312434657521411 0 -0.1805311654956796 -0.2411950136452527 0 -0.18863044441395099 -0.24733650333174401 0 -0.19410287643929239 -0.23312434657521411 0 -0.17781387366555559 -0.23090770197000129 0 -0.19410287643929239 -0.23312434657521411 0 -0.19175951728552271 -0.21959172261586679 0 -0.19410287643929239 -0.23312434657521411 0 -0.19175951728552271 -0.21959172261586679 0 -0.20443040571370949 -0.21985141578154491 0 -0.21201774175915139 -0.2290986139018284 0 -0.20443040571370949 -0.21985141578154491 0 -0.22630383013383959 -0.21240708539258099 0 -0.19410287643929239 -0.23312434657521411 0 -0.21201774175915139 -0.2290986139018284 0 -0.20443040571370949 -0.21985141578154491 0 -0.20157622681128409 -0.2075672839719423 0 -0.21557055542943429 -0.1904257004922347 0 -0.22630383013383959 -0.21240708539258099 0 -0.20157622681128409 -0.2075672839719423 0 -0.22630383013383959 -0.21240708539258099 0 -0.20443040571370949 -0.21985141578154491 0 -0.20157622681128409 -0.2075672839719423 0 -0.22630383013383959 -0.21240708539258099 0 -0.19175951728552271 -0.21959172261586679 0 -0.20443040571370949 -0.21985141578154491 0 -0.20157622681128409 -0.2075672839719423 0 -0.19175951728552271 -0.21959172261586679 0 -0.20157622681128409 -0.2075672839719423 0 -0.19175951728552271 -0.21959172261586679 0 -0.18904495760185211 -0.20873870471059999 0 -0.20157622681128409 -0.2075672839719423 0 -0.18904495760185211 -0.20873870471059999 0 -0.20157622681128409 -0.2075672839719423 0 -0.19252771524915421 -0.19930647688205899 0 -0.17994482166635981 -0.2014366202218163 0 -0.19252771524915421 -0.19930647688205899 0 -0.1907059301477185 -0.18468107337543721 0 -0.20157622681128409 -0.2075672839719423 0 -0.19252771524915421 -0.19930647688205899 0 -0.20187756758401409 -0.19506767240709361 0 -0.19252771524915421 -0.19930647688205899 0 -0.20187756758401409 -0.19506767240709361 0 -0.1907059301477185 -0.18468107337543721 0 -0.20157622681128409 -0.2075672839719423 0 -0.21557055542943429 -0.1904257004922347 0 -0.20187756758401409 -0.19506767240709361 0 -0.21557055542943429 -0.1904257004922347 0 -0.2038146335316797 -0.1820121315948606 0 -0.20157622681128409 -0.2075672839719423 0 -0.20187756758401409 -0.19506767240709361 0 -0.21557055542943429 -0.1904257004922347 0 -0.21557055542943429 -0.1904257004922347 0 -0.23533053747689989 -0.1962925907305976 0 -0.22630383013383959 -0.21240708539258099 0 -0.23533053747689989 -0.1962925907305976 0 -0.25103143345639523 -0.21724688681321891 0 -0.25418198431724581 -0.18809916394242601 0 -0.22630383013383959 -0.21240708539258099 0 -0.25103143345639523 -0.21724688681321891 0 -0.23533053747689989 -0.1962925907305976 0 -0.22630383013383959 -0.21240708539258099 0 -0.25103143345639523 -0.21724688681321891 0 -0.21201774175915139 -0.2290986139018284 0 -0.22630383013383959 -0.21240708539258099 0 -0.22837296648480071 -0.23789375384220129 0 -0.22630383013383959 -0.21240708539258099 0 -0.22837296648480071 -0.23789375384220129 0 -0.25103143345639523 -0.21724688681321891 0 -0.22837296648480071 -0.23789375384220129 0 -0.25431856302814809 -0.24833495949118861 0 -0.25103143345639523 -0.21724688681321891 0 -0.2335542019388327 -0.26090262277066528 0 -0.22837296648480071 -0.23789375384220129 0 -0.25431856302814809 -0.24833495949118861 0 -0.20708483324238849 -0.15128624944667929 0 -0.22647357207813959 -0.15205360930679629 0 -0.2195633859389316 -0.1340578990397249 0 -0.20708483324238849 -0.15128624944667929 0 -0.19823449762692411 -0.13229999761030051 0 -0.2195633859389316 -0.1340578990397249 0 -0.19823449762692411 -0.13229999761030051 0 -0.2195633859389316 -0.1340578990397249 0 -0.21022893699736381 -0.1097241998529486 0 -0.17775058767377289 -0.13584559103097291 0 -0.19823449762692411 -0.13229999761030051 0 -0.1894311146879058 -0.1465309504005988 0 -0.20708483324238849 -0.15128624944667929 0 -0.1894311146879058 -0.1465309504005988 0 -0.19351686899232889 -0.15854259719770419 0 -0.20708483324238849 -0.15128624944667929 0 -0.19823449762692411 -0.13229999761030051 0 -0.1894311146879058 -0.1465309504005988 0 -0.20708483324238849 -0.15128624944667929 0 -0.19351686899232889 -0.15854259719770419 0 -0.19880271024428661 -0.17007658736909009 0 -0.18239484980351819 -0.16464781923938721 0 -0.1894311146879058 -0.1465309504005988 0 -0.19351686899232889 -0.15854259719770419 0 -0.18239484980351819 -0.16464781923938721 0 -0.19351686899232889 -0.15854259719770419 0 -0.19880271024428661 -0.17007658736909009 0 -0.18239484980351819 -0.16464781923938721 0 -0.19880271024428661 -0.17007658736909009 0 -0.1907059301477185 -0.18468107337543721 0 -0.19880271024428661 -0.17007658736909009 0 -0.1907059301477185 -0.18468107337543721 0 -0.2038146335316797 -0.1820121315948606 0 -0.20187756758401409 -0.19506767240709361 0 -0.1907059301477185 -0.18468107337543721 0 -0.2038146335316797 -0.1820121315948606 0 -0.21557055542943429 -0.1904257004922347 0 -0.2038146335316797 -0.1820121315948606 0 -0.21355186476225221 -0.16985639920369799 0 -0.19880271024428661 -0.17007658736909009 0 -0.2038146335316797 -0.1820121315948606 0 -0.21355186476225221 -0.16985639920369799 0 -0.20708483324238849 -0.15128624944667929 0 -0.21355186476225221 -0.16985639920369799 0 -0.22647357207813959 -0.15205360930679629 0 -0.20708483324238849 -0.15128624944667929 0 -0.19880271024428661 -0.17007658736909009 0 -0.21355186476225221 -0.16985639920369799 0 -0.22956488404758479 -0.1732841170125273 0 -0.2435592126657353 -0.1561425335328199 0 -0.22647357207813959 -0.15205360930679629 0 -0.21355186476225221 -0.16985639920369799 0 -0.22956488404758479 -0.1732841170125273 0 -0.22647357207813959 -0.15205360930679629 0 -0.21557055542943429 -0.1904257004922347 0 -0.21355186476225221 -0.16985639920369799 0 -0.22956488404758479 -0.1732841170125273 0 -0.21557055542943429 -0.1904257004922347 0 -0.22956488404758479 -0.1732841170125273 0 -0.21557055542943429 -0.1904257004922347 0 -0.23533053747689989 -0.1962925907305976 0 -0.22956488404758479 -0.1732841170125273 0 -0.23533053747689989 -0.1962925907305976 0 -0.22956488404758479 -0.1732841170125273 0 -0.25418198431724581 -0.18809916394242601 0 -0.22956488404758479 -0.1732841170125273 0 -0.25418198431724581 -0.18809916394242601 0 -0.2565438833259911 -0.1687602707777138 0 -0.22956488404758479 -0.1732841170125273 0 -0.2435592126657353 -0.1561425335328199 0 -0.22956488404758479 -0.1732841170125273 0 -0.2435592126657353 -0.1561425335328199 0 -0.2565438833259911 -0.1687602707777138 0 -0.2435592126657353 -0.1561425335328199 0 -0.22647357207813959 -0.15205360930679629 0 -0.2432602079730701 -0.13485583854350039 0 -0.22647357207813959 -0.15205360930679629 0 -0.2195633859389316 -0.1340578990397249 0 -0.2432602079730701 -0.13485583854350039 0 -0.2195633859389316 -0.1340578990397249 0 -0.2432602079730701 -0.13485583854350039 0 -0.23065476516460279 -0.11957242830579699 0 -0.2432602079730701 -0.13485583854350039 0 -0.2499653418643101 -0.1102460646797562 0 -0.23065476516460279 -0.11957242830579699 0 -0.2499653418643101 -0.1102460646797562 0 -0.2308399038819596 -0.1034577205422559 0 -0.23065476516460279 -0.11957242830579699 0 -0.2308399038819596 -0.1034577205422559 0 -0.25308440776240432 -0.086371671251396109 0 -0.2499653418643101 -0.1102460646797562 0 -0.2308399038819596 -0.1034577205422559 0 -0.25308440776240432 -0.086371671251396109 0 -0.2308399038819596 -0.1034577205422559 0 -0.21022893699736381 -0.1097241998529486 0 -0.21520721362926831 -0.098298511723915558 0 -0.2308399038819596 -0.1034577205422559 0 -0.22013457808717909 -0.089221868029860679 0 -0.21520721362926831 -0.098298511723915558 0 -0.2308399038819596 -0.1034577205422559 0 -0.23065476516460279 -0.11957242830579699 0 -0.21022893699736381 -0.1097241998529486 0 -0.2195633859389316 -0.1340578990397249 0 -0.23065476516460279 -0.11957242830579699 0 -0.21022893699736381 -0.1097241998529486 0 -0.2335598957907816 -0.079883889973887123 0 -0.24475965461883589 -0.059498385283178377 0 -0.2582325144520296 -0.070050845257802419 0 -0.2335598957907816 -0.079883889973887123 0 -0.2582325144520296 -0.070050845257802419 0 -0.25308440776240432 -0.086371671251396109 0 -0.2308399038819596 -0.1034577205422559 0 -0.2335598957907816 -0.079883889973887123 0 -0.25308440776240432 -0.086371671251396109 0 -0.2308399038819596 -0.1034577205422559 0 -0.22013457808717909 -0.089221868029860679 0 -0.2335598957907816 -0.079883889973887123 0 -0.22013457808717909 -0.089221868029860679 0 -0.2335598957907816 -0.079883889973887123 0 -0.21963876375789801 -0.077814354495200549 0 -0.2335598957907816 -0.079883889973887123 0 -0.21595644614104051 -0.065738508165203102 0 -0.24475965461883589 -0.059498385283178377 0 -0.21595644614104051 -0.065738508165203102 0 -0.24475965461883589 -0.059498385283178377 0 -0.2335598957907816 -0.079883889973887123 0 -0.21963876375789801 -0.077814354495200549 0 -0.21595644614104051 -0.065738508165203102 0 -0.20438945881064449 -0.068244458930106389 0 -0.21100771399754009 -0.086966924160961745 0 -0.21595644614104051 -0.065738508165203102 0 -0.21100771399754009 -0.086966924160961745 0 -0.20438945881064449 -0.068244458930106389 0 -0.21595644614104051 -0.065738508165203102 0 -0.21100771399754009 -0.086966924160961745 0 -0.21963876375789801 -0.077814354495200549 0 -0.21595644614104051 -0.065738508165203102 0 -0.21100771399754009 -0.086966924160961745 0 -0.20438945881064449 -0.068244458930106389 0 -0.21595644614104051 -0.065738508165203102 0 -0.20438945881064449 -0.068244458930106389 0 -0.21595644614104051 -0.065738508165203102 0 -0.20711132549122371 -0.057203435059411119 0 -0.20438945881064449 -0.068244458930106389 0 -0.21100771399754009 -0.086966924160961745 0 -0.19851231957361129 -0.085310821531315487 0 -0.22013457808717909 -0.089221868029860679 0 -0.21963876375789801 -0.077814354495200549 0 -0.21100771399754009 -0.086966924160961745 0 -0.22013457808717909 -0.089221868029860679 0 -0.21100771399754009 -0.086966924160961745 0 -0.21520721362926831 -0.098298511723915558 0 -0.21100771399754009 -0.086966924160961745 0 -0.19851231957361129 -0.085310821531315487 0 -0.20550431009004061 -0.095676697317907802 0 -0.21100771399754009 -0.086966924160961745 0 -0.21520721362926831 -0.098298511723915558 0 -0.20550431009004061 -0.095676697317907802 0 -0.19851231957361129 -0.085310821531315487 0 -0.18118326058104209 -0.08825419183970401 0 -0.18409944718507371 -0.07264022497537044 0 -0.19851231957361129 -0.085310821531315487 0 -0.19294566676858971 -0.096864600750783431 0 -0.18118326058104209 -0.08825419183970401 0 -0.19851231957361129 -0.085310821531315487 0 -0.20550431009004061 -0.095676697317907802 0 -0.19294566676858971 -0.096864600750783431 0 -0.20438945881064449 -0.068244458930106389 0 -0.19851231957361129 -0.085310821531315487 0 -0.18409944718507371 -0.07264022497537044 0 -0.20438945881064449 -0.068244458930106389 0 -0.18409944718507371 -0.07264022497537044 0 -0.18769526278089041 -0.057829612445021099 0 -0.20438945881064449 -0.068244458930106389 0 -0.18409944718507371 -0.07264022497537044 0 -0.21022893699736381 -0.1097241998529486 0 -0.21520721362926831 -0.098298511723915558 0 -0.20550431009004061 -0.095676697317907802 0 -0.21022893699736381 -0.1097241998529486 0 -0.20550431009004061 -0.095676697317907802 0 -0.19294566676858971 -0.096864600750783431 0 -0.19294566676858971 -0.096864600750783431 0 -0.18534812722118199 -0.1163550958908785 0 -0.21022893699736381 -0.1097241998529486 0 -0.19294566676858971 -0.096864600750783431 0 -0.18534812722118199 -0.1163550958908785 0 -0.19823449762692411 -0.13229999761030051 0 -0.21022893699736381 -0.1097241998529486 0 -0.18534812722118199 -0.1163550958908785 0 -0.18534812722118199 -0.1163550958908785 0 -0.17423934197139679 -0.1017815859784342 0 -0.15606779039194271 -0.1160101434681408 0 -0.17775058767377289 -0.13584559103097291 0 -0.18534812722118199 -0.1163550958908785 0 -0.15606779039194271 -0.1160101434681408 0 -0.16057304666404501 -0.10079887419961479 0 -0.17423934197139679 -0.1017815859784342 0 -0.15606779039194271 -0.1160101434681408 0 -0.16057304666404501 -0.10079887419961479 0 -0.16746185343044401 -0.091445336260546128 0 -0.1570966781871318 -0.090327755750333361 0 -0.16057304666404501 -0.10079887419961479 0 -0.17423934197139679 -0.1017815859784342 0 -0.16746185343044401 -0.091445336260546128 0 -0.17423934197139679 -0.1017815859784342 0 -0.18118326058104209 -0.08825419183970401 0 -0.16746185343044401 -0.091445336260546128 0 -0.19294566676858971 -0.096864600750783431 0 -0.18534812722118199 -0.1163550958908785 0 -0.17423934197139679 -0.1017815859784342 0 -0.19294566676858971 -0.096864600750783431 0 -0.17423934197139679 -0.1017815859784342 0 -0.18118326058104209 -0.08825419183970401 0 -0.18118326058104209 -0.08825419183970401 0 -0.18409944718507371 -0.07264022497537044 0 -0.16915717098214109 -0.081397787743409861 0 -0.18118326058104209 -0.08825419183970401 0 -0.16746185343044401 -0.091445336260546128 0 -0.16915717098214109 -0.081397787743409861 0 -0.18409944718507371 -0.07264022497537044 0 -0.1702117591297739 -0.06777753321031553 0 -0.16380943555950259 -0.077035991020633382 0 -0.18409944718507371 -0.07264022497537044 0 -0.16380943555950259 -0.077035991020633382 0 -0.16915717098214109 -0.081397787743409861 0 -0.18409944718507371 -0.07264022497537044 0 -0.17187825396406881 -0.057945450019426657 0 -0.18769526278089041 -0.057829612445021099 0 -0.18409944718507371 -0.07264022497537044 0 -0.16380943555950259 -0.077035991020633382 0 -0.18409944718507371 -0.07264022497537044 0 -0.1702117591297739 -0.06777753321031553 0 -0.17187825396406881 -0.057945450019426657 0 -0.16380943555950259 -0.077035991020633382 0 -0.16105989981045041 -0.063488466825831633 0 -0.14595160177326619 -0.062470528310013429 0 -0.1702117591297739 -0.06777753321031553 0 -0.16105989981045041 -0.063488466825831633 0 -0.17187825396406881 -0.057945450019426657 0 -0.1702117591297739 -0.06777753321031553 0 -0.16380943555950259 -0.077035991020633382 0 -0.16105989981045041 -0.063488466825831633 0 -0.16380943555950259 -0.077035991020633382 0 -0.16109871639751261 -0.084134952385501949 0 -0.14796844382834351 -0.080467891152587012 0 -0.16746185343044401 -0.091445336260546128 0 -0.16915717098214109 -0.081397787743409861 0 -0.16109871639751261 -0.084134952385501949 0 -0.16380943555950259 -0.077035991020633382 0 -0.16915717098214109 -0.081397787743409861 0 -0.16109871639751261 -0.084134952385501949 0 -0.16380943555950259 -0.077035991020633382 0 -0.16915717098214109 -0.081397787743409861 0 -0.16746185343044401 -0.091445336260546128 0 -0.16109871639751261 -0.084134952385501949 0 -0.1570966781871318 -0.090327755750333361 0 -0.16380943555950259 -0.077035991020633382 0 -0.14796844382834351 -0.080467891152587012 0 -0.14796844382834351 -0.080467891152587012 0 -0.13497135686491851 -0.078315161523928284 0 -0.1484932433812913 -0.094043062253026791 0 -0.1570966781871318 -0.090327755750333361 0 -0.14796844382834351 -0.080467891152587012 0 -0.1484932433812913 -0.094043062253026791 0 -0.16109871639751261 -0.084134952385501949 0 -0.1570966781871318 -0.090327755750333361 0 -0.14796844382834351 -0.080467891152587012 0 -0.16380943555950259 -0.077035991020633382 0 -0.14796844382834351 -0.080467891152587012 0 -0.14595160177326619 -0.062470528310013429 0 -0.16380943555950259 -0.077035991020633382 0 -0.14595160177326619 -0.062470528310013429 0 -0.14796844382834351 -0.080467891152587012 0 -0.13497135686491851 -0.078315161523928284 0 -0.14595160177326619 -0.062470528310013429 0 -0.1158705629695205 -0.060236298698018297 0 -0.13497135686491851 -0.078315161523928284 0 -0.1158705629695205 -0.060236298698018297 0 -0.13497135686491851 -0.078315161523928284 0 -0.13122182239868371 -0.062231763532838429 0 -0.13497135686491851 -0.078315161523928284 0 -0.13122182239868371 -0.062231763532838429 0 -0.14595160177326619 -0.062470528310013429 0 -0.112702195828283 -0.076339248342475546 0 -0.13497135686491851 -0.078315161523928284 0 -0.13438499311011279 -0.096174695905308166 0 -0.13497135686491851 -0.078315161523928284 0 -0.13438499311011279 -0.096174695905308166 0 -0.1484932433812913 -0.094043062253026791 0 -0.11276894493928399 -0.097790936300085646 0 -0.13438499311011279 -0.096174695905308166 0 -0.1306137014228527 -0.1212095633787966 0 -0.13438499311011279 -0.096174695905308166 0 -0.1306137014228527 -0.1212095633787966 0 -0.15606779039194271 -0.1160101434681408 0 -0.15406265534163929 -0.1294064941378926 0 -0.1306137014228527 -0.1212095633787966 0 -0.15606779039194271 -0.1160101434681408 0 -0.13438499311011279 -0.096174695905308166 0 -0.15606779039194271 -0.1160101434681408 0 -0.1484932433812913 -0.094043062253026791 0 -0.16057304666404501 -0.10079887419961479 0 -0.15606779039194271 -0.1160101434681408 0 -0.1484932433812913 -0.094043062253026791 0 -0.13438499311011279 -0.096174695905308166 0 -0.15606779039194271 -0.1160101434681408 0 -0.16057304666404501 -0.10079887419961479 0 -0.1570966781871318 -0.090327755750333361 0 -0.1484932433812913 -0.094043062253026791 0 -0.14513665439653431 -0.02122229521611602 0 -0.15148395360685291 -0.031475856168514699 0 -0.16129500549156001 -0.024264335985147129 0 -0.14513665439653431 -0.02122229521611602 0 -0.1346415055917565 -0.031432898451717602 0 -0.15148395360685291 -0.031475856168514699 0 -0.14513665439653431 -0.02122229521611602 0 -0.15327979458335059 -0.01391829646419882 0 -0.16129500549156001 -0.024264335985147129 0 -0.1412848112475209 -0.008091449167619497 0 -0.15773416148281841 -0.0035868741371463562 0 -0.14801408494475049 0.0031182785745780331 0 -0.15327979458335059 -0.01391829646419882 0 -0.1412848112475209 -0.008091449167619497 0 -0.15773416148281841 -0.0035868741371463562 0 -0.14513665439653431 -0.02122229521611602 0 -0.15327979458335059 -0.01391829646419882 0 -0.1412848112475209 -0.008091449167619497 0 -0.1236693299605585 -0.0137973575501921 0 -0.1412848112475209 -0.008091449167619497 0 -0.12735709500343681 0.004015926865657337 0 -0.1412848112475209 -0.008091449167619497 0 -0.12735709500343681 0.004015926865657337 0 -0.14801408494475049 0.0031182785745780331 0 -0.1236693299605585 -0.0137973575501921 0 -0.1412848112475209 -0.008091449167619497 0 -0.13426109495296229 -0.02049569832685658 0 -0.1236693299605585 -0.0137973575501921 0 -0.1221370268088495 -0.025998648103035 0 -0.13426109495296229 -0.02049569832685658 0 -0.14513665439653431 -0.02122229521611602 0 -0.1412848112475209 -0.008091449167619497 0 -0.13426109495296229 -0.02049569832685658 0 -0.14513665439653431 -0.02122229521611602 0 -0.13426109495296229 -0.02049569832685658 0 -0.1346415055917565 -0.031432898451717602 0 -0.1221370268088495 -0.025998648103035 0 -0.12530131535501859 -0.034952786400489197 0 -0.1346415055917565 -0.031432898451717602 0 -0.1221370268088495 -0.025998648103035 0 -0.13426109495296229 -0.02049569832685658 0 -0.1346415055917565 -0.031432898451717602 0 -0.12530131535501859 -0.034952786400489197 0 -0.1346415055917565 -0.031432898451717602 0 -0.12809376798702951 -0.047905065599393698 0 -0.1346415055917565 -0.031432898451717602 0 -0.12809376798702951 -0.047905065599393698 0 -0.14629371500633531 -0.042796653234188263 0 -0.12809376798702951 -0.047905065599393698 0 -0.14595160177326619 -0.062470528310013429 0 -0.12809376798702951 -0.047905065599393698 0 -0.14595160177326619 -0.062470528310013429 0 -0.14629371500633531 -0.042796653234188263 0 -0.13122182239868371 -0.062231763532838429 0 -0.12809376798702951 -0.047905065599393698 0 -0.14595160177326619 -0.062470528310013429 0 -0.1158705629695205 -0.060236298698018297 0 -0.13122182239868371 -0.062231763532838429 0 -0.12809376798702951 -0.047905065599393698 0 -0.14595160177326619 -0.062470528310013429 0 -0.14629371500633531 -0.042796653234188263 0 -0.15696853651444401 -0.052603520026387289 0 -0.16105989981045041 -0.063488466825831633 0 -0.14595160177326619 -0.062470528310013429 0 -0.15696853651444401 -0.052603520026387289 0 -0.15148395360685291 -0.031475856168514699 0 -0.14629371500633531 -0.042796653234188263 0 -0.16402488563849801 -0.041062174760887443 0 -0.1346415055917565 -0.031432898451717602 0 -0.15148395360685291 -0.031475856168514699 0 -0.14629371500633531 -0.042796653234188263 0 -0.14629371500633531 -0.042796653234188263 0 -0.16402488563849801 -0.041062174760887443 0 -0.15696853651444401 -0.052603520026387289 0 -0.15148395360685291 -0.031475856168514699 0 -0.16402488563849801 -0.041062174760887443 0 -0.16129500549156001 -0.024264335985147129 0 -0.16402488563849801 -0.041062174760887443 0 -0.17409393016306191 -0.030370879776367592 0 -0.16129500549156001 -0.024264335985147129 0 -0.16402488563849801 -0.041062174760887443 0 -0.15696853651444401 -0.052603520026387289 0 -0.17187825396406881 -0.057945450019426657 0 -0.16105989981045041 -0.063488466825831633 0 -0.15696853651444401 -0.052603520026387289 0 -0.17187825396406881 -0.057945450019426657 0 -0.16402488563849801 -0.041062174760887443 0 -0.17187825396406881 -0.057945450019426657 0 -0.18133558272394029 -0.043618149437272283 0 -0.17187825396406881 -0.057945450019426657 0 -0.18133558272394029 -0.043618149437272283 0 -0.18769526278089041 -0.057829612445021099 0 -0.18133558272394029 -0.043618149437272283 0 -0.17409393016306191 -0.030370879776367592 0 -0.18915768363079971 -0.025155098795753519 0 -0.16402488563849801 -0.041062174760887443 0 -0.18133558272394029 -0.043618149437272283 0 -0.17409393016306191 -0.030370879776367592 0 -0.17409393016306191 -0.030370879776367592 0 -0.17549551533112251 -0.014893414490097231 0 -0.18915768363079971 -0.025155098795753519 0 -0.16129500549156001 -0.024264335985147129 0 -0.16350931143073591 -0.01273440345064396 0 -0.17549551533112251 -0.014893414490097231 0 -0.17409393016306191 -0.030370879776367592 0 -0.16129500549156001 -0.024264335985147129 0 -0.17549551533112251 -0.014893414490097231 0 -0.15327979458335059 -0.01391829646419882 0 -0.16129500549156001 -0.024264335985147129 0 -0.16350931143073591 -0.01273440345064396 0 -0.15773416148281841 -0.0035868741371463562 0 -0.16716832075785379 -0.0032078365625175 0 -0.1619193683370386 0.0066468078375689294 0 -0.15773416148281841 -0.0035868741371463562 0 -0.16350931143073591 -0.01273440345064396 0 -0.16716832075785379 -0.0032078365625175 0 -0.15327979458335059 -0.01391829646419882 0 -0.15773416148281841 -0.0035868741371463562 0 -0.16350931143073591 -0.01273440345064396 0 -0.16350931143073591 -0.01273440345064396 0 -0.16716832075785379 -0.0032078365625175 0 -0.17549551533112251 -0.014893414490097231 0 -0.17549551533112251 -0.014893414490097231 0 -0.18154179604087481 -0.0036104187285780349 0 -0.18915768363079971 -0.025155098795753519 0 -0.18154179604087481 -0.0036104187285780349 0 -0.18915768363079971 -0.025155098795753519 0 -0.17549551533112251 -0.014893414490097231 0 -0.17584419881677341 0.0071523107965592754 0 -0.17549551533112251 -0.014893414490097231 0 -0.18154179604087481 -0.0036104187285780349 0 -0.17584419881677341 0.0071523107965592754 0 -0.16716832075785379 -0.0032078365625175 0 -0.17549551533112251 -0.014893414490097231 0 -0.17584419881677341 0.0071523107965592754 0 -0.18154179604087481 -0.0036104187285780349 0 -0.19066530249761049 -0.0041303576494283751 0 -0.18915768363079971 -0.025155098795753519 0 -0.18154179604087481 -0.0036104187285780349 0 -0.19066530249761049 -0.0041303576494283751 0 -0.18717715497560061 0.0062623078557712403 0 -0.19066530249761049 -0.0041303576494283751 0 -0.1989264366345522 -0.0080023544535597537 0 -0.18915768363079971 -0.025155098795753519 0 -0.19066530249761049 -0.0041303576494283751 0 -0.1989264366345522 -0.0080023544535597537 0 -0.1965234412062255 0.0098537758749781944 0 -0.1989264366345522 -0.0080023544535597537 0 -0.2007918169376324 -0.0191738513677071 0 -0.20680177871376751 -0.0119671669755851 0 -0.18915768363079971 -0.025155098795753519 0 -0.2007918169376324 -0.0191738513677071 0 -0.21013076049929519 -0.028334228638799381 0 -0.1989264366345522 -0.0080023544535597537 0 -0.18915768363079971 -0.025155098795753519 0 -0.2007918169376324 -0.0191738513677071 0 -0.2007918169376324 -0.0191738513677071 0 -0.21013076049929519 -0.028334228638799381 0 -0.20680177871376751 -0.0119671669755851 0 -0.21013076049929519 -0.028334228638799381 0 -0.21702438745170211 -0.0043907958627755336 0 -0.21921501925093501 -0.017985606360015789 0 -0.21013076049929519 -0.028334228638799381 0 -0.21702438745170211 -0.0043907958627755336 0 -0.21013076049929519 -0.028334228638799381 0 -0.22271521407306469 -0.037269361340154371 0 -0.21921501925093501 -0.017985606360015789 0 -0.21013076049929519 -0.028334228638799381 0 -0.21702438745170211 -0.0043907958627755336 0 -0.20680177871376751 -0.0119671669755851 0 -0.1989264366345522 -0.0080023544535597537 0 -0.20680177871376751 -0.0119671669755851 0 -0.20713549204565579 6.5395444916274768e-05 0 -0.21702438745170211 -0.0043907958627755336 0 -0.20680177871376751 -0.0119671669755851 0 -0.20713549204565579 6.5395444916274768e-05 0 -0.20438945881064449 -0.068244458930106389 0 -0.1967735712207245 -0.046699778862929052 0 -0.20438945881064449 -0.068244458930106389 0 -0.18769526278089041 -0.057829612445021099 0 -0.1967735712207245 -0.046699778862929052 0 -0.20438945881064449 -0.068244458930106389 0 -0.1967735712207245 -0.046699778862929052 0 -0.20711132549122371 -0.057203435059411119 0 -0.18133558272394029 -0.043618149437272283 0 -0.18769526278089041 -0.057829612445021099 0 -0.1967735712207245 -0.046699778862929052 0 -0.18133558272394029 -0.043618149437272283 0 -0.18915768363079971 -0.025155098795753519 0 -0.1967735712207245 -0.046699778862929052 0 -0.18915768363079971 -0.025155098795753519 0 -0.1967735712207245 -0.046699778862929052 0 -0.18915768363079971 -0.025155098795753519 0 -0.21013076049929519 -0.028334228638799381 0 -0.1967735712207245 -0.046699778862929052 0 -0.21013076049929519 -0.028334228638799381 0 -0.21132582579248671 -0.048130994279405613 0 -0.22271521407306469 -0.037269361340154371 0 -0.21013076049929519 -0.028334228638799381 0 -0.1967735712207245 -0.046699778862929052 0 -0.21132582579248671 -0.048130994279405613 0 -0.21595644614104051 -0.065738508165203102 0 -0.21132582579248671 -0.048130994279405613 0 -0.22271521407306469 -0.037269361340154371 0 -0.21595644614104051 -0.065738508165203102 0 -0.21132582579248671 -0.048130994279405613 0 -0.20711132549122371 -0.057203435059411119 0 -0.1967735712207245 -0.046699778862929052 0 -0.21132582579248671 -0.048130994279405613 0 -0.20711132549122371 -0.057203435059411119 0 -0.21595644614104051 -0.065738508165203102 0 -0.2284172135094342 -0.053659916570315727 0 -0.24475965461883589 -0.059498385283178377 0 -0.21595644614104051 -0.065738508165203102 0 -0.2284172135094342 -0.053659916570315727 0 -0.22271521407306469 -0.037269361340154371 0 -0.21595644614104051 -0.065738508165203102 0 -0.22271521407306469 -0.037269361340154371 0 -0.2284172135094342 -0.053659916570315727 0 -0.22271521407306469 -0.037269361340154371 0 -0.23903543051913109 -0.043198085603962481 0 -0.22271521407306469 -0.037269361340154371 0 -0.23903543051913109 -0.043198085603962481 0 -0.24161885061771041 -0.026720350447010301 0 -0.23903543051913109 -0.043198085603962481 0 -0.24161885061771041 -0.026720350447010301 0 -0.25766621977661042 -0.038842414379153638 0 -0.23903543051913109 -0.043198085603962481 0 -0.24475965461883589 -0.059498385283178377 0 -0.25766621977661042 -0.038842414379153638 0 -0.2284172135094342 -0.053659916570315727 0 -0.23903543051913109 -0.043198085603962481 0 -0.24475965461883589 -0.059498385283178377 0 -0.22947398200509031 -0.0088002145151058891 0 -0.22867745033346079 0.0038692188645070222 0 -0.2401015516947359 0.00075261550232862703 0 -0.21702438745170211 -0.0043907958627755336 0 -0.22947398200509031 -0.0088002145151058891 0 -0.22867745033346079 0.0038692188645070222 0 -0.21702438745170211 -0.0043907958627755336 0 -0.22947398200509031 -0.0088002145151058891 0 -0.21921501925093501 -0.017985606360015789 0 -0.22271521407306469 -0.037269361340154371 0 -0.22947398200509031 -0.0088002145151058891 0 -0.21921501925093501 -0.017985606360015789 0 -0.22271521407306469 -0.037269361340154371 0 -0.22947398200509031 -0.0088002145151058891 0 -0.22271521407306469 -0.037269361340154371 0 -0.22947398200509031 -0.0088002145151058891 0 -0.24161885061771041 -0.026720350447010301 0 -0.22947398200509031 -0.0088002145151058891 0 -0.24161885061771041 -0.026720350447010301 0 -0.2437457614006571 -0.011962382738850049 0 -0.24161885061771041 -0.026720350447010301 0 -0.2437457614006571 -0.011962382738850049 0 -0.2598032925822476 -0.0188915667982569 0 -0.22947398200509031 -0.0088002145151058891 0 -0.2437457614006571 -0.011962382738850049 0 -0.2401015516947359 0.00075261550232862703 0 -0.2437457614006571 -0.011962382738850049 0 -0.25267499080189931 -0.0034516002120552492 0 -0.2401015516947359 0.00075261550232862703 0 -0.25267499080189931 -0.0034516002120552492 0 -0.2598032925822476 -0.0188915667982569 0 -0.26909988492935111 -0.0018655285383734981 0 -0.2437457614006571 -0.011962382738850049 0 -0.25267499080189931 -0.0034516002120552492 0 -0.2598032925822476 -0.0188915667982569 0 -0.2598032925822476 -0.0188915667982569 0 -0.27267419604841259 -0.026924212746328481 0 -0.25766621977661042 -0.038842414379153638 0 -0.24161885061771041 -0.026720350447010301 0 -0.2598032925822476 -0.0188915667982569 0 -0.25766621977661042 -0.038842414379153638 0 -0.2598032925822476 -0.0188915667982569 0 -0.27267419604841259 -0.026924212746328481 0 -0.27804425228895369 -0.016131696666228459 0 -0.27267419604841259 -0.026924212746328481 0 -0.27804425228895369 -0.016131696666228459 0 -0.28378415359151371 -0.031280105512012511 0 -0.27804425228895369 -0.016131696666228459 0 -0.26909988492935111 -0.0018655285383734981 0 -0.2917254884257266 -0.0017566381736345419 0 -0.2598032925822476 -0.0188915667982569 0 -0.27804425228895369 -0.016131696666228459 0 -0.26909988492935111 -0.0018655285383734981 0 -0.27804425228895369 -0.016131696666228459 0 -0.2917254884257266 -0.0017566381736345419 0 -0.2928870998243559 -0.020527937726781 0 -0.27804425228895369 -0.016131696666228459 0 -0.2928870998243559 -0.020527937726781 0 -0.28378415359151371 -0.031280105512012511 0 -0.2928870998243559 -0.020527937726781 0 -0.29943422057661201 -0.032203920876667472 0 -0.28378415359151371 -0.031280105512012511 0 -0.2928870998243559 -0.020527937726781 0 -0.31144738423897378 -0.02126732740536201 0 -0.29943422057661201 -0.032203920876667472 0 -0.31144738423897378 -0.02126732740536201 0 -0.31110423911055801 -0.035316851109560482 0 -0.29943422057661201 -0.032203920876667472 0 -0.2917254884257266 -0.0017566381736345419 0 -0.31144738423897378 -0.02126732740536201 0 -0.31177688145040278 0.0050359958776742568 0 -0.2917254884257266 -0.0017566381736345419 0 -0.2928870998243559 -0.020527937726781 0 -0.31144738423897378 -0.02126732740536201 0 -0.2917254884257266 -0.0017566381736345419 0 -0.31144738423897378 -0.02126732740536201 0 -0.30323190850646392 -0.052883144282766713 0 -0.3023660715744253 -0.047018139519123002 0 -0.29757341552329353 -0.05219957266967655 0 -0.29931176789370939 -0.061629941742321552 0 -0.30659897303184058 -0.057135789817405573 0 -0.30728911182784302 -0.064893595009923935 0 -0.30323190850646392 -0.052883144282766713 0 -0.29931176789370939 -0.061629941742321552 0 -0.30659897303184058 -0.057135789817405573 0 -0.30323190850646392 -0.052883144282766713 0 -0.29757341552329353 -0.05219957266967655 0 -0.29931176789370939 -0.061629941742321552 0 -0.30659897303184058 -0.057135789817405573 0 -0.30728911182784302 -0.064893595009923935 0 -0.31405483352543062 -0.056831087900065053 0 -0.30323190850646392 -0.052883144282766713 0 -0.3023660715744253 -0.047018139519123002 0 -0.31025625293594222 -0.050033124508212908 0 -0.30659897303184058 -0.057135789817405573 0 -0.31025625293594222 -0.050033124508212908 0 -0.31405483352543062 -0.056831087900065053 0 -0.30323190850646392 -0.052883144282766713 0 -0.30659897303184058 -0.057135789817405573 0 -0.31025625293594222 -0.050033124508212908 0 -0.3023660715744253 -0.047018139519123002 0 -0.31110423911055801 -0.035316851109560482 0 -0.29943422057661201 -0.032203920876667472 0 -0.3023660715744253 -0.047018139519123002 0 -0.29943422057661201 -0.032203920876667472 0 -0.29166722635019171 -0.038853801873014321 0 -0.29943422057661201 -0.032203920876667472 0 -0.29166722635019171 -0.038853801873014321 0 -0.28378415359151371 -0.031280105512012511 0 -0.3023660715744253 -0.047018139519123002 0 -0.29166722635019171 -0.038853801873014321 0 -0.28390051605192418 -0.042754285685484159 0 -0.29166722635019171 -0.038853801873014321 0 -0.28378415359151371 -0.031280105512012511 0 -0.28390051605192418 -0.042754285685484159 0 -0.3023660715744253 -0.047018139519123002 0 -0.28390051605192418 -0.042754285685484159 0 -0.27356286309663053 -0.053258262401150697 0 -0.3023660715744253 -0.047018139519123002 0 -0.27356286309663053 -0.053258262401150697 0 -0.29757341552329353 -0.05219957266967655 0 -0.27356286309663053 -0.053258262401150697 0 -0.27532891164284878 -0.069285621960536392 0 -0.29757341552329353 -0.05219957266967655 0 -0.27532891164284878 -0.069285621960536392 0 -0.3023660715744253 -0.047018139519123002 0 -0.29757341552329353 -0.05219957266967655 0 -0.27356286309663053 -0.053258262401150697 0 -0.29757341552329353 -0.05219957266967655 0 -0.29931176789370939 -0.061629941742321552 0 -0.27532891164284878 -0.069285621960536392 0 -0.27267419604841259 -0.026924212746328481 0 -0.27375437843427658 -0.039043607324579933 0 -0.25766621977661042 -0.038842414379153638 0 -0.27356286309663053 -0.053258262401150697 0 -0.27375437843427658 -0.039043607324579933 0 -0.25766621977661042 -0.038842414379153638 0 -0.28378415359151371 -0.031280105512012511 0 -0.28390051605192418 -0.042754285685484159 0 -0.27375437843427658 -0.039043607324579933 0 -0.27267419604841259 -0.026924212746328481 0 -0.28378415359151371 -0.031280105512012511 0 -0.27375437843427658 -0.039043607324579933 0 -0.28390051605192418 -0.042754285685484159 0 -0.27356286309663053 -0.053258262401150697 0 -0.27375437843427658 -0.039043607324579933 0 -0.24475965461883589 -0.059498385283178377 0 -0.27356286309663053 -0.053258262401150697 0 -0.2582325144520296 -0.070050845257802419 0 -0.24475965461883589 -0.059498385283178377 0 -0.27356286309663053 -0.053258262401150697 0 -0.24475965461883589 -0.059498385283178377 0 -0.27356286309663053 -0.053258262401150697 0 -0.25766621977661042 -0.038842414379153638 0 -0.2582325144520296 -0.070050845257802419 0 -0.25308440776240432 -0.086371671251396109 0 -0.27532891164284878 -0.069285621960536392 0 -0.25308440776240432 -0.086371671251396109 0 -0.27532891164284878 -0.069285621960536392 0 -0.25308440776240432 -0.086371671251396109 0 -0.27361062541114611 -0.085405998149086934 0 -0.26907394573302829 -0.10103393024372311 0 -0.27361062541114611 -0.085405998149086934 0 -0.26907394573302829 -0.10103393024372311 0 -0.28494676303449051 -0.09097811142482605 0 -0.25308440776240432 -0.086371671251396109 0 -0.27361062541114611 -0.085405998149086934 0 -0.27532891164284878 -0.069285621960536392 0 -0.27356286309663053 -0.053258262401150697 0 -0.2582325144520296 -0.070050845257802419 0 -0.27532891164284878 -0.069285621960536392 0 -0.27361062541114611 -0.085405998149086934 0 -0.27532891164284878 -0.069285621960536392 0 -0.28561909888295839 -0.079360655864953042 0 -0.2432602079730701 -0.13485583854350039 0 -0.2499653418643101 -0.1102460646797562 0 -0.26490928006600228 -0.12397715003998409 0 -0.2499653418643101 -0.1102460646797562 0 -0.26490928006600228 -0.12397715003998409 0 -0.26907394573302829 -0.10103393024372311 0 -0.2499653418643101 -0.1102460646797562 0 -0.25308440776240432 -0.086371671251396109 0 -0.26907394573302829 -0.10103393024372311 0 -0.26907394573302829 -0.10103393024372311 0 -0.28789548083438649 -0.11161882002010511 0 -0.28494676303449051 -0.09097811142482605 0 -0.26490928006600228 -0.12397715003998409 0 -0.28789548083438649 -0.11161882002010511 0 -0.28428672055728371 -0.13281235115180859 0 -0.26490928006600228 -0.12397715003998409 0 -0.26907394573302829 -0.10103393024372311 0 -0.28789548083438649 -0.11161882002010511 0 -0.28789548083438649 -0.11161882002010511 0 -0.28428672055728371 -0.13281235115180859 0 -0.30877835781368662 -0.12931532841693749 0 -0.28789548083438649 -0.11161882002010511 0 -0.29765529442092259 -0.094840601490837839 0 -0.28494676303449051 -0.09097811142482605 0 -0.30761934067920371 -0.1042503242997595 0 -0.29765529442092259 -0.094840601490837839 0 -0.30832877355579341 -0.086934752854072747 0 -0.30761934067920371 -0.1042503242997595 0 -0.30832877355579341 -0.086934752854072747 0 -0.31968159473222052 -0.091584555267719248 0 -0.28789548083438649 -0.11161882002010511 0 -0.30761934067920371 -0.1042503242997595 0 -0.29765529442092259 -0.094840601490837839 0 -0.28789548083438649 -0.11161882002010511 0 -0.30761934067920371 -0.1042503242997595 0 -0.30877835781368662 -0.12931532841693749 0 -0.29931176789370939 -0.061629941742321552 0 -0.27532891164284878 -0.069285621960536392 0 -0.29568251685582603 -0.071589435967753134 0 -0.27532891164284878 -0.069285621960536392 0 -0.29568251685582603 -0.071589435967753134 0 -0.28561909888295839 -0.079360655864953042 0 -0.29568251685582603 -0.071589435967753134 0 -0.28561909888295839 -0.079360655864953042 0 -0.29849490204505058 -0.081938345925378783 0 -0.27361062541114611 -0.085405998149086934 0 -0.28561909888295839 -0.079360655864953042 0 -0.28494676303449051 -0.09097811142482605 0 -0.29765529442092259 -0.094840601490837839 0 -0.28494676303449051 -0.09097811142482605 0 -0.29849490204505058 -0.081938345925378783 0 -0.28561909888295839 -0.079360655864953042 0 -0.28494676303449051 -0.09097811142482605 0 -0.29849490204505058 -0.081938345925378783 0 -0.29849490204505058 -0.081938345925378783 0 -0.30832877355579341 -0.086934752854072747 0 -0.3066986514807607 -0.074546990101646726 0 -0.29765529442092259 -0.094840601490837839 0 -0.29849490204505058 -0.081938345925378783 0 -0.30832877355579341 -0.086934752854072747 0 -0.30832877355579341 -0.086934752854072747 0 -0.3066986514807607 -0.074546990101646726 0 -0.31636087034116728 -0.076704125898778439 0 -0.3066986514807607 -0.074546990101646726 0 -0.31411021802290889 -0.069356746280106005 0 -0.31636087034116728 -0.076704125898778439 0 -0.29568251685582603 -0.071589435967753134 0 -0.29849490204505058 -0.081938345925378783 0 -0.3066986514807607 -0.074546990101646726 0 -0.29568251685582603 -0.071589435967753134 0 -0.3066986514807607 -0.074546990101646726 0 -0.30728911182784302 -0.064893595009923935 0 -0.29931176789370939 -0.061629941742321552 0 -0.29568251685582603 -0.071589435967753134 0 -0.30728911182784302 -0.064893595009923935 0 -0.3066986514807607 -0.074546990101646726 0 -0.30728911182784302 -0.064893595009923935 0 -0.31411021802290889 -0.069356746280106005 0 -0.30728911182784302 -0.064893595009923935 0 -0.31630436981946819 -0.062936971351065629 0 -0.31411021802290889 -0.069356746280106005 0 -0.31630436981946819 -0.062936971351065629 0 -0.31411021802290889 -0.069356746280106005 0 -0.32389808664530562 -0.067702049039115322 0 -0.31630436981946819 -0.062936971351065629 0 -0.32389808664530562 -0.067702049039115322 0 -0.32481687078849097 -0.058022226865728103 0 -0.32389808664530562 -0.067702049039115322 0 -0.3259684841043719 -0.075020057435826168 0 -0.31636087034116728 -0.076704125898778439 0 -0.31411021802290889 -0.069356746280106005 0 -0.32389808664530562 -0.067702049039115322 0 -0.31636087034116728 -0.076704125898778439 0 -0.30832877355579341 -0.086934752854072747 0 -0.32608803180755441 -0.084321365842938284 0 -0.30832877355579341 -0.086934752854072747 0 -0.31968159473222052 -0.091584555267719248 0 -0.32608803180755441 -0.084321365842938284 0 -0.30832877355579341 -0.086934752854072747 0 -0.31636087034116728 -0.076704125898778439 0 -0.32608803180755441 -0.084321365842938284 0 -0.31968159473222052 -0.091584555267719248 0 -0.32608803180755441 -0.084321365842938284 0 -0.3259684841043719 -0.075020057435826168 0 -0.31636087034116728 -0.076704125898778439 0 -0.32608803180755441 -0.084321365842938284 0 -0.31968159473222052 -0.091584555267719248 0 -0.32608803180755441 -0.084321365842938284 0 -0.34030971713070318 -0.087052614945596102 0 -0.32608803180755441 -0.084321365842938284 0 -0.34030971713070318 -0.087052614945596102 0 -0.34745734249292459 -0.081176736816750444 0 -0.32608803180755441 -0.084321365842938284 0 -0.33752694762346008 -0.07135268896247253 0 -0.34745734249292459 -0.081176736816750444 0 -0.32608803180755441 -0.084321365842938284 0 -0.34745734249292459 -0.081176736816750444 0 -0.33752694762346008 -0.07135268896247253 0 -0.3489658634393657 -0.058384012082006782 0 -0.33645864726091979 -0.05858208772264157 0 -0.33752694762346008 -0.07135268896247253 0 -0.3489658634393657 -0.058384012082006782 0 -0.32389808664530562 -0.067702049039115322 0 -0.33752694762346008 -0.07135268896247253 0 -0.33645864726091979 -0.05858208772264157 0 -0.3259684841043719 -0.075020057435826168 0 -0.32608803180755441 -0.084321365842938284 0 -0.33752694762346008 -0.07135268896247253 0 -0.32608803180755441 -0.084321365842938284 0 -0.33752694762346008 -0.07135268896247253 0 -0.32389808664530562 -0.067702049039115322 0 -0.3259684841043719 -0.075020057435826168 0 -0.33752694762346008 -0.07135268896247253 0 -0.32454403747219479 -0.1081839716812668 0 -0.30877835781368662 -0.12931532841693749 0 -0.30761934067920371 -0.1042503242997595 0 -0.32454403747219479 -0.1081839716812668 0 -0.30877835781368662 -0.12931532841693749 0 -0.32454403747219479 -0.1081839716812668 0 -0.33570809008837621 -0.11845594114356341 0 -0.30877835781368662 -0.12931532841693749 0 -0.30761934067920371 -0.1042503242997595 0 -0.31968159473222052 -0.091584555267719248 0 -0.32454403747219479 -0.1081839716812668 0 -0.34030971713070318 -0.087052614945596102 0 -0.32454403747219479 -0.1081839716812668 0 -0.34278855512837281 -0.1049294584887832 0 -0.31968159473222052 -0.091584555267719248 0 -0.34030971713070318 -0.087052614945596102 0 -0.32454403747219479 -0.1081839716812668 0 -0.34030971713070318 -0.087052614945596102 0 -0.32454403747219479 -0.1081839716812668 0 -0.32454403747219479 -0.1081839716812668 0 -0.34278855512837281 -0.1049294584887832 0 -0.33570809008837621 -0.11845594114356341 0 -0.33570809008837621 -0.11845594114356341 0 -0.35404294059136687 -0.1217835462641018 0 -0.33688620478323589 -0.13358080389391511 0 -0.34278855512837281 -0.1049294584887832 0 -0.35404294059136687 -0.1217835462641018 0 -0.35932798989652742 -0.1047455147758234 0 -0.34278855512837281 -0.1049294584887832 0 -0.33570809008837621 -0.11845594114356341 0 -0.35404294059136687 -0.1217835462641018 0 -0.34278855512837281 -0.1049294584887832 0 -0.35932798989652742 -0.1047455147758234 0 -0.35079718399447979 -0.093651592615473511 0 -0.34030971713070318 -0.087052614945596102 0 -0.34278855512837281 -0.1049294584887832 0 -0.35079718399447979 -0.093651592615473511 0 -0.35932798989652742 -0.1047455147758234 0 -0.35079718399447979 -0.093651592615473511 0 -0.36132419909701757 -0.091459041133748031 0 -0.35932798989652742 -0.1047455147758234 0 -0.37367929427193591 -0.1014825750548952 0 -0.37212838853434238 -0.11808059788504249 0 -0.35932798989652742 -0.1047455147758234 0 -0.37367929427193591 -0.1014825750548952 0 -0.36132419909701757 -0.091459041133748031 0 -0.35404294059136687 -0.1217835462641018 0 -0.37212838853434238 -0.11808059788504249 0 -0.37028068739271691 -0.13083580994494901 0 -0.35404294059136687 -0.1217835462641018 0 -0.35932798989652742 -0.1047455147758234 0 -0.37212838853434238 -0.11808059788504249 0 -0.35069420168351129 -0.07223638641294812 0 -0.34745734249292459 -0.081176736816750444 0 -0.36882665317829499 -0.078032107790563188 0 -0.36882665317829499 -0.078032107790563188 0 -0.3489658634393657 -0.058384012082006782 0 -0.35069420168351129 -0.07223638641294812 0 -0.36882665317829499 -0.078032107790563188 0 -0.3489658634393657 -0.058384012082006782 0 -0.33752694762346008 -0.07135268896247253 0 -0.35069420168351129 -0.07223638641294812 0 -0.3489658634393657 -0.058384012082006782 0 -0.33752694762346008 -0.07135268896247253 0 -0.35069420168351129 -0.07223638641294812 0 -0.34745734249292459 -0.081176736816750444 0 -0.34745734249292459 -0.081176736816750444 0 -0.36882665317829499 -0.078032107790563188 0 -0.34745734249292459 -0.081176736816750444 0 -0.36132419909701757 -0.091459041133748031 0 -0.36882665317829499 -0.078032107790563188 0 -0.34030971713070318 -0.087052614945596102 0 -0.34745734249292459 -0.081176736816750444 0 -0.35079718399447979 -0.093651592615473511 0 -0.34745734249292459 -0.081176736816750444 0 -0.35079718399447979 -0.093651592615473511 0 -0.36132419909701757 -0.091459041133748031 0 -0.37367929427193591 -0.1014825750548952 0 -0.36132419909701757 -0.091459041133748031 0 -0.36882665317829499 -0.078032107790563188 0 -0.36882665317829499 -0.078032107790563188 0 -0.36862349457690058 -0.057461967220355487 0 -0.3489658634393657 -0.058384012082006782 0 -0.36882665317829499 -0.078032107790563188 0 -0.36862349457690058 -0.057461967220355487 0 -0.37947166312044489 -0.067272628224985004 0 -0.36862349457690058 -0.057461967220355487 0 -0.3489658634393657 -0.058384012082006782 0 -0.36066681755822472 -0.045118253717945672 0 -0.36862349457690058 -0.057461967220355487 0 -0.37355784227175309 -0.045246792894939887 0 -0.3815482533063424 -0.052412606119804542 0 -0.36862349457690058 -0.057461967220355487 0 -0.36066681755822472 -0.045118253717945672 0 -0.37355784227175309 -0.045246792894939887 0 -0.3489658634393657 -0.058384012082006782 0 -0.36066681755822472 -0.045118253717945672 0 -0.3489658634393657 -0.058384012082006782 0 -0.34511111307690212 -0.046137334811030092 0 -0.36066681755822472 -0.045118253717945672 0 -0.35304062521722218 -0.036039659744318157 0 -0.3553139768507978 -0.023567241021099371 0 -0.33371347875736079 -0.040226824134751989 0 -0.34511111307690212 -0.046137334811030092 0 -0.35304062521722218 -0.036039659744318157 0 -0.33371347875736079 -0.040226824134751989 0 -0.34511111307690212 -0.046137334811030092 0 -0.35304062521722218 -0.036039659744318157 0 -0.36066681755822472 -0.045118253717945672 0 -0.36066681755822472 -0.045118253717945672 0 -0.37236777167708351 -0.031852495353884333 0 -0.35304062521722218 -0.036039659744318157 0 -0.37236777167708351 -0.031852495353884333 0 -0.35304062521722218 -0.036039659744318157 0 -0.36066681755822472 -0.045118253717945672 0 -0.37236777167708351 -0.031852495353884333 0 -0.36066681755822472 -0.045118253717945672 0 -0.37355784227175309 -0.045246792894939887 0 -0.37236777167708351 -0.031852495353884333 0 -0.37236777167708351 -0.031852495353884333 0 -0.3739022591900184 -0.02415390189740213 0 -0.36770044175442279 -0.02036669541201027 0 -0.37236777167708351 -0.031852495353884333 0 -0.36770044175442279 -0.02036669541201027 0 -0.3553139768507978 -0.023567241021099371 0 -0.36770044175442279 -0.02036669541201027 0 -0.35847393927256738 -0.010652033510738681 0 -0.38297625517291389 -0.017448943304264108 0 -0.35304062521722218 -0.036039659744318157 0 -0.37236777167708351 -0.031852495353884333 0 -0.3553139768507978 -0.023567241021099371 0 -0.3739022591900184 -0.02415390189740213 0 -0.36770044175442279 -0.02036669541201027 0 -0.38297625517291389 -0.017448943304264108 0 -0.36770044175442279 -0.02036669541201027 0 -0.35847393927256738 -0.010652033510738681 0 -0.3553139768507978 -0.023567241021099371 0 -0.35847393927256738 -0.010652033510738681 0 -0.38297625517291389 -0.017448943304264108 0 -0.37278444596104371 -0.0079457960458173115 0 -0.35847393927256738 -0.010652033510738681 0 -0.38297625517291389 -0.017448943304264108 0 -0.37474494217865062 -0.0022388935110706832 0 -0.37278444596104371 -0.0079457960458173115 0 -0.36307869926690151 -0.00068504054922277494 0 -0.37278444596104371 -0.0079457960458173115 0 -0.36307869926690151 -0.00068504054922277494 0 -0.35847393927256738 -0.010652033510738681 0 -0.36307869926690151 -0.00068504054922277494 0 -0.34718119132474479 -0.01384164818341615 0 -0.36064890389212972 0.0125435277679194 0 -0.36307869926690151 -0.00068504054922277494 0 -0.35847393927256738 -0.010652033510738681 0 -0.34718119132474479 -0.01384164818341615 0 -0.34718119132474479 -0.01384164818341615 0 -0.36064890389212972 0.0125435277679194 0 -0.34718119132474479 -0.01384164818341615 0 -0.3553139768507978 -0.023567241021099371 0 -0.33371347875736079 -0.040226824134751989 0 -0.35847393927256738 -0.010652033510738681 0 -0.34718119132474479 -0.01384164818341615 0 -0.3553139768507978 -0.023567241021099371 0 -0.34718119132474479 -0.01384164818341615 0 -0.33035884889608558 -0.02420969997450095 0 -0.33371347875736079 -0.040226824134751989 0 -0.34718119132474479 -0.01384164818341615 0 -0.33371347875736079 -0.040226824134751989 0 -0.34718119132474479 -0.01384164818341615 0 -0.32828291010712762 -0.0049346835118845543 0 -0.34055428987364128 0.0059527955302196532 0 -0.34718119132474479 -0.01384164818341615 0 -0.33035884889608558 -0.02420969997450095 0 -0.32828291010712762 -0.0049346835118845543 0 -0.31144738423897378 -0.02126732740536201 0 -0.32828291010712762 -0.0049346835118845543 0 -0.31177688145040278 0.0050359958776742568 0 -0.31144738423897378 -0.02126732740536201 0 -0.33116928005221918 -0.040778016637091109 0 -0.31144738423897378 -0.02126732740536201 0 -0.33035884889608558 -0.02420969997450095 0 -0.32828291010712762 -0.0049346835118845543 0 -0.31144738423897378 -0.02126732740536201 0 -0.33035884889608558 -0.02420969997450095 0 -0.33116928005221918 -0.040778016637091109 0 -0.3023660715744253 -0.047018139519123002 0 -0.31110423911055801 -0.035316851109560482 0 -0.33116928005221918 -0.040778016637091109 0 -0.3023660715744253 -0.047018139519123002 0 -0.31025625293594222 -0.050033124508212908 0 -0.33116928005221918 -0.040778016637091109 0 -0.3023660715744253 -0.047018139519123002 0 -0.33116928005221918 -0.040778016637091109 0 -0.31144738423897378 -0.02126732740536201 0 -0.31110423911055801 -0.035316851109560482 0 -0.33116928005221918 -0.040778016637091109 0 -0.31025625293594222 -0.050033124508212908 0 -0.31770057673851387 -0.05020147555903863 0 -0.33116928005221918 -0.040778016637091109 0 -0.31025625293594222 -0.050033124508212908 0 -0.31770057673851387 -0.05020147555903863 0 -0.31405483352543062 -0.056831087900065053 0 -0.31770057673851387 -0.05020147555903863 0 -0.31405483352543062 -0.056831087900065053 0 -0.31936567051967829 -0.054711673150449433 0 -0.31630436981946819 -0.062936971351065629 0 -0.31936567051967829 -0.054711673150449433 0 -0.32481687078849097 -0.058022226865728103 0 -0.30728911182784302 -0.064893595009923935 0 -0.31630436981946819 -0.062936971351065629 0 -0.31405483352543062 -0.056831087900065053 0 -0.31630436981946819 -0.062936971351065629 0 -0.31405483352543062 -0.056831087900065053 0 -0.31936567051967829 -0.054711673150449433 0 -0.31770057673851387 -0.05020147555903863 0 -0.32448711316898249 -0.050622394842538963 0 -0.33116928005221918 -0.040778016637091109 0 -0.31936567051967829 -0.054711673150449433 0 -0.32481687078849097 -0.058022226865728103 0 -0.32448711316898249 -0.050622394842538963 0 -0.31770057673851387 -0.05020147555903863 0 -0.31936567051967829 -0.054711673150449433 0 -0.32448711316898249 -0.050622394842538963 0 -0.32481687078849097 -0.058022226865728103 0 -0.32770904195502032 -0.053173566283506987 0 -0.32448711316898249 -0.050622394842538963 0 -0.32770904195502032 -0.053173566283506987 0 -0.32448711316898249 -0.050622394842538963 0 -0.32972533979495861 -0.048040159006195682 0 -0.3489658634393657 -0.058384012082006782 0 -0.34511111307690212 -0.046137334811030092 0 -0.3326728772282519 -0.042265511425067279 0 -0.32972533979495861 -0.048040159006195682 0 -0.33645864726091979 -0.05858208772264157 0 -0.3326728772282519 -0.042265511425067279 0 -0.3489658634393657 -0.058384012082006782 0 -0.3326728772282519 -0.042265511425067279 0 -0.32770904195502032 -0.053173566283506987 0 -0.32972533979495861 -0.048040159006195682 0 -0.33645864726091979 -0.05858208772264157 0 -0.3489658634393657 -0.058384012082006782 0 -0.33645864726091979 -0.05858208772264157 0 -0.3326728772282519 -0.042265511425067279 0 -0.32389808664530562 -0.067702049039115322 0 -0.32481687078849097 -0.058022226865728103 0 -0.33645864726091979 -0.05858208772264157 0 -0.32481687078849097 -0.058022226865728103 0 -0.32770904195502032 -0.053173566283506987 0 -0.33645864726091979 -0.05858208772264157 0 -0.34511111307690212 -0.046137334811030092 0 -0.33371347875736079 -0.040226824134751989 0 -0.3326728772282519 -0.042265511425067279 0 -0.33035884889608558 -0.02420969997450095 0 -0.33116928005221918 -0.040778016637091109 0 -0.33371347875736079 -0.040226824134751989 0 -0.35304062521722218 -0.036039659744318157 0 -0.33371347875736079 -0.040226824134751989 0 -0.32448711316898249 -0.050622394842538963 0 -0.32972533979495861 -0.048040159006195682 0 -0.33116928005221918 -0.040778016637091109 0 -0.33116928005221918 -0.040778016637091109 0 -0.3326728772282519 -0.042265511425067279 0 -0.32972533979495861 -0.048040159006195682 0 -0.3326728772282519 -0.042265511425067279 0 -0.32972533979495861 -0.048040159006195682 0 -0.33116928005221918 -0.040778016637091109 0 -0.3326728772282519 -0.042265511425067279 0 -0.33116928005221918 -0.040778016637091109 0 -0.33371347875736079 -0.040226824134751989 0 -0.33116928005221918 -0.040778016637091109 0 -0.33371347875736079 -0.040226824134751989 0 -0.3326728772282519 -0.042265511425067279 0 -0.33371347875736079 -0.040226824134751989 0 -0.3326728772282519 -0.042265511425067279 0 -0.2907170577323625 -0.25177677077710309 0 -0.30853150187083839 -0.25429835417001312 0 -0.30748271917561598 -0.2431056607245809 0 -0.30748271917561598 -0.2431056607245809 0 -0.3004866401015065 -0.2269264896544945 0 -0.32066485276457768 -0.2334308190911655 0 -0.2907170577323625 -0.25177677077710309 0 -0.30748271917561598 -0.2431056607245809 0 -0.3004866401015065 -0.2269264896544945 0 -0.30853150187083839 -0.25429835417001312 0 -0.30748271917561598 -0.2431056607245809 0 -0.32023222063025569 -0.2489608815952247 0 -0.3004866401015065 -0.2269264896544945 0 -0.27575903677895092 -0.22208668823385669 0 -0.3004866401015065 -0.2269264896544945 0 -0.27309361240676189 -0.24179026653703889 0 -0.27575903677895092 -0.22208668823385669 0 -0.3004866401015065 -0.2269264896544945 0 -0.27575903677895092 -0.22208668823385669 0 -0.29482007196541532 -0.2089319155152673 0 -0.2907170577323625 -0.25177677077710309 0 -0.3004866401015065 -0.2269264896544945 0 -0.27309361240676189 -0.24179026653703889 0 -0.27309361240676189 -0.24179026653703889 0 -0.25431856302814809 -0.24833495949118861 0 -0.25103143345639523 -0.21724688681321891 0 -0.27575903677895092 -0.22208668823385669 0 -0.25103143345639523 -0.21724688681321891 0 -0.27309361240676189 -0.24179026653703889 0 -0.27575903677895092 -0.22208668823385669 0 -0.25103143345639523 -0.21724688681321891 0 -0.27575903677895092 -0.22208668823385669 0 -0.25103143345639523 -0.21724688681321891 0 -0.27708552823660842 -0.19790031786117671 0 -0.25103143345639523 -0.21724688681321891 0 -0.25418198431724581 -0.18809916394242601 0 -0.27708552823660842 -0.19790031786117671 0 -0.27708552823660842 -0.19790031786117671 0 -0.29482007196541532 -0.2089319155152673 0 -0.30195969341908391 -0.19078830755985379 0 -0.29482007196541532 -0.2089319155152673 0 -0.30195969341908391 -0.19078830755985379 0 -0.32674672588845421 -0.2120308859258328 0 -0.3004866401015065 -0.2269264896544945 0 -0.29482007196541532 -0.2089319155152673 0 -0.32674672588845421 -0.2120308859258328 0 -0.27575903677895092 -0.22208668823385669 0 -0.27708552823660842 -0.19790031786117671 0 -0.29482007196541532 -0.2089319155152673 0 -0.30195969341908391 -0.19078830755985379 0 -0.30674796742087651 -0.1684647150882764 0 -0.32123008678095788 -0.18729232698745699 0 -0.30674796742087651 -0.1684647150882764 0 -0.2930126781551784 -0.15044668515260809 0 -0.3206808779707625 -0.15110047818677941 0 -0.27724699849667023 -0.17157804188827869 0 -0.2930126781551784 -0.15044668515260809 0 -0.30674796742087651 -0.1684647150882764 0 -0.27724699849667023 -0.17157804188827869 0 -0.2930126781551784 -0.15044668515260809 0 -0.27708552823660842 -0.19790031786117671 0 -0.30195969341908391 -0.19078830755985379 0 -0.27724699849667023 -0.17157804188827869 0 -0.30195969341908391 -0.19078830755985379 0 -0.30674796742087651 -0.1684647150882764 0 -0.27724699849667023 -0.17157804188827869 0 -0.25418198431724581 -0.18809916394242601 0 -0.27708552823660842 -0.19790031786117671 0 -0.27724699849667023 -0.17157804188827869 0 -0.25418198431724581 -0.18809916394242601 0 -0.2565438833259911 -0.1687602707777138 0 -0.27724699849667023 -0.17157804188827869 0 -0.2435592126657353 -0.1561425335328199 0 -0.2565438833259911 -0.1687602707777138 0 -0.26683780591716472 -0.14870377212940841 0 -0.27724699849667023 -0.17157804188827869 0 -0.26683780591716472 -0.14870377212940841 0 -0.2930126781551784 -0.15044668515260809 0 -0.2565438833259911 -0.1687602707777138 0 -0.27724699849667023 -0.17157804188827869 0 -0.26683780591716472 -0.14870377212940841 0 -0.2435592126657353 -0.1561425335328199 0 -0.2432602079730701 -0.13485583854350039 0 -0.26683780591716472 -0.14870377212940841 0 -0.2432602079730701 -0.13485583854350039 0 -0.26490928006600228 -0.12397715003998409 0 -0.26683780591716472 -0.14870377212940841 0 -0.26490928006600228 -0.12397715003998409 0 -0.26683780591716472 -0.14870377212940841 0 -0.28428672055728371 -0.13281235115180859 0 -0.28428672055728371 -0.13281235115180859 0 -0.2930126781551784 -0.15044668515260809 0 -0.30877835781368662 -0.12931532841693749 0 -0.26683780591716472 -0.14870377212940841 0 -0.28428672055728371 -0.13281235115180859 0 -0.2930126781551784 -0.15044668515260809 0 -0.2930126781551784 -0.15044668515260809 0 -0.30877835781368662 -0.12931532841693749 0 -0.3206808779707625 -0.15110047818677941 0 -0.2930126781551784 -0.15044668515260809 0 -0.30877835781368662 -0.12931532841693749 0 -0.33570809008837621 -0.11845594114356341 0 -0.30877835781368662 -0.12931532841693749 0 -0.33688620478323589 -0.13358080389391511 0 -0.30877835781368662 -0.12931532841693749 0 -0.3206808779707625 -0.15110047818677941 0 -0.33688620478323589 -0.13358080389391511 0 -0.3206808779707625 -0.15110047818677941 0 -0.33688620478323589 -0.13358080389391511 0 -0.34399943231138669 -0.15408109000358611 0 -0.33688620478323589 -0.13358080389391511 0 -0.35929992868189681 -0.1386942596847188 0 -0.35404294059136687 -0.1217835462641018 0 -0.33688620478323589 -0.13358080389391511 0 -0.35929992868189681 -0.1386942596847188 0 -0.35404294059136687 -0.1217835462641018 0 -0.35929992868189681 -0.1386942596847188 0 -0.37028068739271691 -0.13083580994494901 0 -0.35929992868189681 -0.1386942596847188 0 -0.37028068739271691 -0.13083580994494901 0 -0.3804539816512269 -0.14482329966991631 0 -0.35929992868189681 -0.1386942596847188 0 -0.3804539816512269 -0.14482329966991631 0 -0.35929992868189681 -0.1386942596847188 0 -0.3655172116091886 -0.15688196674787641 0 -0.3804539816512269 -0.14482329966991631 0 -0.3655172116091886 -0.15688196674787641 0 -0.3804539816512269 -0.14482329966991631 0 -0.3655172116091886 -0.15688196674787641 0 -0.37839901512320262 -0.15996290040625341 0 -0.3804539816512269 -0.14482329966991631 0 -0.33688620478323589 -0.13358080389391511 0 -0.35929992868189681 -0.1386942596847188 0 -0.34399943231138669 -0.15408109000358611 0 -0.35929992868189681 -0.1386942596847188 0 -0.34399943231138669 -0.15408109000358611 0 -0.3655172116091886 -0.15688196674787641 0 -0.34399943231138669 -0.15408109000358611 0 -0.35323542112630057 -0.1671812377988513 0 -0.3655172116091886 -0.15688196674787641 0 -0.3655172116091886 -0.15688196674787641 0 -0.37378547386561772 -0.17392500984250869 0 -0.37839901512320262 -0.15996290040625341 0 -0.35323542112630057 -0.1671812377988513 0 -0.3655172116091886 -0.15688196674787641 0 -0.37378547386561772 -0.17392500984250869 0 -0.37378547386561772 -0.17392500984250869 0 -0.35240556330307887 -0.18479875362473361 0 -0.36895563931783232 -0.19259611207654981 0 -0.35323542112630057 -0.1671812377988513 0 -0.37378547386561772 -0.17392500984250869 0 -0.35240556330307887 -0.18479875362473361 0 -0.35323542112630057 -0.1671812377988513 0 -0.35240556330307887 -0.18479875362473361 0 -0.33400288196205857 -0.17193246321376471 0 -0.35240556330307887 -0.18479875362473361 0 -0.33400288196205857 -0.17193246321376471 0 -0.33669316521431608 -0.19324526314955739 0 -0.33400288196205857 -0.17193246321376471 0 -0.32123008678095788 -0.18729232698745699 0 -0.33669316521431608 -0.19324526314955739 0 -0.3206808779707625 -0.15110047818677941 0 -0.34399943231138669 -0.15408109000358611 0 -0.33400288196205857 -0.17193246321376471 0 -0.34399943231138669 -0.15408109000358611 0 -0.35323542112630057 -0.1671812377988513 0 -0.33400288196205857 -0.17193246321376471 0 -0.30674796742087651 -0.1684647150882764 0 -0.3206808779707625 -0.15110047818677941 0 -0.33400288196205857 -0.17193246321376471 0 -0.30674796742087651 -0.1684647150882764 0 -0.33400288196205857 -0.17193246321376471 0 -0.32123008678095788 -0.18729232698745699 0 -0.30195969341908391 -0.19078830755985379 0 -0.32123008678095788 -0.18729232698745699 0 -0.32674672588845421 -0.2120308859258328 0 -0.32674672588845421 -0.2120308859258328 0 -0.35024140450074381 -0.20994798342056251 0 -0.32674672588845421 -0.2120308859258328 0 -0.33669316521431608 -0.19324526314955739 0 -0.35024140450074381 -0.20994798342056251 0 -0.32674672588845421 -0.2120308859258328 0 -0.35024140450074381 -0.20994798342056251 0 -0.3377174746324717 -0.2284461722996495 0 -0.32123008678095788 -0.18729232698745699 0 -0.32674672588845421 -0.2120308859258328 0 -0.33669316521431608 -0.19324526314955739 0 -0.35240556330307887 -0.18479875362473361 0 -0.36895563931783232 -0.19259611207654981 0 -0.35024140450074381 -0.20994798342056251 0 -0.35240556330307887 -0.18479875362473361 0 -0.33669316521431608 -0.19324526314955739 0 -0.35024140450074381 -0.20994798342056251 0 -0.36895563931783232 -0.19259611207654981 0 -0.37373608311303341 -0.20786508091529229 0 -0.35024140450074381 -0.20994798342056251 0 -0.37373608311303341 -0.20786508091529229 0 -0.35024140450074381 -0.20994798342056251 0 -0.37373608311303341 -0.20786508091529229 0 -0.35024140450074381 -0.20994798342056251 0 -0.36602803805366552 -0.21914337572849349 0 -0.37373608311303341 -0.20786508091529229 0 -0.36602803805366552 -0.21914337572849349 0 -0.37785639846487218 -0.21906994256996459 0 -0.35024140450074381 -0.20994798342056251 0 -0.357966965356528 -0.23170644806675769 0 -0.3377174746324717 -0.2284461722996495 0 -0.35024140450074381 -0.20994798342056251 0 -0.357966965356528 -0.23170644806675769 0 -0.36602803805366552 -0.21914337572849349 0 -0.357966965356528 -0.23170644806675769 0 -0.36602803805366552 -0.21914337572849349 0 -0.36983275924353248 -0.22875232439276311 0 -0.36602803805366552 -0.21914337572849349 0 -0.36983275924353248 -0.22875232439276311 0 -0.37785639846487218 -0.21906994256996459 0 -0.357966965356528 -0.23170644806675769 0 -0.36983275924353248 -0.22875232439276311 0 -0.37747963509906429 -0.24508953120583671 0 -0.35872453044413888 -0.25078889886649508 0 -0.357966965356528 -0.23170644806675769 0 -0.37747963509906429 -0.24508953120583671 0 -0.357966965356528 -0.23170644806675769 0 -0.34395992200845399 -0.24382677409400949 0 -0.3377174746324717 -0.2284461722996495 0 -0.35872453044413888 -0.25078889886649508 0 -0.357966965356528 -0.23170644806675769 0 -0.34395992200845399 -0.24382677409400949 0 -0.33345250408021371 -0.25331871279766999 0 -0.34395992200845399 -0.24382677409400949 0 -0.33132333615916232 -0.2411148243472106 0 -0.33345250408021371 -0.25331871279766999 0 -0.33132333615916232 -0.2411148243472106 0 -0.32023222063025569 -0.2489608815952247 0 -0.34395992200845399 -0.24382677409400949 0 -0.33132333615916232 -0.2411148243472106 0 -0.3377174746324717 -0.2284461722996495 0 -0.32674672588845421 -0.2120308859258328 0 -0.3377174746324717 -0.2284461722996495 0 -0.32066485276457768 -0.2334308190911655 0 -0.33132333615916232 -0.2411148243472106 0 -0.3377174746324717 -0.2284461722996495 0 -0.32066485276457768 -0.2334308190911655 0 -0.3004866401015065 -0.2269264896544945 0 -0.32674672588845421 -0.2120308859258328 0 -0.32066485276457768 -0.2334308190911655 0 -0.30748271917561598 -0.2431056607245809 0 -0.32066485276457768 -0.2334308190911655 0 -0.32023222063025569 -0.2489608815952247 0 -0.33132333615916232 -0.2411148243472106 0 -0.32066485276457768 -0.2334308190911655 0 -0.32023222063025569 -0.2489608815952247 0 -0.43445882011373449 -0.25478651907497341 0 -0.43806130733353449 -0.23541812032183559 0 -0.43445882011373449 -0.25478651907497341 0 -0.4258852610480256 -0.24284815888716721 0 -0.43806130733353449 -0.23541812032183559 0 -0.4258852610480256 -0.24284815888716721 0 -0.42538833238501789 -0.2333934851751748 0 -0.41698539980062188 -0.23875950084572559 0 -0.43445882011373449 -0.25478651907497341 0 -0.4258852610480256 -0.24284815888716721 0 -0.42335340856967768 -0.24893549408922019 0 -0.4258852610480256 -0.24284815888716721 0 -0.42538833238501789 -0.2333934851751748 0 -0.43806130733353449 -0.23541812032183559 0 -0.43091611572645672 -0.22699763907763329 0 -0.42538833238501789 -0.2333934851751748 0 -0.43806130733353449 -0.23541812032183559 0 -0.43091611572645672 -0.22699763907763329 0 -0.44166379455333399 -0.21604972156869759 0 -0.43806130733353449 -0.23541812032183559 0 -0.43091611572645672 -0.22699763907763329 0 -0.43133498143110582 -0.21921018883561361 0 -0.44166379455333399 -0.21604972156869759 0 -0.43133498143110582 -0.21921018883561361 0 -0.4232485836513401 -0.22477446532261011 0 -0.4232102070061276 -0.21869015764887889 0 -0.43091611572645672 -0.22699763907763329 0 -0.43133498143110582 -0.21921018883561361 0 -0.4232485836513401 -0.22477446532261011 0 -0.43091611572645672 -0.22699763907763329 0 -0.4232485836513401 -0.22477446532261011 0 -0.42538833238501789 -0.2333934851751748 0 -0.4232485836513401 -0.22477446532261011 0 -0.42538833238501789 -0.2333934851751748 0 -0.41731365953457839 -0.2310953018814938 0 -0.4232485836513401 -0.22477446532261011 0 -0.41731365953457839 -0.2310953018814938 0 -0.4121948509493269 -0.2247325638453028 0 -0.41731365953457839 -0.2310953018814938 0 -0.4080561583250083 -0.23272886934204159 0 -0.41698539980062188 -0.23875950084572559 0 -0.4232485836513401 -0.22477446532261011 0 -0.4121948509493269 -0.2247325638453028 0 -0.41685681033243982 -0.21746512418924929 0 -0.4232485836513401 -0.22477446532261011 0 -0.41685681033243982 -0.21746512418924929 0 -0.4232102070061276 -0.21869015764887889 0 -0.4121948509493269 -0.2247325638453028 0 -0.4080561583250083 -0.23272886934204159 0 -0.39971520205611372 -0.2221352637332015 0 -0.4121948509493269 -0.2247325638453028 0 -0.40807454407470489 -0.21592977391801271 0 -0.41685681033243982 -0.21746512418924929 0 -0.4121948509493269 -0.2247325638453028 0 -0.39971520205611372 -0.2221352637332015 0 -0.40807454407470489 -0.21592977391801271 0 -0.41731365953457839 -0.2310953018814938 0 -0.4121948509493269 -0.2247325638453028 0 -0.4080561583250083 -0.23272886934204159 0 -0.4080561583250083 -0.23272886934204159 0 -0.40983148527785651 -0.24118391776602099 0 -0.41698539980062188 -0.23875950084572559 0 -0.42538833238501789 -0.2333934851751748 0 -0.41731365953457839 -0.2310953018814938 0 -0.41698539980062188 -0.23875950084572559 0 -0.40983148527785651 -0.24118391776602099 0 -0.41698539980062188 -0.23875950084572559 0 -0.41627810448972868 -0.24641300060905449 0 -0.4258852610480256 -0.24284815888716721 0 -0.42335340856967768 -0.24893549408922019 0 -0.41627810448972868 -0.24641300060905449 0 -0.4258852610480256 -0.24284815888716721 0 -0.41698539980062188 -0.23875950084572559 0 -0.41627810448972868 -0.24641300060905449 0 -0.41679144862722167 -0.25169429778568547 0 -0.42335340856967768 -0.24893549408922019 0 -0.41627810448972868 -0.24641300060905449 0 -0.41385673751816382 -0.25312989710486528 0 -0.41627810448972868 -0.24641300060905449 0 -0.4086566941719203 -0.24778871483445111 0 -0.40983148527785651 -0.24118391776602099 0 -0.41627810448972868 -0.24641300060905449 0 -0.4086566941719203 -0.24778871483445111 0 -0.40282532782868952 -0.25224285689579767 0 -0.4086566941719203 -0.24778871483445111 0 -0.40022281387448849 -0.24084313907701979 0 -0.40983148527785651 -0.24118391776602099 0 -0.4086566941719203 -0.24778871483445111 0 -0.40022281387448849 -0.24084313907701979 0 -0.4080561583250083 -0.23272886934204159 0 -0.40983148527785651 -0.24118391776602099 0 -0.40022281387448849 -0.24084313907701979 0 -0.40022281387448849 -0.24084313907701979 0 -0.3903832871219331 -0.2411545733314838 0 -0.38772777019650018 -0.2315142496456449 0 -0.3938256931015453 -0.25037754026629511 0 -0.40022281387448849 -0.24084313907701979 0 -0.3903832871219331 -0.2411545733314838 0 -0.3938256931015453 -0.25037754026629511 0 -0.3903832871219331 -0.2411545733314838 0 -0.37747963509906429 -0.24508953120583671 0 -0.3903832871219331 -0.2411545733314838 0 -0.37747963509906429 -0.24508953120583671 0 -0.38772777019650018 -0.2315142496456449 0 -0.37747963509906429 -0.24508953120583671 0 -0.37785639846487218 -0.21906994256996459 0 -0.37747963509906429 -0.24508953120583671 0 -0.37785639846487218 -0.21906994256996459 0 -0.38772777019650018 -0.2315142496456449 0 -0.36983275924353248 -0.22875232439276311 0 -0.37747963509906429 -0.24508953120583671 0 -0.37785639846487218 -0.21906994256996459 0 -0.37785639846487218 -0.21906994256996459 0 -0.38772777019650018 -0.2315142496456449 0 -0.38790285805175961 -0.2167146319195192 0 -0.4080561583250083 -0.23272886934204159 0 -0.40022281387448849 -0.24084313907701979 0 -0.39971520205611372 -0.2221352637332015 0 -0.40022281387448849 -0.24084313907701979 0 -0.39971520205611372 -0.2221352637332015 0 -0.38772777019650018 -0.2315142496456449 0 -0.39971520205611372 -0.2221352637332015 0 -0.38790285805175961 -0.2167146319195192 0 -0.40022281387448849 -0.24084313907701979 0 -0.38772777019650018 -0.2315142496456449 0 -0.39971520205611372 -0.2221352637332015 0 -0.39971520205611372 -0.2221352637332015 0 -0.39723076172532301 -0.205782178410022 0 -0.40807454407470489 -0.21592977391801271 0 -0.39971520205611372 -0.2221352637332015 0 -0.39723076172532301 -0.205782178410022 0 -0.38790285805175961 -0.2167146319195192 0 -0.39723076172532301 -0.205782178410022 0 -0.41303892827123678 -0.21093405469715851 0 -0.40807454407470489 -0.21592977391801271 0 -0.37373608311303341 -0.20786508091529229 0 -0.39723076172532301 -0.205782178410022 0 -0.38370630256805799 -0.1971119561512929 0 -0.37373608311303341 -0.20786508091529229 0 -0.39723076172532301 -0.205782178410022 0 -0.38790285805175961 -0.2167146319195192 0 -0.37373608311303341 -0.20786508091529229 0 -0.39723076172532301 -0.205782178410022 0 -0.37373608311303341 -0.20786508091529229 0 -0.37785639846487218 -0.21906994256996459 0 -0.38790285805175961 -0.2167146319195192 0 -0.36895563931783232 -0.19259611207654981 0 -0.38370630256805799 -0.1971119561512929 0 -0.3831693110633177 -0.1873742460103984 0 -0.36895563931783232 -0.19259611207654981 0 -0.37373608311303341 -0.20786508091529229 0 -0.38370630256805799 -0.1971119561512929 0 -0.38370630256805799 -0.1971119561512929 0 -0.39543971762078378 -0.19194216334420211 0 -0.3831693110633177 -0.1873742460103984 0 -0.39723076172532301 -0.205782178410022 0 -0.38370630256805799 -0.1971119561512929 0 -0.39543971762078378 -0.19194216334420211 0 -0.39723076172532301 -0.205782178410022 0 -0.39543971762078378 -0.19194216334420211 0 -0.40534117689708921 -0.19634387975323889 0 -0.39543971762078378 -0.19194216334420211 0 -0.40534117689708921 -0.19634387975323889 0 -0.40730162077548249 -0.18407395049314179 0 -0.39723076172532301 -0.205782178410022 0 -0.40534117689708921 -0.19634387975323889 0 -0.42072544033761272 -0.20369927590475301 0 -0.42032122747045741 -0.1927313373696285 0 -0.42072544033761272 -0.20369927590475301 0 -0.40730162077548249 -0.18407395049314179 0 -0.42072544033761272 -0.20369927590475301 0 -0.40730162077548249 -0.18407395049314179 0 -0.40534117689708921 -0.19634387975323889 0 -0.42072544033761272 -0.20369927590475301 0 -0.40730162077548249 -0.18407395049314179 0 -0.39723076172532301 -0.205782178410022 0 -0.41303892827123678 -0.21093405469715851 0 -0.42072544033761272 -0.20369927590475301 0 -0.39723076172532301 -0.205782178410022 0 -0.42072544033761272 -0.20369927590475301 0 -0.41303892827123678 -0.21093405469715851 0 -0.40807454407470489 -0.21592977391801271 0 -0.41685681033243982 -0.21746512418924929 0 -0.41303892827123678 -0.21093405469715851 0 -0.41685681033243982 -0.21746512418924929 0 -0.42140045260962489 -0.21331085224804261 0 -0.41685681033243982 -0.21746512418924929 0 -0.42140045260962489 -0.21331085224804261 0 -0.4232102070061276 -0.21869015764887889 0 -0.41303892827123678 -0.21093405469715851 0 -0.42140045260962489 -0.21331085224804261 0 -0.42072544033761272 -0.20369927590475301 0 -0.42512182626149492 -0.2033095177213731 0 -0.43378961613155448 -0.20908682079381441 0 -0.44184138868315109 -0.20247798044170351 0 -0.42072544033761272 -0.20369927590475301 0 -0.42512182626149492 -0.2033095177213731 0 -0.43133498143110582 -0.21921018883561361 0 -0.42072544033761272 -0.20369927590475301 0 -0.42512182626149492 -0.2033095177213731 0 -0.43133498143110582 -0.21921018883561361 0 -0.42512182626149492 -0.2033095177213731 0 -0.43378961613155448 -0.20908682079381441 0 -0.43133498143110582 -0.21921018883561361 0 -0.42140045260962489 -0.21331085224804261 0 -0.4232102070061276 -0.21869015764887889 0 -0.43133498143110582 -0.21921018883561361 0 -0.42072544033761272 -0.20369927590475301 0 -0.43133498143110582 -0.21921018883561361 0 -0.42140045260962489 -0.21331085224804261 0 -0.42072544033761272 -0.20369927590475301 0 -0.43133498143110582 -0.21921018883561361 0 -0.43378961613155448 -0.20908682079381441 0 -0.44166379455333399 -0.21604972156869759 0 -0.42032122747045741 -0.1927313373696285 0 -0.44184138868315109 -0.20247798044170351 0 -0.42032122747045741 -0.1927313373696285 0 -0.43099962817645188 -0.18319011649723049 0 -0.43833565968517207 -0.19112957676178299 0 -0.42032122747045741 -0.1927313373696285 0 -0.42512182626149492 -0.2033095177213731 0 -0.44184138868315109 -0.20247798044170351 0 -0.42032122747045741 -0.1927313373696285 0 -0.43833565968517207 -0.19112957676178299 0 -0.44184138868315109 -0.20247798044170351 0 -0.42032122747045741 -0.1927313373696285 0 -0.42072544033761272 -0.20369927590475301 0 -0.42512182626149492 -0.2033095177213731 0 -0.42549584187692119 -0.17333418479170171 0 -0.43099962817645188 -0.18319011649723049 0 -0.41834400919125792 -0.18158621355319651 0 -0.42032122747045741 -0.1927313373696285 0 -0.43099962817645188 -0.18319011649723049 0 -0.41834400919125792 -0.18158621355319651 0 -0.43099962817645188 -0.18319011649723049 0 -0.43495901877196291 -0.17485617288990979 0 -0.44455133712372419 -0.18300714728765441 0 -0.42549584187692119 -0.17333418479170171 0 -0.43099962817645188 -0.18319011649723049 0 -0.43495901877196291 -0.17485617288990979 0 -0.42549584187692119 -0.17333418479170171 0 -0.43495901877196291 -0.17485617288990979 0 -0.43155613508544272 -0.1669321437644439 0 -0.43495901877196291 -0.17485617288990979 0 -0.43155613508544272 -0.1669321437644439 0 -0.44219215159727421 -0.16781727210851849 0 -0.43155613508544272 -0.1669321437644439 0 -0.43166640735559808 -0.1552039120346444 0 -0.44219215159727421 -0.16781727210851849 0 -0.43155613508544272 -0.1669321437644439 0 -0.4214232379976206 -0.16216052115063159 0 -0.43166640735559808 -0.1552039120346444 0 -0.42549584187692119 -0.17333418479170171 0 -0.43155613508544272 -0.1669321437644439 0 -0.4214232379976206 -0.16216052115063159 0 -0.42549584187692119 -0.17333418479170171 0 -0.4214232379976206 -0.16216052115063159 0 -0.41110577652129249 -0.1670682470007229 0 -0.4214232379976206 -0.16216052115063159 0 -0.41110577652129249 -0.1670682470007229 0 -0.40669002996807779 -0.1495058137550834 0 -0.41110577652129249 -0.1670682470007229 0 -0.41834400919125792 -0.18158621355319651 0 -0.40730162077548249 -0.18407395049314179 0 -0.42549584187692119 -0.17333418479170171 0 -0.41110577652129249 -0.1670682470007229 0 -0.41834400919125792 -0.18158621355319651 0 -0.42032122747045741 -0.1927313373696285 0 -0.41834400919125792 -0.18158621355319651 0 -0.40730162077548249 -0.18407395049314179 0 -0.39543971762078378 -0.19194216334420211 0 -0.40730162077548249 -0.18407395049314179 0 -0.39267839793348491 -0.17927693187167279 0 -0.40730162077548249 -0.18407395049314179 0 -0.39267839793348491 -0.17927693187167279 0 -0.39387780121335469 -0.16444862508152899 0 -0.40730162077548249 -0.18407395049314179 0 -0.39387780121335469 -0.16444862508152899 0 -0.37378547386561772 -0.17392500984250869 0 -0.36895563931783232 -0.19259611207654981 0 -0.3831693110633177 -0.1873742460103984 0 -0.37378547386561772 -0.17392500984250869 0 -0.39267839793348491 -0.17927693187167279 0 -0.3831693110633177 -0.1873742460103984 0 -0.37378547386561772 -0.17392500984250869 0 -0.39267839793348491 -0.17927693187167279 0 -0.39387780121335469 -0.16444862508152899 0 -0.39543971762078378 -0.19194216334420211 0 -0.39267839793348491 -0.17927693187167279 0 -0.3831693110633177 -0.1873742460103984 0 -0.37378547386561772 -0.17392500984250869 0 -0.37839901512320262 -0.15996290040625341 0 -0.39387780121335469 -0.16444862508152899 0 -0.37839901512320262 -0.15996290040625341 0 -0.39387780121335469 -0.16444862508152899 0 -0.3804539816512269 -0.14482329966991631 0 -0.41110577652129249 -0.1670682470007229 0 -0.39387780121335469 -0.16444862508152899 0 -0.40669002996807779 -0.1495058137550834 0 -0.41110577652129249 -0.1670682470007229 0 -0.40730162077548249 -0.18407395049314179 0 -0.39387780121335469 -0.16444862508152899 0 -0.39387780121335469 -0.16444862508152899 0 -0.3804539816512269 -0.14482329966991631 0 -0.40669002996807779 -0.1495058137550834 0 -0.3804539816512269 -0.14482329966991631 0 -0.39647179587780151 -0.13189450107720049 0 -0.40669002996807779 -0.1495058137550834 0 -0.3804539816512269 -0.14482329966991631 0 -0.40669002996807779 -0.1495058137550834 0 -0.39387780121335469 -0.16444862508152899 0 -0.3804539816512269 -0.14482329966991631 0 -0.3804539816512269 -0.14482329966991631 0 -0.38278168804071749 -0.12940228238898679 0 -0.39647179587780151 -0.13189450107720049 0 -0.3804539816512269 -0.14482329966991631 0 -0.39647179587780151 -0.13189450107720049 0 -0.37212838853434238 -0.11808059788504249 0 -0.37028068739271691 -0.13083580994494901 0 -0.38278168804071749 -0.12940228238898679 0 -0.37028068739271691 -0.13083580994494901 0 -0.3804539816512269 -0.14482329966991631 0 -0.38278168804071749 -0.12940228238898679 0 -0.38278168804071749 -0.12940228238898679 0 -0.39647179587780151 -0.13189450107720049 0 -0.39044023874876249 -0.11757149150947201 0 -0.39647179587780151 -0.13189450107720049 0 -0.40828286160401828 -0.1310364195873514 0 -0.40669002996807779 -0.1495058137550834 0 -0.39647179587780151 -0.13189450107720049 0 -0.40828286160401828 -0.1310364195873514 0 -0.41122993917504558 -0.1199812866788818 0 -0.39647179587780151 -0.13189450107720049 0 -0.41122993917504558 -0.1199812866788818 0 -0.40828286160401828 -0.1310364195873514 0 -0.41930562378398423 -0.12797048681614909 0 -0.41122993917504558 -0.1199812866788818 0 -0.41930562378398423 -0.12797048681614909 0 -0.41533589961201212 -0.13938201891822019 0 -0.4273858072007774 -0.14414008567558009 0 -0.40828286160401828 -0.1310364195873514 0 -0.41533589961201212 -0.13938201891822019 0 -0.40669002996807779 -0.1495058137550834 0 -0.40828286160401828 -0.1310364195873514 0 -0.41930562378398423 -0.12797048681614909 0 -0.41533589961201212 -0.13938201891822019 0 -0.40669002996807779 -0.1495058137550834 0 -0.43166640735559808 -0.1552039120346444 0 -0.4214232379976206 -0.16216052115063159 0 -0.40669002996807779 -0.1495058137550834 0 -0.43166640735559808 -0.1552039120346444 0 -0.41533589961201212 -0.13938201891822019 0 -0.40669002996807779 -0.1495058137550834 0 -0.4273858072007774 -0.14414008567558009 0 -0.40669002996807779 -0.1495058137550834 0 -0.4273858072007774 -0.14414008567558009 0 -0.43166640735559808 -0.1552039120346444 0 -0.43166640735559808 -0.1552039120346444 0 -0.43525592456887258 -0.14374997194848471 0 -0.44410307239699631 -0.15282998285397989 0 -0.4273858072007774 -0.14414008567558009 0 -0.43166640735559808 -0.1552039120346444 0 -0.43525592456887258 -0.14374997194848471 0 -0.41930562378398423 -0.12797048681614909 0 -0.43525592456887258 -0.14374997194848471 0 -0.41930562378398423 -0.12797048681614909 0 -0.4273858072007774 -0.14414008567558009 0 -0.43525592456887258 -0.14374997194848471 0 -0.41930562378398423 -0.12797048681614909 0 -0.4273858072007774 -0.14414008567558009 0 -0.41930562378398423 -0.12797048681614909 0 -0.43525592456887258 -0.14374997194848471 0 -0.43389101300267191 -0.13422730327376839 0 -0.41930562378398423 -0.12797048681614909 0 -0.43389101300267191 -0.13422730327376839 0 -0.4149348530849476 -0.1169905694289516 0 -0.43389101300267191 -0.13422730327376839 0 -0.4149348530849476 -0.1169905694289516 0 -0.43389101300267191 -0.13422730327376839 0 -0.43160182387889101 -0.1187955019330571 0 -0.44085253015216358 -0.1237950587173612 0 -0.43389101300267191 -0.13422730327376839 0 -0.44872577578551592 -0.13320174295465559 0 -0.452847172920396 -0.1514640371185853 0 -0.44872577578551592 -0.13320174295465559 0 -0.45896755277767909 -0.12575633132281341 0 -0.45000974795797011 -0.119430952696417 0 -0.44872577578551592 -0.13320174295465559 0 -0.45000974795797011 -0.119430952696417 0 -0.44085253015216358 -0.1237950587173612 0 -0.43389101300267191 -0.13422730327376839 0 -0.44872577578551592 -0.13320174295465559 0 -0.44085253015216358 -0.1237950587173612 0 -0.43525592456887258 -0.14374997194848471 0 -0.43389101300267191 -0.13422730327376839 0 -0.452847172920396 -0.1514640371185853 0 -0.43525592456887258 -0.14374997194848471 0 -0.44410307239699631 -0.15282998285397989 0 -0.452847172920396 -0.1514640371185853 0 -0.44872577578551592 -0.13320174295465559 0 -0.452847172920396 -0.1514640371185853 0 -0.456386085566235 -0.14096643446963419 0 -0.43389101300267191 -0.13422730327376839 0 -0.452847172920396 -0.1514640371185853 0 -0.44410307239699631 -0.15282998285397989 0 -0.452847172920396 -0.1514640371185853 0 -0.45664278474311831 -0.16090201031420531 0 -0.452847172920396 -0.1514640371185853 0 -0.456386085566235 -0.14096643446963419 0 -0.46738274896045578 -0.15003021006820461 0 -0.452847172920396 -0.1514640371185853 0 -0.46738274896045578 -0.15003021006820461 0 -0.45664278474311831 -0.16090201031420531 0 -0.456386085566235 -0.14096643446963419 0 -0.46738274896045578 -0.15003021006820461 0 -0.47200539146090159 -0.13839174763128981 0 -0.456386085566235 -0.14096643446963419 0 -0.47200539146090159 -0.13839174763128981 0 -0.47750202174635031 -0.1215216316744509 0 -0.456386085566235 -0.14096643446963419 0 -0.45896755277767909 -0.12575633132281341 0 -0.47750202174635031 -0.1215216316744509 0 -0.456386085566235 -0.14096643446963419 0 -0.47750202174635031 -0.1215216316744509 0 -0.44872577578551592 -0.13320174295465559 0 -0.456386085566235 -0.14096643446963419 0 -0.45896755277767909 -0.12575633132281341 0 -0.47200539146090159 -0.13839174763128981 0 -0.48675070957056549 -0.14104871431286931 0 -0.47750202174635031 -0.1215216316744509 0 -0.50000000000000011 -0.12648838757554831 0 -0.48675070957056549 -0.14104871431286931 0 -0.5 -0.15043640832747529 0 -0.50000000000000011 -0.12648838757554831 0 -0.48675070957056549 -0.14104871431286931 0 -0.47750202174635031 -0.1215216316744509 0 -0.48675070957056549 -0.14104871431286931 0 -0.5 -0.15043640832747529 0 -0.48062174440056549 -0.15969986187448909 0 -0.46738274896045578 -0.15003021006820461 0 -0.47200539146090159 -0.13839174763128981 0 -0.48675070957056549 -0.14104871431286931 0 -0.48675070957056549 -0.14104871431286931 0 -0.48062174440056549 -0.15969986187448909 0 -0.46738274896045578 -0.15003021006820461 0 -0.48675070957056549 -0.14104871431286931 0 -0.48062174440056549 -0.15969986187448909 0 -0.48062174440056549 -0.15969986187448909 0 -0.46548313673471758 -0.16971310035941381 0 -0.46753260370971428 -0.1600862956540782 0 -0.46738274896045578 -0.15003021006820461 0 -0.48062174440056549 -0.15969986187448909 0 -0.46753260370971428 -0.1600862956540782 0 -0.48062174440056549 -0.15969986187448909 0 -0.47449277923056221 -0.17835100943610771 0 -0.46548313673471758 -0.16971310035941381 0 -0.48062174440056549 -0.15969986187448909 0 -0.47449277923056221 -0.17835100943610771 0 -0.5 -0.15043640832747529 0 -0.48062174440056549 -0.15969986187448909 0 -0.49999999999999828 -0.17438442907940241 0 -0.48062174440056549 -0.15969986187448909 0 -0.49999999999999828 -0.17438442907940241 0 -0.47449277923056221 -0.17835100943610771 0 -0.49999999999999828 -0.17438442907940241 0 -0.47449277923056221 -0.17835100943610771 0 -0.49999999999999828 -0.17438442907940241 0 -0.47449277923056221 -0.17835100943610771 0 -0.48549376880548989 -0.19132810400505559 0 -0.47449277923056221 -0.17835100943610771 0 -0.46892716456320649 -0.19528781647494389 0 -0.47449277923056221 -0.17835100943610771 0 -0.45952205817714309 -0.18067907836188021 0 -0.46892716456320649 -0.19528781647494389 0 -0.45952205817714309 -0.18067907836188021 0 -0.46548313673471758 -0.16971310035941381 0 -0.45289664290439807 -0.17180374819378549 0 -0.47449277923056221 -0.17835100943610771 0 -0.45952205817714309 -0.18067907836188021 0 -0.47449277923056221 -0.17835100943610771 0 -0.45952205817714309 -0.18067907836188021 0 -0.46548313673471758 -0.16971310035941381 0 -0.46548313673471758 -0.16971310035941381 0 -0.46753260370971428 -0.1600862956540782 0 -0.45664278474311831 -0.16090201031420531 0 -0.46738274896045578 -0.15003021006820461 0 -0.46753260370971428 -0.1600862956540782 0 -0.45664278474311831 -0.16090201031420531 0 -0.46548313673471758 -0.16971310035941381 0 -0.45664278474311831 -0.16090201031420531 0 -0.45289664290439807 -0.17180374819378549 0 -0.45664278474311831 -0.16090201031420531 0 -0.45289664290439807 -0.17180374819378549 0 -0.44219215159727421 -0.16781727210851849 0 -0.43166640735559808 -0.1552039120346444 0 -0.45664278474311831 -0.16090201031420531 0 -0.44219215159727421 -0.16781727210851849 0 -0.43166640735559808 -0.1552039120346444 0 -0.45664278474311831 -0.16090201031420531 0 -0.43166640735559808 -0.1552039120346444 0 -0.44410307239699631 -0.15282998285397989 0 -0.45664278474311831 -0.16090201031420531 0 -0.43495901877196291 -0.17485617288990979 0 -0.44219215159727421 -0.16781727210851849 0 -0.44455133712372419 -0.18300714728765441 0 -0.43099962817645188 -0.18319011649723049 0 -0.44455133712372419 -0.18300714728765441 0 -0.43833565968517207 -0.19112957676178299 0 -0.45952205817714309 -0.18067907836188021 0 -0.44455133712372419 -0.18300714728765441 0 -0.45396471697207569 -0.194241302212698 0 -0.45952205817714309 -0.18067907836188021 0 -0.44455133712372419 -0.18300714728765441 0 -0.45952205817714309 -0.18067907836188021 0 -0.45289664290439807 -0.17180374819378549 0 -0.44455133712372419 -0.18300714728765441 0 -0.45289664290439807 -0.17180374819378549 0 -0.44219215159727421 -0.16781727210851849 0 -0.44455133712372419 -0.18300714728765441 0 -0.44455133712372419 -0.18300714728765441 0 -0.43833565968517207 -0.19112957676178299 0 -0.45396471697207569 -0.194241302212698 0 -0.43833565968517207 -0.19112957676178299 0 -0.44184138868315109 -0.20247798044170351 0 -0.45396471697207569 -0.194241302212698 0 -0.44184138868315109 -0.20247798044170351 0 -0.46336154989584488 -0.2122246235137781 0 -0.45396471697207569 -0.194241302212698 0 -0.44184138868315109 -0.20247798044170351 0 -0.46336154989584488 -0.2122246235137781 0 -0.45338394269579491 -0.2190794284651259 0 -0.43378961613155448 -0.20908682079381441 0 -0.44184138868315109 -0.20247798044170351 0 -0.44166379455333399 -0.21604972156869759 0 -0.44184138868315109 -0.20247798044170351 0 -0.44166379455333399 -0.21604972156869759 0 -0.45338394269579491 -0.2190794284651259 0 -0.44184138868315109 -0.20247798044170351 0 -0.46336154989584488 -0.2122246235137781 0 -0.46336154989584488 -0.2122246235137781 0 -0.46892716456320649 -0.19528781647494389 0 -0.46336154989584488 -0.2122246235137781 0 -0.45396471697207569 -0.194241302212698 0 -0.46892716456320649 -0.19528781647494389 0 -0.45952205817714309 -0.18067907836188021 0 -0.45396471697207569 -0.194241302212698 0 -0.46892716456320649 -0.19528781647494389 0 -0.47449277923056221 -0.17835100943610771 0 -0.46892716456320649 -0.19528781647494389 0 -0.48549376880548989 -0.19132810400505559 0 -0.46892716456320649 -0.19528781647494389 0 -0.48549376880548989 -0.19132810400505559 0 -0.47978640147694102 -0.20418872613165631 0 -0.5 -0.20182215567114031 0 -0.48549376880548989 -0.19132810400505559 0 -0.47978640147694102 -0.20418872613165631 0 -0.49999999999999828 -0.17438442907940241 0 -0.5 -0.20182215567114031 0 -0.48549376880548989 -0.19132810400505559 0 -0.5 -0.20182215567114031 0 -0.48114952412016337 -0.22028093099336349 0 -0.49893749834448198 -0.22833723847294871 0 -0.5 -0.20182215567114031 0 -0.47978640147694102 -0.20418872613165631 0 -0.48114952412016337 -0.22028093099336349 0 -0.46336154989584488 -0.2122246235137781 0 -0.48114952412016337 -0.22028093099336349 0 -0.46336154989584488 -0.2122246235137781 0 -0.47978640147694102 -0.20418872613165631 0 -0.48114952412016337 -0.22028093099336349 0 -0.46336154989584488 -0.2122246235137781 0 -0.46892716456320649 -0.19528781647494389 0 -0.47978640147694102 -0.20418872613165631 0 -0.46336154989584488 -0.2122246235137781 0 -0.48114952412016337 -0.22028093099336349 0 -0.46857810181099829 -0.22486784275082261 0 -0.48114952412016337 -0.22028093099336349 0 -0.48798868478634799 -0.231470988200419 0 -0.47142395938804471 -0.23802335247430181 0 -0.48114952412016337 -0.22028093099336349 0 -0.47142395938804471 -0.23802335247430181 0 -0.46857810181099829 -0.22486784275082261 0 -0.48114952412016337 -0.22028093099336349 0 -0.48798868478634799 -0.231470988200419 0 -0.49893749834448198 -0.22833723847294871 0 -0.48114952412016337 -0.22028093099336349 0 -0.49893749834448198 -0.22833723847294871 0 -0.48798868478634799 -0.231470988200419 0 -0.49893749834448198 -0.22833723847294871 0 -0.4875835208682564 -0.24248539692068891 0 -0.5 -0.25669760885461612 0 -0.49893749834448198 -0.22833723847294871 0 -0.4875835208682564 -0.24248539692068891 0 -0.48798868478634799 -0.231470988200419 0 -0.4875835208682564 -0.24248539692068891 0 -0.47142395938804471 -0.23802335247430181 0 -0.47878778985378329 -0.25835102983948688 0 -0.4875835208682564 -0.24248539692068891 0 -0.47142395938804471 -0.23802335247430181 0 -0.45662330498375908 -0.25656877445722759 0 -0.47142395938804471 -0.23802335247430181 0 -0.45034617445999431 -0.24335722649563979 0 -0.47142395938804471 -0.23802335247430181 0 -0.45735065046854989 -0.23051648340969341 0 -0.45034617445999431 -0.24335722649563979 0 -0.46336154989584488 -0.2122246235137781 0 -0.46857810181099829 -0.22486784275082261 0 -0.45735065046854989 -0.23051648340969341 0 -0.46336154989584488 -0.2122246235137781 0 -0.45735065046854989 -0.23051648340969341 0 -0.47142395938804471 -0.23802335247430181 0 -0.46857810181099829 -0.22486784275082261 0 -0.45735065046854989 -0.23051648340969341 0 -0.46336154989584488 -0.2122246235137781 0 -0.45338394269579491 -0.2190794284651259 0 -0.45735065046854989 -0.23051648340969341 0 -0.45338394269579491 -0.2190794284651259 0 -0.45735065046854989 -0.23051648340969341 0 -0.43806130733353449 -0.23541812032183559 0 -0.44166379455333399 -0.21604972156869759 0 -0.43806130733353449 -0.23541812032183559 0 -0.44166379455333399 -0.21604972156869759 0 -0.45338394269579491 -0.2190794284651259 0 -0.43806130733353449 -0.23541812032183559 0 -0.45735065046854989 -0.23051648340969341 0 -0.45034617445999431 -0.24335722649563979 0 -0.43806130733353449 -0.23541812032183559 0 -0.43445882011373449 -0.25478651907497341 0 -0.45034617445999431 -0.24335722649563979 0 -0.43806130733353449 -0.23541812032183559 0 -0.41324955929443102 -0.038374170610562031 0 -0.41005136228565903 -0.05540387285823338 0 -0.42435348212729052 -0.04457483879584373 0 -0.41324955929443102 -0.038374170610562031 0 -0.41005136228565903 -0.05540387285823338 0 -0.39900851660089293 -0.046429079601448257 0 -0.41324955929443102 -0.038374170610562031 0 -0.40747857107326091 -0.02424585309778798 0 -0.40045416304880688 -0.034240371911693122 0 -0.41005136228565903 -0.05540387285823338 0 -0.4246600563061857 -0.059067830999859447 0 -0.41422906440869389 -0.068128229862373102 0 -0.41005136228565903 -0.05540387285823338 0 -0.4246600563061857 -0.059067830999859447 0 -0.42435348212729052 -0.04457483879584373 0 -0.4246600563061857 -0.059067830999859447 0 -0.42435348212729052 -0.04457483879584373 0 -0.43957367317472601 -0.045089571971719818 0 -0.4246600563061857 -0.059067830999859447 0 -0.43957367317472601 -0.045089571971719818 0 -0.44544580640037118 -0.056213229689383748 0 -0.41324955929443102 -0.038374170610562031 0 -0.42435348212729052 -0.04457483879584373 0 -0.42981912379901888 -0.030443092666165631 0 -0.42435348212729052 -0.04457483879584373 0 -0.42981912379901888 -0.030443092666165631 0 -0.43957367317472601 -0.045089571971719818 0 -0.41302196833726168 -0.01226972299954816 0 -0.4392085005598273 -0.024676348383282701 0 -0.42659341977192161 -0.010103830507352861 0 -0.41302196833726168 -0.01226972299954816 0 -0.4392085005598273 -0.024676348383282701 0 -0.42981912379901888 -0.030443092666165631 0 -0.41673372021425997 -0.022240754673565791 0 -0.4392085005598273 -0.024676348383282701 0 -0.41302196833726168 -0.01226972299954816 0 -0.41673372021425997 -0.022240754673565791 0 -0.4392085005598273 -0.024676348383282701 0 -0.43741768347029059 -0.01288367903972009 0 -0.42659341977192161 -0.010103830507352861 0 -0.4392085005598273 -0.024676348383282701 0 -0.4441818909265971 -0.00998157505946092 0 -0.42578104856505677 0.0031949168855625672 0 -0.43741768347029059 -0.01288367903972009 0 -0.4441818909265971 -0.00998157505946092 0 -0.42578104856505677 0.0031949168855625672 0 -0.43741768347029059 -0.01288367903972009 0 -0.42659341977192161 -0.010103830507352861 0 -0.42578104856505677 0.0031949168855625672 0 -0.43741768347029059 -0.01288367903972009 0 -0.42578104856505677 0.0031949168855625672 0 -0.42659341977192161 -0.010103830507352861 0 -0.41753789792717189 -0.0038843189997757009 0 -0.42578104856505677 0.0031949168855625672 0 -0.42659341977192161 -0.010103830507352861 0 -0.41753789792717189 -0.0038843189997757009 0 -0.41302196833726168 -0.01226972299954816 0 -0.41753789792717189 -0.0038843189997757009 0 -0.41302196833726168 -0.01226972299954816 0 -0.40771050441737638 -0.0035262849216432719 0 -0.41753789792717189 -0.0038843189997757009 0 -0.40771050441737638 -0.0035262849216432719 0 -0.41105156913745711 0.0034129409419674369 0 -0.42981912379901888 -0.030443092666165631 0 -0.40747857107326091 -0.02424585309778798 0 -0.41324955929443102 -0.038374170610562031 0 -0.42981912379901888 -0.030443092666165631 0 -0.40747857107326091 -0.02424585309778798 0 -0.42981912379901888 -0.030443092666165631 0 -0.41673372021425997 -0.022240754673565791 0 -0.40747857107326091 -0.02424585309778798 0 -0.41302196833726168 -0.01226972299954816 0 -0.41673372021425997 -0.022240754673565791 0 -0.40747857107326091 -0.02424585309778798 0 -0.41673372021425997 -0.022240754673565791 0 -0.40747857107326091 -0.02424585309778798 0 -0.40747857107326091 -0.02424585309778798 0 -0.38992317137517202 -0.02804917422583518 0 -0.40747857107326091 -0.02424585309778798 0 -0.38992317137517202 -0.02804917422583518 0 -0.38297625517291389 -0.017448943304264108 0 -0.40747857107326091 -0.02424585309778798 0 -0.38992317137517202 -0.02804917422583518 0 -0.40045416304880688 -0.034240371911693122 0 -0.40747857107326091 -0.02424585309778798 0 -0.39567459441968961 -0.012635194689989219 0 -0.38297625517291389 -0.017448943304264108 0 -0.40747857107326091 -0.02424585309778798 0 -0.38297625517291389 -0.017448943304264108 0 -0.41302196833726168 -0.01226972299954816 0 -0.40747857107326091 -0.02424585309778798 0 -0.39567459441968961 -0.012635194689989219 0 -0.41302196833726168 -0.01226972299954816 0 -0.40771050441737638 -0.0035262849216432719 0 -0.38683543611469601 0.0001369023841863784 0 -0.41302196833726168 -0.01226972299954816 0 -0.39567459441968961 -0.012635194689989219 0 -0.38683543611469601 0.0001369023841863784 0 -0.41302196833726168 -0.01226972299954816 0 -0.38683543611469601 0.0001369023841863784 0 -0.40771050441737638 -0.0035262849216432719 0 -0.38683543611469601 0.0001369023841863784 0 -0.40226596945639398 0.0014711925349297271 0 -0.39567459441968961 -0.012635194689989219 0 -0.38502252263107412 -0.0084426060797158468 0 -0.38683543611469601 0.0001369023841863784 0 -0.39567459441968961 -0.012635194689989219 0 -0.38502252263107412 -0.0084426060797158468 0 -0.38297625517291389 -0.017448943304264108 0 -0.38502252263107412 -0.0084426060797158468 0 -0.38009964520605882 -0.0090403485437739461 0 -0.38297625517291389 -0.017448943304264108 0 -0.37278444596104371 -0.0079457960458173115 0 -0.38009964520605882 -0.0090403485437739461 0 -0.38297625517291389 -0.017448943304264108 0 -0.37474494217865062 -0.0022388935110706832 0 -0.38502252263107412 -0.0084426060797158468 0 -0.38683543611469601 0.0001369023841863784 0 -0.37474494217865062 -0.0022388935110706832 0 -0.38502252263107412 -0.0084426060797158468 0 -0.38009964520605882 -0.0090403485437739461 0 -0.37474494217865062 -0.0022388935110706832 0 -0.37278444596104371 -0.0079457960458173115 0 -0.38009964520605882 -0.0090403485437739461 0 -0.37236777167708351 -0.031852495353884333 0 -0.38992317137517202 -0.02804917422583518 0 -0.37990921189048049 -0.023302515363219579 0 -0.37236777167708351 -0.031852495353884333 0 -0.38992317137517202 -0.02804917422583518 0 -0.38992317137517202 -0.02804917422583518 0 -0.38297625517291389 -0.017448943304264108 0 -0.37990921189048049 -0.023302515363219579 0 -0.3739022591900184 -0.02415390189740213 0 -0.38297625517291389 -0.017448943304264108 0 -0.37990921189048049 -0.023302515363219579 0 -0.37236777167708351 -0.031852495353884333 0 -0.3739022591900184 -0.02415390189740213 0 -0.37990921189048049 -0.023302515363219579 0 -0.37236777167708351 -0.031852495353884333 0 -0.37990921189048049 -0.023302515363219579 0 -0.38458287424021398 -0.039388642062709187 0 -0.39900851660089293 -0.046429079601448257 0 -0.3815482533063424 -0.052412606119804542 0 -0.37355784227175309 -0.045246792894939887 0 -0.37236777167708351 -0.031852495353884333 0 -0.38458287424021398 -0.039388642062709187 0 -0.37236777167708351 -0.031852495353884333 0 -0.38992317137517202 -0.02804917422583518 0 -0.38458287424021398 -0.039388642062709187 0 -0.37355784227175309 -0.045246792894939887 0 -0.38458287424021398 -0.039388642062709187 0 -0.3815482533063424 -0.052412606119804542 0 -0.38458287424021398 -0.039388642062709187 0 -0.39900851660089293 -0.046429079601448257 0 -0.40045416304880688 -0.034240371911693122 0 -0.38992317137517202 -0.02804917422583518 0 -0.38458287424021398 -0.039388642062709187 0 -0.40045416304880688 -0.034240371911693122 0 -0.41324955929443102 -0.038374170610562031 0 -0.39900851660089293 -0.046429079601448257 0 -0.40045416304880688 -0.034240371911693122 0 -0.39900851660089293 -0.046429079601448257 0 -0.39626447370361728 -0.06091275685647668 0 -0.3815482533063424 -0.052412606119804542 0 -0.41005136228565903 -0.05540387285823338 0 -0.39626447370361728 -0.06091275685647668 0 -0.40517181862379281 -0.066558370858305557 0 -0.41005136228565903 -0.05540387285823338 0 -0.39900851660089293 -0.046429079601448257 0 -0.39626447370361728 -0.06091275685647668 0 -0.36862349457690058 -0.057461967220355487 0 -0.3815482533063424 -0.052412606119804542 0 -0.37947166312044489 -0.067272628224985004 0 -0.3815482533063424 -0.052412606119804542 0 -0.37947166312044489 -0.067272628224985004 0 -0.39260231949431601 -0.074533368335879327 0 -0.36882665317829499 -0.078032107790563188 0 -0.39260231949431601 -0.074533368335879327 0 -0.39626447370361728 -0.06091275685647668 0 -0.3815482533063424 -0.052412606119804542 0 -0.39260231949431601 -0.074533368335879327 0 -0.3815482533063424 -0.052412606119804542 0 -0.39260231949431601 -0.074533368335879327 0 -0.36882665317829499 -0.078032107790563188 0 -0.37947166312044489 -0.067272628224985004 0 -0.39260231949431601 -0.074533368335879327 0 -0.36882665317829499 -0.078032107790563188 0 -0.39260231949431601 -0.074533368335879327 0 -0.39002829617667018 -0.099006697234722524 0 -0.36882665317829499 -0.078032107790563188 0 -0.39002829617667018 -0.099006697234722524 0 -0.37367929427193591 -0.1014825750548952 0 -0.36882665317829499 -0.078032107790563188 0 -0.39002829617667018 -0.099006697234722524 0 -0.39260231949431601 -0.074533368335879327 0 -0.39002829617667018 -0.099006697234722524 0 -0.39510370691593599 -0.098958215311000047 0 -0.39260231949431601 -0.074533368335879327 0 -0.40274583300482147 -0.094831984843681591 0 -0.39260231949431601 -0.074533368335879327 0 -0.39510370691593599 -0.098958215311000047 0 -0.40274583300482147 -0.094831984843681591 0 -0.40361170428446441 -0.083317353290434007 0 -0.39260231949431601 -0.074533368335879327 0 -0.40274583300482147 -0.094831984843681591 0 -0.40361170428446441 -0.083317353290434007 0 -0.39867569396630093 -0.073639632925658519 0 -0.40696916935602839 -0.074517235882718885 0 -0.39867569396630093 -0.073639632925658519 0 -0.40517181862379281 -0.066558370858305557 0 -0.40696916935602839 -0.074517235882718885 0 -0.39626447370361728 -0.06091275685647668 0 -0.39867569396630093 -0.073639632925658519 0 -0.40517181862379281 -0.066558370858305557 0 -0.39626447370361728 -0.06091275685647668 0 -0.39867569396630093 -0.073639632925658519 0 -0.39260231949431601 -0.074533368335879327 0 -0.40361170428446441 -0.083317353290434007 0 -0.39867569396630093 -0.073639632925658519 0 -0.39260231949431601 -0.074533368335879327 0 -0.39867569396630093 -0.073639632925658519 0 -0.39260231949431601 -0.074533368335879327 0 -0.37212838853434238 -0.11808059788504249 0 -0.38278168804071749 -0.12940228238898679 0 -0.39044023874876249 -0.11757149150947201 0 -0.37367929427193591 -0.1014825750548952 0 -0.37212838853434238 -0.11808059788504249 0 -0.39044023874876249 -0.11757149150947201 0 -0.37367929427193591 -0.1014825750548952 0 -0.39044023874876249 -0.11757149150947201 0 -0.39002829617667018 -0.099006697234722524 0 -0.39510370691593599 -0.098958215311000047 0 -0.40274583300482147 -0.094831984843681591 0 -0.41288934651532883 -0.11513060135148299 0 -0.39002829617667018 -0.099006697234722524 0 -0.39510370691593599 -0.098958215311000047 0 -0.41122993917504558 -0.1199812866788818 0 -0.39510370691593599 -0.098958215311000047 0 -0.41288934651532883 -0.11513060135148299 0 -0.39647179587780151 -0.13189450107720049 0 -0.39044023874876249 -0.11757149150947201 0 -0.41122993917504558 -0.1199812866788818 0 -0.39002829617667018 -0.099006697234722524 0 -0.41122993917504558 -0.1199812866788818 0 -0.39044023874876249 -0.11757149150947201 0 -0.39002829617667018 -0.099006697234722524 0 -0.41122993917504558 -0.1199812866788818 0 -0.39510370691593599 -0.098958215311000047 0 -0.41122993917504558 -0.1199812866788818 0 -0.41288934651532883 -0.11513060135148299 0 -0.41930562378398423 -0.12797048681614909 0 -0.41122993917504558 -0.1199812866788818 0 -0.4149348530849476 -0.1169905694289516 0 -0.41930562378398423 -0.12797048681614909 0 -0.41122993917504558 -0.1199812866788818 0 -0.41930562378398423 -0.12797048681614909 0 -0.4149348530849476 -0.1169905694289516 0 -0.41122993917504558 -0.1199812866788818 0 -0.41288934651532883 -0.11513060135148299 0 -0.4149348530849476 -0.1169905694289516 0 -0.41122993917504558 -0.1199812866788818 0 -0.4149348530849476 -0.1169905694289516 0 -0.41288934651532883 -0.11513060135148299 0 -0.4149348530849476 -0.1169905694289516 0 -0.41288934651532883 -0.11513060135148299 0 -0.4149348530849476 -0.1169905694289516 0 -0.41458672172207622 -0.10427776634057311 0 -0.40274583300482147 -0.094831984843681591 0 -0.41288934651532883 -0.11513060135148299 0 -0.4149348530849476 -0.1169905694289516 0 -0.41458672172207622 -0.10427776634057311 0 -0.43059848591229039 -0.1043464168163742 0 -0.40274583300482147 -0.094831984843681591 0 -0.41288934651532883 -0.11513060135148299 0 -0.41458672172207622 -0.10427776634057311 0 -0.41458672172207622 -0.10427776634057311 0 -0.41348552386521947 -0.090840815536544176 0 -0.43025813067654672 -0.08737754853092726 0 -0.40274583300482147 -0.094831984843681591 0 -0.41458672172207622 -0.10427776634057311 0 -0.41348552386521947 -0.090840815536544176 0 -0.43059848591229039 -0.1043464168163742 0 -0.43025813067654672 -0.08737754853092726 0 -0.44626211873963212 -0.091702264203795431 0 -0.41458672172207622 -0.10427776634057311 0 -0.43059848591229039 -0.1043464168163742 0 -0.43025813067654672 -0.08737754853092726 0 -0.41458672172207622 -0.10427776634057311 0 -0.43025813067654672 -0.08737754853092726 0 -0.4149348530849476 -0.1169905694289516 0 -0.43059848591229039 -0.1043464168163742 0 -0.43160182387889101 -0.1187955019330571 0 -0.4149348530849476 -0.1169905694289516 0 -0.43059848591229039 -0.1043464168163742 0 -0.43389101300267191 -0.13422730327376839 0 -0.4149348530849476 -0.1169905694289516 0 -0.43160182387889101 -0.1187955019330571 0 -0.43059848591229039 -0.1043464168163742 0 -0.43160182387889101 -0.1187955019330571 0 -0.44003429013576911 -0.11331979272890801 0 -0.43160182387889101 -0.1187955019330571 0 -0.44085253015216358 -0.1237950587173612 0 -0.44003429013576911 -0.11331979272890801 0 -0.41422906440869389 -0.068128229862373102 0 -0.41539885585273961 -0.080089681603359497 0 -0.42594434486026628 -0.073522222089585226 0 -0.4246600563061857 -0.059067830999859447 0 -0.41422906440869389 -0.068128229862373102 0 -0.42594434486026628 -0.073522222089585226 0 -0.41005136228565903 -0.05540387285823338 0 -0.40517181862379281 -0.066558370858305557 0 -0.41422906440869389 -0.068128229862373102 0 -0.40517181862379281 -0.066558370858305557 0 -0.41422906440869389 -0.068128229862373102 0 -0.40696916935602839 -0.074517235882718885 0 -0.41422906440869389 -0.068128229862373102 0 -0.40696916935602839 -0.074517235882718885 0 -0.41539885585273961 -0.080089681603359497 0 -0.41348552386521947 -0.090840815536544176 0 -0.41539885585273961 -0.080089681603359497 0 -0.43025813067654672 -0.08737754853092726 0 -0.40361170428446441 -0.083317353290434007 0 -0.41348552386521947 -0.090840815536544176 0 -0.41539885585273961 -0.080089681603359497 0 -0.40361170428446441 -0.083317353290434007 0 -0.40696916935602839 -0.074517235882718885 0 -0.41539885585273961 -0.080089681603359497 0 -0.40361170428446441 -0.083317353290434007 0 -0.40274583300482147 -0.094831984843681591 0 -0.41348552386521947 -0.090840815536544176 0 -0.41539885585273961 -0.080089681603359497 0 -0.43025813067654672 -0.08737754853092726 0 -0.42594434486026628 -0.073522222089585226 0 -0.4246600563061857 -0.059067830999859447 0 -0.44592953963101739 -0.07047733072128165 0 -0.43025813067654672 -0.08737754853092726 0 -0.42594434486026628 -0.073522222089585226 0 -0.44592953963101739 -0.07047733072128165 0 -0.4246600563061857 -0.059067830999859447 0 -0.42594434486026628 -0.073522222089585226 0 -0.44592953963101739 -0.07047733072128165 0 -0.44592953963101739 -0.07047733072128165 0 -0.45893666683642192 -0.056450303318209168 0 -0.44592953963101739 -0.07047733072128165 0 -0.44626211873963212 -0.091702264203795431 0 -0.46192575156697407 -0.079058111591217034 0 -0.43025813067654672 -0.08737754853092726 0 -0.44592953963101739 -0.07047733072128165 0 -0.43025813067654672 -0.08737754853092726 0 -0.44592953963101739 -0.07047733072128165 0 -0.44626211873963212 -0.091702264203795431 0 -0.44626211873963212 -0.091702264203795431 0 -0.46631049206888459 -0.091444160656324658 0 -0.46192575156697407 -0.079058111591217034 0 -0.44626211873963212 -0.091702264203795431 0 -0.46192575156697407 -0.079058111591217034 0 -0.46631049206888459 -0.091444160656324658 0 -0.46192575156697407 -0.079058111591217034 0 -0.47702460168979111 -0.087157524427869615 0 -0.44592953963101739 -0.07047733072128165 0 -0.46192575156697407 -0.079058111591217034 0 -0.45893666683642192 -0.056450303318209168 0 -0.46192575156697407 -0.079058111591217034 0 -0.47491389520024407 -0.068573693827893439 0 -0.45893666683642192 -0.056450303318209168 0 -0.46192575156697407 -0.079058111591217034 0 -0.47491389520024407 -0.068573693827893439 0 -0.44592953963101739 -0.07047733072128165 0 -0.46192575156697407 -0.079058111591217034 0 -0.45000974795797011 -0.119430952696417 0 -0.44085253015216358 -0.1237950587173612 0 -0.44003429013576911 -0.11331979272890801 0 -0.45000974795797011 -0.119430952696417 0 -0.44003429013576911 -0.11331979272890801 0 -0.44926481423485548 -0.10476542824413421 0 -0.43059848591229039 -0.1043464168163742 0 -0.44626211873963212 -0.091702264203795431 0 -0.43059848591229039 -0.1043464168163742 0 -0.44626211873963212 -0.091702264203795431 0 -0.44926481423485548 -0.10476542824413421 0 -0.43059848591229039 -0.1043464168163742 0 -0.44003429013576911 -0.11331979272890801 0 -0.44926481423485548 -0.10476542824413421 0 -0.44626211873963212 -0.091702264203795431 0 -0.44926481423485548 -0.10476542824413421 0 -0.46153012095291662 -0.1019472767233552 0 -0.44626211873963212 -0.091702264203795431 0 -0.46631049206888459 -0.091444160656324658 0 -0.46153012095291662 -0.1019472767233552 0 -0.46631049206888459 -0.091444160656324658 0 -0.46153012095291662 -0.1019472767233552 0 -0.4710589232177344 -0.098453604121520433 0 -0.46153012095291662 -0.1019472767233552 0 -0.46221413283232399 -0.11366089481890911 0 -0.47430793409480421 -0.10627177682285049 0 -0.44926481423485548 -0.10476542824413421 0 -0.46153012095291662 -0.1019472767233552 0 -0.46221413283232399 -0.11366089481890911 0 -0.45896755277767909 -0.12575633132281341 0 -0.46221413283232399 -0.11366089481890911 0 -0.47750202174635031 -0.1215216316744509 0 -0.45000974795797011 -0.119430952696417 0 -0.44926481423485548 -0.10476542824413421 0 -0.46221413283232399 -0.11366089481890911 0 -0.45896755277767909 -0.12575633132281341 0 -0.45000974795797011 -0.119430952696417 0 -0.46221413283232399 -0.11366089481890911 0 -0.47750202174635031 -0.1215216316744509 0 -0.47430793409480421 -0.10627177682285049 0 -0.48673501487359588 -0.1010237797652184 0 -0.46221413283232399 -0.11366089481890911 0 -0.47750202174635031 -0.1215216316744509 0 -0.47430793409480421 -0.10627177682285049 0 -0.47430793409480421 -0.10627177682285049 0 -0.47745372589702628 -0.099742000537211661 0 -0.48673501487359588 -0.1010237797652184 0 -0.46153012095291662 -0.1019472767233552 0 -0.47430793409480421 -0.10627177682285049 0 -0.4710589232177344 -0.098453604121520433 0 -0.46631049206888459 -0.091444160656324658 0 -0.4710589232177344 -0.098453604121520433 0 -0.47771303140197108 -0.093218841439257433 0 -0.47430793409480421 -0.10627177682285049 0 -0.4710589232177344 -0.098453604121520433 0 -0.47745372589702628 -0.099742000537211661 0 -0.4710589232177344 -0.098453604121520433 0 -0.47745372589702628 -0.099742000537211661 0 -0.47771303140197108 -0.093218841439257433 0 -0.47745372589702628 -0.099742000537211661 0 -0.48673501487359588 -0.1010237797652184 0 -0.47771303140197108 -0.093218841439257433 0 -0.48673501487359588 -0.1010237797652184 0 -0.47771303140197108 -0.093218841439257433 0 -0.47702460168979111 -0.087157524427869615 0 -0.47750202174635031 -0.1215216316744509 0 -0.48673501487359588 -0.1010237797652184 0 -0.4986179579264654 -0.1020768288792674 0 -0.48673501487359588 -0.1010237797652184 0 -0.49842317329231273 -0.098636270432611556 0 -0.47702460168979111 -0.087157524427869615 0 -0.48673501487359588 -0.1010237797652184 0 -0.49842317329231273 -0.098636270432611556 0 -0.4986179579264654 -0.1020768288792674 0 -0.49999999999999939 -0.099482120969144883 0 -0.49842317329231273 -0.098636270432611556 0 -0.4986179579264654 -0.1020768288792674 0 -0.49842317329231273 -0.098636270432611556 0 -0.4986179579264654 -0.1020768288792674 0 -0.49999999999999939 -0.099482120969144883 0 -0.49842317329231273 -0.098636270432611556 0 -0.50000000000000011 -0.12648838757554831 0 -0.47750202174635031 -0.1215216316744509 0 -0.4986179579264654 -0.1020768288792674 0 -0.47750202174635031 -0.1215216316744509 0 -0.4986179579264654 -0.1020768288792674 0 -0.47491389520024407 -0.068573693827893439 0 -0.47702460168979111 -0.087157524427869615 0 -0.4847984782487687 -0.075944598732494498 0 -0.47491389520024407 -0.068573693827893439 0 -0.47702460168979111 -0.087157524427869615 0 -0.47967839073812912 -0.064727650616396362 0 -0.4847984782487687 -0.075944598732494498 0 -0.48794163871831331 -0.064119883023254248 0 -0.47967839073812912 -0.064727650616396362 0 -0.47491389520024407 -0.068573693827893439 0 -0.4847984782487687 -0.075944598732494498 0 -0.47967839073812912 -0.064727650616396362 0 -0.47491389520024407 -0.068573693827893439 0 -0.46192575156697407 -0.079058111591217034 0 -0.47702460168979111 -0.087157524427869615 0 -0.46192575156697407 -0.079058111591217034 0 -0.47491389520024407 -0.068573693827893439 0 -0.47702460168979111 -0.087157524427869615 0 -0.46631049206888459 -0.091444160656324658 0 -0.47771303140197108 -0.093218841439257433 0 -0.47702460168979111 -0.087157524427869615 0 -0.47771303140197108 -0.093218841439257433 0 -0.47702460168979111 -0.087157524427869615 0 -0.49842317329231273 -0.098636270432611556 0 -0.49712708577170861 -0.075742961183477536 0 -0.4847984782487687 -0.075944598732494498 0 -0.49999999999999939 -0.099482120969144883 0 -0.49842317329231273 -0.098636270432611556 0 -0.5 -0.078030389970551228 0 -0.49842317329231273 -0.098636270432611556 0 -0.49712708577170861 -0.075742961183477536 0 -0.49842317329231273 -0.098636270432611556 0 -0.5 -0.078030389970551228 0 -0.49712708577170861 -0.075742961183477536 0 -0.49842317329231273 -0.098636270432611556 0 -0.47702460168979111 -0.087157524427869615 0 -0.4847984782487687 -0.075944598732494498 0 -0.49842317329231273 -0.098636270432611556 0 -0.47702460168979111 -0.087157524427869615 0 -0.5 -0.078030389970551228 0 -0.49712708577170861 -0.075742961183477536 0 -0.49999999999999928 -0.056578658971957581 0 -0.49712708577170861 -0.075742961183477536 0 -0.49583099825110311 -0.052849651934343489 0 -0.49712708577170861 -0.075742961183477536 0 -0.48794163871831331 -0.064119883023254248 0 -0.49583099825110311 -0.052849651934343489 0 -0.49712708577170861 -0.075742961183477536 0 -0.4847984782487687 -0.075944598732494498 0 -0.48794163871831331 -0.064119883023254248 0 -0.49712708577170861 -0.075742961183477536 0 -0.49999999999999928 -0.056578658971957581 0 -0.49583099825110311 -0.052849651934343489 0 -0.49583099825110311 -0.052849651934343489 0 -0.47748890114140963 -0.036443372127734748 0 -0.48227324058185622 -0.051334552649559453 0 -0.49999999999999928 -0.056578658971957581 0 -0.49583099825110311 -0.052849651934343489 0 -0.49999999999999928 -0.056578658971957581 0 -0.50000000000000144 -0.053559852644015388 0 -0.49583099825110311 -0.052849651934343489 0 -0.48794163871831331 -0.064119883023254248 0 -0.49583099825110311 -0.052849651934343489 0 -0.48227324058185622 -0.051334552649559453 0 -0.50000000000000144 -0.053559852644015388 0 -0.49583099825110311 -0.052849651934343489 0 -0.48598145264485831 -0.02728491224803695 0 -0.49583099825110311 -0.052849651934343489 0 -0.47748890114140963 -0.036443372127734748 0 -0.48598145264485831 -0.02728491224803695 0 -0.50000000000000144 -0.053559852644015388 0 -0.48598145264485831 -0.02728491224803695 0 -0.50000000000000144 -0.053559852644015388 0 -0.48598145264485831 -0.02728491224803695 0 -0.5 -0.025161366008633609 0 -0.49583099825110311 -0.052849651934343489 0 -0.47748890114140963 -0.036443372127734748 0 -0.47748890114140963 -0.036443372127734748 0 -0.48598145264485831 -0.02728491224803695 0 -0.47748890114140963 -0.036443372127734748 0 -0.47194379404182718 -0.042423275915137587 0 -0.48227324058185622 -0.051334552649559453 0 -0.47748890114140963 -0.036443372127734748 0 -0.47194379404182718 -0.042423275915137587 0 -0.47748890114140963 -0.036443372127734748 0 -0.47194379404182718 -0.042423275915137587 0 -0.47056077858213702 -0.03024644074295027 0 -0.47194379404182718 -0.042423275915137587 0 -0.46539503278239303 -0.037082973767017267 0 -0.47056077858213702 -0.03024644074295027 0 -0.47194379404182718 -0.042423275915137587 0 -0.47056077858213702 -0.03024644074295027 0 -0.47748890114140963 -0.036443372127734748 0 -0.47056077858213702 -0.03024644074295027 0 -0.47748890114140963 -0.036443372127734748 0 -0.47056077858213702 -0.03024644074295027 0 -0.47745882259212458 -0.028728106929589409 0 -0.47967839073812912 -0.064727650616396362 0 -0.47491389520024407 -0.068573693827893439 0 -0.47194379404182718 -0.042423275915137587 0 -0.47967839073812912 -0.064727650616396362 0 -0.47194379404182718 -0.042423275915137587 0 -0.48227324058185622 -0.051334552649559453 0 -0.47491389520024407 -0.068573693827893439 0 -0.47194379404182718 -0.042423275915137587 0 -0.47967839073812912 -0.064727650616396362 0 -0.48794163871831331 -0.064119883023254248 0 -0.48227324058185622 -0.051334552649559453 0 -0.47491389520024407 -0.068573693827893439 0 -0.47194379404182718 -0.042423275915137587 0 -0.45893666683642192 -0.056450303318209168 0 -0.45893666683642192 -0.056450303318209168 0 -0.45743491846808387 -0.04563500224908737 0 -0.44544580640037118 -0.056213229689383748 0 -0.47194379404182718 -0.042423275915137587 0 -0.45893666683642192 -0.056450303318209168 0 -0.45743491846808387 -0.04563500224908737 0 -0.47194379404182718 -0.042423275915137587 0 -0.45893666683642192 -0.056450303318209168 0 -0.46539503278239303 -0.037082973767017267 0 -0.44890774518284438 -0.02927164544362729 0 -0.46539503278239303 -0.037082973767017267 0 -0.45215967652477718 -0.036640332234541717 0 -0.44890774518284438 -0.02927164544362729 0 -0.46539503278239303 -0.037082973767017267 0 -0.44890774518284438 -0.02927164544362729 0 -0.46189821575704781 -0.02986243911986371 0 -0.47194379404182718 -0.042423275915137587 0 -0.46539503278239303 -0.037082973767017267 0 -0.45743491846808387 -0.04563500224908737 0 -0.46539503278239303 -0.037082973767017267 0 -0.46189821575704781 -0.02986243911986371 0 -0.47056077858213702 -0.03024644074295027 0 -0.46539503278239303 -0.037082973767017267 0 -0.45743491846808387 -0.04563500224908737 0 -0.45215967652477718 -0.036640332234541717 0 -0.42981912379901888 -0.030443092666165631 0 -0.45215967652477718 -0.036640332234541717 0 -0.45743491846808387 -0.04563500224908737 0 -0.45215967652477718 -0.036640332234541717 0 -0.43957367317472601 -0.045089571971719818 0 -0.42981912379901888 -0.030443092666165631 0 -0.45215967652477718 -0.036640332234541717 0 -0.43957367317472601 -0.045089571971719818 0 -0.45743491846808387 -0.04563500224908737 0 -0.43957367317472601 -0.045089571971719818 0 -0.44544580640037118 -0.056213229689383748 0 -0.4246600563061857 -0.059067830999859447 0 -0.44592953963101739 -0.07047733072128165 0 -0.44544580640037118 -0.056213229689383748 0 -0.44592953963101739 -0.07047733072128165 0 -0.45893666683642192 -0.056450303318209168 0 -0.44544580640037118 -0.056213229689383748 0 -0.4441818909265971 -0.00998157505946092 0 -0.45588653083934588 0.00041698580085632909 0 -0.44737850259376799 0.0077656591989471307 0 -0.4441818909265971 -0.00998157505946092 0 -0.4570262928383732 -0.018140378997512391 0 -0.45633913854906122 -0.0094275687658610888 0 -0.4441818909265971 -0.00998157505946092 0 -0.45633913854906122 -0.0094275687658610888 0 -0.45588653083934588 0.00041698580085632909 0 -0.43741768347029059 -0.01288367903972009 0 -0.4441818909265971 -0.00998157505946092 0 -0.44890774518284438 -0.02927164544362729 0 -0.42981912379901888 -0.030443092666165631 0 -0.45215967652477718 -0.036640332234541717 0 -0.4392085005598273 -0.024676348383282701 0 -0.4441818909265971 -0.00998157505946092 0 -0.44890774518284438 -0.02927164544362729 0 -0.46258273328813732 -0.023158067004484729 0 -0.43741768347029059 -0.01288367903972009 0 -0.44890774518284438 -0.02927164544362729 0 -0.43741768347029059 -0.01288367903972009 0 -0.4392085005598273 -0.024676348383282701 0 -0.44890774518284438 -0.02927164544362729 0 -0.4392085005598273 -0.024676348383282701 0 -0.44890774518284438 -0.02927164544362729 0 -0.45215967652477718 -0.036640332234541717 0 -0.4392085005598273 -0.024676348383282701 0 -0.44890774518284438 -0.02927164544362729 0 -0.4441818909265971 -0.00998157505946092 0 -0.46258273328813732 -0.023158067004484729 0 -0.46258273328813732 -0.023158067004484729 0 -0.46826183959192841 -0.01000530680732737 0 -0.47056077858213702 -0.03024644074295027 0 -0.4441818909265971 -0.00998157505946092 0 -0.4570262928383732 -0.018140378997512391 0 -0.46258273328813732 -0.023158067004484729 0 -0.4570262928383732 -0.018140378997512391 0 -0.46258273328813732 -0.023158067004484729 0 -0.44890774518284438 -0.02927164544362729 0 -0.46189821575704781 -0.02986243911986371 0 -0.46258273328813732 -0.023158067004484729 0 -0.46258273328813732 -0.023158067004484729 0 -0.47056077858213702 -0.03024644074295027 0 -0.46189821575704781 -0.02986243911986371 0 -0.46258273328813732 -0.023158067004484729 0 -0.47056077858213702 -0.03024644074295027 0 -0.4570262928383732 -0.018140378997512391 0 -0.46258273328813732 -0.023158067004484729 0 -0.46826183959192841 -0.01000530680732737 0 -0.4570262928383732 -0.018140378997512391 0 -0.46826183959192841 -0.01000530680732737 0 -0.45633913854906122 -0.0094275687658610888 0 -0.46826183959192841 -0.01000530680732737 0 -0.45633913854906122 -0.0094275687658610888 0 -0.45588653083934588 0.00041698580085632909 0 -0.46826183959192841 -0.01000530680732737 0 -0.47597217662329228 -0.0085245425598697612 0 -0.4659629006017233 0.010235827128295859 0 -0.46826183959192841 -0.01000530680732737 0 -0.47597217662329228 -0.0085245425598697612 0 -0.47580415800009379 -0.02093770259963601 0 -0.47597217662329228 -0.0085245425598697612 0 -0.48922725890134677 -0.010453537226696331 0 -0.48082517856277007 0.001845263919603602 0 -0.47597217662329228 -0.0085245425598697612 0 -0.47580415800009379 -0.02093770259963601 0 -0.48598145264485831 -0.02728491224803695 0 -0.47597217662329228 -0.0085245425598697612 0 -0.48598145264485831 -0.02728491224803695 0 -0.46826183959192841 -0.01000530680732737 0 -0.47056077858213702 -0.03024644074295027 0 -0.47580415800009379 -0.02093770259963601 0 -0.47597217662329228 -0.0085245425598697612 0 -0.48598145264485831 -0.02728491224803695 0 -0.4893389393206713 -0.02366416211133009 0 -0.46826183959192841 -0.01000530680732737 0 -0.47056077858213702 -0.03024644074295027 0 -0.47056077858213702 -0.03024644074295027 0 -0.47580415800009379 -0.02093770259963601 0 -0.47745882259212458 -0.028728106929589409 0 -0.47580415800009379 -0.02093770259963601 0 -0.47745882259212458 -0.028728106929589409 0 -0.48598145264485831 -0.02728491224803695 0 -0.47748890114140963 -0.036443372127734748 0 -0.47745882259212458 -0.028728106929589409 0 -0.48598145264485831 -0.02728491224803695 0 -0.48598145264485831 -0.02728491224803695 0 -0.4893389393206713 -0.02366416211133009 0 -0.5 -0.025161366008633609 0 -0.48598145264485831 -0.02728491224803695 0 -0.4893389393206713 -0.02366416211133009 0 -0.4893389393206713 -0.02366416211133009 0 -0.5 -0.025161366008633609 0 -0.48922725890134677 -0.010453537226696331 0 -0.48922725890134677 -0.010453537226696331 0 -0.5 0.0032371206267481911 0 -0.48082517856277007 0.001845263919603602 0 -0.5 -0.025161366008633609 0 -0.48922725890134677 -0.010453537226696331 0 -0.5 0.0032371206267481911 0 -0.47597217662329228 -0.0085245425598697612 0 -0.4893389393206713 -0.02366416211133009 0 -0.48922725890134677 -0.010453537226696331 0 -0.5 0.0032371206267481911 0 -0.48596576445654982 0.01457961489688041 0 -0.48082517856277007 0.001845263919603602 0 -0.48596576445654982 0.01457961489688041 0 -0.47541999506787802 0.025418180444172121 0 -0.5 0.031635607262129987 0 -0.5 0.0032371206267481911 0 -0.48596576445654982 0.01457961489688041 0 -0.5 0.031635607262129987 0 -0.48596576445654982 0.01457961489688041 0 -0.47541999506787802 0.025418180444172121 0 -0.47401658579892991 0.013489912392399149 0 -0.47541999506787802 0.025418180444172121 0 -0.46963945276383978 0.01793989872667965 0 -0.47401658579892991 0.013489912392399149 0 -0.47597217662329228 -0.0085245425598697612 0 -0.48082517856277007 0.001845263919603602 0 -0.4659629006017233 0.010235827128295859 0 -0.47401658579892991 0.013489912392399149 0 -0.48082517856277007 0.001845263919603602 0 -0.4659629006017233 0.010235827128295859 0 -0.46963945276383978 0.01793989872667965 0 -0.47401658579892991 0.013489912392399149 0 -0.4659629006017233 0.010235827128295859 0 -0.47597217662329228 -0.0085245425598697612 0 -0.4659629006017233 0.010235827128295859 0 -0.48596576445654982 0.01457961489688041 0 -0.47401658579892991 0.013489912392399149 0 -0.48082517856277007 0.001845263919603602 0 -0.5 0.060034093897511798 0 -0.47816362815030861 0.043832779932641487 0 -0.48068047186290208 0.063626500276227002 0 -0.47541999506787802 0.025418180444172121 0 -0.5 0.031635607262129987 0 -0.47816362815030861 0.043832779932641487 0 -0.5 0.060034093897511798 0 -0.5 0.031635607262129987 0 -0.47816362815030861 0.043832779932641487 0 -0.47541999506787802 0.025418180444172121 0 -0.47816362815030861 0.043832779932641487 0 -0.46442391639916691 0.036471327701905212 0 -0.47816362815030861 0.043832779932641487 0 -0.46119618507356652 0.049359273152949731 0 -0.48068047186290208 0.063626500276227002 0 -0.46119618507356652 0.049359273152949731 0 -0.46103932749027238 0.064238871702306077 0 -0.48068047186290208 0.063626500276227002 0 -0.46119618507356652 0.049359273152949731 0 -0.44286953411296898 0.045255716157198693 0 -0.46103932749027238 0.064238871702306077 0 -0.47816362815030861 0.043832779932641487 0 -0.46119618507356652 0.049359273152949731 0 -0.46442391639916691 0.036471327701905212 0 -0.46119618507356652 0.049359273152949731 0 -0.46442391639916691 0.036471327701905212 0 -0.45082509298125129 0.038608595210277222 0 -0.46442391639916691 0.036471327701905212 0 -0.45082509298125129 0.038608595210277222 0 -0.4583939967914884 0.024422211169287101 0 -0.45082509298125129 0.038608595210277222 0 -0.4583939967914884 0.024422211169287101 0 -0.46119618507356652 0.049359273152949731 0 -0.45082509298125129 0.038608595210277222 0 -0.44286953411296898 0.045255716157198693 0 -0.45082509298125129 0.038608595210277222 0 -0.4405409619944019 0.035432846457562263 0 -0.4458839614772655 0.023387518650519249 0 -0.45082509298125129 0.038608595210277222 0 -0.4405409619944019 0.035432846457562263 0 -0.44286953411296898 0.045255716157198693 0 -0.4405409619944019 0.035432846457562263 0 -0.44286953411296898 0.045255716157198693 0 -0.43229092530358848 0.04451632412921195 0 -0.44286953411296898 0.045255716157198693 0 -0.44282721760043869 0.062046251170956107 0 -0.46103932749027238 0.064238871702306077 0 -0.44286953411296898 0.045255716157198693 0 -0.44282721760043869 0.062046251170956107 0 -0.43188097302969042 0.056955122555226501 0 -0.44286953411296898 0.045255716157198693 0 -0.46103932749027238 0.064238871702306077 0 -0.46826183959192841 -0.01000530680732737 0 -0.45588653083934588 0.00041698580085632909 0 -0.4659629006017233 0.010235827128295859 0 -0.46826183959192841 -0.01000530680732737 0 -0.4659629006017233 0.010235827128295859 0 -0.45609316173783881 0.014082317838893479 0 -0.45588653083934588 0.00041698580085632909 0 -0.4659629006017233 0.010235827128295859 0 -0.46963945276383978 0.01793989872667965 0 -0.4659629006017233 0.010235827128295859 0 -0.4583939967914884 0.024422211169287101 0 -0.4659629006017233 0.010235827128295859 0 -0.4583939967914884 0.024422211169287101 0 -0.47541999506787802 0.025418180444172121 0 -0.46963945276383978 0.01793989872667965 0 -0.4583939967914884 0.024422211169287101 0 -0.47541999506787802 0.025418180444172121 0 -0.46442391639916691 0.036471327701905212 0 -0.4583939967914884 0.024422211169287101 0 -0.45609316173783881 0.014082317838893479 0 -0.4659629006017233 0.010235827128295859 0 -0.4583939967914884 0.024422211169287101 0 -0.45609316173783881 0.014082317838893479 0 -0.4583939967914884 0.024422211169287101 0 -0.4458839614772655 0.023387518650519249 0 -0.45082509298125129 0.038608595210277222 0 -0.4583939967914884 0.024422211169287101 0 -0.4458839614772655 0.023387518650519249 0 -0.4405409619944019 0.035432846457562263 0 -0.4458839614772655 0.023387518650519249 0 -0.43566193494816191 0.02574822372494872 0 -0.4458839614772655 0.023387518650519249 0 -0.4359559447540089 0.01018896392150693 0 -0.43566193494816191 0.02574822372494872 0 -0.4441818909265971 -0.00998157505946092 0 -0.44737850259376799 0.0077656591989471307 0 -0.4359559447540089 0.01018896392150693 0 -0.4458839614772655 0.023387518650519249 0 -0.44737850259376799 0.0077656591989471307 0 -0.4359559447540089 0.01018896392150693 0 -0.45609316173783881 0.014082317838893479 0 -0.4458839614772655 0.023387518650519249 0 -0.44737850259376799 0.0077656591989471307 0 -0.45609316173783881 0.014082317838893479 0 -0.45588653083934588 0.00041698580085632909 0 -0.44737850259376799 0.0077656591989471307 0 -0.4441818909265971 -0.00998157505946092 0 -0.4359559447540089 0.01018896392150693 0 -0.42578104856505677 0.0031949168855625672 0 -0.42578104856505677 0.0031949168855625672 0 -0.41622595309658328 0.016397403714119251 0 -0.42870406893849561 0.019163111370922251 0 -0.4359559447540089 0.01018896392150693 0 -0.42578104856505677 0.0031949168855625672 0 -0.42870406893849561 0.019163111370922251 0 -0.41753789792717189 -0.0038843189997757009 0 -0.42578104856505677 0.0031949168855625672 0 -0.41105156913745711 0.0034129409419674369 0 -0.42578104856505677 0.0031949168855625672 0 -0.40852807671777941 0.0155494406680463 0 -0.41622595309658328 0.016397403714119251 0 -0.42578104856505677 0.0031949168855625672 0 -0.40852807671777941 0.0155494406680463 0 -0.41105156913745711 0.0034129409419674369 0 -0.42578104856505677 0.0031949168855625672 0 -0.40852807671777941 0.0155494406680463 0 -0.42578104856505677 0.0031949168855625672 0 -0.41622595309658328 0.016397403714119251 0 -0.40852807671777941 0.0155494406680463 0 -0.41105156913745711 0.0034129409419674369 0 -0.40262572535869262 0.0089097845909437267 0 -0.40771050441737638 -0.0035262849216432719 0 -0.41105156913745711 0.0034129409419674369 0 -0.40226596945639398 0.0014711925349297271 0 -0.40667085762811028 0.029599890542676258 0 -0.41622595309658328 0.016397403714119251 0 -0.42870406893849561 0.019163111370922251 0 -0.40667085762811028 0.029599890542676258 0 -0.42870406893849561 0.019163111370922251 0 -0.40667085762811028 0.029599890542676258 0 -0.41990433555607742 0.03061685230769556 0 -0.42870406893849561 0.019163111370922251 0 -0.40852807671777941 0.0155494406680463 0 -0.40667085762811028 0.029599890542676258 0 -0.41622595309658328 0.016397403714119251 0 -0.40667085762811028 0.029599890542676258 0 -0.41622595309658328 0.016397403714119251 0 -0.41990433555607742 0.03061685230769556 0 -0.4284463216954002 0.029357354603554459 0 -0.42870406893849561 0.019163111370922251 0 -0.4359559447540089 0.01018896392150693 0 -0.42870406893849561 0.019163111370922251 0 -0.43566193494816191 0.02574822372494872 0 -0.4284463216954002 0.029357354603554459 0 -0.42870406893849561 0.019163111370922251 0 -0.43566193494816191 0.02574822372494872 0 -0.4284463216954002 0.029357354603554459 0 -0.43566193494816191 0.02574822372494872 0 -0.43264023121812112 0.033917661463996759 0 -0.4405409619944019 0.035432846457562263 0 -0.43264023121812112 0.033917661463996759 0 -0.43229092530358848 0.04451632412921195 0 -0.43264023121812112 0.033917661463996759 0 -0.43229092530358848 0.04451632412921195 0 -0.42532103781614489 0.037340924150209003 0 -0.4405409619944019 0.035432846457562263 0 -0.43566193494816191 0.02574822372494872 0 -0.43264023121812112 0.033917661463996759 0 -0.43229092530358848 0.04451632412921195 0 -0.42532103781614489 0.037340924150209003 0 -0.42042490988599091 0.046091327469671317 0 -0.4284463216954002 0.029357354603554459 0 -0.43264023121812112 0.033917661463996759 0 -0.42532103781614489 0.037340924150209003 0 -0.41990433555607742 0.03061685230769556 0 -0.4284463216954002 0.029357354603554459 0 -0.42532103781614489 0.037340924150209003 0 -0.43229092530358848 0.04451632412921195 0 -0.43188097302969042 0.056955122555226501 0 -0.42585725303016408 0.051510102087770737 0 -0.44286953411296898 0.045255716157198693 0 -0.43229092530358848 0.04451632412921195 0 -0.43188097302969042 0.056955122555226501 0 -0.43229092530358848 0.04451632412921195 0 -0.42585725303016408 0.051510102087770737 0 -0.42042490988599091 0.046091327469671317 0 -0.43188097302969042 0.056955122555226501 0 -0.41883220390138681 0.058477634196973202 0 -0.43131469147834472 0.070632617455275076 0 -0.43188097302969042 0.056955122555226501 0 -0.42585725303016408 0.051510102087770737 0 -0.41883220390138681 0.058477634196973202 0 -0.41883220390138681 0.058477634196973202 0 -0.40840220717331749 0.048304634434869917 0 -0.39985653820026013 0.060860810446949978 0 -0.42585725303016408 0.051510102087770737 0 -0.41883220390138681 0.058477634196973202 0 -0.42042490988599091 0.046091327469671317 0 -0.41883220390138681 0.058477634196973202 0 -0.40840220717331749 0.048304634434869917 0 -0.42042490988599091 0.046091327469671317 0 -0.41990433555607742 0.03061685230769556 0 -0.42532103781614489 0.037340924150209003 0 -0.4122967326089878 0.037821593301397609 0 -0.42532103781614489 0.037340924150209003 0 -0.42042490988599091 0.046091327469671317 0 -0.4122967326089878 0.037821593301397609 0 -0.40840220717331749 0.048304634434869917 0 -0.4122967326089878 0.037821593301397609 0 -0.40579981868685489 0.041495006097714962 0 -0.40840220717331749 0.048304634434869917 0 -0.42042490988599091 0.046091327469671317 0 -0.4122967326089878 0.037821593301397609 0 -0.4122967326089878 0.037821593301397609 0 -0.40278544391907911 0.034968452634622761 0 -0.40579981868685489 0.041495006097714962 0 -0.40667085762811028 0.029599890542676258 0 -0.4122967326089878 0.037821593301397609 0 -0.40278544391907911 0.034968452634622761 0 -0.40667085762811028 0.029599890542676258 0 -0.41990433555607742 0.03061685230769556 0 -0.4122967326089878 0.037821593301397609 0 -0.40667085762811028 0.029599890542676258 0 -0.40278544391907911 0.034968452634622761 0 -0.40667085762811028 0.029599890542676258 0 -0.38856614517843069 0.038175802748282091 0 -0.40667085762811028 0.029599890542676258 0 -0.38856614517843069 0.038175802748282091 0 -0.39127510487050182 0.027903964450529759 0 -0.40667085762811028 0.029599890542676258 0 -0.40278544391907911 0.034968452634622761 0 -0.38856614517843069 0.038175802748282091 0 -0.40278544391907911 0.034968452634622761 0 -0.40579981868685489 0.041495006097714962 0 -0.3977250587697031 0.045015474274426849 0 -0.40840220717331749 0.048304634434869917 0 -0.40579981868685489 0.041495006097714962 0 -0.3977250587697031 0.045015474274426849 0 -0.40278544391907911 0.034968452634622761 0 -0.3977250587697031 0.045015474274426849 0 -0.38856614517843069 0.038175802748282091 0 -0.40840220717331749 0.048304634434869917 0 -0.3977250587697031 0.045015474274426849 0 -0.39985653820026013 0.060860810446949978 0 -0.3977250587697031 0.045015474274426849 0 -0.39985653820026013 0.060860810446949978 0 -0.38472691017257071 0.052921849058569698 0 -0.39985653820026013 0.060860810446949978 0 -0.38472691017257071 0.052921849058569698 0 -0.38510762700538009 0.066428587654483159 0 -0.38472691017257071 0.052921849058569698 0 -0.37046143272875132 0.04675171495388801 0 -0.37000681959492809 0.05831264468359916 0 -0.38472691017257071 0.052921849058569698 0 -0.38510762700538009 0.066428587654483159 0 -0.37000681959492809 0.05831264468359916 0 -0.38856614517843069 0.038175802748282091 0 -0.37871402691879819 0.03757115751491092 0 -0.37046143272875132 0.04675171495388801 0 -0.38856614517843069 0.038175802748282091 0 -0.37046143272875132 0.04675171495388801 0 -0.38472691017257071 0.052921849058569698 0 -0.38856614517843069 0.038175802748282091 0 -0.37046143272875132 0.04675171495388801 0 -0.38856614517843069 0.038175802748282091 0 -0.38315308642314733 0.033917821982192238 0 -0.39127510487050182 0.027903964450529759 0 -0.38856614517843069 0.038175802748282091 0 -0.38315308642314733 0.033917821982192238 0 -0.37871402691879819 0.03757115751491092 0 -0.3977250587697031 0.045015474274426849 0 -0.38472691017257071 0.052921849058569698 0 -0.38856614517843069 0.038175802748282091 0 -0.37871402691879819 0.03757115751491092 0 -0.3764786745208083 0.032098692741998169 0 -0.37046143272875132 0.04675171495388801 0 -0.38315308642314733 0.033917821982192238 0 -0.3764786745208083 0.032098692741998169 0 -0.38155727091044611 0.028316364585127811 0 -0.38315308642314733 0.033917821982192238 0 -0.37871402691879819 0.03757115751491092 0 -0.3764786745208083 0.032098692741998169 0 -0.3764786745208083 0.032098692741998169 0 -0.38155727091044611 0.028316364585127811 0 -0.37960108001976323 0.022263106047543741 0 -0.37960108001976323 0.022263106047543741 0 -0.37998819155715241 0.0057865511937031933 0 -0.37123175334181557 0.027162262264614271 0 -0.3764786745208083 0.032098692741998169 0 -0.37960108001976323 0.022263106047543741 0 -0.37123175334181557 0.027162262264614271 0 -0.38155727091044611 0.028316364585127811 0 -0.38533699425949169 0.022674384769296389 0 -0.37960108001976323 0.022263106047543741 0 -0.38155727091044611 0.028316364585127811 0 -0.38533699425949169 0.022674384769296389 0 -0.39127510487050182 0.027903964450529759 0 -0.38315308642314733 0.033917821982192238 0 -0.38155727091044611 0.028316364585127811 0 -0.39127510487050182 0.027903964450529759 0 -0.39054146691731162 0.018060194648231769 0 -0.38533699425949169 0.022674384769296389 0 -0.39127510487050182 0.027903964450529759 0 -0.38533699425949169 0.022674384769296389 0 -0.3837100485794358 0.01682829411504885 0 -0.37960108001976323 0.022263106047543741 0 -0.39054146691731162 0.018060194648231769 0 -0.38533699425949169 0.022674384769296389 0 -0.3837100485794358 0.01682829411504885 0 -0.3837100485794358 0.01682829411504885 0 -0.37960108001976323 0.022263106047543741 0 -0.37998819155715241 0.0057865511937031933 0 -0.37998819155715241 0.0057865511937031933 0 -0.38683543611469601 0.0001369023841863784 0 -0.36064890389212972 0.0125435277679194 0 -0.37998819155715241 0.0057865511937031933 0 -0.38683543611469601 0.0001369023841863784 0 -0.38901012294298121 0.0062908016400105649 0 -0.38683543611469601 0.0001369023841863784 0 -0.38901012294298121 0.0062908016400105649 0 -0.39501457079486157 0.0055715078560810288 0 -0.37998819155715241 0.0057865511937031933 0 -0.38901012294298121 0.0062908016400105649 0 -0.38744744785130802 0.01185902438546781 0 -0.3837100485794358 0.01682829411504885 0 -0.37998819155715241 0.0057865511937031933 0 -0.38744744785130802 0.01185902438546781 0 -0.38901012294298121 0.0062908016400105649 0 -0.38744744785130802 0.01185902438546781 0 -0.39422738021243581 0.01127211946813913 0 -0.39054146691731162 0.018060194648231769 0 -0.3837100485794358 0.01682829411504885 0 -0.38744744785130802 0.01185902438546781 0 -0.39054146691731162 0.018060194648231769 0 -0.39422738021243581 0.01127211946813913 0 -0.39743955081534421 0.016339100765178138 0 -0.39054146691731162 0.018060194648231769 0 -0.38744744785130802 0.01185902438546781 0 -0.39422738021243581 0.01127211946813913 0 -0.39422738021243581 0.01127211946813913 0 -0.39501457079486157 0.0055715078560810288 0 -0.40262572535869262 0.0089097845909437267 0 -0.39422738021243581 0.01127211946813913 0 -0.40262572535869262 0.0089097845909437267 0 -0.39743955081534421 0.016339100765178138 0 -0.38683543611469601 0.0001369023841863784 0 -0.39501457079486157 0.0055715078560810288 0 -0.40226596945639398 0.0014711925349297271 0 -0.38901012294298121 0.0062908016400105649 0 -0.39422738021243581 0.01127211946813913 0 -0.39501457079486157 0.0055715078560810288 0 -0.41105156913745711 0.0034129409419674369 0 -0.40226596945639398 0.0014711925349297271 0 -0.40262572535869262 0.0089097845909437267 0 -0.39501457079486157 0.0055715078560810288 0 -0.40226596945639398 0.0014711925349297271 0 -0.40262572535869262 0.0089097845909437267 0 -0.40852807671777941 0.0155494406680463 0 -0.40262572535869262 0.0089097845909437267 0 -0.39743955081534421 0.016339100765178138 0 -0.40852807671777941 0.0155494406680463 0 -0.39127510487050182 0.027903964450529759 0 -0.40852807671777941 0.0155494406680463 0 -0.40667085762811028 0.029599890542676258 0 -0.39127510487050182 0.027903964450529759 0 -0.40852807671777941 0.0155494406680463 0 -0.39127510487050182 0.027903964450529759 0 -0.39743955081534421 0.016339100765178138 0 -0.39054146691731162 0.018060194648231769 0 -0.39127510487050182 0.027903964450529759 0 -0.39743955081534421 0.016339100765178138 0 -0.39792088922733271 0.1160922105611595 0 -0.40104213778508202 0.092866093853817611 0 -0.41467909406405851 0.1139188519362445 0 -0.39792088922733271 0.1160922105611595 0 -0.3782625711058698 0.101617738696854 0 -0.40104213778508202 0.092866093853817611 0 -0.3782625711058698 0.101617738696854 0 -0.38372255811484618 0.13025780258704611 0 -0.3782625711058698 0.101617738696854 0 -0.38372255811484618 0.13025780258704611 0 -0.36747352968705388 0.12273486311700831 0 -0.39792088922733271 0.1160922105611595 0 -0.3782625711058698 0.101617738696854 0 -0.38372255811484618 0.13025780258704611 0 -0.39792088922733271 0.1160922105611595 0 -0.3782625711058698 0.101617738696854 0 -0.3782625711058698 0.101617738696854 0 -0.40104213778508202 0.092866093853817611 0 -0.37470600383380392 0.082961959162170973 0 -0.39520328107527708 0.075997639864115257 0 -0.40104213778508202 0.092866093853817611 0 -0.37470600383380392 0.082961959162170973 0 -0.3782625711058698 0.101617738696854 0 -0.37470600383380392 0.082961959162170973 0 -0.40104213778508202 0.092866093853817611 0 -0.37470600383380392 0.082961959162170973 0 -0.38510762700538009 0.066428587654483159 0 -0.37000681959492809 0.05831264468359916 0 -0.37470600383380392 0.082961959162170973 0 -0.38510762700538009 0.066428587654483159 0 -0.39520328107527708 0.075997639864115257 0 -0.37470600383380392 0.082961959162170973 0 -0.39985653820026013 0.060860810446949978 0 -0.39520328107527708 0.075997639864115257 0 -0.41322693425173768 0.074694678089132868 0 -0.39985653820026013 0.060860810446949978 0 -0.38510762700538009 0.066428587654483159 0 -0.39520328107527708 0.075997639864115257 0 -0.39520328107527708 0.075997639864115257 0 -0.40104213778508202 0.092866093853817611 0 -0.41322693425173768 0.074694678089132868 0 -0.40104213778508202 0.092866093853817611 0 -0.41322693425173768 0.074694678089132868 0 -0.42957324029363853 0.085693113452461764 0 -0.41883220390138681 0.058477634196973202 0 -0.41322693425173768 0.074694678089132868 0 -0.43131469147834472 0.070632617455275076 0 -0.41883220390138681 0.058477634196973202 0 -0.39985653820026013 0.060860810446949978 0 -0.41322693425173768 0.074694678089132868 0 -0.43131469147834472 0.070632617455275076 0 -0.42957324029363853 0.085693113452461764 0 -0.4470315618909167 0.073148927984774167 0 -0.41322693425173768 0.074694678089132868 0 -0.43131469147834472 0.070632617455275076 0 -0.42957324029363853 0.085693113452461764 0 -0.44282721760043869 0.062046251170956107 0 -0.43188097302969042 0.056955122555226501 0 -0.43131469147834472 0.070632617455275076 0 -0.42957324029363853 0.085693113452461764 0 -0.42737827173636012 0.1027702285454639 0 -0.44343173260412461 0.097571970950778963 0 -0.40104213778508202 0.092866093853817611 0 -0.42737827173636012 0.1027702285454639 0 -0.41467909406405851 0.1139188519362445 0 -0.40104213778508202 0.092866093853817611 0 -0.42737827173636012 0.1027702285454639 0 -0.40104213778508202 0.092866093853817611 0 -0.42957324029363853 0.085693113452461764 0 -0.42737827173636012 0.1027702285454639 0 -0.39792088922733271 0.1160922105611595 0 -0.41467909406405851 0.1139188519362445 0 -0.417579207348795 0.13056668242546571 0 -0.39792088922733271 0.1160922105611595 0 -0.417579207348795 0.13056668242546571 0 -0.41467909406405851 0.1139188519362445 0 -0.42608096723388439 0.1205091241492761 0 -0.417579207348795 0.13056668242546571 0 -0.42737827173636012 0.1027702285454639 0 -0.41467909406405851 0.1139188519362445 0 -0.42608096723388439 0.1205091241492761 0 -0.42737827173636012 0.1027702285454639 0 -0.42608096723388439 0.1205091241492761 0 -0.43826405507869293 0.1195835460605416 0 -0.42608096723388439 0.1205091241492761 0 -0.43826405507869293 0.1195835460605416 0 -0.43293323699752101 0.1317554923945817 0 -0.43826405507869293 0.1195835460605416 0 -0.45371440568763749 0.1126743632371118 0 -0.44901593584904892 0.12912088192892021 0 -0.42737827173636012 0.1027702285454639 0 -0.43826405507869293 0.1195835460605416 0 -0.45371440568763749 0.1126743632371118 0 -0.4523882543875366 0.10983005993361 0 -0.45371440568763749 0.1126743632371118 0 -0.42737827173636012 0.1027702285454639 0 -0.4523882543875366 0.10983005993361 0 -0.44343173260412461 0.097571970950778963 0 -0.42737827173636012 0.1027702285454639 0 -0.4523882543875366 0.10983005993361 0 -0.45371440568763749 0.1126743632371118 0 -0.42737827173636012 0.1027702285454639 0 -0.45371440568763749 0.1126743632371118 0 -0.44343173260412461 0.097571970950778963 0 -0.45084974973894648 0.096020795281878568 0 -0.45306155814551219 0.1028275296158008 0 -0.44343173260412461 0.097571970950778963 0 -0.45084974973894648 0.096020795281878568 0 -0.44733932132275389 0.088290098875458828 0 -0.4523882543875366 0.10983005993361 0 -0.44343173260412461 0.097571970950778963 0 -0.45306155814551219 0.1028275296158008 0 -0.4523882543875366 0.10983005993361 0 -0.45306155814551219 0.1028275296158008 0 -0.45661100561120399 0.109540819014999 0 -0.45306155814551219 0.1028275296158008 0 -0.46084618436187341 0.10490351706993729 0 -0.45661100561120399 0.109540819014999 0 -0.45306155814551219 0.1028275296158008 0 -0.46084618436187341 0.10490351706993729 0 -0.45799439118323759 0.099220837031069903 0 -0.46084618436187341 0.10490351706993729 0 -0.4635407771028337 0.1124237257980706 0 -0.45661100561120399 0.109540819014999 0 -0.45799439118323759 0.099220837031069903 0 -0.46723244863383712 0.097971273043108306 0 -0.45594156200913483 0.091684632610025046 0 -0.45084974973894648 0.096020795281878568 0 -0.45799439118323759 0.099220837031069903 0 -0.45594156200913483 0.091684632610025046 0 -0.45084974973894648 0.096020795281878568 0 -0.45306155814551219 0.1028275296158008 0 -0.45799439118323759 0.099220837031069903 0 -0.46084618436187341 0.10490351706993729 0 -0.45799439118323759 0.099220837031069903 0 -0.46723244863383712 0.097971273043108306 0 -0.46084618436187341 0.10490351706993729 0 -0.46723244863383712 0.097971273043108306 0 -0.46686982756835349 0.1074114054382402 0 -0.46084618436187341 0.10490351706993729 0 -0.46686982756835349 0.1074114054382402 0 -0.4635407771028337 0.1124237257980706 0 -0.45371440568763749 0.1126743632371118 0 -0.46425598871103851 0.13528374379222011 0 -0.4635407771028337 0.1124237257980706 0 -0.45674497769142258 0.1138140594952527 0 -0.46958882025875243 0.12035793204680111 0 -0.46686982756835349 0.1074114054382402 0 -0.4635407771028337 0.1124237257980706 0 -0.47044075898603932 0.11380610730348489 0 -0.4635407771028337 0.1124237257980706 0 -0.46958882025875243 0.12035793204680111 0 -0.47044075898603932 0.11380610730348489 0 -0.45674497769142258 0.1138140594952527 0 -0.45371440568763749 0.1126743632371118 0 -0.46425598871103851 0.13528374379222011 0 -0.45674497769142258 0.1138140594952527 0 -0.46958882025875243 0.12035793204680111 0 -0.46425598871103851 0.13528374379222011 0 -0.4523882543875366 0.10983005993361 0 -0.45661100561120399 0.109540819014999 0 -0.45371440568763749 0.1126743632371118 0 -0.45674497769142258 0.1138140594952527 0 -0.45661100561120399 0.109540819014999 0 -0.45371440568763749 0.1126743632371118 0 -0.45674497769142258 0.1138140594952527 0 -0.45371440568763749 0.1126743632371118 0 -0.4635407771028337 0.1124237257980706 0 -0.45674497769142258 0.1138140594952527 0 -0.45661100561120399 0.109540819014999 0 -0.44282721760043869 0.062046251170956107 0 -0.4470315618909167 0.073148927984774167 0 -0.46103932749027238 0.064238871702306077 0 -0.44282721760043869 0.062046251170956107 0 -0.43131469147834472 0.070632617455275076 0 -0.4470315618909167 0.073148927984774167 0 -0.42957324029363853 0.085693113452461764 0 -0.44343173260412461 0.097571970950778963 0 -0.44733932132275389 0.088290098875458828 0 -0.42957324029363853 0.085693113452461764 0 -0.4470315618909167 0.073148927984774167 0 -0.44733932132275389 0.088290098875458828 0 -0.4470315618909167 0.073148927984774167 0 -0.44733932132275389 0.088290098875458828 0 -0.46047789149500767 0.082617330138573752 0 -0.45084974973894648 0.096020795281878568 0 -0.44733932132275389 0.088290098875458828 0 -0.45594156200913483 0.091684632610025046 0 -0.44733932132275389 0.088290098875458828 0 -0.45594156200913483 0.091684632610025046 0 -0.46047789149500767 0.082617330138573752 0 -0.46723244863383712 0.097971273043108306 0 -0.45594156200913483 0.091684632610025046 0 -0.46047789149500767 0.082617330138573752 0 -0.46047789149500767 0.082617330138573752 0 -0.46103932749027238 0.064238871702306077 0 -0.47920912086757578 0.083222027247413538 0 -0.4470315618909167 0.073148927984774167 0 -0.46047789149500767 0.082617330138573752 0 -0.46103932749027238 0.064238871702306077 0 -0.46103932749027238 0.064238871702306077 0 -0.48068047186290208 0.063626500276227002 0 -0.47920912086757578 0.083222027247413538 0 -0.46103932749027238 0.064238871702306077 0 -0.47920912086757578 0.083222027247413538 0 -0.46723244863383712 0.097971273043108306 0 -0.46047789149500767 0.082617330138573752 0 -0.47920912086757578 0.083222027247413538 0 -0.48068047186290208 0.063626500276227002 0 -0.47920912086757578 0.083222027247413538 0 -0.5 0.088432580532893601 0 -0.47920912086757578 0.083222027247413538 0 -0.49737891424487929 0.102205182792521 0 -0.47920912086757578 0.083222027247413538 0 -0.5 0.088432580532893601 0 -0.49737891424487929 0.102205182792521 0 -0.5 0.060034093897511798 0 -0.48068047186290208 0.063626500276227002 0 -0.5 0.088432580532893601 0 -0.47827810320487629 0.116675775998883 0 -0.48837893466537508 0.1117690854599766 0 -0.4842723158563047 0.1301441798928954 0 -0.47827810320487629 0.116675775998883 0 -0.47512549980118862 0.10796659812409699 0 -0.48837893466537508 0.1117690854599766 0 -0.47827810320487629 0.116675775998883 0 -0.46958882025875243 0.12035793204680111 0 -0.4842723158563047 0.1301441798928954 0 -0.47827810320487629 0.116675775998883 0 -0.47044075898603932 0.11380610730348489 0 -0.47512549980118862 0.10796659812409699 0 -0.46686982756835349 0.1074114054382402 0 -0.47044075898603932 0.11380610730348489 0 -0.47512549980118862 0.10796659812409699 0 -0.47827810320487629 0.116675775998883 0 -0.46958882025875243 0.12035793204680111 0 -0.47044075898603932 0.11380610730348489 0 -0.46723244863383712 0.097971273043108306 0 -0.47512549980118862 0.10796659812409699 0 -0.48162445158666772 0.1005823670901454 0 -0.46723244863383712 0.097971273043108306 0 -0.47920912086757578 0.083222027247413538 0 -0.48162445158666772 0.1005823670901454 0 -0.46723244863383712 0.097971273043108306 0 -0.46686982756835349 0.1074114054382402 0 -0.47512549980118862 0.10796659812409699 0 -0.47512549980118862 0.10796659812409699 0 -0.48162445158666772 0.1005823670901454 0 -0.48837893466537508 0.1117690854599766 0 -0.48162445158666772 0.1005823670901454 0 -0.49737891424487929 0.102205182792521 0 -0.48837893466537508 0.1117690854599766 0 -0.47920912086757578 0.083222027247413538 0 -0.48162445158666772 0.1005823670901454 0 -0.49737891424487929 0.102205182792521 0 -0.5 0.088432580532893601 0 -0.49737891424487929 0.102205182792521 0 -0.5 0.1168310671682755 0 -0.49737891424487929 0.102205182792521 0 -0.5 0.1168310671682755 0 -0.48837893466537508 0.1117690854599766 0 -0.5 0.1168310671682755 0 -0.48837893466537508 0.1117690854599766 0 -0.4842723158563047 0.1301441798928954 0 -0.5 0.1168310671682755 0 -0.4842723158563047 0.1301441798928954 0 -0.5 0.14522955380365729 0 -0.46958882025875243 0.12035793204680111 0 -0.4842723158563047 0.1301441798928954 0 -0.46425598871103851 0.13528374379222011 0 -0.4842723158563047 0.1301441798928954 0 -0.47479757173443998 0.15789312434732811 0 -0.46425598871103851 0.13528374379222011 0 -0.47479757173443998 0.15789312434732811 0 -0.46425598871103851 0.13528374379222011 0 -0.4842723158563047 0.1301441798928954 0 -0.5 0.14522955380365729 0 -0.47479757173443998 0.15789312434732811 0 -0.5 0.14522955380365729 0 -0.49999999999999972 0.17362804043903909 0 -0.47479757173443998 0.15789312434732811 0 -0.49999999999999972 0.17362804043903909 0 -0.47479757173443998 0.15789312434732811 0 -0.49999999999999972 0.17362804043903909 0 -0.49200992699072321 0.1743962810239672 0 -0.47479757173443998 0.15789312434732811 0 -0.48341269367675271 0.17637066895233999 0 -0.49170634683837577 0.1941587336203292 0 -0.49368671912131301 0.1828531969182482 0 -0.49999999999999972 0.17362804043903909 0 -0.5 0.19278741936367841 0 -0.49368671912131301 0.1828531969182482 0 -0.48341269367675271 0.17637066895233999 0 -0.49170634683837577 0.1941587336203292 0 -0.49368671912131301 0.1828531969182482 0 -0.49999999999999972 0.17362804043903909 0 -0.49200992699072321 0.1743962810239672 0 -0.49200992699072321 0.1743962810239672 0 -0.48341269367675271 0.17637066895233999 0 -0.49368671912131301 0.1828531969182482 0 -0.49200992699072321 0.1743962810239672 0 -0.48341269367675271 0.17637066895233999 0 -0.48341269367675271 0.17637066895233999 0 -0.45591042926964898 0.18268667049205081 0 -0.47274380268756999 0.19288508587190861 0 -0.48341269367675271 0.17637066895233999 0 -0.45591042926964898 0.18268667049205081 0 -0.49200992699072321 0.1743962810239672 0 -0.48341269367675271 0.17637066895233999 0 -0.47479757173443998 0.15789312434732811 0 -0.48341269367675271 0.17637066895233999 0 -0.47479757173443998 0.15789312434732811 0 -0.48341269367675271 0.17637066895233999 0 -0.47479757173443998 0.15789312434732811 0 -0.45723956394668003 0.16387676974864759 0 -0.48341269367675271 0.17637066895233999 0 -0.45723956394668003 0.16387676974864759 0 -0.45591042926964898 0.18268667049205081 0 -0.45591042926964898 0.18268667049205081 0 -0.43992511097516529 0.17411109905454999 0 -0.4284081648625454 0.1890026720317621 0 -0.45591042926964898 0.18268667049205081 0 -0.4284081648625454 0.1890026720317621 0 -0.45723956394668003 0.16387676974864759 0 -0.45591042926964898 0.18268667049205081 0 -0.43992511097516529 0.17411109905454999 0 -0.45723956394668003 0.16387676974864759 0 -0.43992511097516529 0.17411109905454999 0 -0.43892522612619872 0.15930650560997939 0 -0.43892522612619872 0.15930650560997939 0 -0.43796764784210812 0.14528805014891141 0 -0.45386540436598038 0.14482430837095511 0 -0.45723956394668003 0.16387676974864759 0 -0.43892522612619872 0.15930650560997939 0 -0.45386540436598038 0.14482430837095511 0 -0.45386540436598038 0.14482430837095511 0 -0.43293323699752101 0.1317554923945817 0 -0.43826405507869293 0.1195835460605416 0 -0.44901593584904892 0.12912088192892021 0 -0.43293323699752101 0.1317554923945817 0 -0.43796764784210812 0.14528805014891141 0 -0.45386540436598038 0.14482430837095511 0 -0.43293323699752101 0.1317554923945817 0 -0.44901593584904892 0.12912088192892021 0 -0.45386540436598038 0.14482430837095511 0 -0.43293323699752101 0.1317554923945817 0 -0.45371440568763749 0.1126743632371118 0 -0.44901593584904892 0.12912088192892021 0 -0.46425598871103851 0.13528374379222011 0 -0.44901593584904892 0.12912088192892021 0 -0.46425598871103851 0.13528374379222011 0 -0.45386540436598038 0.14482430837095511 0 -0.47479757173443998 0.15789312434732811 0 -0.45723956394668003 0.16387676974864759 0 -0.45386540436598038 0.14482430837095511 0 -0.47479757173443998 0.15789312434732811 0 -0.46425598871103851 0.13528374379222011 0 -0.45386540436598038 0.14482430837095511 0 -0.47479757173443998 0.15789312434732811 0 -0.45386540436598038 0.14482430837095511 0 -0.48226153920099157 0.23766317590200001 0 -0.47864167104372218 0.246590621409366 0 -0.48932095354102823 0.25454658797793611 0 -0.47315400564016008 0.2364435414805684 0 -0.47864167104372218 0.246590621409366 0 -0.46938038244821267 0.25133041049185839 0 -0.47315400564016008 0.2364435414805684 0 -0.48226153920099157 0.23766317590200001 0 -0.47864167104372218 0.246590621409366 0 -0.49106398183666961 0.22759324404760359 0 -0.48932095354102823 0.25454658797793611 0 -0.5 0.23810140997737081 0 -0.49106398183666961 0.22759324404760359 0 -0.48932095354102823 0.25454658797793611 0 -0.48226153920099157 0.23766317590200001 0 -0.49106398183666961 0.22759324404760359 0 -0.48932095354102823 0.25454658797793611 0 -0.5 0.23810140997737081 0 -0.49106398183666961 0.22759324404760359 0 -0.50000000000000022 0.21194679828831781 0 -0.49106398183666961 0.22759324404760359 0 -0.47912708394337772 0.2231418845945258 0 -0.48726644121087642 0.21298690825741631 0 -0.48226153920099157 0.23766317590200001 0 -0.49106398183666961 0.22759324404760359 0 -0.47912708394337772 0.2231418845945258 0 -0.47315400564016008 0.2364435414805684 0 -0.48226153920099157 0.23766317590200001 0 -0.47912708394337772 0.2231418845945258 0 -0.47315400564016008 0.2364435414805684 0 -0.47912708394337772 0.2231418845945258 0 -0.46764368341616458 0.22415830119077751 0 -0.47912708394337772 0.2231418845945258 0 -0.47360767850491831 0.20951316246361981 0 -0.46764368341616458 0.22415830119077751 0 -0.47360767850491831 0.20951316246361981 0 -0.48726644121087642 0.21298690825741631 0 -0.49170634683837577 0.1941587336203292 0 -0.47912708394337772 0.2231418845945258 0 -0.47360767850491831 0.20951316246361981 0 -0.48726644121087642 0.21298690825741631 0 -0.49106398183666961 0.22759324404760359 0 -0.50000000000000022 0.21194679828831781 0 -0.48726644121087642 0.21298690825741631 0 -0.50000000000000022 0.21194679828831781 0 -0.48726644121087642 0.21298690825741631 0 -0.49170634683837577 0.1941587336203292 0 -0.50000000000000022 0.21194679828831781 0 -0.49170634683837577 0.1941587336203292 0 -0.50000000000000022 0.21194679828831781 0 -0.5 0.19278741936367841 0 -0.49170634683837577 0.1941587336203292 0 -0.49368671912131301 0.1828531969182482 0 -0.5 0.19278741936367841 0 -0.49170634683837577 0.1941587336203292 0 -0.48341269367675271 0.17637066895233999 0 -0.49170634683837577 0.1941587336203292 0 -0.47274380268756999 0.19288508587190861 0 -0.47360767850491831 0.20951316246361981 0 -0.49170634683837577 0.1941587336203292 0 -0.47274380268756999 0.19288508587190861 0 -0.47360767850491831 0.20951316246361981 0 -0.47274380268756999 0.19288508587190861 0 -0.45820261548712909 0.20353130823034371 0 -0.45591042926964898 0.18268667049205081 0 -0.47274380268756999 0.19288508587190861 0 -0.45820261548712909 0.20353130823034371 0 -0.45591042926964898 0.18268667049205081 0 -0.43516662619925378 0.20614333559983469 0 -0.4284081648625454 0.1890026720317621 0 -0.45591042926964898 0.18268667049205081 0 -0.45820261548712909 0.20353130823034371 0 -0.43516662619925378 0.20614333559983469 0 -0.44192508753596349 0.22328399916790689 0 -0.43516662619925378 0.20614333559983469 0 -0.45032248765871591 0.2151961798839368 0 -0.44192508753596349 0.22328399916790689 0 -0.43516662619925378 0.20614333559983469 0 -0.45032248765871591 0.2151961798839368 0 -0.45820261548712909 0.20353130823034371 0 -0.43516662619925378 0.20614333559983469 0 -0.45032248765871591 0.2151961798839368 0 -0.46109406183397039 0.21551848415653921 0 -0.45620465585954723 0.2251951411450015 0 -0.45032248765871591 0.2151961798839368 0 -0.45820261548712909 0.20353130823034371 0 -0.46109406183397039 0.21551848415653921 0 -0.47360767850491831 0.20951316246361981 0 -0.45820261548712909 0.20353130823034371 0 -0.46109406183397039 0.21551848415653921 0 -0.47360767850491831 0.20951316246361981 0 -0.46109406183397039 0.21551848415653921 0 -0.46764368341616458 0.22415830119077751 0 -0.47315400564016008 0.2364435414805684 0 -0.46764368341616458 0.22415830119077751 0 -0.45925329591452863 0.2407771106774913 0 -0.46764368341616458 0.22415830119077751 0 -0.45620465585954723 0.2251951411450015 0 -0.45925329591452863 0.2407771106774913 0 -0.46109406183397039 0.21551848415653921 0 -0.46764368341616458 0.22415830119077751 0 -0.45620465585954723 0.2251951411450015 0 -0.45032248765871591 0.2151961798839368 0 -0.45620465585954723 0.2251951411450015 0 -0.44192508753596349 0.22328399916790689 0 -0.44192508753596349 0.22328399916790689 0 -0.44062222049055039 0.24203477259657111 0 -0.43146145522804691 0.2313120115293863 0 -0.45620465585954723 0.2251951411450015 0 -0.44062222049055039 0.24203477259657111 0 -0.45620465585954723 0.2251951411450015 0 -0.44192508753596349 0.22328399916790689 0 -0.44062222049055039 0.24203477259657111 0 -0.44062222049055039 0.24203477259657111 0 -0.45046339488490522 0.249057113070103 0 -0.44442574262614493 0.25832327296872359 0 -0.44062222049055039 0.24203477259657111 0 -0.45046339488490522 0.249057113070103 0 -0.45925329591452863 0.2407771106774913 0 -0.45620465585954723 0.2251951411450015 0 -0.44062222049055039 0.24203477259657111 0 -0.45925329591452863 0.2407771106774913 0 -0.45046339488490522 0.249057113070103 0 -0.45925329591452863 0.2407771106774913 0 -0.45807104112411212 0.25534721177055669 0 -0.45925329591452863 0.2407771106774913 0 -0.46938038244821267 0.25133041049185839 0 -0.45807104112411212 0.25534721177055669 0 -0.47315400564016008 0.2364435414805684 0 -0.45925329591452863 0.2407771106774913 0 -0.46938038244821267 0.25133041049185839 0 -0.4198454647722451 0.23985190764030939 0 -0.40081965837488509 0.24074316727492401 0 -0.40585136056822319 0.25674789398696107 0 -0.4198454647722451 0.23985190764030939 0 -0.405480724964072 0.22581663549259839 0 -0.40081965837488509 0.24074316727492401 0 -0.44062222049055039 0.24203477259657111 0 -0.4198454647722451 0.23985190764030939 0 -0.42503978512155383 0.25887440404814072 0 -0.44062222049055039 0.24203477259657111 0 -0.4198454647722451 0.23985190764030939 0 -0.43146145522804691 0.2313120115293863 0 -0.4198454647722451 0.23985190764030939 0 -0.43146145522804691 0.2313120115293863 0 -0.42370673975344808 0.22056464269113771 0 -0.44192508753596349 0.22328399916790689 0 -0.43146145522804691 0.2313120115293863 0 -0.42370673975344808 0.22056464269113771 0 -0.4198454647722451 0.23985190764030939 0 -0.42370673975344808 0.22056464269113771 0 -0.405480724964072 0.22581663549259839 0 -0.42370673975344808 0.22056464269113771 0 -0.40708390191205951 0.20882890034131879 0 -0.405480724964072 0.22581663549259839 0 -0.42370673975344808 0.22056464269113771 0 -0.40708390191205951 0.20882890034131879 0 -0.42107335870595469 0.2022269477122331 0 -0.44192508753596349 0.22328399916790689 0 -0.42370673975344808 0.22056464269113771 0 -0.43516662619925378 0.20614333559983469 0 -0.42370673975344808 0.22056464269113771 0 -0.43516662619925378 0.20614333559983469 0 -0.42107335870595469 0.2022269477122331 0 -0.43516662619925378 0.20614333559983469 0 -0.4284081648625454 0.1890026720317621 0 -0.42107335870595469 0.2022269477122331 0 -0.43516662619925378 0.20614333559983469 0 -0.4284081648625454 0.1890026720317621 0 -0.4284081648625454 0.1890026720317621 0 -0.40915969581062839 0.19342315750049971 0 -0.4284081648625454 0.1890026720317621 0 -0.42107335870595469 0.2022269477122331 0 -0.40915969581062839 0.19342315750049971 0 -0.40708390191205951 0.20882890034131879 0 -0.42107335870595469 0.2022269477122331 0 -0.40915969581062839 0.19342315750049971 0 -0.40708390191205951 0.20882890034131879 0 -0.40915969581062839 0.19342315750049971 0 -0.38991122675871148 0.19784364296923759 0 -0.40915969581062839 0.19342315750049971 0 -0.38991122675871148 0.19784364296923759 0 -0.40915969581062839 0.19342315750049971 0 -0.38991122675871148 0.19784364296923759 0 -0.39569501158598158 0.17813944679546001 0 -0.39158905321283283 0.2136173787495643 0 -0.38435338999826391 0.22831720607051781 0 -0.36414166766971379 0.2074649771098355 0 -0.38991122675871148 0.19784364296923759 0 -0.39158905321283283 0.2136173787495643 0 -0.36414166766971379 0.2074649771098355 0 -0.40708390191205951 0.20882890034131879 0 -0.39158905321283283 0.2136173787495643 0 -0.405480724964072 0.22581663549259839 0 -0.40708390191205951 0.20882890034131879 0 -0.38991122675871148 0.19784364296923759 0 -0.39158905321283283 0.2136173787495643 0 -0.405480724964072 0.22581663549259839 0 -0.38435338999826391 0.22831720607051781 0 -0.40081965837488509 0.24074316727492401 0 -0.39158905321283283 0.2136173787495643 0 -0.405480724964072 0.22581663549259839 0 -0.38435338999826391 0.22831720607051781 0 -0.37619177155740557 0.24036243622333081 0 -0.38790582398472923 0.24962922847932231 0 -0.36318679658289171 0.25196182354824148 0 -0.38435338999826391 0.22831720607051781 0 -0.37619177155740557 0.24036243622333081 0 -0.38790582398472923 0.24962922847932231 0 -0.38435338999826391 0.22831720607051781 0 -0.38790582398472923 0.24962922847932231 0 -0.40081965837488509 0.24074316727492401 0 -0.38790582398472923 0.24962922847932231 0 -0.40081965837488509 0.24074316727492401 0 -0.40585136056822319 0.25674789398696107 0 -0.40926453963391513 0.14045102348790381 0 -0.42614672387873248 0.14526589422012931 0 -0.41883635224822963 0.16472684775983329 0 -0.40926453963391513 0.14045102348790381 0 -0.41883635224822963 0.16472684775983329 0 -0.40926453963391513 0.14045102348790381 0 -0.41883635224822963 0.16472684775983329 0 -0.40029434983296169 0.15790366282291429 0 -0.40926453963391513 0.14045102348790381 0 -0.417579207348795 0.13056668242546571 0 -0.40026410281127539 0.13237877311027449 0 -0.40926453963391513 0.14045102348790381 0 -0.417579207348795 0.13056668242546571 0 -0.42614672387873248 0.14526589422012931 0 -0.417579207348795 0.13056668242546571 0 -0.43293323699752101 0.1317554923945817 0 -0.42614672387873248 0.14526589422012931 0 -0.42608096723388439 0.1205091241492761 0 -0.417579207348795 0.13056668242546571 0 -0.43293323699752101 0.1317554923945817 0 -0.43796764784210812 0.14528805014891141 0 -0.43293323699752101 0.1317554923945817 0 -0.42614672387873248 0.14526589422012931 0 -0.43892522612619872 0.15930650560997939 0 -0.43796764784210812 0.14528805014891141 0 -0.42614672387873248 0.14526589422012931 0 -0.43892522612619872 0.15930650560997939 0 -0.42614672387873248 0.14526589422012931 0 -0.41883635224822963 0.16472684775983329 0 -0.43992511097516529 0.17411109905454999 0 -0.43892522612619872 0.15930650560997939 0 -0.41883635224822963 0.16472684775983329 0 -0.4284081648625454 0.1890026720317621 0 -0.41883635224822963 0.16472684775983329 0 -0.43992511097516529 0.17411109905454999 0 -0.4284081648625454 0.1890026720317621 0 -0.41883635224822963 0.16472684775983329 0 -0.40915969581062839 0.19342315750049971 0 -0.41883635224822963 0.16472684775983329 0 -0.39569501158598158 0.17813944679546001 0 -0.4284081648625454 0.1890026720317621 0 -0.40915969581062839 0.19342315750049971 0 -0.41883635224822963 0.16472684775983329 0 -0.40029434983296169 0.15790366282291429 0 -0.39569501158598158 0.17813944679546001 0 -0.38484252596519369 0.16167484958157691 0 -0.41883635224822963 0.16472684775983329 0 -0.40029434983296169 0.15790366282291429 0 -0.39569501158598158 0.17813944679546001 0 -0.39569501158598158 0.17813944679546001 0 -0.38484252596519369 0.16167484958157691 0 -0.36525228834216061 0.17922160577889321 0 -0.38991122675871148 0.19784364296923759 0 -0.39569501158598158 0.17813944679546001 0 -0.36525228834216061 0.17922160577889321 0 -0.39283331973148827 0.14452614648979731 0 -0.38372255811484618 0.13025780258704611 0 -0.36636290901460722 0.1509782344479508 0 -0.38484252596519369 0.16167484958157691 0 -0.39283331973148827 0.14452614648979731 0 -0.36636290901460722 0.1509782344479508 0 -0.40029434983296169 0.15790366282291429 0 -0.38484252596519369 0.16167484958157691 0 -0.39283331973148827 0.14452614648979731 0 -0.40926453963391513 0.14045102348790381 0 -0.40029434983296169 0.15790366282291429 0 -0.39283331973148827 0.14452614648979731 0 -0.39283331973148827 0.14452614648979731 0 -0.40026410281127539 0.13237877311027449 0 -0.38372255811484618 0.13025780258704611 0 -0.39792088922733271 0.1160922105611595 0 -0.417579207348795 0.13056668242546571 0 -0.40026410281127539 0.13237877311027449 0 -0.39792088922733271 0.1160922105611595 0 -0.40026410281127539 0.13237877311027449 0 -0.38372255811484618 0.13025780258704611 0 -0.40926453963391513 0.14045102348790381 0 -0.39283331973148827 0.14452614648979731 0 -0.40026410281127539 0.13237877311027449 0 -0.38372255811484618 0.13025780258704611 0 -0.36636290901460722 0.1509782344479508 0 -0.36747352968705388 0.12273486311700831 0 -0.36636290901460722 0.1509782344479508 0 -0.36747352968705388 0.12273486311700831 0 -0.35528769071996391 0.12689780186549679 0 -0.36636290901460722 0.1509782344479508 0 -0.36747352968705388 0.12273486311700831 0 -0.35528769071996391 0.12689780186549679 0 -0.33512599087492562 0.1447950320020088 0 -0.35528769071996391 0.12689780186549679 0 -0.35168351666373848 0.14314256241625531 0 -0.33512599087492562 0.1447950320020088 0 -0.35528769071996391 0.12689780186549679 0 -0.33512599087492562 0.1447950320020088 0 -0.34115039425197219 0.12498493974687711 0 -0.35528769071996391 0.12689780186549679 0 -0.35168351666373848 0.14314256241625531 0 -0.36636290901460722 0.1509782344479508 0 -0.35168351666373848 0.14314256241625531 0 -0.36636290901460722 0.1509782344479508 0 -0.34333519974196419 0.16612441953572921 0 -0.38484252596519369 0.16167484958157691 0 -0.36636290901460722 0.1509782344479508 0 -0.36525228834216061 0.17922160577889321 0 -0.36636290901460722 0.1509782344479508 0 -0.36525228834216061 0.17922160577889321 0 -0.36525228834216061 0.17922160577889321 0 -0.34333519974196419 0.16612441953572921 0 -0.34654591437965571 0.19533490523866279 0 -0.36636290901460722 0.1509782344479508 0 -0.36525228834216061 0.17922160577889321 0 -0.34333519974196419 0.16612441953572921 0 -0.34333519974196419 0.16612441953572921 0 -0.31496429102988749 0.16269226213852109 0 -0.33512599087492562 0.1447950320020088 0 -0.34333519974196419 0.16612441953572921 0 -0.34654591437965571 0.19533490523866279 0 -0.32412519241006588 0.1878495682783011 0 -0.31496429102988749 0.16269226213852109 0 -0.32412519241006588 0.1878495682783011 0 -0.34333519974196419 0.16612441953572921 0 -0.31496429102988749 0.16269226213852109 0 -0.32412519241006588 0.1878495682783011 0 -0.31303823693556859 0.17707572181323081 0 -0.31496429102988749 0.16269226213852109 0 -0.32412519241006588 0.1878495682783011 0 -0.31303823693556859 0.17707572181323081 0 -0.32412519241006588 0.1878495682783011 0 -0.3108046026399135 0.18379038091696129 0 -0.31496429102988749 0.16269226213852109 0 -0.31353256245119709 0.1587605055712967 0 -0.31354631638020197 0.13395604467094269 0 -0.33512599087492562 0.1447950320020088 0 -0.3122891553291075 0.14635758184588041 0 -0.31353256245119709 0.1587605055712967 0 -0.33512599087492562 0.1447950320020088 0 -0.3122891553291075 0.14635758184588041 0 -0.31496429102988749 0.16269226213852109 0 -0.31353256245119709 0.1587605055712967 0 -0.33512599087492562 0.1447950320020088 0 -0.31496429102988749 0.16269226213852109 0 -0.33512599087492562 0.1447950320020088 0 -0.31354631638020197 0.13395604467094269 0 -0.32917568526667751 0.12578156900391591 0 -0.33512599087492562 0.1447950320020088 0 -0.31354631638020197 0.13395604467094269 0 -0.32917568526667751 0.12578156900391591 0 -0.32114709127587232 0.11611322513389059 0 -0.32917568526667751 0.12578156900391591 0 -0.33512599087492562 0.1447950320020088 0 -0.34115039425197219 0.12498493974687711 0 -0.35168351666373848 0.14314256241625531 0 -0.34333519974196419 0.16612441953572921 0 -0.33512599087492562 0.1447950320020088 0 -0.36303104699726713 0.23570834844077809 0 -0.34244699517042121 0.23816418055786151 0 -0.36318679658289171 0.25196182354824148 0 -0.34244699517042121 0.23816418055786151 0 -0.36318679658289171 0.25196182354824148 0 -0.33952374355129727 0.25899057541505788 0 -0.37619177155740557 0.24036243622333081 0 -0.36303104699726713 0.23570834844077809 0 -0.36318679658289171 0.25196182354824148 0 -0.38435338999826391 0.22831720607051781 0 -0.37619177155740557 0.24036243622333081 0 -0.36303104699726713 0.23570834844077809 0 -0.38435338999826391 0.22831720607051781 0 -0.36303104699726713 0.23570834844077809 0 -0.36414166766971379 0.2074649771098355 0 -0.36303104699726713 0.23570834844077809 0 -0.36414166766971379 0.2074649771098355 0 -0.36303104699726713 0.23570834844077809 0 -0.35084793517488477 0.2210857468323085 0 -0.34244699517042121 0.23816418055786151 0 -0.36303104699726713 0.23570834844077809 0 -0.35084793517488477 0.2210857468323085 0 -0.36414166766971379 0.2074649771098355 0 -0.35084793517488477 0.2210857468323085 0 -0.36414166766971379 0.2074649771098355 0 -0.34654591437965571 0.19533490523866279 0 -0.36525228834216061 0.17922160577889321 0 -0.36414166766971379 0.2074649771098355 0 -0.38991122675871148 0.19784364296923759 0 -0.36525228834216061 0.17922160577889321 0 -0.36414166766971379 0.2074649771098355 0 -0.36525228834216061 0.17922160577889321 0 -0.36414166766971379 0.2074649771098355 0 -0.34654591437965571 0.19533490523866279 0 -0.32412519241006588 0.1878495682783011 0 -0.33328609379024349 0.2130068744180813 0 -0.34654591437965571 0.19533490523866279 0 -0.32412519241006588 0.1878495682783011 0 -0.33328609379024349 0.2130068744180813 0 -0.32412519241006588 0.1878495682783011 0 -0.33328609379024349 0.2130068744180813 0 -0.31080006153106382 0.20197173666100501 0 -0.32412519241006588 0.1878495682783011 0 -0.31080006153106382 0.20197173666100501 0 -0.3108046026399135 0.18379038091696129 0 -0.33328609379024349 0.2130068744180813 0 -0.31873218963182409 0.22654972870499029 0 -0.31080006153106382 0.20197173666100501 0 -0.35084793517488477 0.2210857468323085 0 -0.34654591437965571 0.19533490523866279 0 -0.33328609379024349 0.2130068744180813 0 -0.35084793517488477 0.2210857468323085 0 -0.33328609379024349 0.2130068744180813 0 -0.34244699517042121 0.23816418055786151 0 -0.33328609379024349 0.2130068744180813 0 -0.34244699517042121 0.23816418055786151 0 -0.33328609379024349 0.2130068744180813 0 -0.31873218963182409 0.22654972870499029 0 -0.34244699517042121 0.23816418055786151 0 -0.31873218963182409 0.22654972870499029 0 -0.32200613725511351 0.24850726385495631 0 -0.34244699517042121 0.23816418055786151 0 -0.31873218963182409 0.22654972870499029 0 -0.32200613725511351 0.24850726385495631 0 -0.30672251365844311 0.23743048015470111 0 -0.32200613725511351 0.24850726385495631 0 -0.34244699517042121 0.23816418055786151 0 -0.33952374355129727 0.25899057541505788 0 -0.29125564533142001 0.24067530578368901 0 -0.30672251365844311 0.23743048015470111 0 -0.30640548876467488 0.25787073169030861 0 -0.32200613725511351 0.24850726385495631 0 -0.30672251365844311 0.23743048015470111 0 -0.30640548876467488 0.25787073169030861 0 -0.29125564533142001 0.24067530578368901 0 -0.30672251365844311 0.23743048015470111 0 -0.29521310730918271 0.21354937073956171 0 -0.31873218963182409 0.22654972870499029 0 -0.30672251365844311 0.23743048015470111 0 -0.29521310730918271 0.21354937073956171 0 -0.29125564533142001 0.24067530578368901 0 -0.29521310730918271 0.21354937073956171 0 -0.29125564533142001 0.24067530578368901 0 -0.29521310730918271 0.21354937073956171 0 -0.27258595833473342 0.22149207507906341 0 -0.29521310730918271 0.21354937073956171 0 -0.28878760701375322 0.1984352968903606 0 -0.27490594785389072 0.20112241201531189 0 -0.31873218963182409 0.22654972870499029 0 -0.29521310730918271 0.21354937073956171 0 -0.31080006153106382 0.20197173666100501 0 -0.29521310730918271 0.21354937073956171 0 -0.29917056928694541 0.1864234356954344 0 -0.29521310730918271 0.21354937073956171 0 -0.31080006153106382 0.20197173666100501 0 -0.29917056928694541 0.1864234356954344 0 -0.31080006153106382 0.20197173666100501 0 -0.3108046026399135 0.18379038091696129 0 -0.29917056928694541 0.1864234356954344 0 -0.28878760701375322 0.1984352968903606 0 -0.29917056928694541 0.1864234356954344 0 -0.28955343229492791 0.1852490896997587 0 -0.29521310730918271 0.21354937073956171 0 -0.28878760701375322 0.1984352968903606 0 -0.29917056928694541 0.1864234356954344 0 -0.28878760701375322 0.1984352968903606 0 -0.27938784373491388 0.18917199981814359 0 -0.28955343229492791 0.1852490896997587 0 -0.27938784373491388 0.18917199981814359 0 -0.27490594785389072 0.20112241201531189 0 -0.26439180367967152 0.18225540552070321 0 -0.28878760701375322 0.1984352968903606 0 -0.27938784373491388 0.18917199981814359 0 -0.27490594785389072 0.20112241201531189 0 -0.27490594785389072 0.20112241201531189 0 -0.25370102580463139 0.2052288024824625 0 -0.26439180367967152 0.18225540552070321 0 -0.25370102580463139 0.2052288024824625 0 -0.26439180367967152 0.18225540552070321 0 -0.23359887481107691 0.1809086922627815 0 -0.27490594785389072 0.20112241201531189 0 -0.25370102580463139 0.2052288024824625 0 -0.27258595833473342 0.22149207507906341 0 -0.29521310730918271 0.21354937073956171 0 -0.27490594785389072 0.20112241201531189 0 -0.27258595833473342 0.22149207507906341 0 -0.29125564533142001 0.24067530578368901 0 -0.27258595833473342 0.22149207507906341 0 -0.26834113505385238 0.23837358332174549 0 -0.27258595833473342 0.22149207507906341 0 -0.25272375818517617 0.22994970808158929 0 -0.26834113505385238 0.23837358332174549 0 -0.25370102580463139 0.2052288024824625 0 -0.27258595833473342 0.22149207507906341 0 -0.25272375818517617 0.22994970808158929 0 -0.25272375818517617 0.22994970808158929 0 -0.25621817608628389 0.2460965770837312 0 -0.26834113505385238 0.23837358332174549 0 -0.25621817608628389 0.2460965770837312 0 -0.26834113505385238 0.23837358332174549 0 -0.26892213733164849 0.25365425058065472 0 -0.29125564533142001 0.24067530578368901 0 -0.26834113505385238 0.23837358332174549 0 -0.26892213733164849 0.25365425058065472 0 -0.29370567785695612 0.15770531643225719 0 -0.28412418886142132 0.16518528890623771 0 -0.28065913062351988 0.14575155473079041 0 -0.30159211447790629 0.14759241864651959 0 -0.29370567785695612 0.15770531643225719 0 -0.28065913062351988 0.14575155473079041 0 -0.29682817834931757 0.13068013418198679 0 -0.30159211447790629 0.14759241864651959 0 -0.28065913062351988 0.14575155473079041 0 -0.29682817834931757 0.13068013418198679 0 -0.28065913062351988 0.14575155473079041 0 -0.28285123447775751 0.1183560919224374 0 -0.31354631638020197 0.13395604467094269 0 -0.29682817834931757 0.13068013418198679 0 -0.30159211447790629 0.14759241864651959 0 -0.31354631638020197 0.13395604467094269 0 -0.3122891553291075 0.14635758184588041 0 -0.30159211447790629 0.14759241864651959 0 -0.31353256245119709 0.1587605055712967 0 -0.3122891553291075 0.14635758184588041 0 -0.30159211447790629 0.14759241864651959 0 -0.31496429102988749 0.16269226213852109 0 -0.31353256245119709 0.1587605055712967 0 -0.30488677357152572 0.1641353808659653 0 -0.30159211447790629 0.14759241864651959 0 -0.30488677357152572 0.1641353808659653 0 -0.29370567785695612 0.15770531643225719 0 -0.31353256245119709 0.1587605055712967 0 -0.30159211447790629 0.14759241864651959 0 -0.30488677357152572 0.1641353808659653 0 -0.31496429102988749 0.16269226213852109 0 -0.30225886166240762 0.17397067591913981 0 -0.31303823693556859 0.17707572181323081 0 -0.31496429102988749 0.16269226213852109 0 -0.30225886166240762 0.17397067591913981 0 -0.31496429102988749 0.16269226213852109 0 -0.30488677357152572 0.1641353808659653 0 -0.30225886166240762 0.17397067591913981 0 -0.30488677357152572 0.1641353808659653 0 -0.30225886166240762 0.17397067591913981 0 -0.29597535979189887 0.1670989905046398 0 -0.30488677357152572 0.1641353808659653 0 -0.29370567785695612 0.15770531643225719 0 -0.29597535979189887 0.1670989905046398 0 -0.31303823693556859 0.17707572181323081 0 -0.3108046026399135 0.18379038091696129 0 -0.30225886166240762 0.17397067591913981 0 -0.30225886166240762 0.17397067591913981 0 -0.29917056928694541 0.1864234356954344 0 -0.28955343229492791 0.1852490896997587 0 -0.3108046026399135 0.18379038091696129 0 -0.30225886166240762 0.17397067591913981 0 -0.29917056928694541 0.1864234356954344 0 -0.30225886166240762 0.17397067591913981 0 -0.28955343229492791 0.1852490896997587 0 -0.30225886166240762 0.17397067591913981 0 -0.28955343229492791 0.1852490896997587 0 -0.29024545837739651 0.173916500811098 0 -0.28955343229492791 0.1852490896997587 0 -0.29024545837739651 0.173916500811098 0 -0.27889874324695868 0.17762520371433099 0 -0.29024545837739651 0.173916500811098 0 -0.28412418886142132 0.16518528890623771 0 -0.27889874324695868 0.17762520371433099 0 -0.27938784373491388 0.18917199981814359 0 -0.28955343229492791 0.1852490896997587 0 -0.27889874324695868 0.17762520371433099 0 -0.29370567785695612 0.15770531643225719 0 -0.29597535979189887 0.1670989905046398 0 -0.28412418886142132 0.16518528890623771 0 -0.30225886166240762 0.17397067591913981 0 -0.29024545837739651 0.173916500811098 0 -0.29597535979189887 0.1670989905046398 0 -0.29024545837739651 0.173916500811098 0 -0.29597535979189887 0.1670989905046398 0 -0.28412418886142132 0.16518528890623771 0 -0.28412418886142132 0.16518528890623771 0 -0.26844272787379447 0.16268744982768751 0 -0.27889874324695868 0.17762520371433099 0 -0.28412418886142132 0.16518528890623771 0 -0.26844272787379447 0.16268744982768751 0 -0.28065913062351988 0.14575155473079041 0 -0.26844272787379447 0.16268744982768751 0 -0.27889874324695868 0.17762520371433099 0 -0.26439180367967152 0.18225540552070321 0 -0.27938784373491388 0.18917199981814359 0 -0.27889874324695868 0.17762520371433099 0 -0.26439180367967152 0.18225540552070321 0 -0.26844272787379447 0.16268744982768751 0 -0.26439180367967152 0.18225540552070321 0 -0.247018622616726 0.15992587597476091 0 -0.26844272787379447 0.16268744982768751 0 -0.25846103874104392 0.14702121199507179 0 -0.247018622616726 0.15992587597476091 0 -0.26844272787379447 0.16268744982768751 0 -0.25846103874104392 0.14702121199507179 0 -0.28065913062351988 0.14575155473079041 0 -0.25846103874104392 0.14702121199507179 0 -0.28065913062351988 0.14575155473079041 0 -0.25922316449870308 0.12628093809151891 0 -0.28065913062351988 0.14575155473079041 0 -0.25922316449870308 0.12628093809151891 0 -0.28285123447775751 0.1183560919224374 0 -0.25846103874104392 0.14702121199507179 0 -0.25922316449870308 0.12628093809151891 0 -0.2369615480924761 0.1404602413506009 0 -0.25922316449870308 0.12628093809151891 0 -0.25136603029008331 0.1103208693098497 0 -0.26687835675477128 0.1014348965859585 0 -0.25136603029008331 0.1103208693098497 0 -0.26687835675477128 0.1014348965859585 0 -0.24377998071086901 0.096378574065869249 0 -0.26687835675477128 0.1014348965859585 0 -0.28737892951993471 0.098967158637655914 0 -0.27569457229827071 0.081243623470509244 0 -0.26687835675477128 0.1014348965859585 0 -0.28285123447775751 0.1183560919224374 0 -0.28737892951993471 0.098967158637655914 0 -0.25922316449870308 0.12628093809151891 0 -0.26687835675477128 0.1014348965859585 0 -0.28285123447775751 0.1183560919224374 0 -0.29682817834931757 0.13068013418198679 0 -0.28285123447775751 0.1183560919224374 0 -0.30549209578720232 0.10774456093924389 0 -0.28285123447775751 0.1183560919224374 0 -0.28737892951993471 0.098967158637655914 0 -0.30549209578720232 0.10774456093924389 0 -0.28737892951993471 0.098967158637655914 0 -0.30549209578720232 0.10774456093924389 0 -0.29743787519420251 0.08153307720754506 0 -0.30549209578720232 0.10774456093924389 0 -0.29743787519420251 0.08153307720754506 0 -0.31354631638020197 0.13395604467094269 0 -0.29682817834931757 0.13068013418198679 0 -0.30549209578720232 0.10774456093924389 0 -0.31354631638020197 0.13395604467094269 0 -0.30549209578720232 0.10774456093924389 0 -0.29926204670725021 0.066629363318123747 0 -0.30931237829482389 0.073252958087475881 0 -0.31697319293959142 0.061410437985649477 0 -0.29926204670725021 0.066629363318123747 0 -0.30931237829482389 0.073252958087475881 0 -0.29743787519420251 0.08153307720754506 0 -0.30549209578720232 0.10774456093924389 0 -0.29743787519420251 0.08153307720754506 0 -0.31312795334666071 0.083579729522452809 0 -0.30931237829482389 0.073252958087475881 0 -0.29743787519420251 0.08153307720754506 0 -0.31312795334666071 0.083579729522452809 0 -0.28737892951993471 0.098967158637655914 0 -0.29743787519420251 0.08153307720754506 0 -0.27569457229827071 0.081243623470509244 0 -0.29743787519420251 0.08153307720754506 0 -0.28743776060402371 0.060458689408765323 0 -0.28938365460120269 0.05532159347584624 0 -0.29743787519420251 0.08153307720754506 0 -0.28938365460120269 0.05532159347584624 0 -0.29926204670725021 0.066629363318123747 0 -0.29743787519420251 0.08153307720754506 0 -0.28938365460120269 0.05532159347584624 0 -0.29743787519420251 0.08153307720754506 0 -0.27569457229827071 0.081243623470509244 0 -0.28743776060402371 0.060458689408765323 0 -0.27569457229827071 0.081243623470509244 0 -0.26257114212692878 0.06573449919026883 0 -0.28743776060402371 0.060458689408765323 0 -0.26257114212692878 0.06573449919026883 0 -0.28743776060402371 0.060458689408765323 0 -0.26687835675477128 0.1014348965859585 0 -0.25261226255175379 0.080423606239198905 0 -0.24377998071086901 0.096378574065869249 0 -0.26687835675477128 0.1014348965859585 0 -0.27569457229827071 0.081243623470509244 0 -0.25261226255175379 0.080423606239198905 0 -0.26257114212692878 0.06573449919026883 0 -0.23770452364983391 0.071010308971772351 0 -0.25261226255175379 0.080423606239198905 0 -0.26257114212692878 0.06573449919026883 0 -0.23770452364983391 0.071010308971772351 0 -0.27569457229827071 0.081243623470509244 0 -0.25261226255175379 0.080423606239198905 0 -0.26257114212692878 0.06573449919026883 0 -0.2522816967992324 0.037264740289820159 0 -0.27263172987273521 0.051913181220590639 0 -0.24906194248509719 0.058488871325365822 0 -0.26257114212692878 0.06573449919026883 0 -0.27263172987273521 0.051913181220590639 0 -0.24906194248509719 0.058488871325365822 0 -0.2522816967992324 0.037264740289820159 0 -0.2684979789729644 0.03593820420606865 0 -0.27263172987273521 0.051913181220590639 0 -0.2684979789729644 0.03593820420606865 0 -0.27263172987273521 0.051913181220590639 0 -0.28132943400820298 0.02911010974414751 0 -0.27263172987273521 0.051913181220590639 0 -0.28132943400820298 0.02911010974414751 0 -0.28938365460120269 0.05532159347584624 0 -0.26257114212692878 0.06573449919026883 0 -0.27263172987273521 0.051913181220590639 0 -0.28743776060402371 0.060458689408765323 0 -0.25267499080189931 -0.0034516002120552492 0 -0.26909988492935111 -0.0018655285383734981 0 -0.25157722050270093 0.012682655753942951 0 -0.26909988492935111 -0.0018655285383734981 0 -0.25157722050270093 0.012682655753942951 0 -0.27200359261247947 0.017754051058092819 0 -0.2522816967992324 0.037264740289820159 0 -0.25157722050270093 0.012682655753942951 0 -0.27200359261247947 0.017754051058092819 0 -0.2522816967992324 0.037264740289820159 0 -0.2684979789729644 0.03593820420606865 0 -0.27200359261247947 0.017754051058092819 0 -0.2522816967992324 0.037264740289820159 0 -0.27200359261247947 0.017754051058092819 0 -0.27200359261247947 0.017754051058092819 0 -0.28831373269731447 0.017122983851404761 0 -0.28132943400820298 0.02911010974414751 0 -0.2684979789729644 0.03593820420606865 0 -0.27200359261247947 0.017754051058092819 0 -0.28132943400820298 0.02911010974414751 0 -0.26909988492935111 -0.0018655285383734981 0 -0.2917254884257266 -0.0017566381736345419 0 -0.27200359261247947 0.017754051058092819 0 -0.2917254884257266 -0.0017566381736345419 0 -0.27200359261247947 0.017754051058092819 0 -0.28831373269731447 0.017122983851404761 0 -0.2917254884257266 -0.0017566381736345419 0 -0.28831373269731447 0.017122983851404761 0 -0.29997880334656019 0.01439552450637107 0 -0.2917254884257266 -0.0017566381736345419 0 -0.27200359261247947 0.017754051058092819 0 -0.28831373269731447 0.017122983851404761 0 -0.29656482898857922 0.02610767777843559 0 -0.29997880334656019 0.01439552450637107 0 -0.28831373269731447 0.017122983851404761 0 -0.28132943400820298 0.02911010974414751 0 -0.29656482898857922 0.02610767777843559 0 -0.28132943400820298 0.02911010974414751 0 -0.29656482898857922 0.02610767777843559 0 -0.29344050585463782 0.03493273697686209 0 -0.29656482898857922 0.02610767777843559 0 -0.31039051656375261 0.022327184027059441 0 -0.30541723396373921 0.038711125382435783 0 -0.31039051656375261 0.022327184027059441 0 -0.30541723396373921 0.038711125382435783 0 -0.32038394146944787 0.031620215762440292 0 -0.29656482898857922 0.02610767777843559 0 -0.31039051656375261 0.022327184027059441 0 -0.29997880334656019 0.01439552450637107 0 -0.31039051656375261 0.022327184027059441 0 -0.31177688145040278 0.0050359958776742568 0 -0.29997880334656019 0.01439552450637107 0 -0.2917254884257266 -0.0017566381736345419 0 -0.31177688145040278 0.0050359958776742568 0 -0.29997880334656019 0.01439552450637107 0 -0.27263172987273521 0.051913181220590639 0 -0.28743776060402371 0.060458689408765323 0 -0.28938365460120269 0.05532159347584624 0 -0.28938365460120269 0.05532159347584624 0 -0.29045052645802971 0.045802035002429492 0 -0.29738278035354182 0.050541329601553678 0 -0.28938365460120269 0.05532159347584624 0 -0.29738278035354182 0.050541329601553678 0 -0.29780899910201009 0.056562827273038227 0 -0.29926204670725021 0.066629363318123747 0 -0.28938365460120269 0.05532159347584624 0 -0.29780899910201009 0.056562827273038227 0 -0.28132943400820298 0.02911010974414751 0 -0.28938365460120269 0.05532159347584624 0 -0.29045052645802971 0.045802035002429492 0 -0.28132943400820298 0.02911010974414751 0 -0.28938365460120269 0.05532159347584624 0 -0.28132943400820298 0.02911010974414751 0 -0.29344050585463782 0.03493273697686209 0 -0.29045052645802971 0.045802035002429492 0 -0.29344050585463782 0.03493273697686209 0 -0.29045052645802971 0.045802035002429492 0 -0.30541723396373921 0.038711125382435783 0 -0.29045052645802971 0.045802035002429492 0 -0.30541723396373921 0.038711125382435783 0 -0.29738278035354182 0.050541329601553678 0 -0.29045052645802971 0.045802035002429492 0 -0.30541723396373921 0.038711125382435783 0 -0.29656482898857922 0.02610767777843559 0 -0.29344050585463782 0.03493273697686209 0 -0.30541723396373921 0.038711125382435783 0 -0.30541723396373921 0.038711125382435783 0 -0.30520751474604563 0.05375902269662923 0 -0.31780711793698518 0.045521831715634557 0 -0.29926204670725021 0.066629363318123747 0 -0.30520751474604563 0.05375902269662923 0 -0.31697319293959142 0.061410437985649477 0 -0.30541723396373921 0.038711125382435783 0 -0.30520751474604563 0.05375902269662923 0 -0.29738278035354182 0.050541329601553678 0 -0.30520751474604563 0.05375902269662923 0 -0.29738278035354182 0.050541329601553678 0 -0.29780899910201009 0.056562827273038227 0 -0.29926204670725021 0.066629363318123747 0 -0.30520751474604563 0.05375902269662923 0 -0.29780899910201009 0.056562827273038227 0 -0.32553678940662539 0.052415823907368687 0 -0.31780711793698518 0.045521831715634557 0 -0.33422422494732851 0.04449049745268327 0 -0.31697319293959142 0.061410437985649477 0 -0.32553678940662539 0.052415823907368687 0 -0.31780711793698518 0.045521831715634557 0 -0.30520751474604563 0.05375902269662923 0 -0.31697319293959142 0.061410437985649477 0 -0.31780711793698518 0.045521831715634557 0 -0.31697319293959142 0.061410437985649477 0 -0.32808937753058609 0.059947696530402161 0 -0.32553678940662539 0.052415823907368687 0 -0.31780711793698518 0.045521831715634557 0 -0.32038394146944787 0.031620215762440292 0 -0.33422422494732851 0.04449049745268327 0 -0.30541723396373921 0.038711125382435783 0 -0.31780711793698518 0.045521831715634557 0 -0.32038394146944787 0.031620215762440292 0 -0.30541723396373921 0.038711125382435783 0 -0.32038394146944787 0.031620215762440292 0 -0.32038394146944787 0.031620215762440292 0 -0.33422422494732851 0.04449049745268327 0 -0.33422422494732851 0.04449049745268327 0 -0.34051642268078958 0.02208187176518148 0 -0.34924074101412461 0.03711639968071382 0 -0.32038394146944787 0.031620215762440292 0 -0.33422422494732851 0.04449049745268327 0 -0.34051642268078958 0.02208187176518148 0 -0.33422422494732851 0.04449049745268327 0 -0.34715076893326918 0.04673829876922056 0 -0.34924074101412461 0.03711639968071382 0 -0.33422422494732851 0.04449049745268327 0 -0.34806450842520742 0.057360779142928031 0 -0.34715076893326918 0.04673829876922056 0 -0.33422422494732851 0.04449049745268327 0 -0.34806450842520742 0.057360779142928031 0 -0.33422422494732851 0.04449049745268327 0 -0.33482930480244999 0.055095026294593591 0 -0.34806450842520742 0.057360779142928031 0 -0.3407399656121517 0.06083029771636933 0 -0.33482930480244999 0.055095026294593591 0 -0.33440717105718593 0.063083878638897639 0 -0.3407399656121517 0.06083029771636933 0 -0.33482930480244999 0.055095026294593591 0 -0.34806450842520742 0.057360779142928031 0 -0.32808937753058609 0.059947696530402161 0 -0.33482930480244999 0.055095026294593591 0 -0.33440717105718593 0.063083878638897639 0 -0.32808937753058609 0.059947696530402161 0 -0.32553678940662539 0.052415823907368687 0 -0.33482930480244999 0.055095026294593591 0 -0.32553678940662539 0.052415823907368687 0 -0.33422422494732851 0.04449049745268327 0 -0.33482930480244999 0.055095026294593591 0 -0.31039051656375261 0.022327184027059441 0 -0.31177688145040278 0.0050359958776742568 0 -0.3261420213634148 0.01391490981329808 0 -0.32828291010712762 -0.0049346835118845543 0 -0.31177688145040278 0.0050359958776742568 0 -0.3261420213634148 0.01391490981329808 0 -0.31039051656375261 0.022327184027059441 0 -0.32038394146944787 0.031620215762440292 0 -0.3261420213634148 0.01391490981329808 0 -0.31039051656375261 0.022327184027059441 0 -0.32038394146944787 0.031620215762440292 0 -0.32038394146944787 0.031620215762440292 0 -0.34051642268078958 0.02208187176518148 0 -0.32038394146944787 0.031620215762440292 0 -0.3261420213634148 0.01391490981329808 0 -0.34051642268078958 0.02208187176518148 0 -0.3261420213634148 0.01391490981329808 0 -0.34051642268078958 0.02208187176518148 0 -0.34055428987364128 0.0059527955302196532 0 -0.32828291010712762 -0.0049346835118845543 0 -0.3261420213634148 0.01391490981329808 0 -0.34055428987364128 0.0059527955302196532 0 -0.34051642268078958 0.02208187176518148 0 -0.34055428987364128 0.0059527955302196532 0 -0.36064890389212972 0.0125435277679194 0 -0.34718119132474479 -0.01384164818341615 0 -0.34055428987364128 0.0059527955302196532 0 -0.36064890389212972 0.0125435277679194 0 -0.34051642268078958 0.02208187176518148 0 -0.36064890389212972 0.0125435277679194 0 -0.34051642268078958 0.02208187176518148 0 -0.35699945364537122 0.027147445145089769 0 -0.34924074101412461 0.03711639968071382 0 -0.34051642268078958 0.02208187176518148 0 -0.35699945364537122 0.027147445145089769 0 -0.36064890389212972 0.0125435277679194 0 -0.35699945364537122 0.027147445145089769 0 -0.36163302121541668 0.029781402687577421 0 -0.35940737946489582 0.035374977024224222 0 -0.37998819155715241 0.0057865511937031933 0 -0.36738966121720701 0.029980518529024301 0 -0.37123175334181557 0.027162262264614271 0 -0.37998819155715241 0.0057865511937031933 0 -0.36738966121720701 0.029980518529024301 0 -0.3645477689834325 0.020181962352102071 0 -0.37998819155715241 0.0057865511937031933 0 -0.36738966121720701 0.029980518529024301 0 -0.36273559053419291 0.026622670051971411 0 -0.36738966121720701 0.029980518529024301 0 -0.3645477689834325 0.020181962352102071 0 -0.35699945364537122 0.027147445145089769 0 -0.36163302121541668 0.029781402687577421 0 -0.36273559053419291 0.026622670051971411 0 -0.35699945364537122 0.027147445145089769 0 -0.36273559053419291 0.026622670051971411 0 -0.3645477689834325 0.020181962352102071 0 -0.36163302121541668 0.029781402687577421 0 -0.36273559053419291 0.026622670051971411 0 -0.36738966121720701 0.029980518529024301 0 -0.35699945364537122 0.027147445145089769 0 -0.3645477689834325 0.020181962352102071 0 -0.36064890389212972 0.0125435277679194 0 -0.3645477689834325 0.020181962352102071 0 -0.36064890389212972 0.0125435277679194 0 -0.37998819155715241 0.0057865511937031933 0 -0.3645477689834325 0.020181962352102071 0 -0.36064890389212972 0.0125435277679194 0 -0.38683543611469601 0.0001369023841863784 0 -0.36064890389212972 0.0125435277679194 0 -0.37474494217865062 -0.0022388935110706832 0 -0.38683543611469601 0.0001369023841863784 0 -0.36064890389212972 0.0125435277679194 0 -0.37474494217865062 -0.0022388935110706832 0 -0.36307869926690151 -0.00068504054922277494 0 -0.36064890389212972 0.0125435277679194 0 -0.35479113087726238 0.05417448586434577 0 -0.34715076893326918 0.04673829876922056 0 -0.35593663516940488 0.04278932274017315 0 -0.35479113087726238 0.05417448586434577 0 -0.35147867423579721 0.06053566178096708 0 -0.3622197730044176 0.060127746183944272 0 -0.35479113087726238 0.05417448586434577 0 -0.35147867423579721 0.06053566178096708 0 -0.35479113087726238 0.05417448586434577 0 -0.34806450842520742 0.057360779142928031 0 -0.35147867423579721 0.06053566178096708 0 -0.35479113087726238 0.05417448586434577 0 -0.34806450842520742 0.057360779142928031 0 -0.34806450842520742 0.057360779142928031 0 -0.35147867423579721 0.06053566178096708 0 -0.3447014191436914 0.063951910484466787 0 -0.34806450842520742 0.057360779142928031 0 -0.35147867423579721 0.06053566178096708 0 -0.3407399656121517 0.06083029771636933 0 -0.34806450842520742 0.057360779142928031 0 -0.3407399656121517 0.06083029771636933 0 -0.34806450842520742 0.057360779142928031 0 -0.3447014191436914 0.063951910484466787 0 -0.35479113087726238 0.05417448586434577 0 -0.34806450842520742 0.057360779142928031 0 -0.34715076893326918 0.04673829876922056 0 -0.34715076893326918 0.04673829876922056 0 -0.34924074101412461 0.03711639968071382 0 -0.35593663516940488 0.04278932274017315 0 -0.36738966121720701 0.029980518529024301 0 -0.35479113087726238 0.05417448586434577 0 -0.35593663516940488 0.04278932274017315 0 -0.35699945364537122 0.027147445145089769 0 -0.34924074101412461 0.03711639968071382 0 -0.35940737946489582 0.035374977024224222 0 -0.34924074101412461 0.03711639968071382 0 -0.35593663516940488 0.04278932274017315 0 -0.35940737946489582 0.035374977024224222 0 -0.36738966121720701 0.029980518529024301 0 -0.35479113087726238 0.05417448586434577 0 -0.36677646394688163 0.041367990420506082 0 -0.37123175334181557 0.027162262264614271 0 -0.37046143272875132 0.04675171495388801 0 -0.36738966121720701 0.029980518529024301 0 -0.35479113087726238 0.05417448586434577 0 -0.37123175334181557 0.027162262264614271 0 -0.36677646394688163 0.041367990420506082 0 -0.37046143272875132 0.04675171495388801 0 -0.3764786745208083 0.032098692741998169 0 -0.37123175334181557 0.027162262264614271 0 -0.37046143272875132 0.04675171495388801 0 -0.36163302121541668 0.029781402687577421 0 -0.36738966121720701 0.029980518529024301 0 -0.35940737946489582 0.035374977024224222 0 -0.36738966121720701 0.029980518529024301 0 -0.35593663516940488 0.04278932274017315 0 -0.35940737946489582 0.035374977024224222 0 -0.36738966121720701 0.029980518529024301 0 -0.37123175334181557 0.027162262264614271 0 -0.36677646394688163 0.041367990420506082 0 -0.36677646394688163 0.041367990420506082 0 -0.37046143272875132 0.04675171495388801 0 -0.36802302346639398 0.047906750352184523 0 -0.36677646394688163 0.041367990420506082 0 -0.36802302346639398 0.047906750352184523 0 -0.37046143272875132 0.04675171495388801 0 -0.37000681959492809 0.05831264468359916 0 -0.36802302346639398 0.047906750352184523 0 -0.37000681959492809 0.05831264468359916 0 -0.37046143272875132 0.04675171495388801 0 -0.36802302346639398 0.047906750352184523 0 -0.37000681959492809 0.05831264468359916 0 -0.37046143272875132 0.04675171495388801 0 -0.36802302346639398 0.047906750352184523 0 -0.35479113087726238 0.05417448586434577 0 -0.36802302346639398 0.047906750352184523 0 -0.35479113087726238 0.05417448586434577 0 -0.36802302346639398 0.047906750352184523 0 -0.3622197730044176 0.060127746183944272 0 -0.35479113087726238 0.05417448586434577 0 -0.36677646394688163 0.041367990420506082 0 -0.36802302346639398 0.047906750352184523 0 -0.36802302346639398 0.047906750352184523 0 -0.3622197730044176 0.060127746183944272 0 -0.37000681959492809 0.05831264468359916 0 -0.35147867423579721 0.06053566178096708 0 -0.36926886504626422 0.077079019973005369 0 -0.3622197730044176 0.060127746183944272 0 -0.37000681959492809 0.05831264468359916 0 -0.36926886504626422 0.077079019973005369 0 -0.37000681959492809 0.05831264468359916 0 -0.36926886504626422 0.077079019973005369 0 -0.37079498002478778 0.078498176574577722 0 -0.36926886504626422 0.077079019973005369 0 -0.34551673285671652 0.071984855543133663 0 -0.36912013352382872 0.080861301107253064 0 -0.37000681959492809 0.05831264468359916 0 -0.37079498002478778 0.078498176574577722 0 -0.37470600383380392 0.082961959162170973 0 -0.35147867423579721 0.06053566178096708 0 -0.3622197730044176 0.060127746183944272 0 -0.36926886504626422 0.077079019973005369 0 -0.37000681959492809 0.05831264468359916 0 -0.37470600383380392 0.082961959162170973 0 -0.37000681959492809 0.05831264468359916 0 -0.36926886504626422 0.077079019973005369 0 -0.36926886504626422 0.077079019973005369 0 -0.37079498002478778 0.078498176574577722 0 -0.34551673285671652 0.071984855543133663 0 -0.34763839367566191 0.079069075487607554 0 -0.36912013352382872 0.080861301107253064 0 -0.34551673285671652 0.071984855543133663 0 -0.36912013352382872 0.080861301107253064 0 -0.35147867423579721 0.06053566178096708 0 -0.36926886504626422 0.077079019973005369 0 -0.34551673285671652 0.071984855543133663 0 -0.34408269824063842 0.074738747125954852 0 -0.34763839367566191 0.079069075487607554 0 -0.34179116264722731 0.080399472229040897 0 -0.34408269824063842 0.074738747125954852 0 -0.34551673285671652 0.071984855543133663 0 -0.34763839367566191 0.079069075487607554 0 -0.34408269824063842 0.074738747125954852 0 -0.34551673285671652 0.071984855543133663 0 -0.35147867423579721 0.06053566178096708 0 -0.34551673285671652 0.071984855543133663 0 -0.3447014191436914 0.063951910484466787 0 -0.35147867423579721 0.06053566178096708 0 -0.34551673285671652 0.071984855543133663 0 -0.34763839367566191 0.079069075487607554 0 -0.36858415035949882 0.094491491786065696 0 -0.34763839367566191 0.079069075487607554 0 -0.36858415035949882 0.094491491786065696 0 -0.35198293914272999 0.094145145766245733 0 -0.34456144318064219 0.08667329674911145 0 -0.34763839367566191 0.079069075487607554 0 -0.35198293914272999 0.094145145766245733 0 -0.34456144318064219 0.08667329674911145 0 -0.35198293914272999 0.094145145766245733 0 -0.34431035454597703 0.093789606507308373 0 -0.34456144318064219 0.08667329674911145 0 -0.34763839367566191 0.079069075487607554 0 -0.34179116264722731 0.080399472229040897 0 -0.3782625711058698 0.101617738696854 0 -0.37470600383380392 0.082961959162170973 0 -0.36858415035949882 0.094491491786065696 0 -0.34763839367566191 0.079069075487607554 0 -0.36912013352382872 0.080861301107253064 0 -0.36858415035949882 0.094491491786065696 0 -0.36926886504626422 0.077079019973005369 0 -0.37079498002478778 0.078498176574577722 0 -0.36912013352382872 0.080861301107253064 0 -0.36926886504626422 0.077079019973005369 0 -0.36912013352382872 0.080861301107253064 0 -0.36912013352382872 0.080861301107253064 0 -0.37470600383380392 0.082961959162170973 0 -0.37079498002478778 0.078498176574577722 0 -0.36912013352382872 0.080861301107253064 0 -0.37470600383380392 0.082961959162170973 0 -0.36912013352382872 0.080861301107253064 0 -0.37470600383380392 0.082961959162170973 0 -0.36858415035949882 0.094491491786065696 0 -0.36912013352382872 0.080861301107253064 0 -0.36858415035949882 0.094491491786065696 0 -0.36858415035949882 0.094491491786065696 0 -0.36747352968705388 0.12273486311700831 0 -0.3782625711058698 0.101617738696854 0 -0.36858415035949882 0.094491491786065696 0 -0.36858415035949882 0.094491491786065696 0 -0.36006702585218792 0.10838608290929221 0 -0.35198293914272999 0.094145145766245733 0 -0.36858415035949882 0.094491491786065696 0 -0.36006702585218792 0.10838608290929221 0 -0.36747352968705388 0.12273486311700831 0 -0.3782625711058698 0.101617738696854 0 -0.36858415035949882 0.094491491786065696 0 -0.36747352968705388 0.12273486311700831 0 -0.36006702585218792 0.10838608290929221 0 -0.36747352968705388 0.12273486311700831 0 -0.35832203275528268 0.1183511860346923 0 -0.35528769071996391 0.12689780186549679 0 -0.36747352968705388 0.12273486311700831 0 -0.35832203275528268 0.1183511860346923 0 -0.35528769071996391 0.12689780186549679 0 -0.35832203275528268 0.1183511860346923 0 -0.35045988476192508 0.115385996246972 0 -0.36006702585218792 0.10838608290929221 0 -0.35832203275528268 0.1183511860346923 0 -0.35045988476192508 0.115385996246972 0 -0.35045988476192508 0.115385996246972 0 -0.34547580274860562 0.10394098399483009 0 -0.33570271963636877 0.11206429961599181 0 -0.35528769071996391 0.12689780186549679 0 -0.35045988476192508 0.115385996246972 0 -0.34115039425197219 0.12498493974687711 0 -0.36006702585218792 0.10838608290929221 0 -0.35198293914272999 0.094145145766245733 0 -0.34547580274860562 0.10394098399483009 0 -0.36006702585218792 0.10838608290929221 0 -0.35045988476192508 0.115385996246972 0 -0.34547580274860562 0.10394098399483009 0 -0.35198293914272999 0.094145145766245733 0 -0.34547580274860562 0.10394098399483009 0 -0.34431035454597703 0.093789606507308373 0 -0.34547580274860562 0.10394098399483009 0 -0.34431035454597703 0.093789606507308373 0 -0.335413749579693 0.097286071719103154 0 -0.34547580274860562 0.10394098399483009 0 -0.335413749579693 0.097286071719103154 0 -0.33570271963636877 0.11206429961599181 0 -0.335413749579693 0.097286071719103154 0 -0.33570271963636877 0.11206429961599181 0 -0.32444247844199348 0.1047035033472971 0 -0.35045988476192508 0.115385996246972 0 -0.34115039425197219 0.12498493974687711 0 -0.33570271963636877 0.11206429961599181 0 -0.32917568526667751 0.12578156900391591 0 -0.33570271963636877 0.11206429961599181 0 -0.32114709127587232 0.11611322513389059 0 -0.32917568526667751 0.12578156900391591 0 -0.34115039425197219 0.12498493974687711 0 -0.33570271963636877 0.11206429961599181 0 -0.31354631638020197 0.13395604467094269 0 -0.30549209578720232 0.10774456093924389 0 -0.32114709127587232 0.11611322513389059 0 -0.30549209578720232 0.10774456093924389 0 -0.32114709127587232 0.11611322513389059 0 -0.32444247844199348 0.1047035033472971 0 -0.33570271963636877 0.11206429961599181 0 -0.32114709127587232 0.11611322513389059 0 -0.32444247844199348 0.1047035033472971 0 -0.30549209578720232 0.10774456093924389 0 -0.32444247844199348 0.1047035033472971 0 -0.32445673593083119 0.090309359328255762 0 -0.30549209578720232 0.10774456093924389 0 -0.32445673593083119 0.090309359328255762 0 -0.31312795334666071 0.083579729522452809 0 -0.335413749579693 0.097286071719103154 0 -0.32444247844199348 0.1047035033472971 0 -0.32445673593083119 0.090309359328255762 0 -0.32445673593083119 0.090309359328255762 0 -0.3275606083710243 0.080211281293741998 0 -0.31312795334666071 0.083579729522452809 0 -0.3275606083710243 0.080211281293741998 0 -0.31312795334666071 0.083579729522452809 0 -0.31976082328641481 0.073112182403608325 0 -0.30931237829482389 0.073252958087475881 0 -0.31312795334666071 0.083579729522452809 0 -0.31976082328641481 0.073112182403608325 0 -0.30931237829482389 0.073252958087475881 0 -0.31697319293959142 0.061410437985649477 0 -0.31976082328641481 0.073112182403608325 0 -0.31697319293959142 0.061410437985649477 0 -0.31976082328641481 0.073112182403608325 0 -0.32886731949388731 0.069155273298144179 0 -0.31697319293959142 0.061410437985649477 0 -0.32808937753058609 0.059947696530402161 0 -0.32886731949388731 0.069155273298144179 0 -0.3275606083710243 0.080211281293741998 0 -0.31976082328641481 0.073112182403608325 0 -0.32886731949388731 0.069155273298144179 0 -0.32886731949388731 0.069155273298144179 0 -0.33770721458858299 0.069047958238937293 0 -0.336378655355973 0.076693290193422539 0 -0.3275606083710243 0.080211281293741998 0 -0.32886731949388731 0.069155273298144179 0 -0.336378655355973 0.076693290193422539 0 -0.33440717105718593 0.063083878638897639 0 -0.32886731949388731 0.069155273298144179 0 -0.33770721458858299 0.069047958238937293 0 -0.32808937753058609 0.059947696530402161 0 -0.33440717105718593 0.063083878638897639 0 -0.32886731949388731 0.069155273298144179 0 -0.3407399656121517 0.06083029771636933 0 -0.33440717105718593 0.063083878638897639 0 -0.33770721458858299 0.069047958238937293 0 -0.3407399656121517 0.06083029771636933 0 -0.3447014191436914 0.063951910484466787 0 -0.33770721458858299 0.069047958238937293 0 -0.34551673285671652 0.071984855543133663 0 -0.3447014191436914 0.063951910484466787 0 -0.33770721458858299 0.069047958238937293 0 -0.34408269824063842 0.074738747125954852 0 -0.33770721458858299 0.069047958238937293 0 -0.336378655355973 0.076693290193422539 0 -0.34408269824063842 0.074738747125954852 0 -0.34551673285671652 0.071984855543133663 0 -0.33770721458858299 0.069047958238937293 0 -0.34551673285671652 0.071984855543133663 0 -0.33770721458858299 0.069047958238937293 0 -0.34408269824063842 0.074738747125954852 0 -0.336378655355973 0.076693290193422539 0 -0.34179116264722731 0.080399472229040897 0 -0.336378655355973 0.076693290193422539 0 -0.34179116264722731 0.080399472229040897 0 -0.33708436589161489 0.085963183755354639 0 -0.34456144318064219 0.08667329674911145 0 -0.34179116264722731 0.080399472229040897 0 -0.33708436589161489 0.085963183755354639 0 -0.34456144318064219 0.08667329674911145 0 -0.34431035454597703 0.093789606507308373 0 -0.33708436589161489 0.085963183755354639 0 -0.34431035454597703 0.093789606507308373 0 -0.335413749579693 0.097286071719103154 0 -0.33708436589161489 0.085963183755354639 0 -0.335413749579693 0.097286071719103154 0 -0.32445673593083119 0.090309359328255762 0 -0.33708436589161489 0.085963183755354639 0 -0.32445673593083119 0.090309359328255762 0 -0.3275606083710243 0.080211281293741998 0 -0.33708436589161489 0.085963183755354639 0 -0.3275606083710243 0.080211281293741998 0 -0.336378655355973 0.076693290193422539 0 -0.33708436589161489 0.085963183755354639 0 -0.38891458820749281 0.47713565504117422 0 -0.42172655890518862 0.5 0 -0.3640375775585698 0.5 0 -0.38891458820749281 0.47713565504117422 0 -0.37103467036260362 0.45695891695805302 0 -0.36943712044780219 0.47475959506207249 0 -0.39694697642853649 0.45370639251272787 0 -0.37103467036260362 0.45695891695805302 0 -0.38891458820749281 0.47713565504117422 0 -0.39694697642853649 0.45370639251272787 0 -0.37103467036260362 0.45695891695805302 0 -0.38249991962136642 0.44345487931465249 0 -0.39694697642853649 0.45370639251272787 0 -0.37103467036260362 0.45695891695805302 0 -0.38249991962136642 0.44345487931465249 0 -0.39694697642853649 0.45370639251272787 0 -0.40464661760035381 0.43350824459614162 0 -0.38891458820749281 0.47713565504117422 0 -0.39694697642853649 0.45370639251272787 0 -0.41631826774707797 0.4711213942969617 0 -0.39694697642853649 0.45370639251272787 0 -0.42285928249446952 0.45045386806740279 0 -0.41631826774707797 0.4711213942969617 0 -0.42285928249446952 0.45045386806740279 0 -0.42501824733507809 0.43459816807542118 0 -0.40464661760035381 0.43350824459614162 0 -0.39694697642853649 0.45370639251272787 0 -0.42285928249446952 0.45045386806740279 0 -0.39694697642853649 0.45370639251272787 0 -0.42285928249446952 0.45045386806740279 0 -0.40464661760035381 0.43350824459614162 0 -0.42285928249446952 0.45045386806740279 0 -0.43521244088076849 0.46107148678855758 0 -0.44877158856040261 0.44720134362207808 0 -0.42285928249446952 0.45045386806740279 0 -0.44877158856040261 0.44720134362207808 0 -0.42285928249446952 0.45045386806740279 0 -0.43592409671607729 0.44045812782560079 0 -0.44877158856040261 0.44720134362207808 0 -0.42285928249446952 0.45045386806740279 0 -0.43592409671607729 0.44045812782560079 0 -0.42501824733507809 0.43459816807542118 0 -0.42285928249446952 0.45045386806740279 0 -0.43521244088076849 0.46107148678855758 0 -0.41631826774707797 0.4711213942969617 0 -0.41631826774707797 0.4711213942969617 0 -0.42172655890518862 0.5 0 -0.43935827984199688 0.47473889959161758 0 -0.43521244088076849 0.46107148678855758 0 -0.41631826774707797 0.4711213942969617 0 -0.43935827984199688 0.47473889959161758 0 -0.38891458820749281 0.47713565504117422 0 -0.41631826774707797 0.4711213942969617 0 -0.42172655890518862 0.5 0 -0.42172655890518862 0.5 0 -0.43935827984199688 0.47473889959161758 0 -0.47784082473980471 0.47626967285504462 0 -0.42172655890518862 0.5 0 -0.5 0.5 0 -0.47784082473980471 0.47626967285504462 0 -0.43935827984199688 0.47473889959161758 0 -0.47784082473980471 0.47626967285504462 0 -0.4487547857598953 0.46184192836472759 0 -0.5 0.5 0 -0.47784082473980471 0.47626967285504462 0 -0.49999999999999589 0.44077113011354369 0 -0.47784082473980471 0.47626967285504462 0 -0.47438579428019922 0.44398623686781052 0 -0.4627013265822788 0.4545376326069438 0 -0.47784082473980471 0.47626967285504462 0 -0.49999999999999589 0.44077113011354369 0 -0.47438579428019922 0.44398623686781052 0 -0.49999999999999589 0.44077113011354369 0 -0.47438579428019922 0.44398623686781052 0 -0.48180565015534738 0.42787197640755792 0 -0.49999999999999589 0.44077113011354369 0 -0.47438579428019922 0.44398623686781052 0 -0.47438579428019922 0.44398623686781052 0 -0.4627013265822788 0.4545376326069438 0 -0.44877158856040261 0.44720134362207808 0 -0.47438579428019922 0.44398623686781052 0 -0.44877158856040261 0.44720134362207808 0 -0.47438579428019922 0.44398623686781052 0 -0.44877158856040261 0.44720134362207808 0 -0.46289485375526918 0.43579199928955081 0 -0.44877158856040261 0.44720134362207808 0 -0.44878504691792248 0.43547483269414872 0 -0.46289485375526918 0.43579199928955081 0 -0.47784082473980471 0.47626967285504462 0 -0.4627013265822788 0.4545376326069438 0 -0.4487547857598953 0.46184192836472759 0 -0.4627013265822788 0.4545376326069438 0 -0.4487547857598953 0.46184192836472759 0 -0.44877158856040261 0.44720134362207808 0 -0.4487547857598953 0.46184192836472759 0 -0.44877158856040261 0.44720134362207808 0 -0.43521244088076849 0.46107148678855758 0 -0.4487547857598953 0.46184192836472759 0 -0.44877158856040261 0.44720134362207808 0 -0.43521244088076849 0.46107148678855758 0 -0.43935827984199688 0.47473889959161758 0 -0.4487547857598953 0.46184192836472759 0 -0.44877158856040261 0.44720134362207808 0 -0.44508566455651338 0.43839632914573512 0 -0.44878504691792248 0.43547483269414872 0 -0.44877158856040261 0.44720134362207808 0 -0.44878504691792248 0.43547483269414872 0 -0.43592409671607729 0.44045812782560079 0 -0.44877158856040261 0.44720134362207808 0 -0.44508566455651338 0.43839632914573512 0 -0.44531233658805403 0.42513554986162888 0 -0.44878504691792248 0.43547483269414872 0 -0.44880957839306629 0.41410011360809668 0 -0.44878504691792248 0.43547483269414872 0 -0.44880957839306629 0.41410011360809668 0 -0.43788570063392329 0.43164093021736671 0 -0.44531233658805403 0.42513554986162888 0 -0.44878504691792248 0.43547483269414872 0 -0.43592409671607729 0.44045812782560079 0 -0.44508566455651338 0.43839632914573512 0 -0.43788570063392329 0.43164093021736671 0 -0.44508566455651338 0.43839632914573512 0 -0.43788570063392329 0.43164093021736671 0 -0.44878504691792248 0.43547483269414872 0 -0.44508566455651338 0.43839632914573512 0 -0.44878504691792248 0.43547483269414872 0 -0.44531233658805403 0.42513554986162888 0 -0.44880957839306629 0.41410011360809668 0 -0.42391867717568832 0.41711337076656618 0 -0.44880957839306629 0.41410011360809668 0 -0.46585669794528167 0.42199291516666237 0 -0.4641229039382897 0.40091036417177778 0 -0.44878504691792248 0.43547483269414872 0 -0.46585669794528167 0.42199291516666237 0 -0.44878504691792248 0.43547483269414872 0 -0.44880957839306629 0.41410011360809668 0 -0.46585669794528167 0.42199291516666237 0 -0.44878504691792248 0.43547483269414872 0 -0.46585669794528167 0.42199291516666237 0 -0.46289485375526918 0.43579199928955081 0 -0.47438579428019922 0.44398623686781052 0 -0.46289485375526918 0.43579199928955081 0 -0.48180565015534738 0.42787197640755792 0 -0.46585669794528167 0.42199291516666237 0 -0.46289485375526918 0.43579199928955081 0 -0.48180565015534738 0.42787197640755792 0 -0.46585669794528167 0.42199291516666237 0 -0.48292834897264081 0.4085109976391762 0 -0.4641229039382897 0.40091036417177778 0 -0.46585669794528167 0.42199291516666237 0 -0.48292834897264081 0.4085109976391762 0 -0.46585669794528167 0.42199291516666237 0 -0.48180565015534738 0.42787197640755792 0 -0.48292834897264081 0.4085109976391762 0 -0.48292834897264081 0.4085109976391762 0 -0.5 0.41790010511261683 0 -0.5 0.39502908011169002 0 -0.48180565015534738 0.42787197640755792 0 -0.48292834897264081 0.4085109976391762 0 -0.5 0.41790010511261683 0 -0.49999999999999589 0.44077113011354369 0 -0.48180565015534738 0.42787197640755792 0 -0.5 0.41790010511261683 0 -0.48850556386005051 0.3766603246979251 0 -0.5 0.39502908011169002 0 -0.47832653283541199 0.38608194873200979 0 -0.48850556386005051 0.3766603246979251 0 -0.5 0.39502908011169002 0 -0.5 0.36887446842263683 0 -0.48292834897264081 0.4085109976391762 0 -0.5 0.39502908011169002 0 -0.47832653283541199 0.38608194873200979 0 -0.48292834897264081 0.4085109976391762 0 -0.5 0.39502908011169002 0 -0.48292834897264081 0.4085109976391762 0 -0.47832653283541199 0.38608194873200979 0 -0.4641229039382897 0.40091036417177778 0 -0.48850556386005051 0.3766603246979251 0 -0.47832653283541199 0.38608194873200979 0 -0.48259334700195489 0.36409898273387958 0 -0.47832653283541199 0.38608194873200979 0 -0.46059005399087027 0.38292215568240928 0 -0.4641229039382897 0.40091036417177778 0 -0.47832653283541199 0.38608194873200979 0 -0.46059005399087027 0.38292215568240928 0 -0.46572599417265398 0.36772482908493609 0 -0.44880957839306629 0.41410011360809668 0 -0.4641229039382897 0.40091036417177778 0 -0.44883410986820999 0.3927253945220448 0 -0.46059005399087027 0.38292215568240928 0 -0.4641229039382897 0.40091036417177778 0 -0.44883410986820999 0.3927253945220448 0 -0.44880957839306629 0.41410011360809668 0 -0.44883410986820999 0.3927253945220448 0 -0.43699833754743561 0.40294499431243458 0 -0.44880957839306629 0.41410011360809668 0 -0.44883410986820999 0.3927253945220448 0 -0.44883410986820999 0.3927253945220448 0 -0.43978391516082421 0.3912231797547942 0 -0.43699833754743561 0.40294499431243458 0 -0.44883410986820999 0.3927253945220448 0 -0.43978391516082421 0.3912231797547942 0 -0.44802713623065987 0.37645115623263098 0 -0.44883410986820999 0.3927253945220448 0 -0.44885864134335329 0.37135067543599282 0 -0.44883410986820999 0.3927253945220448 0 -0.44802713623065987 0.37645115623263098 0 -0.44885864134335329 0.37135067543599282 0 -0.43978391516082421 0.3912231797547942 0 -0.44802713623065987 0.37645115623263098 0 -0.42527607699699133 0.39277117395206662 0 -0.46059005399087027 0.38292215568240928 0 -0.44883410986820999 0.3927253945220448 0 -0.44885864134335329 0.37135067543599282 0 -0.44802713623065987 0.37645115623263098 0 -0.4250431626101242 0.37647010748543319 0 -0.42527607699699133 0.39277117395206662 0 -0.44802713623065987 0.37645115623263098 0 -0.42527607699699133 0.39277117395206662 0 -0.4250431626101242 0.37647010748543319 0 -0.4134887672477453 0.38574914578498593 0 -0.40122768387689522 0.38158953953487368 0 -0.4250431626101242 0.37647010748543319 0 -0.40122768387689522 0.38158953953487368 0 -0.4250431626101242 0.37647010748543319 0 -0.4134887672477453 0.38574914578498593 0 -0.42527607699699133 0.39277117395206662 0 -0.4250431626101242 0.37647010748543319 0 -0.40122768387689522 0.38158953953487368 0 -0.40086489287733429 0.37467411733839928 0 -0.4134887672477453 0.38574914578498593 0 -0.40798835104355652 0.39359067917546098 0 -0.40557429982823212 0.38794008425198068 0 -0.4134887672477453 0.38574914578498593 0 -0.40122768387689522 0.38158953953487368 0 -0.40557429982823212 0.38794008425198068 0 -0.40798835104355652 0.39359067917546098 0 -0.42527607699699133 0.39277117395206662 0 -0.40252501776332311 0.40909119167150271 0 -0.42527607699699133 0.39277117395206662 0 -0.40252501776332311 0.40909119167150271 0 -0.4134887672477453 0.38574914578498593 0 -0.40798835104355652 0.39359067917546098 0 -0.42527607699699133 0.39277117395206662 0 -0.42527607699699133 0.39277117395206662 0 -0.43699833754743561 0.40294499431243458 0 -0.42391867717568832 0.41711337076656618 0 -0.43978391516082421 0.3912231797547942 0 -0.42527607699699133 0.39277117395206662 0 -0.43699833754743561 0.40294499431243458 0 -0.44880957839306629 0.41410011360809668 0 -0.43699833754743561 0.40294499431243458 0 -0.42391867717568832 0.41711337076656618 0 -0.44531233658805403 0.42513554986162888 0 -0.42391867717568832 0.41711337076656618 0 -0.43788570063392329 0.43164093021736671 0 -0.44531233658805403 0.42513554986162888 0 -0.42391867717568832 0.41711337076656618 0 -0.43788570063392329 0.43164093021736671 0 -0.42391867717568832 0.41711337076656618 0 -0.42501824733507809 0.43459816807542118 0 -0.43592409671607729 0.44045812782560079 0 -0.43788570063392329 0.43164093021736671 0 -0.42501824733507809 0.43459816807542118 0 -0.42391867717568832 0.41711337076656618 0 -0.42501824733507809 0.43459816807542118 0 -0.40464661760035381 0.43350824459614162 0 -0.42527607699699133 0.39277117395206662 0 -0.42391867717568832 0.41711337076656618 0 -0.40252501776332311 0.40909119167150271 0 -0.42391867717568832 0.41711337076656618 0 -0.40252501776332311 0.40909119167150271 0 -0.40464661760035381 0.43350824459614162 0 -0.42391867717568832 0.41711337076656618 0 -0.40252501776332311 0.40909119167150271 0 -0.40252501776332311 0.40909119167150271 0 -0.37875820238401509 0.42613984176471847 0 -0.40252501776332311 0.40909119167150271 0 -0.40464661760035381 0.43350824459614162 0 -0.37875820238401509 0.42613984176471847 0 -0.38249991962136642 0.44345487931465249 0 -0.40464661760035381 0.43350824459614162 0 -0.37875820238401509 0.42613984176471847 0 -0.40252501776332311 0.40909119167150271 0 -0.37875820238401509 0.42613984176471847 0 -0.37769092578324193 0.39977892163450779 0 -0.37769092578324193 0.39977892163450779 0 -0.38963770449155072 0.39285491215608792 0 -0.37686086334024771 0.38257038446795849 0 -0.40252501776332311 0.40909119167150271 0 -0.37769092578324193 0.39977892163450779 0 -0.38963770449155072 0.39285491215608792 0 -0.40252501776332311 0.40909119167150271 0 -0.37769092578324193 0.39977892163450779 0 -0.37686086334024771 0.38257038446795849 0 -0.39363670834615189 0.38450398520198442 0 -0.40086489287733429 0.37467411733839928 0 -0.38963770449155072 0.39285491215608792 0 -0.37686086334024771 0.38257038446795849 0 -0.39363670834615189 0.38450398520198442 0 -0.37686086334024771 0.38257038446795849 0 -0.40086489287733429 0.37467411733839928 0 -0.37686086334024771 0.38257038446795849 0 -0.40086489287733429 0.37467411733839928 0 -0.39033592763893787 0.37070590072739279 0 -0.39363670834615189 0.38450398520198442 0 -0.40122768387689522 0.38158953953487368 0 -0.39959239714473138 0.39083097251260251 0 -0.38963770449155072 0.39285491215608792 0 -0.39363670834615189 0.38450398520198442 0 -0.39959239714473138 0.39083097251260251 0 -0.39363670834615189 0.38450398520198442 0 -0.40122768387689522 0.38158953953487368 0 -0.40086489287733429 0.37467411733839928 0 -0.40122768387689522 0.38158953953487368 0 -0.40557429982823212 0.38794008425198068 0 -0.39959239714473138 0.39083097251260251 0 -0.40798835104355652 0.39359067917546098 0 -0.40557429982823212 0.38794008425198068 0 -0.39959239714473138 0.39083097251260251 0 -0.40252501776332311 0.40909119167150271 0 -0.38963770449155072 0.39285491215608792 0 -0.39959239714473138 0.39083097251260251 0 -0.40798835104355652 0.39359067917546098 0 -0.40252501776332311 0.40909119167150271 0 -0.39959239714473138 0.39083097251260251 0 -0.3926828114571661 0.35541775914535301 0 -0.40105078960399698 0.34662517948293931 0 -0.40586906590548888 0.3393029225754271 0 -0.3926828114571661 0.35541775914535301 0 -0.39400561065841477 0.34382680172727831 0 -0.40586906590548888 0.3393029225754271 0 -0.3926828114571661 0.35541775914535301 0 -0.40586906590548888 0.3393029225754271 0 -0.3926828114571661 0.35541775914535301 0 -0.39969836615416421 0.35756427730283669 0 -0.39341808057325789 0.36431669671432632 0 -0.3926828114571661 0.35541775914535301 0 -0.40105078960399698 0.34662517948293931 0 -0.39969836615416421 0.35756427730283669 0 -0.3926828114571661 0.35541775914535301 0 -0.39400561065841477 0.34382680172727831 0 -0.38539473684528258 0.34837828204789067 0 -0.40105078960399698 0.34662517948293931 0 -0.40525205349158999 0.35429039595711992 0 -0.40888688292129022 0.34941903462410451 0 -0.40105078960399698 0.34662517948293931 0 -0.4080564418273247 0.34368885170405422 0 -0.40888688292129022 0.34941903462410451 0 -0.40105078960399698 0.34662517948293931 0 -0.40525205349158999 0.35429039595711992 0 -0.39969836615416421 0.35756427730283669 0 -0.40525205349158999 0.35429039595711992 0 -0.39969836615416421 0.35756427730283669 0 -0.40553625032349627 0.36037170931698131 0 -0.40553625032349627 0.36037170931698131 0 -0.40544017780568847 0.3661562974108753 0 -0.40025021147547779 0.36436392320030081 0 -0.40544017780568847 0.3661562974108753 0 -0.40025021147547779 0.36436392320030081 0 -0.397742957241214 0.36844985128713797 0 -0.39969836615416421 0.35756427730283669 0 -0.40553625032349627 0.36037170931698131 0 -0.40025021147547779 0.36436392320030081 0 -0.40544017780568847 0.3661562974108753 0 -0.40086489287733429 0.37467411733839928 0 -0.397742957241214 0.36844985128713797 0 -0.40086489287733429 0.37467411733839928 0 -0.397742957241214 0.36844985128713797 0 -0.39033592763893787 0.37070590072739279 0 -0.397742957241214 0.36844985128713797 0 -0.39341808057325789 0.36431669671432632 0 -0.39033592763893787 0.37070590072739279 0 -0.39969836615416421 0.35756427730283669 0 -0.40025021147547779 0.36436392320030081 0 -0.39341808057325789 0.36431669671432632 0 -0.40025021147547779 0.36436392320030081 0 -0.397742957241214 0.36844985128713797 0 -0.39341808057325789 0.36431669671432632 0 -0.3926828114571661 0.35541775914535301 0 -0.39341808057325789 0.36431669671432632 0 -0.37949655700884349 0.37153259571527891 0 -0.37949655700884349 0.37153259571527891 0 -0.37823932191431281 0.35548757599615399 0 -0.37024808467873749 0.36543132639488701 0 -0.3926828114571661 0.35541775914535301 0 -0.37949655700884349 0.37153259571527891 0 -0.37823932191431281 0.35548757599615399 0 -0.3926828114571661 0.35541775914535301 0 -0.37949655700884349 0.37153259571527891 0 -0.39341808057325789 0.36431669671432632 0 -0.39033592763893787 0.37070590072739279 0 -0.37949655700884349 0.37153259571527891 0 -0.37686086334024771 0.38257038446795849 0 -0.39033592763893787 0.37070590072739279 0 -0.37949655700884349 0.37153259571527891 0 -0.37823932191431281 0.35548757599615399 0 -0.38539473684528258 0.34837828204789067 0 -0.3787015959315434 0.33902802614693439 0 -0.3926828114571661 0.35541775914535301 0 -0.37823932191431281 0.35548757599615399 0 -0.38539473684528258 0.34837828204789067 0 -0.3787015959315434 0.33902802614693439 0 -0.37816355277066899 0.32985684687273281 0 -0.39158393304450312 0.32769252248945308 0 -0.39400561065841477 0.34382680172727831 0 -0.38539473684528258 0.34837828204789067 0 -0.3787015959315434 0.33902802614693439 0 -0.39158393304450312 0.32769252248945308 0 -0.37442838800096029 0.32044424157556423 0 -0.37816355277066899 0.32985684687273281 0 -0.39158393304450312 0.32769252248945308 0 -0.37442838800096029 0.32044424157556423 0 -0.38613629988198012 0.31665983269396758 0 -0.39158393304450312 0.32769252248945308 0 -0.37442838800096029 0.32044424157556423 0 -0.38613629988198012 0.31665983269396758 0 -0.37442838800096029 0.32044424157556423 0 -0.37415321332832258 0.31386652142517069 0 -0.39158393304450312 0.32769252248945308 0 -0.4039094095666334 0.320812311378052 0 -0.40925887999808552 0.33516025262174892 0 -0.38613629988198012 0.31665983269396758 0 -0.39830358576524327 0.31266849694114901 0 -0.39158393304450312 0.32769252248945308 0 -0.39830358576524327 0.31266849694114901 0 -0.39158393304450312 0.32769252248945308 0 -0.4039094095666334 0.320812311378052 0 -0.39830358576524327 0.31266849694114901 0 -0.4039094095666334 0.320812311378052 0 -0.40826549608127172 0.31275764886218971 0 -0.3787015959315434 0.33902802614693439 0 -0.40777024278950652 0.33697950655941222 0 -0.39158393304450312 0.32769252248945308 0 -0.40925887999808552 0.33516025262174892 0 -0.39158393304450312 0.32769252248945308 0 -0.40777024278950652 0.33697950655941222 0 -0.40925887999808552 0.33516025262174892 0 -0.3787015959315434 0.33902802614693439 0 -0.39158393304450312 0.32769252248945308 0 -0.40777024278950652 0.33697950655941222 0 -0.39400561065841477 0.34382680172727831 0 -0.3787015959315434 0.33902802614693439 0 -0.40777024278950652 0.33697950655941222 0 -0.39400561065841477 0.34382680172727831 0 -0.40586906590548888 0.3393029225754271 0 -0.40777024278950652 0.33697950655941222 0 -0.40105078960399698 0.34662517948293931 0 -0.40586906590548888 0.3393029225754271 0 -0.40105078960399698 0.34662517948293931 0 -0.40586906590548888 0.3393029225754271 0 -0.4080564418273247 0.34368885170405422 0 -0.4080564418273247 0.34368885170405422 0 -0.41125860555200922 0.34134685969384471 0 -0.40895905381070002 0.33957121871677393 0 -0.40586906590548888 0.3393029225754271 0 -0.4080564418273247 0.34368885170405422 0 -0.40895905381070002 0.33957121871677393 0 -0.4080564418273247 0.34368885170405422 0 -0.41125860555200922 0.34134685969384471 0 -0.41366919887348358 0.34576378073699821 0 -0.41125860555200922 0.34134685969384471 0 -0.41273643032526569 0.33662953043248711 0 -0.41433336845197538 0.3415594658204692 0 -0.41125860555200922 0.34134685969384471 0 -0.41433336845197538 0.3415594658204692 0 -0.41366919887348358 0.34576378073699821 0 -0.41125860555200922 0.34134685969384471 0 -0.41273643032526569 0.33662953043248711 0 -0.40895905381070002 0.33957121871677393 0 -0.41273643032526569 0.33662953043248711 0 -0.40777024278950652 0.33697950655941222 0 -0.41273643032526569 0.33662953043248711 0 -0.40895905381070002 0.33957121871677393 0 -0.40777024278950652 0.33697950655941222 0 -0.41273643032526569 0.33662953043248711 0 -0.40777024278950652 0.33697950655941222 0 -0.40925887999808552 0.33516025262174892 0 -0.40777024278950652 0.33697950655941222 0 -0.40925887999808552 0.33516025262174892 0 -0.40586906590548888 0.3393029225754271 0 -0.40895905381070002 0.33957121871677393 0 -0.40777024278950652 0.33697950655941222 0 -0.40586906590548888 0.3393029225754271 0 -0.40777024278950652 0.33697950655941222 0 -0.41273643032526569 0.33662953043248711 0 -0.40925887999808552 0.33516025262174892 0 -0.40925887999808552 0.33516025262174892 0 -0.42024067891477529 0.32173946694831868 0 -0.40925887999808552 0.33516025262174892 0 -0.42071708592719742 0.33131558094746122 0 -0.42024067891477529 0.32173946694831868 0 -0.41273643032526569 0.33662953043248711 0 -0.40925887999808552 0.33516025262174892 0 -0.42071708592719742 0.33131558094746122 0 -0.41273643032526569 0.33662953043248711 0 -0.4199209072431685 0.34318781838679219 0 -0.41433336845197538 0.3415594658204692 0 -0.4199209072431685 0.34318781838679219 0 -0.41433336845197538 0.3415594658204692 0 -0.41366919887348358 0.34576378073699821 0 -0.40925887999808552 0.33516025262174892 0 -0.41892768793075841 0.31754462100172592 0 -0.42141481873501418 0.31567829233095179 0 -0.40925887999808552 0.33516025262174892 0 -0.411263050936583 0.31954773430139438 0 -0.41892768793075841 0.31754462100172592 0 -0.40925887999808552 0.33516025262174892 0 -0.42141481873501418 0.31567829233095179 0 -0.40925887999808552 0.33516025262174892 0 -0.42024067891477529 0.32173946694831868 0 -0.42141481873501418 0.31567829233095179 0 -0.411263050936583 0.31954773430139438 0 -0.40826549608127172 0.31275764886218971 0 -0.41647318301620623 0.31168328686166002 0 -0.4039094095666334 0.320812311378052 0 -0.411263050936583 0.31954773430139438 0 -0.40826549608127172 0.31275764886218971 0 -0.4039094095666334 0.320812311378052 0 -0.40925887999808552 0.33516025262174892 0 -0.411263050936583 0.31954773430139438 0 -0.411263050936583 0.31954773430139438 0 -0.41892768793075841 0.31754462100172592 0 -0.41647318301620623 0.31168328686166002 0 -0.41892768793075841 0.31754462100172592 0 -0.42141481873501418 0.31567829233095179 0 -0.41892768793075841 0.31754462100172592 0 -0.42141481873501418 0.31567829233095179 0 -0.41647318301620623 0.31168328686166002 0 -0.42024067891477529 0.32173946694831868 0 -0.43790895006943947 0.32081412042189511 0 -0.43122247783146522 0.30831868127488848 0 -0.42024067891477529 0.32173946694831868 0 -0.42938605365092247 0.3272194948190838 0 -0.43790895006943947 0.32081412042189511 0 -0.42024067891477529 0.32173946694831868 0 -0.42141481873501418 0.31567829233095179 0 -0.43122247783146522 0.30831868127488848 0 -0.42024067891477529 0.32173946694831868 0 -0.43122247783146522 0.30831868127488848 0 -0.42071708592719742 0.33131558094746122 0 -0.42024067891477529 0.32173946694831868 0 -0.42938605365092247 0.3272194948190838 0 -0.42938605365092247 0.3272194948190838 0 -0.43674098495811231 0.33493788649063261 0 -0.43790895006943947 0.32081412042189511 0 -0.43790895006943947 0.32081412042189511 0 -0.4401847358662575 0.3127477530096977 0 -0.43122247783146522 0.30831868127488848 0 -0.41273643032526569 0.33662953043248711 0 -0.43674098495811231 0.33493788649063261 0 -0.42071708592719742 0.33131558094746122 0 -0.42938605365092247 0.3272194948190838 0 -0.43674098495811231 0.33493788649063261 0 -0.41273643032526569 0.33662953043248711 0 -0.4199209072431685 0.34318781838679219 0 -0.43385085243219867 0.34555045147446217 0 -0.41273643032526569 0.33662953043248711 0 -0.42071708592719742 0.33131558094746122 0 -0.43674098495811231 0.33493788649063261 0 -0.41273643032526569 0.33662953043248711 0 -0.43385085243219867 0.34555045147446217 0 -0.41273643032526569 0.33662953043248711 0 -0.43674098495811231 0.33493788649063261 0 -0.43385085243219867 0.34555045147446217 0 -0.43385085243219867 0.34555045147446217 0 -0.4302486007270056 0.35272204188882378 0 -0.42573384958437638 0.34916959158482058 0 -0.43385085243219867 0.34555045147446217 0 -0.43539550265875948 0.35741731211322858 0 -0.44110397924445488 0.35756373905142852 0 -0.43539550265875948 0.35741731211322858 0 -0.4302486007270056 0.35272204188882378 0 -0.42757171946388478 0.35850981688022993 0 -0.43385085243219867 0.34555045147446217 0 -0.43539550265875948 0.35741731211322858 0 -0.4302486007270056 0.35272204188882378 0 -0.4302486007270056 0.35272204188882378 0 -0.42480748600639012 0.35482075793933809 0 -0.42573384958437638 0.34916959158482058 0 -0.4302486007270056 0.35272204188882378 0 -0.42757171946388478 0.35850981688022993 0 -0.42480748600639012 0.35482075793933809 0 -0.42757171946388478 0.35850981688022993 0 -0.42480748600639012 0.35482075793933809 0 -0.42195212413097077 0.36043988011418487 0 -0.4199209072431685 0.34318781838679219 0 -0.43385085243219867 0.34555045147446217 0 -0.42573384958437638 0.34916959158482058 0 -0.42480748600639012 0.35482075793933809 0 -0.42573384958437638 0.34916959158482058 0 -0.41984140151311927 0.3495668882346864 0 -0.4199209072431685 0.34318781838679219 0 -0.42573384958437638 0.34916959158482058 0 -0.41984140151311927 0.3495668882346864 0 -0.4199209072431685 0.34318781838679219 0 -0.41984140151311927 0.3495668882346864 0 -0.41366919887348358 0.34576378073699821 0 -0.41984140151311927 0.3495668882346864 0 -0.41366919887348358 0.34576378073699821 0 -0.41404230344944593 0.35073751764187411 0 -0.42480748600639012 0.35482075793933809 0 -0.41984140151311927 0.3495668882346864 0 -0.41755863725870102 0.35684421707679032 0 -0.42480748600639012 0.35482075793933809 0 -0.41755863725870102 0.35684421707679032 0 -0.42195212413097077 0.36043988011418487 0 -0.41984140151311927 0.3495668882346864 0 -0.41755863725870102 0.35684421707679032 0 -0.41404230344944593 0.35073751764187411 0 -0.41755863725870102 0.35684421707679032 0 -0.41125051028190041 0.35540848222164118 0 -0.41404230344944593 0.35073751764187411 0 -0.41125051028190041 0.35540848222164118 0 -0.40888688292129022 0.34941903462410451 0 -0.41404230344944593 0.35073751764187411 0 -0.41755863725870102 0.35684421707679032 0 -0.41125051028190041 0.35540848222164118 0 -0.41142088061722581 0.36176204086772412 0 -0.40553625032349627 0.36037170931698131 0 -0.41125051028190041 0.35540848222164118 0 -0.41142088061722581 0.36176204086772412 0 -0.40525205349158999 0.35429039595711992 0 -0.40553625032349627 0.36037170931698131 0 -0.41125051028190041 0.35540848222164118 0 -0.40525205349158999 0.35429039595711992 0 -0.41125051028190041 0.35540848222164118 0 -0.40888688292129022 0.34941903462410451 0 -0.4080564418273247 0.34368885170405422 0 -0.40888688292129022 0.34941903462410451 0 -0.41366919887348358 0.34576378073699821 0 -0.40888688292129022 0.34941903462410451 0 -0.41366919887348358 0.34576378073699821 0 -0.41404230344944593 0.35073751764187411 0 -0.4250431626101242 0.37647010748543319 0 -0.40086489287733429 0.37467411733839928 0 -0.42486892241442098 0.36677785020884007 0 -0.40086489287733429 0.37467411733839928 0 -0.42486892241442098 0.36677785020884007 0 -0.40086489287733429 0.37467411733839928 0 -0.41378193274770297 0.36450427419225789 0 -0.42486892241442098 0.36677785020884007 0 -0.40544017780568847 0.3661562974108753 0 -0.40086489287733429 0.37467411733839928 0 -0.41378193274770297 0.36450427419225789 0 -0.40544017780568847 0.3661562974108753 0 -0.41142088061722581 0.36176204086772412 0 -0.41378193274770297 0.36450427419225789 0 -0.40553625032349627 0.36037170931698131 0 -0.40544017780568847 0.3661562974108753 0 -0.41142088061722581 0.36176204086772412 0 -0.41755863725870102 0.35684421707679032 0 -0.41378193274770297 0.36450427419225789 0 -0.42195212413097077 0.36043988011418487 0 -0.41378193274770297 0.36450427419225789 0 -0.42486892241442098 0.36677785020884007 0 -0.42195212413097077 0.36043988011418487 0 -0.41755863725870102 0.35684421707679032 0 -0.41142088061722581 0.36176204086772412 0 -0.41378193274770297 0.36450427419225789 0 -0.4250431626101242 0.37647010748543319 0 -0.44885864134335329 0.37135067543599282 0 -0.4250431626101242 0.37647010748543319 0 -0.42486892241442098 0.36677785020884007 0 -0.44885864134335329 0.37135067543599282 0 -0.42486892241442098 0.36677785020884007 0 -0.448872951951507 0.35888158307927881 0 -0.43539550265875948 0.35741731211322858 0 -0.42486892241442098 0.36677785020884007 0 -0.44110397924445488 0.35756373905142852 0 -0.43539550265875948 0.35741731211322858 0 -0.42757171946388478 0.35850981688022993 0 -0.42486892241442098 0.36677785020884007 0 -0.42757171946388478 0.35850981688022993 0 -0.42486892241442098 0.36677785020884007 0 -0.42195212413097077 0.36043988011418487 0 -0.42486892241442098 0.36677785020884007 0 -0.44885864134335329 0.37135067543599282 0 -0.448872951951507 0.35888158307927881 0 -0.44802713623065987 0.37645115623263098 0 -0.4250431626101242 0.37647010748543319 0 -0.44885864134335329 0.37135067543599282 0 -0.42486892241442098 0.36677785020884007 0 -0.44110397924445488 0.35756373905142852 0 -0.448872951951507 0.35888158307927881 0 -0.44885864134335329 0.37135067543599282 0 -0.448872951951507 0.35888158307927881 0 -0.44885864134335329 0.37135067543599282 0 -0.448872951951507 0.35888158307927881 0 -0.45634368000688869 0.36512471152292858 0 -0.43385085243219867 0.34555045147446217 0 -0.45496527453913199 0.35447137251643651 0 -0.44889299330712729 0.34242966823447613 0 -0.43385085243219867 0.34555045147446217 0 -0.45496527453913199 0.35447137251643651 0 -0.43385085243219867 0.34555045147446217 0 -0.44887533288597797 0.35680703170406669 0 -0.45496527453913199 0.35447137251643651 0 -0.43385085243219867 0.34555045147446217 0 -0.44110397924445488 0.35756373905142852 0 -0.44887533288597797 0.35680703170406669 0 -0.44110397924445488 0.35756373905142852 0 -0.44887533288597797 0.35680703170406669 0 -0.448872951951507 0.35888158307927881 0 -0.44887533288597797 0.35680703170406669 0 -0.448872951951507 0.35888158307927881 0 -0.44887533288597797 0.35680703170406669 0 -0.448872951951507 0.35888158307927881 0 -0.45496527453913199 0.35447137251643651 0 -0.448872951951507 0.35888158307927881 0 -0.45496527453913199 0.35447137251643651 0 -0.47186707529616939 0.3513175305497272 0 -0.448872951951507 0.35888158307927881 0 -0.47186707529616939 0.3513175305497272 0 -0.448872951951507 0.35888158307927881 0 -0.45634368000688869 0.36512471152292858 0 -0.47186707529616939 0.3513175305497272 0 -0.45911772068334677 0.34536620346235469 0 -0.45496527453913199 0.35447137251643651 0 -0.47186707529616939 0.3513175305497272 0 -0.45911772068334677 0.34536620346235469 0 -0.45496527453913199 0.35447137251643651 0 -0.44889299330712729 0.34242966823447613 0 -0.46572599417265398 0.36772482908493609 0 -0.45634368000688869 0.36512471152292858 0 -0.47186707529616939 0.3513175305497272 0 -0.46059005399087027 0.38292215568240928 0 -0.44885864134335329 0.37135067543599282 0 -0.46572599417265398 0.36772482908493609 0 -0.44885864134335329 0.37135067543599282 0 -0.46572599417265398 0.36772482908493609 0 -0.44885864134335329 0.37135067543599282 0 -0.46572599417265398 0.36772482908493609 0 -0.45634368000688869 0.36512471152292858 0 -0.47832653283541199 0.38608194873200979 0 -0.46572599417265398 0.36772482908493609 0 -0.48259334700195489 0.36409898273387958 0 -0.46572599417265398 0.36772482908493609 0 -0.48259334700195489 0.36409898273387958 0 -0.47186707529616939 0.3513175305497272 0 -0.46572599417265398 0.36772482908493609 0 -0.48259334700195489 0.36409898273387958 0 -0.47186707529616939 0.3513175305497272 0 -0.494861198640831 0.34375347802017348 0 -0.47186707529616939 0.3513175305497272 0 -0.48536711719674469 0.35339641184703091 0 -0.494861198640831 0.34375347802017348 0 -0.48259334700195489 0.36409898273387958 0 -0.47186707529616939 0.3513175305497272 0 -0.48536711719674469 0.35339641184703091 0 -0.48259334700195489 0.36409898273387958 0 -0.49214684784802371 0.35441565608434311 0 -0.48536711719674469 0.35339641184703091 0 -0.49214684784802371 0.35441565608434311 0 -0.5 0.36887446842263683 0 -0.5 0.34271985673358363 0 -0.49214684784802371 0.35441565608434311 0 -0.48536711719674469 0.35339641184703091 0 -0.494861198640831 0.34375347802017348 0 -0.49214684784802371 0.35441565608434311 0 -0.494861198640831 0.34375347802017348 0 -0.5 0.34271985673358363 0 -0.48850556386005051 0.3766603246979251 0 -0.48259334700195489 0.36409898273387958 0 -0.5 0.36887446842263683 0 -0.48259334700195489 0.36409898273387958 0 -0.49214684784802371 0.35441565608434311 0 -0.5 0.36887446842263683 0 -0.485708092488497 0.3189911195031831 0 -0.5 0.31656524504453032 0 -0.48475009422380527 0.3315545986069256 0 -0.485708092488497 0.3189911195031831 0 -0.5 0.31656524504453032 0 -0.48583489694974541 0.30845327583860088 0 -0.5 0.31656524504453032 0 -0.5 0.34271985673358363 0 -0.48475009422380527 0.3315545986069256 0 -0.494861198640831 0.34375347802017348 0 -0.5 0.34271985673358363 0 -0.48475009422380527 0.3315545986069256 0 -0.48475009422380527 0.3315545986069256 0 -0.46074553959095882 0.3332462425487791 0 -0.47186707529616939 0.3513175305497272 0 -0.494861198640831 0.34375347802017348 0 -0.48475009422380527 0.3315545986069256 0 -0.47186707529616939 0.3513175305497272 0 -0.48475009422380527 0.3315545986069256 0 -0.46074553959095882 0.3332462425487791 0 -0.48475009422380527 0.3315545986069256 0 -0.47224737878043732 0.31939135852267558 0 -0.46074553959095882 0.3332462425487791 0 -0.485708092488497 0.3189911195031831 0 -0.48475009422380527 0.3315545986069256 0 -0.47224737878043732 0.31939135852267558 0 -0.485708092488497 0.3189911195031831 0 -0.47224737878043732 0.31939135852267558 0 -0.48583489694974541 0.30845327583860088 0 -0.47224737878043732 0.31939135852267558 0 -0.46258830912673421 0.31343425170936878 0 -0.46074553959095882 0.3332462425487791 0 -0.46258830912673421 0.31343425170936878 0 -0.46074553959095882 0.3332462425487791 0 -0.45107709460752138 0.31557533431346357 0 -0.45911772068334677 0.34536620346235469 0 -0.47186707529616939 0.3513175305497272 0 -0.46074553959095882 0.3332462425487791 0 -0.45911772068334677 0.34536620346235469 0 -0.46074553959095882 0.3332462425487791 0 -0.44889299330712729 0.34242966823447613 0 -0.43674098495811231 0.33493788649063261 0 -0.46074553959095882 0.3332462425487791 0 -0.43674098495811231 0.33493788649063261 0 -0.46074553959095882 0.3332462425487791 0 -0.44889299330712729 0.34242966823447613 0 -0.43674098495811231 0.33493788649063261 0 -0.46074553959095882 0.3332462425487791 0 -0.43790895006943947 0.32081412042189511 0 -0.43674098495811231 0.33493788649063261 0 -0.43385085243219867 0.34555045147446217 0 -0.44889299330712729 0.34242966823447613 0 -0.46074553959095882 0.3332462425487791 0 -0.45107709460752138 0.31557533431346357 0 -0.43790895006943947 0.32081412042189511 0 -0.45107709460752138 0.31557533431346357 0 -0.43790895006943947 0.32081412042189511 0 -0.4401847358662575 0.3127477530096977 0 -0.44444415583193408 0.29216055381020578 0 -0.43122247783146522 0.30831868127488848 0 -0.44810052680614793 0.29565349026271098 0 -0.43122247783146522 0.30831868127488848 0 -0.44368336155109173 0.30649675881006838 0 -0.44810052680614793 0.29565349026271098 0 -0.43122247783146522 0.30831868127488848 0 -0.4401847358662575 0.3127477530096977 0 -0.44368336155109173 0.30649675881006838 0 -0.43122247783146522 0.30831868127488848 0 -0.44444415583193408 0.29216055381020578 0 -0.44810052680614793 0.29565349026271098 0 -0.43122247783146522 0.30831868127488848 0 -0.45107709460752138 0.31557533431346357 0 -0.4401847358662575 0.3127477530096977 0 -0.44368336155109173 0.30649675881006838 0 -0.44368336155109173 0.30649675881006838 0 -0.44996115485610377 0.3015940899144034 0 -0.4551770389262465 0.30483297142504889 0 -0.44368336155109173 0.30649675881006838 0 -0.44996115485610377 0.3015940899144034 0 -0.44810052680614793 0.29565349026271098 0 -0.45288369214092922 0.29939313915978533 0 -0.44996115485610377 0.3015940899144034 0 -0.44810052680614793 0.29565349026271098 0 -0.45288369214092922 0.29939313915978533 0 -0.44996115485610377 0.3015940899144034 0 -0.4551770389262465 0.30483297142504889 0 -0.45107709460752138 0.31557533431346357 0 -0.44368336155109173 0.30649675881006838 0 -0.4551770389262465 0.30483297142504889 0 -0.44702735364695217 0.27675533545947301 0 -0.43422108619098299 0.29621681389521232 0 -0.44444415583193408 0.29216055381020578 0 -0.44702735364695217 0.27675533545947301 0 -0.43422108619098299 0.29621681389521232 0 -0.44702735364695217 0.27675533545947301 0 -0.43274811138672559 0.28469846643612018 0 -0.43422108619098299 0.29621681389521232 0 -0.44810052680614793 0.29565349026271098 0 -0.4493542421043164 0.28919027156790111 0 -0.45395006383388498 0.28587005882998617 0 -0.44444415583193408 0.29216055381020578 0 -0.44810052680614793 0.29565349026271098 0 -0.4493542421043164 0.28919027156790111 0 -0.44444415583193408 0.29216055381020578 0 -0.4493542421043164 0.28919027156790111 0 -0.44702735364695217 0.27675533545947301 0 -0.4493542421043164 0.28919027156790111 0 -0.45395006383388498 0.28587005882998617 0 -0.44702735364695217 0.27675533545947301 0 -0.44810052680614793 0.29565349026271098 0 -0.45395006383388498 0.28587005882998617 0 -0.46497857578083068 0.28298829925053381 0 -0.44810052680614793 0.29565349026271098 0 -0.4593999708052337 0.29480301670676529 0 -0.46497857578083068 0.28298829925053381 0 -0.44810052680614793 0.29565349026271098 0 -0.46497857578083068 0.28298829925053381 0 -0.45288369214092922 0.29939313915978533 0 -0.44810052680614793 0.29565349026271098 0 -0.4593999708052337 0.29480301670676529 0 -0.4593999708052337 0.29480301670676529 0 -0.46827174088950307 0.29409138505043392 0 -0.46497857578083068 0.28298829925053381 0 -0.46258830912673421 0.31343425170936878 0 -0.45107709460752138 0.31557533431346357 0 -0.4551770389262465 0.30483297142504889 0 -0.45288369214092922 0.29939313915978533 0 -0.4593999708052337 0.29480301670676529 0 -0.4551770389262465 0.30483297142504889 0 -0.4593999708052337 0.29480301670676529 0 -0.4551770389262465 0.30483297142504889 0 -0.46625021185001803 0.30380681263807602 0 -0.4593999708052337 0.29480301670676529 0 -0.46827174088950307 0.29409138505043392 0 -0.46625021185001803 0.30380681263807602 0 -0.47224737878043732 0.31939135852267558 0 -0.46258830912673421 0.31343425170936878 0 -0.46625021185001803 0.30380681263807602 0 -0.46258830912673421 0.31343425170936878 0 -0.4551770389262465 0.30483297142504889 0 -0.46625021185001803 0.30380681263807602 0 -0.47551717359816043 0.30301602212345602 0 -0.4769183937012712 0.29196404103452073 0 -0.48583489694974541 0.30845327583860088 0 -0.47224737878043732 0.31939135852267558 0 -0.46625021185001803 0.30380681263807602 0 -0.47551717359816043 0.30301602212345602 0 -0.47224737878043732 0.31939135852267558 0 -0.47551717359816043 0.30301602212345602 0 -0.48583489694974541 0.30845327583860088 0 -0.46827174088950307 0.29409138505043392 0 -0.46625021185001803 0.30380681263807602 0 -0.47551717359816043 0.30301602212345602 0 -0.46827174088950307 0.29409138505043392 0 -0.46497857578083068 0.28298829925053381 0 -0.4769183937012712 0.29196404103452073 0 -0.4769183937012712 0.29196404103452073 0 -0.48757792524538679 0.2814999319082685 0 -0.48583489694974541 0.30845327583860088 0 -0.46827174088950307 0.29409138505043392 0 -0.47551717359816043 0.30301602212345602 0 -0.4769183937012712 0.29196404103452073 0 -0.46497857578083068 0.28298829925053381 0 -0.47783287987075052 0.28169384510791978 0 -0.4769183937012712 0.29196404103452073 0 -0.47783287987075052 0.28169384510791978 0 -0.4769183937012712 0.29196404103452073 0 -0.48757792524538679 0.2814999319082685 0 -0.5 0.29041063335547701 0 -0.48757792524538679 0.2814999319082685 0 -0.48583489694974541 0.30845327583860088 0 -0.48757792524538679 0.2814999319082685 0 -0.48583489694974541 0.30845327583860088 0 -0.5 0.31656524504453032 0 -0.5 0.29041063335547701 0 -0.48583489694974541 0.30845327583860088 0 -0.5 0.23810140997737081 0 -0.5 0.26425602166642381 0 -0.48932095354102823 0.25454658797793611 0 -0.48757792524538679 0.2814999319082685 0 -0.48932095354102823 0.25454658797793611 0 -0.48366697684514259 0.26703881783025729 0 -0.48757792524538679 0.2814999319082685 0 -0.5 0.26425602166642381 0 -0.48932095354102823 0.25454658797793611 0 -0.48757792524538679 0.2814999319082685 0 -0.48932095354102823 0.25454658797793611 0 -0.5 0.29041063335547701 0 -0.48757792524538679 0.2814999319082685 0 -0.5 0.26425602166642381 0 -0.46497857578083068 0.28298829925053381 0 -0.48185662475551339 0.27032310823835648 0 -0.46497857578083068 0.28298829925053381 0 -0.47783287987075052 0.28169384510791978 0 -0.48185662475551339 0.27032310823835648 0 -0.48366697684514259 0.26703881783025729 0 -0.45893043448094739 0.2699305570534084 0 -0.48757792524538679 0.2814999319082685 0 -0.48366697684514259 0.26703881783025729 0 -0.48185662475551339 0.27032310823835648 0 -0.48366697684514259 0.26703881783025729 0 -0.48185662475551339 0.27032310823835648 0 -0.47235815296560851 0.27257019559313889 0 -0.46497857578083068 0.28298829925053381 0 -0.48185662475551339 0.27032310823835648 0 -0.47235815296560851 0.27257019559313889 0 -0.48366697684514259 0.26703881783025729 0 -0.46959483388743167 0.25994315597580908 0 -0.45893043448094739 0.2699305570534084 0 -0.48366697684514259 0.26703881783025729 0 -0.47235815296560851 0.27257019559313889 0 -0.45893043448094739 0.2699305570534084 0 -0.47783287987075052 0.28169384510791978 0 -0.48757792524538679 0.2814999319082685 0 -0.48185662475551339 0.27032310823835648 0 -0.48932095354102823 0.25454658797793611 0 -0.48366697684514259 0.26703881783025729 0 -0.47792533453874358 0.25606878273296479 0 -0.48366697684514259 0.26703881783025729 0 -0.46959483388743167 0.25994315597580908 0 -0.47792533453874358 0.25606878273296479 0 -0.47864167104372218 0.246590621409366 0 -0.48932095354102823 0.25454658797793611 0 -0.47792533453874358 0.25606878273296479 0 -0.47864167104372218 0.246590621409366 0 -0.47792533453874358 0.25606878273296479 0 -0.46938038244821267 0.25133041049185839 0 -0.46959483388743167 0.25994315597580908 0 -0.47792533453874358 0.25606878273296479 0 -0.46938038244821267 0.25133041049185839 0 -0.46959483388743167 0.25994315597580908 0 -0.46938038244821267 0.25133041049185839 0 -0.45807104112411212 0.25534721177055669 0 -0.46959483388743167 0.25994315597580908 0 -0.45807104112411212 0.25534721177055669 0 -0.45893043448094739 0.2699305570534084 0 -0.45807104112411212 0.25534721177055669 0 -0.45893043448094739 0.2699305570534084 0 -0.44442574262614493 0.25832327296872359 0 -0.45395006383388498 0.28587005882998617 0 -0.46497857578083068 0.28298829925053381 0 -0.45893043448094739 0.2699305570534084 0 -0.45395006383388498 0.28587005882998617 0 -0.45893043448094739 0.2699305570534084 0 -0.44702735364695217 0.27675533545947301 0 -0.46497857578083068 0.28298829925053381 0 -0.47235815296560851 0.27257019559313889 0 -0.45893043448094739 0.2699305570534084 0 -0.45893043448094739 0.2699305570534084 0 -0.43419389211675241 0.27282229627655952 0 -0.45893043448094739 0.2699305570534084 0 -0.44442574262614493 0.25832327296872359 0 -0.43419389211675241 0.27282229627655952 0 -0.45893043448094739 0.2699305570534084 0 -0.44702735364695217 0.27675533545947301 0 -0.43419389211675241 0.27282229627655952 0 -0.44702735364695217 0.27675533545947301 0 -0.43419389211675241 0.27282229627655952 0 -0.43274811138672559 0.28469846643612018 0 -0.45046339488490522 0.249057113070103 0 -0.45807104112411212 0.25534721177055669 0 -0.44442574262614493 0.25832327296872359 0 -0.44062222049055039 0.24203477259657111 0 -0.44442574262614493 0.25832327296872359 0 -0.42503978512155383 0.25887440404814072 0 -0.44062222049055039 0.24203477259657111 0 -0.42503978512155383 0.25887440404814072 0 -0.44442574262614493 0.25832327296872359 0 -0.42503978512155383 0.25887440404814072 0 -0.43419389211675241 0.27282229627655952 0 -0.42503978512155383 0.25887440404814072 0 -0.40945734975255721 0.27571403549971041 0 -0.40585136056822319 0.25674789398696107 0 -0.4198454647722451 0.23985190764030939 0 -0.42503978512155383 0.25887440404814072 0 -0.40585136056822319 0.25674789398696107 0 -0.40945734975255721 0.27571403549971041 0 -0.43419389211675241 0.27282229627655952 0 -0.42503978512155383 0.25887440404814072 0 -0.40945734975255721 0.27571403549971041 0 -0.42503978512155383 0.25887440404814072 0 -0.40945734975255721 0.27571403549971041 0 -0.43419389211675241 0.27282229627655952 0 -0.40945734975255721 0.27571403549971041 0 -0.43419389211675241 0.27282229627655952 0 -0.4229835889384117 0.28415291652507912 0 -0.43419389211675241 0.27282229627655952 0 -0.43274811138672559 0.28469846643612018 0 -0.4229835889384117 0.28415291652507912 0 -0.43274811138672559 0.28469846643612018 0 -0.43422108619098299 0.29621681389521232 0 -0.42519236151645012 0.29288975242762622 0 -0.43274811138672559 0.28469846643612018 0 -0.42519236151645012 0.29288975242762622 0 -0.4229835889384117 0.28415291652507912 0 -0.42141481873501418 0.31567829233095179 0 -0.43422108619098299 0.29621681389521232 0 -0.42141481873501418 0.31567829233095179 0 -0.43422108619098299 0.29621681389521232 0 -0.42237726971740519 0.30236741203524931 0 -0.44444415583193408 0.29216055381020578 0 -0.43422108619098299 0.29621681389521232 0 -0.43122247783146522 0.30831868127488848 0 -0.42141481873501418 0.31567829233095179 0 -0.43422108619098299 0.29621681389521232 0 -0.43122247783146522 0.30831868127488848 0 -0.43422108619098299 0.29621681389521232 0 -0.42519236151645012 0.29288975242762622 0 -0.42237726971740519 0.30236741203524931 0 -0.42141481873501418 0.31567829233095179 0 -0.43122247783146522 0.30831868127488848 0 -0.42237726971740519 0.30236741203524931 0 -0.41647318301620623 0.31168328686166002 0 -0.40812109447663159 0.30329838776079099 0 -0.42141481873501418 0.31567829233095179 0 -0.42237726971740519 0.30236741203524931 0 -0.41647318301620623 0.31168328686166002 0 -0.42237726971740519 0.30236741203524931 0 -0.40812109447663159 0.30329838776079099 0 -0.41256551749876041 0.29129965580367562 0 -0.40826549608127172 0.31275764886218971 0 -0.41647318301620623 0.31168328686166002 0 -0.40812109447663159 0.30329838776079099 0 -0.40945734975255721 0.27571403549971041 0 -0.4229835889384117 0.28415291652507912 0 -0.41256551749876041 0.29129965580367562 0 -0.42519236151645012 0.29288975242762622 0 -0.4229835889384117 0.28415291652507912 0 -0.41256551749876041 0.29129965580367562 0 -0.42519236151645012 0.29288975242762622 0 -0.42237726971740519 0.30236741203524931 0 -0.41256551749876041 0.29129965580367562 0 -0.40945734975255721 0.27571403549971041 0 -0.39180528154043992 0.29479027846244049 0 -0.39350738277932218 0.27757861076756318 0 -0.40945734975255721 0.27571403549971041 0 -0.39180528154043992 0.29479027846244049 0 -0.40812109447663159 0.30329838776079099 0 -0.41256551749876041 0.29129965580367562 0 -0.39180528154043992 0.29479027846244049 0 -0.40945734975255721 0.27571403549971041 0 -0.41256551749876041 0.29129965580367562 0 -0.39180528154043992 0.29479027846244049 0 -0.38613629988198012 0.31665983269396758 0 -0.39830358576524327 0.31266849694114901 0 -0.39180528154043992 0.29479027846244049 0 -0.39830358576524327 0.31266849694114901 0 -0.40812109447663159 0.30329838776079099 0 -0.39180528154043992 0.29479027846244049 0 -0.39830358576524327 0.31266849694114901 0 -0.40826549608127172 0.31275764886218971 0 -0.40812109447663159 0.30329838776079099 0 -0.39180528154043992 0.29479027846244049 0 -0.37819889022761238 0.29924868842846319 0 -0.37415321332832258 0.31386652142517069 0 -0.38613629988198012 0.31665983269396758 0 -0.39180528154043992 0.29479027846244049 0 -0.37415321332832258 0.31386652142517069 0 -0.39180528154043992 0.29479027846244049 0 -0.37415321332832258 0.31386652142517069 0 -0.39180528154043992 0.29479027846244049 0 -0.37819889022761238 0.29924868842846319 0 -0.37870614451813112 0.28175948497688769 0 -0.39180528154043992 0.29479027846244049 0 -0.37870614451813112 0.28175948497688769 0 -0.39350738277932218 0.27757861076756318 0 -0.37870614451813112 0.28175948497688769 0 -0.37647038179830861 0.26645711442365799 0 -0.39350738277932218 0.27757861076756318 0 -0.37647038179830861 0.26645711442365799 0 -0.39336972403141229 0.26369738761855421 0 -0.39350738277932218 0.27757861076756318 0 -0.38790582398472923 0.24962922847932231 0 -0.37647038179830861 0.26645711442365799 0 -0.39336972403141229 0.26369738761855421 0 -0.38790582398472923 0.24962922847932231 0 -0.37647038179830861 0.26645711442365799 0 -0.36318679658289171 0.25196182354824148 0 -0.40945734975255721 0.27571403549971041 0 -0.40585136056822319 0.25674789398696107 0 -0.39336972403141229 0.26369738761855421 0 -0.38790582398472923 0.24962922847932231 0 -0.40585136056822319 0.25674789398696107 0 -0.39336972403141229 0.26369738761855421 0 -0.40945734975255721 0.27571403549971041 0 -0.39336972403141229 0.26369738761855421 0 -0.39350738277932218 0.27757861076756318 0 -0.40945734975255721 0.27571403549971041 0 -0.39350738277932218 0.27757861076756318 0 -0.35583614606747688 0.27501819518035592 0 -0.36318679658289171 0.25196182354824148 0 -0.33952374355129727 0.25899057541505788 0 -0.37647038179830861 0.26645711442365799 0 -0.35583614606747688 0.27501819518035592 0 -0.36318679658289171 0.25196182354824148 0 -0.37870614451813112 0.28175948497688769 0 -0.37647038179830861 0.26645711442365799 0 -0.35583614606747688 0.27501819518035592 0 -0.37819889022761238 0.29924868842846319 0 -0.37870614451813112 0.28175948497688769 0 -0.36775571630023218 0.2927315942663431 0 -0.37870614451813112 0.28175948497688769 0 -0.35583614606747688 0.27501819518035592 0 -0.36775571630023218 0.2927315942663431 0 -0.37819889022761238 0.29924868842846319 0 -0.36899777432263853 0.30469822459034263 0 -0.37415321332832258 0.31386652142517069 0 -0.36899777432263853 0.30469822459034263 0 -0.36272901898995358 0.31473918551029578 0 -0.37415321332832258 0.31386652142517069 0 -0.37819889022761238 0.29924868842846319 0 -0.36775571630023218 0.2927315942663431 0 -0.36899777432263853 0.30469822459034263 0 -0.36775571630023218 0.2927315942663431 0 -0.36899777432263853 0.30469822459034263 0 -0.35931620367806588 0.30475084950198522 0 -0.36775571630023218 0.2927315942663431 0 -0.35931620367806588 0.30475084950198522 0 -0.35261706249820868 0.29381533636168528 0 -0.36899777432263853 0.30469822459034263 0 -0.35931620367806588 0.30475084950198522 0 -0.36272901898995358 0.31473918551029578 0 -0.35931620367806588 0.30475084950198522 0 -0.35261706249820868 0.29381533636168528 0 -0.34344143829887858 0.30736403781452232 0 -0.35931620367806588 0.30475084950198522 0 -0.34344143829887858 0.30736403781452232 0 -0.35467675850453528 0.31743756764607989 0 -0.35931620367806588 0.30475084950198522 0 -0.35467675850453528 0.31743756764607989 0 -0.36272901898995358 0.31473918551029578 0 -0.35583614606747688 0.27501819518035592 0 -0.36775571630023218 0.2927315942663431 0 -0.35261706249820868 0.29381533636168528 0 -0.35583614606747688 0.27501819518035592 0 -0.35261706249820868 0.29381533636168528 0 -0.33673580814638959 0.28921200504521999 0 -0.35261706249820868 0.29381533636168528 0 -0.33673580814638959 0.28921200504521999 0 -0.34344143829887858 0.30736403781452232 0 -0.33673580814638959 0.28921200504521999 0 -0.32075162894010661 0.28280614760534989 0 -0.33379142081270979 0.2734424933293601 0 -0.34344143829887858 0.30736403781452232 0 -0.31699951866320542 0.30755322334125379 0 -0.34344143829887858 0.30736403781452232 0 -0.31699951866320542 0.30755322334125379 0 -0.33459812393413729 0.32207732583041709 0 -0.33673580814638959 0.28921200504521999 0 -0.34344143829887858 0.30736403781452232 0 -0.31699951866320542 0.30755322334125379 0 -0.33673580814638959 0.28921200504521999 0 -0.31699951866320542 0.30755322334125379 0 -0.32075162894010661 0.28280614760534989 0 -0.31699951866320542 0.30755322334125379 0 -0.32075162894010661 0.28280614760534989 0 -0.30493521127791462 0.28695781074044469 0 -0.32075162894010661 0.28280614760534989 0 -0.31931282352829687 0.26617321261290411 0 -0.33379142081270979 0.2734424933293601 0 -0.32075162894010661 0.28280614760534989 0 -0.31931282352829687 0.26617321261290411 0 -0.30493521127791462 0.28695781074044469 0 -0.35583614606747688 0.27501819518035592 0 -0.33673580814638959 0.28921200504521999 0 -0.33379142081270979 0.2734424933293601 0 -0.35583614606747688 0.27501819518035592 0 -0.33379142081270979 0.2734424933293601 0 -0.33952374355129727 0.25899057541505788 0 -0.31931282352829687 0.26617321261290411 0 -0.33379142081270979 0.2734424933293601 0 -0.33952374355129727 0.25899057541505788 0 -0.32200613725511351 0.24850726385495631 0 -0.31931282352829687 0.26617321261290411 0 -0.33952374355129727 0.25899057541505788 0 -0.32200613725511351 0.24850726385495631 0 -0.31931282352829687 0.26617321261290411 0 -0.30640548876467488 0.25787073169030861 0 -0.31931282352829687 0.26617321261290411 0 -0.30640548876467488 0.25787073169030861 0 -0.3010630097917536 0.27273037638764702 0 -0.31931282352829687 0.26617321261290411 0 -0.3010630097917536 0.27273037638764702 0 -0.30493521127791462 0.28695781074044469 0 -0.31931282352829687 0.26617321261290411 0 -0.30493521127791462 0.28695781074044469 0 -0.3010630097917536 0.27273037638764702 0 -0.29309283898050847 0.28048055459605348 0 -0.30493521127791462 0.28695781074044469 0 -0.3010630097917536 0.27273037638764702 0 -0.29309283898050847 0.28048055459605348 0 -0.28156868640737281 0.27216957229852412 0 -0.30640548876467488 0.25787073169030861 0 -0.3010630097917536 0.27273037638764702 0 -0.28156868640737281 0.27216957229852412 0 -0.30640548876467488 0.25787073169030861 0 -0.28156868640737281 0.27216957229852412 0 -0.28729818335365731 0.26780124082781631 0 -0.28156868640737281 0.27216957229852412 0 -0.28729818335365731 0.26780124082781631 0 -0.27880962639343299 0.26078065685839158 0 -0.29309283898050847 0.28048055459605348 0 -0.28156868640737281 0.27216957229852412 0 -0.28401529333418091 0.28255904946725641 0 -0.30640548876467488 0.25787073169030861 0 -0.28156868640737281 0.27216957229852412 0 -0.29125564533142001 0.24067530578368901 0 -0.30640548876467488 0.25787073169030861 0 -0.28729818335365731 0.26780124082781631 0 -0.29125564533142001 0.24067530578368901 0 -0.28729818335365731 0.26780124082781631 0 -0.27880962639343299 0.26078065685839158 0 -0.29125564533142001 0.24067530578368901 0 -0.28729818335365731 0.26780124082781631 0 -0.29125564533142001 0.24067530578368901 0 -0.26892213733164849 0.25365425058065472 0 -0.27880962639343299 0.26078065685839158 0 -0.26892213733164849 0.25365425058065472 0 -0.27880962639343299 0.26078065685839158 0 -0.26500347954306669 0.26960291480127369 0 -0.28156868640737281 0.27216957229852412 0 -0.25673188405007052 0.28646841290673969 0 -0.28156868640737281 0.27216957229852412 0 -0.26500347954306669 0.26960291480127369 0 -0.25673188405007052 0.28646841290673969 0 -0.28156868640737281 0.27216957229852412 0 -0.27880962639343299 0.26078065685839158 0 -0.26500347954306669 0.26960291480127369 0 -0.28156868640737281 0.27216957229852412 0 -0.27479408276187339 0.28687287199942368 0 -0.28401529333418091 0.28255904946725641 0 -0.26500347954306669 0.26960291480127369 0 -0.25265925142613249 0.26128234508680298 0 -0.25673188405007052 0.28646841290673969 0 -0.26892213733164849 0.25365425058065472 0 -0.26500347954306669 0.26960291480127369 0 -0.25265925142613249 0.26128234508680298 0 -0.25621817608628389 0.2460965770837312 0 -0.26892213733164849 0.25365425058065472 0 -0.25265925142613249 0.26128234508680298 0 -0.25505401324638421 0.30366623925853881 0 -0.26661761067819428 0.2958317928062858 0 -0.26721257633701828 0.30790943684761429 0 -0.25505401324638421 0.30366623925853881 0 -0.26721257633701828 0.30790943684761429 0 -0.25901197930261888 0.31383205914145501 0 -0.26721257633701828 0.30790943684761429 0 -0.25901197930261888 0.31383205914145501 0 -0.26528599585519008 0.31471464054907522 0 -0.25505401324638421 0.30366623925853881 0 -0.25901197930261888 0.31383205914145501 0 -0.24885494741763489 0.31718848033418301 0 -0.25505401324638421 0.30366623925853881 0 -0.25673188405007052 0.28646841290673969 0 -0.26661761067819428 0.2958317928062858 0 -0.26661761067819428 0.2958317928062858 0 -0.27573637841232751 0.29432500902679382 0 -0.27326763327687947 0.30016750757533939 0 -0.28156868640737281 0.27216957229852412 0 -0.25673188405007052 0.28646841290673969 0 -0.27479408276187339 0.28687287199942368 0 -0.26661761067819428 0.2958317928062858 0 -0.27479408276187339 0.28687287199942368 0 -0.27573637841232751 0.29432500902679382 0 -0.25673188405007052 0.28646841290673969 0 -0.26661761067819428 0.2958317928062858 0 -0.27479408276187339 0.28687287199942368 0 -0.27479408276187339 0.28687287199942368 0 -0.28401529333418091 0.28255904946725641 0 -0.28313816676434478 0.29069510378855717 0 -0.27479408276187339 0.28687287199942368 0 -0.27573637841232751 0.29432500902679382 0 -0.28313816676434478 0.29069510378855717 0 -0.27573637841232751 0.29432500902679382 0 -0.28086439858034518 0.29805776896436298 0 -0.28313816676434478 0.29069510378855717 0 -0.28086439858034518 0.29805776896436298 0 -0.27753065875984329 0.30327410754998058 0 -0.28274061889410179 0.30278083970340541 0 -0.27753065875984329 0.30327410754998058 0 -0.27514776209796898 0.30785266251660498 0 -0.28274061889410179 0.30278083970340541 0 -0.27753065875984329 0.30327410754998058 0 -0.27326763327687947 0.30016750757533939 0 -0.27348155140824082 0.30658246875079598 0 -0.28086439858034518 0.29805776896436298 0 -0.27753065875984329 0.30327410754998058 0 -0.27326763327687947 0.30016750757533939 0 -0.27573637841232751 0.29432500902679382 0 -0.28086439858034518 0.29805776896436298 0 -0.27326763327687947 0.30016750757533939 0 -0.26661761067819428 0.2958317928062858 0 -0.27326763327687947 0.30016750757533939 0 -0.26721257633701828 0.30790943684761429 0 -0.26721257633701828 0.30790943684761429 0 -0.27514776209796898 0.30785266251660498 0 -0.27123720609067609 0.3158529302113221 0 -0.26721257633701828 0.30790943684761429 0 -0.27348155140824082 0.30658246875079598 0 -0.27514776209796898 0.30785266251660498 0 -0.26721257633701828 0.30790943684761429 0 -0.27514776209796898 0.30785266251660498 0 -0.27326763327687947 0.30016750757533939 0 -0.26721257633701828 0.30790943684761429 0 -0.27348155140824082 0.30658246875079598 0 -0.27514776209796898 0.30785266251660498 0 -0.2851872012256097 0.31550597615259851 0 -0.27753065875984329 0.30327410754998058 0 -0.27348155140824082 0.30658246875079598 0 -0.27514776209796898 0.30785266251660498 0 -0.27348155140824082 0.30658246875079598 0 -0.27514776209796898 0.30785266251660498 0 -0.27514776209796898 0.30785266251660498 0 -0.2905575990275322 0.30774240886798532 0 -0.27514776209796898 0.30785266251660498 0 -0.2905575990275322 0.30774240886798532 0 -0.2851872012256097 0.31550597615259851 0 -0.2896026760048197 0.2969772506180926 0 -0.2905575990275322 0.30774240886798532 0 -0.30493521127791462 0.28695781074044469 0 -0.27514776209796898 0.30785266251660498 0 -0.28274061889410179 0.30278083970340541 0 -0.2905575990275322 0.30774240886798532 0 -0.2905575990275322 0.30774240886798532 0 -0.2851872012256097 0.31550597615259851 0 -0.28274061889410179 0.30278083970340541 0 -0.2896026760048197 0.2969772506180926 0 -0.2905575990275322 0.30774240886798532 0 -0.28086439858034518 0.29805776896436298 0 -0.28274061889410179 0.30278083970340541 0 -0.2896026760048197 0.2969772506180926 0 -0.28401529333418091 0.28255904946725641 0 -0.28313816676434478 0.29069510378855717 0 -0.29095683727235372 0.28753395384208091 0 -0.28086439858034518 0.29805776896436298 0 -0.2896026760048197 0.2969772506180926 0 -0.28313816676434478 0.29069510378855717 0 -0.2896026760048197 0.2969772506180926 0 -0.28313816676434478 0.29069510378855717 0 -0.29095683727235372 0.28753395384208091 0 -0.2896026760048197 0.2969772506180926 0 -0.29095683727235372 0.28753395384208091 0 -0.30493521127791462 0.28695781074044469 0 -0.29309283898050847 0.28048055459605348 0 -0.29095683727235372 0.28753395384208091 0 -0.30493521127791462 0.28695781074044469 0 -0.29309283898050847 0.28048055459605348 0 -0.28401529333418091 0.28255904946725641 0 -0.29095683727235372 0.28753395384208091 0 -0.31699951866320542 0.30755322334125379 0 -0.2905575990275322 0.30774240886798532 0 -0.30563014257680821 0.31779627416788381 0 -0.31699951866320542 0.30755322334125379 0 -0.2905575990275322 0.30774240886798532 0 -0.2905575990275322 0.30774240886798532 0 -0.30493521127791462 0.28695781074044469 0 -0.31699951866320542 0.30755322334125379 0 -0.2905575990275322 0.30774240886798532 0 -0.30493521127791462 0.28695781074044469 0 -0.30538608464820588 0.33090408634228141 0 -0.28942706780696309 0.31873813168532672 0 -0.30563014257680821 0.31779627416788381 0 -0.30538608464820588 0.33090408634228141 0 -0.31811651498789978 0.32488887006413791 0 -0.30563014257680821 0.31779627416788381 0 -0.30538608464820588 0.33090408634228141 0 -0.2937791937433501 0.31637108240395312 0 -0.30538608464820588 0.33090408634228141 0 -0.3017933608705089 0.344447887165377 0 -0.32134510148944728 0.34307004099923799 0 -0.30538608464820588 0.33090408634228141 0 -0.29093013722955491 0.33661105704622479 0 -0.3017933608705089 0.344447887165377 0 -0.30538608464820588 0.33090408634228141 0 -0.29093013722955491 0.33661105704622479 0 -0.2885751077852815 0.32830696870384862 0 -0.29093013722955491 0.33661105704622479 0 -0.28224162025157051 0.34582573333151501 0 -0.3017933608705089 0.344447887165377 0 -0.2885751077852815 0.32830696870384862 0 -0.28146834572906437 0.33465123959114113 0 -0.2790455690922089 0.3243844570517187 0 -0.29093013722955491 0.33661105704622479 0 -0.2885751077852815 0.32830696870384862 0 -0.28146834572906437 0.33465123959114113 0 -0.29093013722955491 0.33661105704622479 0 -0.28146834572906437 0.33465123959114113 0 -0.28224162025157051 0.34582573333151501 0 -0.30538608464820588 0.33090408634228141 0 -0.2885751077852815 0.32830696870384862 0 -0.28942706780696309 0.31873813168532672 0 -0.30538608464820588 0.33090408634228141 0 -0.28942706780696309 0.31873813168532672 0 -0.2937791937433501 0.31637108240395312 0 -0.28942706780696309 0.31873813168532672 0 -0.2937791937433501 0.31637108240395312 0 -0.2851872012256097 0.31550597615259851 0 -0.2905575990275322 0.30774240886798532 0 -0.30563014257680821 0.31779627416788381 0 -0.2937791937433501 0.31637108240395312 0 -0.2905575990275322 0.30774240886798532 0 -0.2937791937433501 0.31637108240395312 0 -0.2851872012256097 0.31550597615259851 0 -0.28942706780696309 0.31873813168532672 0 -0.2937791937433501 0.31637108240395312 0 -0.2885751077852815 0.32830696870384862 0 -0.28942706780696309 0.31873813168532672 0 -0.2790455690922089 0.3243844570517187 0 -0.28942706780696309 0.31873813168532672 0 -0.2790455690922089 0.3243844570517187 0 -0.2851872012256097 0.31550597615259851 0 -0.2790455690922089 0.3243844570517187 0 -0.28942706780696309 0.31873813168532672 0 -0.2851872012256097 0.31550597615259851 0 -0.2790455690922089 0.3243844570517187 0 -0.28942706780696309 0.31873813168532672 0 -0.2851872012256097 0.31550597615259851 0 -0.27514776209796898 0.30785266251660498 0 -0.2851872012256097 0.31550597615259851 0 -0.27699557949655113 0.31645322234696882 0 -0.2851872012256097 0.31550597615259851 0 -0.27699557949655113 0.31645322234696882 0 -0.2790455690922089 0.3243844570517187 0 -0.27514776209796898 0.30785266251660498 0 -0.27699557949655113 0.31645322234696882 0 -0.27123720609067609 0.3158529302113221 0 -0.27001263578126711 0.32263717043347712 0 -0.2790455690922089 0.3243844570517187 0 -0.25910260253645218 0.33523110656146687 0 -0.26721257633701828 0.30790943684761429 0 -0.27123720609067609 0.3158529302113221 0 -0.26528599585519008 0.31471464054907522 0 -0.27699557949655113 0.31645322234696882 0 -0.27123720609067609 0.3158529302113221 0 -0.27001263578126711 0.32263717043347712 0 -0.27123720609067609 0.3158529302113221 0 -0.26528599585519008 0.31471464054907522 0 -0.26368222169044719 0.32126413599590953 0 -0.27123720609067609 0.3158529302113221 0 -0.27001263578126711 0.32263717043347712 0 -0.26368222169044719 0.32126413599590953 0 -0.27699557949655113 0.31645322234696882 0 -0.27001263578126711 0.32263717043347712 0 -0.2790455690922089 0.3243844570517187 0 -0.2790455690922089 0.3243844570517187 0 -0.25910260253645218 0.33523110656146687 0 -0.2790455690922089 0.3243844570517187 0 -0.26824012707650141 0.34000504592112352 0 -0.28146834572906437 0.33465123959114113 0 -0.2790455690922089 0.3243844570517187 0 -0.26824012707650141 0.34000504592112352 0 -0.2790455690922089 0.3243844570517187 0 -0.26824012707650141 0.34000504592112352 0 -0.25910260253645218 0.33523110656146687 0 -0.28146834572906437 0.33465123959114113 0 -0.26824012707650141 0.34000504592112352 0 -0.28224162025157051 0.34582573333151501 0 -0.25910260253645218 0.33523110656146687 0 -0.25407523553642281 0.3497448278934856 0 -0.23915963598069589 0.34607775607121571 0 -0.25910260253645218 0.33523110656146687 0 -0.25407523553642281 0.3497448278934856 0 -0.26309588156361569 0.34576168367824162 0 -0.26824012707650141 0.34000504592112352 0 -0.25910260253645218 0.33523110656146687 0 -0.26309588156361569 0.34576168367824162 0 -0.25910260253645218 0.33523110656146687 0 -0.25451497659773847 0.32559442806853028 0 -0.24843663428782739 0.33758714710907461 0 -0.25451497659773847 0.32559442806853028 0 -0.25901197930261888 0.31383205914145501 0 -0.24885494741763489 0.31718848033418301 0 -0.25451497659773847 0.32559442806853028 0 -0.25901197930261888 0.31383205914145501 0 -0.26368222169044719 0.32126413599590953 0 -0.25901197930261888 0.31383205914145501 0 -0.26528599585519008 0.31471464054907522 0 -0.26368222169044719 0.32126413599590953 0 -0.27001263578126711 0.32263717043347712 0 -0.25910260253645218 0.33523110656146687 0 -0.26368222169044719 0.32126413599590953 0 -0.25910260253645218 0.33523110656146687 0 -0.25451497659773847 0.32559442806853028 0 -0.26368222169044719 0.32126413599590953 0 -0.26470209097228098 0.37140351159401941 0 -0.25562758441007077 0.36194187249828802 0 -0.266880351992417 0.3582272519812631 0 -0.26470209097228098 0.37140351159401941 0 -0.25213085833087667 0.37355178257669552 0 -0.25562758441007077 0.36194187249828802 0 -0.25213085833087667 0.37355178257669552 0 -0.25562758441007077 0.36194187249828802 0 -0.24329038266145239 0.36134909741814653 0 -0.25562758441007077 0.36194187249828802 0 -0.25407523553642281 0.3497448278934856 0 -0.24329038266145239 0.36134909741814653 0 -0.25407523553642281 0.3497448278934856 0 -0.26309588156361569 0.34576168367824162 0 -0.266880351992417 0.3582272519812631 0 -0.25562758441007077 0.36194187249828802 0 -0.25407523553642281 0.3497448278934856 0 -0.266880351992417 0.3582272519812631 0 -0.266880351992417 0.3582272519812631 0 -0.27640009279511962 0.35155878343443242 0 -0.28837447244510311 0.36628710188532532 0 -0.26309588156361569 0.34576168367824162 0 -0.266880351992417 0.3582272519812631 0 -0.27640009279511962 0.35155878343443242 0 -0.26824012707650141 0.34000504592112352 0 -0.26309588156361569 0.34576168367824162 0 -0.27640009279511962 0.35155878343443242 0 -0.26824012707650141 0.34000504592112352 0 -0.27640009279511962 0.35155878343443242 0 -0.28224162025157051 0.34582573333151501 0 -0.266880351992417 0.3582272519812631 0 -0.28837447244510311 0.36628710188532532 0 -0.266880351992417 0.3582272519812631 0 -0.28837447244510311 0.36628710188532532 0 -0.27747916353329311 0.37529003384729942 0 -0.26470209097228098 0.37140351159401941 0 -0.266880351992417 0.3582272519812631 0 -0.27747916353329311 0.37529003384729942 0 -0.28837447244510311 0.36628710188532532 0 -0.28714059247178902 0.37543321948423419 0 -0.27747916353329311 0.37529003384729942 0 -0.28837447244510311 0.36628710188532532 0 -0.28956810344150979 0.35324588380912608 0 -0.30292150033679799 0.36018321991941088 0 -0.28837447244510311 0.36628710188532532 0 -0.29874239202075642 0.37528196759933868 0 -0.28714059247178902 0.37543321948423419 0 -0.28224162025157051 0.34582573333151501 0 -0.3017933608705089 0.344447887165377 0 -0.28224162025157051 0.34582573333151501 0 -0.28956810344150979 0.35324588380912608 0 -0.3017933608705089 0.344447887165377 0 -0.27640009279511962 0.35155878343443242 0 -0.28224162025157051 0.34582573333151501 0 -0.28956810344150979 0.35324588380912608 0 -0.27640009279511962 0.35155878343443242 0 -0.28837447244510311 0.36628710188532532 0 -0.28956810344150979 0.35324588380912608 0 -0.3017933608705089 0.344447887165377 0 -0.31193410579265052 0.3536039280541286 0 -0.30292150033679799 0.36018321991941088 0 -0.28956810344150979 0.35324588380912608 0 -0.3017933608705089 0.344447887165377 0 -0.30292150033679799 0.36018321991941088 0 -0.3017933608705089 0.344447887165377 0 -0.32134510148944728 0.34307004099923799 0 -0.3017933608705089 0.344447887165377 0 -0.31193410579265052 0.3536039280541286 0 -0.32134510148944728 0.34307004099923799 0 -0.31193410579265052 0.3536039280541286 0 -0.30292150033679799 0.36018321991941088 0 -0.31340485972314069 0.36375751913665871 0 -0.28837447244510311 0.36628710188532532 0 -0.30292150033679799 0.36018321991941088 0 -0.30986859289778912 0.37434695178938759 0 -0.28837447244510311 0.36628710188532532 0 -0.30986859289778912 0.37434695178938759 0 -0.28837447244510311 0.36628710188532532 0 -0.30986859289778912 0.37434695178938759 0 -0.29874239202075642 0.37528196759933868 0 -0.30292150033679799 0.36018321991941088 0 -0.30986859289778912 0.37434695178938759 0 -0.31340485972314069 0.36375751913665871 0 -0.30986859289778912 0.37434695178938759 0 -0.31340485972314069 0.36375751913665871 0 -0.32167824364597858 0.36970754211250728 0 -0.31340485972314069 0.36375751913665871 0 -0.32243327870136801 0.35950699838777223 0 -0.32167824364597858 0.36970754211250728 0 -0.32243327870136801 0.35950699838777223 0 -0.32167824364597858 0.36970754211250728 0 -0.33132177355711989 0.36851943955526861 0 -0.32167824364597858 0.36970754211250728 0 -0.33132177355711989 0.36851943955526861 0 -0.33136271335047512 0.38240680169344993 0 -0.32243327870136801 0.35950699838777223 0 -0.33132177355711989 0.36851943955526861 0 -0.33989838930305449 0.35721367281084643 0 -0.33132177355711989 0.36851943955526861 0 -0.34304766554360439 0.37232322735168022 0 -0.33136271335047512 0.38240680169344993 0 -0.33132177355711989 0.36851943955526861 0 -0.34304766554360439 0.37232322735168022 0 -0.33989838930305449 0.35721367281084643 0 -0.33989838930305449 0.35721367281084643 0 -0.32134510148944728 0.34307004099923799 0 -0.33989838930305449 0.35721367281084643 0 -0.32134510148944728 0.34307004099923799 0 -0.3500233487104954 0.34104903357308669 0 -0.32243327870136801 0.35950699838777223 0 -0.33989838930305449 0.35721367281084643 0 -0.32134510148944728 0.34307004099923799 0 -0.31193410579265052 0.3536039280541286 0 -0.32243327870136801 0.35950699838777223 0 -0.32134510148944728 0.34307004099923799 0 -0.31193410579265052 0.3536039280541286 0 -0.31340485972314069 0.36375751913665871 0 -0.32243327870136801 0.35950699838777223 0 -0.30538608464820588 0.33090408634228141 0 -0.32134510148944728 0.34307004099923799 0 -0.30538608464820588 0.33090408634228141 0 -0.32134510148944728 0.34307004099923799 0 -0.31811651498789978 0.32488887006413791 0 -0.32134510148944728 0.34307004099923799 0 -0.31811651498789978 0.32488887006413791 0 -0.33459812393413729 0.32207732583041709 0 -0.31699951866320542 0.30755322334125379 0 -0.30563014257680821 0.31779627416788381 0 -0.31811651498789978 0.32488887006413791 0 -0.31699951866320542 0.30755322334125379 0 -0.31811651498789978 0.32488887006413791 0 -0.33459812393413729 0.32207732583041709 0 -0.32134510148944728 0.34307004099923799 0 -0.34342889555096417 0.33131534648734451 0 -0.3500233487104954 0.34104903357308669 0 -0.32134510148944728 0.34307004099923799 0 -0.33459812393413729 0.32207732583041709 0 -0.34342889555096417 0.33131534648734451 0 -0.32134510148944728 0.34307004099923799 0 -0.3500233487104954 0.34104903357308669 0 -0.3500233487104954 0.34104903357308669 0 -0.35650114511620551 0.33294276438790088 0 -0.36794029410566942 0.33226259727897972 0 -0.34342889555096417 0.33131534648734451 0 -0.3500233487104954 0.34104903357308669 0 -0.35650114511620551 0.33294276438790088 0 -0.33459812393413729 0.32207732583041709 0 -0.34342889555096417 0.33131534648734451 0 -0.35467675850453528 0.31743756764607989 0 -0.34344143829887858 0.30736403781452232 0 -0.33459812393413729 0.32207732583041709 0 -0.35467675850453528 0.31743756764607989 0 -0.35650114511620551 0.33294276438790088 0 -0.35467675850453528 0.31743756764607989 0 -0.36272901898995358 0.31473918551029578 0 -0.34342889555096417 0.33131534648734451 0 -0.35650114511620551 0.33294276438790088 0 -0.35467675850453528 0.31743756764607989 0 -0.35650114511620551 0.33294276438790088 0 -0.36272901898995358 0.31473918551029578 0 -0.37415321332832258 0.31386652142517069 0 -0.35650114511620551 0.33294276438790088 0 -0.37415321332832258 0.31386652142517069 0 -0.35650114511620551 0.33294276438790088 0 -0.37442838800096029 0.32044424157556423 0 -0.37415321332832258 0.31386652142517069 0 -0.37816355277066899 0.32985684687273281 0 -0.37442838800096029 0.32044424157556423 0 -0.36794029410566942 0.33226259727897972 0 -0.3787015959315434 0.33902802614693439 0 -0.3500233487104954 0.34104903357308669 0 -0.36794029410566942 0.33226259727897972 0 -0.35650114511620551 0.33294276438790088 0 -0.37442838800096029 0.32044424157556423 0 -0.36794029410566942 0.33226259727897972 0 -0.3787015959315434 0.33902802614693439 0 -0.3500233487104954 0.34104903357308669 0 -0.3787015959315434 0.33902802614693439 0 -0.37816355277066899 0.32985684687273281 0 -0.36794029410566942 0.33226259727897972 0 -0.3787015959315434 0.33902802614693439 0 -0.3500233487104954 0.34104903357308669 0 -0.36501658974902518 0.35367198233662939 0 -0.37823932191431281 0.35548757599615399 0 -0.3787015959315434 0.33902802614693439 0 -0.36501658974902518 0.35367198233662939 0 -0.37823932191431281 0.35548757599615399 0 -0.36501658974902518 0.35367198233662939 0 -0.37024808467873749 0.36543132639488701 0 -0.36501658974902518 0.35367198233662939 0 -0.37024808467873749 0.36543132639488701 0 -0.35845167711666143 0.37135730462245548 0 -0.37949655700884349 0.37153259571527891 0 -0.37024808467873749 0.36543132639488701 0 -0.36758280318953013 0.37627165255961892 0 -0.37024808467873749 0.36543132639488701 0 -0.35845167711666143 0.37135730462245548 0 -0.36758280318953013 0.37627165255961892 0 -0.36501658974902518 0.35367198233662939 0 -0.35845167711666143 0.37135730462245548 0 -0.35334750121980912 0.35582299833575448 0 -0.34304766554360439 0.37232322735168022 0 -0.33989838930305449 0.35721367281084643 0 -0.35845167711666143 0.37135730462245548 0 -0.33989838930305449 0.35721367281084643 0 -0.35845167711666143 0.37135730462245548 0 -0.35334750121980912 0.35582299833575448 0 -0.33989838930305449 0.35721367281084643 0 -0.35845167711666143 0.37135730462245548 0 -0.33989838930305449 0.35721367281084643 0 -0.3500233487104954 0.34104903357308669 0 -0.35334750121980912 0.35582299833575448 0 -0.3500233487104954 0.34104903357308669 0 -0.36501658974902518 0.35367198233662939 0 -0.35334750121980912 0.35582299833575448 0 -0.35285683380316007 0.39046665159751448 0 -0.36027192889352422 0.40897543894708011 0 -0.34270265381785459 0.40768080501023862 0 -0.34304766554360439 0.37232322735168022 0 -0.35845167711666143 0.37135730462245548 0 -0.35285683380316007 0.39046665159751448 0 -0.37686086334024771 0.38257038446795849 0 -0.35285683380316007 0.39046665159751448 0 -0.37686086334024771 0.38257038446795849 0 -0.35285683380316007 0.39046665159751448 0 -0.36758280318953013 0.37627165255961892 0 -0.35845167711666143 0.37135730462245548 0 -0.35285683380316007 0.39046665159751448 0 -0.36758280318953013 0.37627165255961892 0 -0.37686086334024771 0.38257038446795849 0 -0.37949655700884349 0.37153259571527891 0 -0.36758280318953013 0.37627165255961892 0 -0.37769092578324193 0.39977892163450779 0 -0.35285683380316007 0.39046665159751448 0 -0.37769092578324193 0.39977892163450779 0 -0.37686086334024771 0.38257038446795849 0 -0.35285683380316007 0.39046665159751448 0 -0.37769092578324193 0.39977892163450779 0 -0.35285683380316007 0.39046665159751448 0 -0.36027192889352422 0.40897543894708011 0 -0.37875820238401509 0.42613984176471847 0 -0.37769092578324193 0.39977892163450779 0 -0.36027192889352422 0.40897543894708011 0 -0.37875820238401509 0.42613984176471847 0 -0.36027192889352422 0.40897543894708011 0 -0.36048507512927641 0.42545129427310208 0 -0.37875820238401509 0.42613984176471847 0 -0.36048507512927641 0.42545129427310208 0 -0.35499138700470761 0.44318849185793469 0 -0.37875820238401509 0.42613984176471847 0 -0.35499138700470761 0.44318849185793469 0 -0.34691622899781399 0.42161541908905831 0 -0.33223168701086447 0.43660936806356893 0 -0.35499138700470761 0.44318849185793469 0 -0.36048507512927641 0.42545129427310208 0 -0.34691622899781399 0.42161541908905831 0 -0.35499138700470761 0.44318849185793469 0 -0.36027192889352422 0.40897543894708011 0 -0.34691622899781399 0.42161541908905831 0 -0.34270265381785459 0.40768080501023862 0 -0.36027192889352422 0.40897543894708011 0 -0.36048507512927641 0.42545129427310208 0 -0.34691622899781399 0.42161541908905831 0 -0.34270265381785459 0.40768080501023862 0 -0.32841174735063311 0.41773478988879181 0 -0.32505653004414181 0.39961172552874852 0 -0.34691622899781399 0.42161541908905831 0 -0.34270265381785459 0.40768080501023862 0 -0.32841174735063311 0.41773478988879181 0 -0.34691622899781399 0.42161541908905831 0 -0.32841174735063311 0.41773478988879181 0 -0.33223168701086447 0.43660936806356893 0 -0.32841174735063311 0.41773478988879181 0 -0.33223168701086447 0.43660936806356893 0 -0.31148998866141242 0.43181261152586448 0 -0.32841174735063311 0.41773478988879181 0 -0.31441363705571701 0.41408607272300291 0 -0.32505653004414181 0.39961172552874852 0 -0.32841174735063311 0.41773478988879181 0 -0.31441363705571701 0.41408607272300291 0 -0.31148998866141242 0.43181261152586448 0 -0.32505653004414181 0.39961172552874852 0 -0.31219235154091651 0.39185403334122892 0 -0.30619500853749271 0.39725637532293351 0 -0.32505653004414181 0.39961172552874852 0 -0.31778050989885959 0.38527433798844479 0 -0.31219235154091651 0.39185403334122892 0 -0.35285683380316007 0.39046665159751448 0 -0.32505653004414181 0.39961172552874852 0 -0.33136271335047512 0.38240680169344993 0 -0.35285683380316007 0.39046665159751448 0 -0.34270265381785459 0.40768080501023862 0 -0.32505653004414181 0.39961172552874852 0 -0.35285683380316007 0.39046665159751448 0 -0.32505653004414181 0.39961172552874852 0 -0.35285683380316007 0.39046665159751448 0 -0.33136271335047512 0.38240680169344993 0 -0.34304766554360439 0.37232322735168022 0 -0.35285683380316007 0.39046665159751448 0 -0.33136271335047512 0.38240680169344993 0 -0.30986859289778912 0.37434695178938759 0 -0.32167824364597858 0.36970754211250728 0 -0.33136271335047512 0.38240680169344993 0 -0.30986859289778912 0.37434695178938759 0 -0.33136271335047512 0.38240680169344993 0 -0.32505653004414181 0.39961172552874852 0 -0.33136271335047512 0.38240680169344993 0 -0.31778050989885959 0.38527433798844479 0 -0.30986859289778912 0.37434695178938759 0 -0.33136271335047512 0.38240680169344993 0 -0.31778050989885959 0.38527433798844479 0 -0.30986859289778912 0.37434695178938759 0 -0.31778050989885959 0.38527433798844479 0 -0.30574515252343709 0.38648905476423068 0 -0.30986859289778912 0.37434695178938759 0 -0.30574515252343709 0.38648905476423068 0 -0.29874239202075642 0.37528196759933868 0 -0.30574515252343709 0.38648905476423068 0 -0.29874239202075642 0.37528196759933868 0 -0.29146244090030071 0.40289140707507309 0 -0.31778050989885959 0.38527433798844479 0 -0.30574515252343709 0.38648905476423068 0 -0.31219235154091651 0.39185403334122892 0 -0.32505653004414181 0.39961172552874852 0 -0.30619500853749271 0.39725637532293351 0 -0.29725622628512233 0.40875679945997928 0 -0.32505653004414181 0.39961172552874852 0 -0.29725622628512233 0.40875679945997928 0 -0.30574515252343709 0.38648905476423068 0 -0.30619500853749271 0.39725637532293351 0 -0.29146244090030071 0.40289140707507309 0 -0.30574515252343709 0.38648905476423068 0 -0.31219235154091651 0.39185403334122892 0 -0.30619500853749271 0.39725637532293351 0 -0.30619500853749271 0.39725637532293351 0 -0.29146244090030071 0.40289140707507309 0 -0.29725622628512233 0.40875679945997928 0 -0.29146244090030071 0.40289140707507309 0 -0.2882496590958894 0.39023794275143442 0 -0.278827461574497 0.39790462172635238 0 -0.28396634188800352 0.38487377460497352 0 -0.2882496590958894 0.39023794275143442 0 -0.278827461574497 0.39790462172635238 0 -0.29146244090030071 0.40289140707507309 0 -0.278827461574497 0.39790462172635238 0 -0.27940045790464241 0.41220012044695847 0 -0.29874239202075642 0.37528196759933868 0 -0.29146244090030071 0.40289140707507309 0 -0.29874239202075642 0.37528196759933868 0 -0.29146244090030071 0.40289140707507309 0 -0.2882496590958894 0.39023794275143442 0 -0.29874239202075642 0.37528196759933868 0 -0.28396634188800352 0.38487377460497352 0 -0.28714059247178902 0.37543321948423419 0 -0.29874239202075642 0.37528196759933868 0 -0.28396634188800352 0.38487377460497352 0 -0.2882496590958894 0.39023794275143442 0 -0.28396634188800352 0.38487377460497352 0 -0.28714059247178902 0.37543321948423419 0 -0.27747916353329311 0.37529003384729942 0 -0.28396634188800352 0.38487377460497352 0 -0.27747916353329311 0.37529003384729942 0 -0.26775424033426293 0.38456849691175748 0 -0.28396634188800352 0.38487377460497352 0 -0.26775424033426293 0.38456849691175748 0 -0.278827461574497 0.39790462172635238 0 -0.26470209097228098 0.37140351159401941 0 -0.27747916353329311 0.37529003384729942 0 -0.26775424033426293 0.38456849691175748 0 -0.278827461574497 0.39790462172635238 0 -0.26298604578065232 0.3973558675440883 0 -0.2677584473194361 0.40899541659639099 0 -0.26775424033426293 0.38456849691175748 0 -0.278827461574497 0.39790462172635238 0 -0.26298604578065232 0.3973558675440883 0 -0.26298604578065232 0.3973558675440883 0 -0.25152819264859128 0.38883491631829081 0 -0.2490618870264745 0.40647588616764979 0 -0.26298604578065232 0.3973558675440883 0 -0.2677584473194361 0.40899541659639099 0 -0.2490618870264745 0.40647588616764979 0 -0.25213085833087667 0.37355178257669552 0 -0.26775424033426293 0.38456849691175748 0 -0.25152819264859128 0.38883491631829081 0 -0.26775424033426293 0.38456849691175748 0 -0.26298604578065232 0.3973558675440883 0 -0.25152819264859128 0.38883491631829081 0 -0.26470209097228098 0.37140351159401941 0 -0.25213085833087667 0.37355178257669552 0 -0.26775424033426293 0.38456849691175748 0 -0.2572482915111563 0.42152384209731297 0 -0.26330490497154813 0.43976041958731371 0 -0.24092688658692171 0.43286849171069308 0 -0.2572482915111563 0.42152384209731297 0 -0.27163392734069919 0.42205675226444578 0 -0.26330490497154813 0.43976041958731371 0 -0.2572482915111563 0.42152384209731297 0 -0.2677584473194361 0.40899541659639099 0 -0.2490618870264745 0.40647588616764979 0 -0.2572482915111563 0.42152384209731297 0 -0.2677584473194361 0.40899541659639099 0 -0.27163392734069919 0.42205675226444578 0 -0.27940045790464241 0.41220012044695847 0 -0.27163392734069919 0.42205675226444578 0 -0.28418248977984512 0.43050084655080739 0 -0.2677584473194361 0.40899541659639099 0 -0.27940045790464241 0.41220012044695847 0 -0.27163392734069919 0.42205675226444578 0 -0.278827461574497 0.39790462172635238 0 -0.2677584473194361 0.40899541659639099 0 -0.27940045790464241 0.41220012044695847 0 -0.27163392734069919 0.42205675226444578 0 -0.28418248977984512 0.43050084655080739 0 -0.26330490497154813 0.43976041958731371 0 -0.28418248977984512 0.43050084655080739 0 -0.29943060469912958 0.42576946359573847 0 -0.28981068171355151 0.44369098771903792 0 -0.29146244090030071 0.40289140707507309 0 -0.28418248977984512 0.43050084655080739 0 -0.29146244090030071 0.40289140707507309 0 -0.27940045790464241 0.41220012044695847 0 -0.28418248977984512 0.43050084655080739 0 -0.28418248977984512 0.43050084655080739 0 -0.29725622628512233 0.40875679945997928 0 -0.29943060469912958 0.42576946359573847 0 -0.29146244090030071 0.40289140707507309 0 -0.28418248977984512 0.43050084655080739 0 -0.29725622628512233 0.40875679945997928 0 -0.31441363705571701 0.41408607272300291 0 -0.32505653004414181 0.39961172552874852 0 -0.29725622628512233 0.40875679945997928 0 -0.31441363705571701 0.41408607272300291 0 -0.29725622628512233 0.40875679945997928 0 -0.29943060469912958 0.42576946359573847 0 -0.31441363705571701 0.41408607272300291 0 -0.29943060469912958 0.42576946359573847 0 -0.31148998866141242 0.43181261152586448 0 -0.29943060469912958 0.42576946359573847 0 -0.31148998866141242 0.43181261152586448 0 -0.28981068171355151 0.44369098771903792 0 -0.31148998866141242 0.43181261152586448 0 -0.30120616623050861 0.45239726712555162 0 -0.31718999816658727 0.45065056632578487 0 -0.31148998866141242 0.43181261152586448 0 -0.30120616623050861 0.45239726712555162 0 -0.31148998866141242 0.43181261152586448 0 -0.30120616623050861 0.45239726712555162 0 -0.28981068171355151 0.44369098771903792 0 -0.30120616623050861 0.45239726712555162 0 -0.29092234379960469 0.47298192272523881 0 -0.30745775624609217 0.47728579204436761 0 -0.30120616623050861 0.45239726712555162 0 -0.30745775624609217 0.47728579204436761 0 -0.31718999816658727 0.45065056632578487 0 -0.2852957606144535 0.45730244818253718 0 -0.28186649269177161 0.46567885888970018 0 -0.29092234379960469 0.47298192272523881 0 -0.30120616623050861 0.45239726712555162 0 -0.29092234379960469 0.47298192272523881 0 -0.30120616623050861 0.45239726712555162 0 -0.2852957606144535 0.45730244818253718 0 -0.29092234379960469 0.47298192272523881 0 -0.2852957606144535 0.45730244818253718 0 -0.28186649269177161 0.46567885888970018 0 -0.27690253865938408 0.45811028602654041 0 -0.28418248977984512 0.43050084655080739 0 -0.28981068171355151 0.44369098771903792 0 -0.27690253865938408 0.45811028602654041 0 -0.30120616623050861 0.45239726712555162 0 -0.2852957606144535 0.45730244818253718 0 -0.28981068171355151 0.44369098771903792 0 -0.2852957606144535 0.45730244818253718 0 -0.28981068171355151 0.44369098771903792 0 -0.27690253865938408 0.45811028602654041 0 -0.28418248977984512 0.43050084655080739 0 -0.27690253865938408 0.45811028602654041 0 -0.28418248977984512 0.43050084655080739 0 -0.27690253865938408 0.45811028602654041 0 -0.26330490497154813 0.43976041958731371 0 -0.2852957606144535 0.45730244818253718 0 -0.27690253865938408 0.45811028602654041 0 -0.28186649269177161 0.46567885888970018 0 -0.27690253865938408 0.45811028602654041 0 -0.27835780074514338 0.47366975871288508 0 -0.27690253865938408 0.45811028602654041 0 -0.25345677561811758 0.46036691342989022 0 -0.27690253865938408 0.45811028602654041 0 -0.25345677561811758 0.46036691342989022 0 -0.26590293397843329 0.47057525233348851 0 -0.25345677561811758 0.46036691342989022 0 -0.25315469521642581 0.4750486889203015 0 -0.26590293397843329 0.47057525233348851 0 -0.25345677561811758 0.46036691342989022 0 -0.26330490497154813 0.43976041958731371 0 -0.24129970279445639 0.44943490890582899 0 -0.27690253865938408 0.45811028602654041 0 -0.25345677561811758 0.46036691342989022 0 -0.26330490497154813 0.43976041958731371 0 -0.26169037092037989 0.4910190989046625 0 -0.25397816739109252 0.5 0 -0.27113802145370669 0.49283981386083792 0 -0.26169037092037989 0.4910190989046625 0 -0.25474868654415728 0.48692894813519849 0 -0.26689660829256312 0.48430763362261348 0 -0.26169037092037989 0.4910190989046625 0 -0.25397816739109252 0.5 0 -0.25474868654415728 0.48692894813519849 0 -0.25315469521642581 0.4750486889203015 0 -0.26689660829256312 0.48430763362261348 0 -0.25315469521642581 0.4750486889203015 0 -0.26689660829256312 0.48430763362261348 0 -0.26590293397843329 0.47057525233348851 0 -0.25474868654415728 0.48692894813519849 0 -0.25315469521642581 0.4750486889203015 0 -0.26689660829256312 0.48430763362261348 0 -0.27690253865938408 0.45811028602654041 0 -0.26590293397843329 0.47057525233348851 0 -0.26946370716205509 0.4860372782758946 0 -0.27690253865938408 0.45811028602654041 0 -0.26946370716205509 0.4860372782758946 0 -0.27690253865938408 0.45811028602654041 0 -0.27835780074514338 0.47366975871288508 0 -0.26946370716205509 0.4860372782758946 0 -0.26689660829256312 0.48430763362261348 0 -0.26590293397843329 0.47057525233348851 0 -0.26946370716205509 0.4860372782758946 0 -0.28186649269177161 0.46567885888970018 0 -0.27835780074514338 0.47366975871288508 0 -0.28298297564177088 0.4743823417855309 0 -0.27835780074514338 0.47366975871288508 0 -0.2798907507987049 0.48286402398659151 0 -0.28298297564177088 0.4743823417855309 0 -0.27835780074514338 0.47366975871288508 0 -0.2798907507987049 0.48286402398659151 0 -0.26946370716205509 0.4860372782758946 0 -0.26946370716205509 0.4860372782758946 0 -0.28063852136870049 0.49356657832492562 0 -0.26946370716205509 0.4860372782758946 0 -0.27113802145370669 0.49283981386083792 0 -0.28063852136870049 0.49356657832492562 0 -0.2798907507987049 0.48286402398659151 0 -0.26946370716205509 0.4860372782758946 0 -0.28063852136870049 0.49356657832492562 0 -0.25397816739109252 0.5 0 -0.27113802145370669 0.49283981386083792 0 -0.27742446875513049 0.50000000000000155 0 -0.26689660829256312 0.48430763362261348 0 -0.26946370716205509 0.4860372782758946 0 -0.27113802145370669 0.49283981386083792 0 -0.26169037092037989 0.4910190989046625 0 -0.26689660829256312 0.48430763362261348 0 -0.27113802145370669 0.49283981386083792 0 -0.26689660829256312 0.48430763362261348 0 -0.26946370716205509 0.4860372782758946 0 -0.27113802145370669 0.49283981386083792 0 -0.28063852136870049 0.49356657832492562 0 -0.27742446875513049 0.50000000000000155 0 -0.28063852136870049 0.49356657832492562 0 -0.27742446875513049 0.50000000000000155 0 -0.28063852136870049 0.49356657832492562 0 -0.27742446875513049 0.50000000000000155 0 -0.29018685806186229 0.50000000000000122 0 -0.28063852136870049 0.49356657832492562 0 -0.29018685806186229 0.50000000000000122 0 -0.29092234379960469 0.47298192272523881 0 -0.28063852136870049 0.49356657832492562 0 -0.29018685806186229 0.50000000000000122 0 -0.29018685806186229 0.50000000000000122 0 -0.29092234379960469 0.47298192272523881 0 -0.30745775624609217 0.47728579204436761 0 -0.28063852136870049 0.49356657832492562 0 -0.29092234379960469 0.47298192272523881 0 -0.2798907507987049 0.48286402398659151 0 -0.28063852136870049 0.49356657832492562 0 -0.29092234379960469 0.47298192272523881 0 -0.28186649269177161 0.46567885888970018 0 -0.28298297564177088 0.4743823417855309 0 -0.29092234379960469 0.47298192272523881 0 -0.2798907507987049 0.48286402398659151 0 -0.28298297564177088 0.4743823417855309 0 -0.29092234379960469 0.47298192272523881 0 -0.29018685806186229 0.50000000000000122 0 -0.30745775624609217 0.47728579204436761 0 -0.3640375775585698 0.5 0 -0.30745775624609217 0.47728579204436761 0 -0.33122457162539992 0.46023714195115112 0 -0.3640375775585698 0.5 0 -0.30745775624609217 0.47728579204436761 0 -0.33122457162539992 0.46023714195115112 0 -0.30745775624609217 0.47728579204436761 0 -0.31718999816658727 0.45065056632578487 0 -0.33122457162539992 0.46023714195115112 0 -0.33223168701086447 0.43660936806356893 0 -0.31148998866141242 0.43181261152586448 0 -0.31718999816658727 0.45065056632578487 0 -0.33223168701086447 0.43660936806356893 0 -0.31718999816658727 0.45065056632578487 0 -0.33122457162539992 0.46023714195115112 0 -0.33122457162539992 0.46023714195115112 0 -0.35499138700470761 0.44318849185793469 0 -0.33223168701086447 0.43660936806356893 0 -0.33122457162539992 0.46023714195115112 0 -0.35499138700470761 0.44318849185793469 0 -0.33122457162539992 0.46023714195115112 0 -0.35376164566254242 0.46494380824906301 0 -0.35499138700470761 0.44318849185793469 0 -0.38249991962136642 0.44345487931465249 0 -0.35499138700470761 0.44318849185793469 0 -0.37103467036260362 0.45695891695805302 0 -0.38249991962136642 0.44345487931465249 0 -0.37875820238401509 0.42613984176471847 0 -0.35499138700470761 0.44318849185793469 0 -0.35376164566254242 0.46494380824906301 0 -0.35499138700470761 0.44318849185793469 0 -0.37103467036260362 0.45695891695805302 0 -0.35376164566254242 0.46494380824906301 0 -0.37103467036260362 0.45695891695805302 0 -0.36943712044780219 0.47475959506207249 0 -0.33122457162539992 0.46023714195115112 0 -0.35376164566254242 0.46494380824906301 0 -0.3640375775585698 0.5 0 -0.38891458820749281 0.47713565504117422 0 -0.36943712044780219 0.47475959506207249 0 -0.3640375775585698 0.5 0 -0.35376164566254242 0.46494380824906301 0 -0.36943712044780219 0.47475959506207249 0 -0.3640375775585698 0.5 0 -0.1410608215807003 0.47118489318428192 0 -0.1506389915883973 0.47451242435581331 0 -0.15779819732271971 0.4695739402503486 0 -0.1410608215807003 0.47118489318428192 0 -0.15779819732271971 0.4695739402503486 0 -0.1455325599989582 0.47665965757352818 0 -0.14983465253105441 0.48099067897208148 0 -0.1405957742956809 0.47995063378193648 0 -0.14983465253105441 0.48099067897208148 0 -0.14427471349546869 0.48965289008050411 0 -0.1405957742956809 0.47995063378193648 0 -0.1455325599989582 0.47665965757352818 0 -0.1410608215807003 0.47118489318428192 0 -0.1506389915883973 0.47451242435581331 0 -0.1455325599989582 0.47665965757352818 0 -0.1410608215807003 0.47118489318428192 0 -0.1405957742956809 0.47995063378193648 0 -0.1506389915883973 0.47451242435581331 0 -0.15682389603308189 0.47748605108520858 0 -0.15779819732271971 0.4695739402503486 0 -0.1506389915883973 0.47451242435581331 0 -0.14983465253105441 0.48099067897208148 0 -0.15682389603308189 0.47748605108520858 0 -0.1455325599989582 0.47665965757352818 0 -0.1506389915883973 0.47451242435581331 0 -0.14983465253105441 0.48099067897208148 0 -0.14983465253105441 0.48099067897208148 0 -0.1558122254133027 0.48316327461493752 0 -0.15682389603308189 0.47748605108520858 0 -0.14983465253105441 0.48099067897208148 0 -0.1558122254133027 0.48316327461493752 0 -0.15140604362779489 0.486968875654338 0 -0.1558122254133027 0.48316327461493752 0 -0.15140604362779489 0.486968875654338 0 -0.15545271364459581 0.49281799385228547 0 -0.14983465253105441 0.48099067897208148 0 -0.15140604362779489 0.486968875654338 0 -0.14427471349546869 0.48965289008050411 0 -0.15140604362779489 0.486968875654338 0 -0.15545271364459581 0.49281799385228547 0 -0.14427471349546869 0.48965289008050411 0 -0.15453849507163009 0.5 0 -0.14427471349546869 0.48965289008050411 0 -0.12543772684428189 0.5 0 -0.15453849507163009 0.5 0 -0.15545271364459581 0.49281799385228547 0 -0.14427471349546869 0.48965289008050411 0 -0.14427471349546869 0.48965289008050411 0 -0.12543772684428189 0.5 0 -0.13178312884530541 0.48627570230508688 0 -0.14427471349546869 0.48965289008050411 0 -0.13178312884530541 0.48627570230508688 0 -0.1405957742956809 0.47995063378193648 0 -0.13178312884530541 0.48627570230508688 0 -0.1317912103042716 0.47600940211286807 0 -0.11642361318749669 0.48420448820259387 0 -0.1317912103042716 0.47600940211286807 0 -0.14083201439797821 0.46516349611765162 0 -0.12052644250191399 0.4682622397032008 0 -0.13178312884530541 0.48627570230508688 0 -0.1405957742956809 0.47995063378193648 0 -0.1317912103042716 0.47600940211286807 0 -0.1410608215807003 0.47118489318428192 0 -0.1405957742956809 0.47995063378193648 0 -0.1317912103042716 0.47600940211286807 0 -0.1410608215807003 0.47118489318428192 0 -0.1317912103042716 0.47600940211286807 0 -0.14083201439797821 0.46516349611765162 0 -0.12618187852634369 0.45882241462805679 0 -0.14083201439797821 0.46516349611765162 0 -0.12052644250191399 0.4682622397032008 0 -0.14083201439797821 0.46516349611765162 0 -0.12052644250191399 0.4682622397032008 0 -0.12618187852634369 0.45882241462805679 0 -0.13621980461969219 0.45775649261309698 0 -0.13482926781972801 0.45201676164804122 0 -0.13621980461969219 0.45775649261309698 0 -0.13482926781972801 0.45201676164804122 0 -0.1430360577347192 0.45502329805863873 0 -0.13621980461969219 0.45775649261309698 0 -0.14083201439797821 0.46516349611765162 0 -0.1430360577347192 0.45502329805863873 0 -0.12618187852634369 0.45882241462805679 0 -0.13621980461969219 0.45775649261309698 0 -0.14083201439797821 0.46516349611765162 0 -0.12618187852634369 0.45882241462805679 0 -0.13482926781972801 0.45201676164804122 0 -0.1248743097581413 0.44162978393037222 0 -0.13482926781972801 0.45201676164804122 0 -0.13973201497409549 0.44099892737807922 0 -0.1415241139788854 0.4488412036993919 0 -0.13482926781972801 0.45201676164804122 0 -0.1415241139788854 0.4488412036993919 0 -0.1430360577347192 0.45502329805863873 0 -0.13973201497409549 0.44099892737807922 0 -0.13491063247587859 0.43073185275000708 0 -0.1248743097581413 0.44162978393037222 0 -0.13482926781972801 0.45201676164804122 0 -0.13973201497409549 0.44099892737807922 0 -0.1248743097581413 0.44162978393037222 0 -0.13973201497409549 0.44099892737807922 0 -0.14849911538699881 0.44732582771280882 0 -0.14949031039727409 0.43903968606904947 0 -0.14849911538699881 0.44732582771280882 0 -0.1430360577347192 0.45502329805863873 0 -0.15230793746503779 0.45507497120342549 0 -0.13973201497409549 0.44099892737807922 0 -0.1415241139788854 0.4488412036993919 0 -0.14849911538699881 0.44732582771280882 0 -0.1415241139788854 0.4488412036993919 0 -0.14849911538699881 0.44732582771280882 0 -0.1430360577347192 0.45502329805863873 0 -0.14849911538699881 0.44732582771280882 0 -0.15230793746503779 0.45507497120342549 0 -0.15767924869329919 0.44641741059368378 0 -0.14949031039727409 0.43903968606904947 0 -0.15767924869329919 0.44641741059368378 0 -0.15912083936695831 0.4347249498771325 0 -0.14849911538699881 0.44732582771280882 0 -0.14949031039727409 0.43903968606904947 0 -0.15767924869329919 0.44641741059368378 0 -0.14083201439797821 0.46516349611765162 0 -0.16113758629404229 0.46206475253210239 0 -0.15779819732271971 0.4695739402503486 0 -0.1410608215807003 0.47118489318428192 0 -0.14083201439797821 0.46516349611765162 0 -0.15779819732271971 0.4695739402503486 0 -0.14083201439797821 0.46516349611765162 0 -0.16113758629404229 0.46206475253210239 0 -0.14083201439797821 0.46516349611765162 0 -0.15230793746503779 0.45507497120342549 0 -0.16113758629404229 0.46206475253210239 0 -0.14083201439797821 0.46516349611765162 0 -0.1430360577347192 0.45502329805863873 0 -0.15230793746503779 0.45507497120342549 0 -0.16113758629404229 0.46206475253210239 0 -0.16940388650370539 0.44815354093755089 0 -0.18144315819010631 0.45896600894655282 0 -0.16113758629404229 0.46206475253210239 0 -0.18144315819010631 0.45896600894655282 0 -0.16113758629404229 0.46206475253210239 0 -0.17453557306473899 0.46796298731641428 0 -0.15779819732271971 0.4695739402503486 0 -0.15230793746503779 0.45507497120342549 0 -0.16113758629404229 0.46206475253210239 0 -0.16013216473902109 0.45292766881669072 0 -0.16113758629404229 0.46206475253210239 0 -0.16013216473902109 0.45292766881669072 0 -0.16940388650370539 0.44815354093755089 0 -0.15767924869329919 0.44641741059368378 0 -0.16940388650370539 0.44815354093755089 0 -0.15912083936695831 0.4347249498771325 0 -0.15230793746503779 0.45507497120342549 0 -0.16013216473902109 0.45292766881669072 0 -0.15767924869329919 0.44641741059368378 0 -0.16013216473902109 0.45292766881669072 0 -0.15767924869329919 0.44641741059368378 0 -0.16940388650370539 0.44815354093755089 0 -0.1829590266345629 0.45699162349075462 0 -0.18255950863604661 0.43173185523385532 0 -0.1829590266345629 0.45699162349075462 0 -0.19557533522393281 0.44055915781337712 0 -0.18255950863604661 0.43173185523385532 0 -0.16940388650370539 0.44815354093755089 0 -0.1829590266345629 0.45699162349075462 0 -0.18255950863604661 0.43173185523385532 0 -0.16113758629404229 0.46206475253210239 0 -0.17453557306473899 0.46796298731641428 0 -0.18144315819010631 0.45896600894655282 0 -0.17453557306473899 0.46796298731641428 0 -0.18144315819010631 0.45896600894655282 0 -0.17453557306473899 0.46796298731641428 0 -0.18311948649431831 0.46713679563994498 0 -0.16940388650370539 0.44815354093755089 0 -0.18144315819010631 0.45896600894655282 0 -0.1829590266345629 0.45699162349075462 0 -0.18144315819010631 0.45896600894655282 0 -0.1829590266345629 0.45699162349075462 0 -0.18144315819010631 0.45896600894655282 0 -0.1829865290739871 0.45873048193697258 0 -0.1829590266345629 0.45699162349075462 0 -0.18144315819010631 0.45896600894655282 0 -0.1829865290739871 0.45873048193697258 0 -0.1829865290739871 0.45873048193697258 0 -0.1829590266345629 0.45699162349075462 0 -0.17453557306473899 0.46796298731641428 0 -0.18144315819010631 0.45896600894655282 0 -0.18311948649431831 0.46713679563994498 0 -0.1829865290739871 0.45873048193697258 0 -0.18311948649431831 0.46713679563994498 0 -0.18144315819010631 0.45896600894655282 0 -0.1829865290739871 0.45873048193697258 0 -0.18311948649431831 0.46713679563994498 0 -0.18311948649431831 0.46713679563994498 0 -0.18337937489664821 0.48356839781997168 0 -0.19511197543601369 0.47606725323690458 0 -0.18311948649431831 0.46713679563994498 0 -0.18337937489664821 0.48356839781997168 0 -0.18311948649431831 0.46713679563994498 0 -0.18337937489664821 0.48356839781997168 0 -0.17485937494801759 0.47808814193434568 0 -0.17453557306473899 0.46796298731641428 0 -0.18311948649431831 0.46713679563994498 0 -0.17485937494801759 0.47808814193434568 0 -0.17453557306473899 0.46796298731641428 0 -0.15779819732271971 0.4695739402503486 0 -0.17453557306473899 0.46796298731641428 0 -0.16499414335466689 0.48039049058434952 0 -0.17453557306473899 0.46796298731641428 0 -0.16499414335466689 0.48039049058434952 0 -0.15779819732271971 0.4695739402503486 0 -0.17453557306473899 0.46796298731641428 0 -0.17485937494801759 0.47808814193434568 0 -0.16499414335466689 0.48039049058434952 0 -0.17485937494801759 0.47808814193434568 0 -0.16499414335466689 0.48039049058434952 0 -0.1699453859209171 0.49288017845899518 0 -0.1558122254133027 0.48316327461493752 0 -0.16499414335466689 0.48039049058434952 0 -0.15682389603308189 0.47748605108520858 0 -0.16499414335466689 0.48039049058434952 0 -0.15682389603308189 0.47748605108520858 0 -0.15779819732271971 0.4695739402503486 0 -0.15453849507163009 0.5 0 -0.1699453859209171 0.49288017845899518 0 -0.18363926329897839 0.49999999999999828 0 -0.15453849507163009 0.5 0 -0.15545271364459581 0.49281799385228547 0 -0.1699453859209171 0.49288017845899518 0 -0.15545271364459581 0.49281799385228547 0 -0.16499414335466689 0.48039049058434952 0 -0.1699453859209171 0.49288017845899518 0 -0.15545271364459581 0.49281799385228547 0 -0.16499414335466689 0.48039049058434952 0 -0.1558122254133027 0.48316327461493752 0 -0.15545271364459581 0.49281799385228547 0 -0.16499414335466689 0.48039049058434952 0 -0.18337937489664821 0.48356839781997168 0 -0.18363926329897839 0.49999999999999828 0 -0.18337937489664821 0.48356839781997168 0 -0.1699453859209171 0.49288017845899518 0 -0.18363926329897839 0.49999999999999828 0 -0.18337937489664821 0.48356839781997168 0 -0.17485937494801759 0.47808814193434568 0 -0.1699453859209171 0.49288017845899518 0 -0.18337937489664821 0.48356839781997168 0 -0.18363926329897839 0.49999999999999828 0 -0.19848883175809501 0.48685236178056529 0 -0.18363926329897839 0.49999999999999828 0 -0.19848883175809501 0.48685236178056529 0 -0.20708556466301639 0.5 0 -0.18311948649431831 0.46713679563994498 0 -0.19511197543601369 0.47606725323690458 0 -0.20656524953558469 0.46488016823659339 0 -0.18337937489664821 0.48356839781997168 0 -0.19848883175809501 0.48685236178056529 0 -0.19511197543601369 0.47606725323690458 0 -0.19848883175809501 0.48685236178056529 0 -0.19511197543601369 0.47606725323690458 0 -0.206747867840962 0.47700509082497228 0 -0.19511197543601369 0.47606725323690458 0 -0.206747867840962 0.47700509082497228 0 -0.20656524953558469 0.46488016823659339 0 -0.19848883175809501 0.48685236178056529 0 -0.206747867840962 0.47700509082497228 0 -0.21585796601610141 0.48648558657266339 0 -0.206747867840962 0.47700509082497228 0 -0.21852396914967101 0.47285401242330122 0 -0.20656524953558469 0.46488016823659339 0 -0.206747867840962 0.47700509082497228 0 -0.21852396914967101 0.47285401242330122 0 -0.21585796601610141 0.48648558657266339 0 -0.20708556466301639 0.5 0 -0.21585796601610141 0.48648558657266339 0 -0.23053186602705439 0.5 0 -0.19848883175809501 0.48685236178056529 0 -0.20708556466301639 0.5 0 -0.21585796601610141 0.48648558657266339 0 -0.21585796601610141 0.48648558657266339 0 -0.23053186602705439 0.5 0 -0.2373192826940049 0.48342253064983348 0 -0.21852396914967101 0.47285401242330122 0 -0.2373192826940049 0.48342253064983348 0 -0.23001101257685119 0.46262354083324181 0 -0.21852396914967101 0.47285401242330122 0 -0.21585796601610141 0.48648558657266339 0 -0.2373192826940049 0.48342253064983348 0 -0.25474868654415728 0.48692894813519849 0 -0.25315469521642581 0.4750486889203015 0 -0.2373192826940049 0.48342253064983348 0 -0.25315469521642581 0.4750486889203015 0 -0.2373192826940049 0.48342253064983348 0 -0.23001101257685119 0.46262354083324181 0 -0.25397816739109252 0.5 0 -0.23053186602705439 0.5 0 -0.2373192826940049 0.48342253064983348 0 -0.25397816739109252 0.5 0 -0.25474868654415728 0.48692894813519849 0 -0.2373192826940049 0.48342253064983348 0 -0.26330490497154813 0.43976041958731371 0 -0.24129970279445639 0.44943490890582899 0 -0.24092688658692171 0.43286849171069308 0 -0.24129970279445639 0.44943490890582899 0 -0.2242493546558077 0.44235471361969553 0 -0.24092688658692171 0.43286849171069308 0 -0.25345677561811758 0.46036691342989022 0 -0.23001101257685119 0.46262354083324181 0 -0.25345677561811758 0.46036691342989022 0 -0.24129970279445639 0.44943490890582899 0 -0.23001101257685119 0.46262354083324181 0 -0.25345677561811758 0.46036691342989022 0 -0.25315469521642581 0.4750486889203015 0 -0.23001101257685119 0.46262354083324181 0 -0.24129970279445639 0.44943490890582899 0 -0.23001101257685119 0.46262354083324181 0 -0.2242493546558077 0.44235471361969553 0 -0.23001101257685119 0.46262354083324181 0 -0.2242493546558077 0.44235471361969553 0 -0.2144914677851314 0.45380351874251162 0 -0.2242493546558077 0.44235471361969553 0 -0.20880164963731279 0.443380440886459 0 -0.2144914677851314 0.45380351874251162 0 -0.20880164963731279 0.443380440886459 0 -0.2144914677851314 0.45380351874251162 0 -0.20415969833182021 0.45549933815243238 0 -0.23001101257685119 0.46262354083324181 0 -0.2144914677851314 0.45380351874251162 0 -0.20656524953558469 0.46488016823659339 0 -0.21852396914967101 0.47285401242330122 0 -0.23001101257685119 0.46262354083324181 0 -0.20656524953558469 0.46488016823659339 0 -0.23001101257685119 0.46262354083324181 0 -0.20656524953558469 0.46488016823659339 0 -0.2144914677851314 0.45380351874251162 0 -0.20415969833182021 0.45549933815243238 0 -0.20656524953558469 0.46488016823659339 0 -0.1829865290739871 0.45873048193697258 0 -0.1829590266345629 0.45699162349075462 0 -0.20415969833182021 0.45549933815243238 0 -0.1829865290739871 0.45873048193697258 0 -0.20415969833182021 0.45549933815243238 0 -0.18311948649431831 0.46713679563994498 0 -0.20415969833182021 0.45549933815243238 0 -0.20656524953558469 0.46488016823659339 0 -0.1829865290739871 0.45873048193697258 0 -0.18311948649431831 0.46713679563994498 0 -0.20415969833182021 0.45549933815243238 0 -0.18311948649431831 0.46713679563994498 0 -0.20656524953558469 0.46488016823659339 0 -0.1829590266345629 0.45699162349075462 0 -0.19557533522393281 0.44055915781337712 0 -0.1829590266345629 0.45699162349075462 0 -0.20415969833182021 0.45549933815243238 0 -0.19557533522393281 0.44055915781337712 0 -0.20880164963731279 0.443380440886459 0 -0.20415969833182021 0.45549933815243238 0 -0.19557533522393281 0.44055915781337712 0 -0.19557533522393281 0.44055915781337712 0 -0.20819164381331129 0.42412669213600601 0 -0.19557533522393281 0.44055915781337712 0 -0.19413142888046839 0.4217351031076268 0 -0.18255950863604661 0.43173185523385532 0 -0.19557533522393281 0.44055915781337712 0 -0.19413142888046839 0.4217351031076268 0 -0.20819164381331129 0.42412669213600601 0 -0.19413142888046839 0.4217351031076268 0 -0.20819164381331129 0.42412669213600601 0 -0.2021706660915297 0.40578572337793972 0 -0.19413142888046839 0.4217351031076268 0 -0.2021706660915297 0.40578572337793972 0 -0.18215999063752189 0.40647208697695608 0 -0.20819164381331129 0.42412669213600601 0 -0.22405449890785839 0.40643558214578251 0 -0.2021706660915297 0.40578572337793972 0 -0.20880164963731279 0.443380440886459 0 -0.19557533522393281 0.44055915781337712 0 -0.20819164381331129 0.42412669213600601 0 -0.2242493546558077 0.44235471361969553 0 -0.20880164963731279 0.443380440886459 0 -0.20819164381331129 0.42412669213600601 0 -0.2242493546558077 0.44235471361969553 0 -0.20819164381331129 0.42412669213600601 0 -0.22600929792909111 0.42518400498706249 0 -0.2242493546558077 0.44235471361969553 0 -0.22600929792909111 0.42518400498706249 0 -0.24092688658692171 0.43286849171069308 0 -0.20819164381331129 0.42412669213600601 0 -0.22600929792909111 0.42518400498706249 0 -0.22405449890785839 0.40643558214578251 0 -0.22600929792909111 0.42518400498706249 0 -0.22405449890785839 0.40643558214578251 0 -0.2382988550227183 0.41778448946306668 0 -0.2572482915111563 0.42152384209731297 0 -0.2382988550227183 0.41778448946306668 0 -0.2490618870264745 0.40647588616764979 0 -0.22405449890785839 0.40643558214578251 0 -0.2382988550227183 0.41778448946306668 0 -0.2490618870264745 0.40647588616764979 0 -0.2572482915111563 0.42152384209731297 0 -0.2382988550227183 0.41778448946306668 0 -0.24092688658692171 0.43286849171069308 0 -0.22600929792909111 0.42518400498706249 0 -0.2382988550227183 0.41778448946306668 0 -0.24092688658692171 0.43286849171069308 0 -0.24000210142933509 0.37809552861286783 0 -0.23801773827758249 0.39392053259368742 0 -0.22567210936962789 0.38582584627882549 0 -0.25152819264859128 0.38883491631829081 0 -0.24000210142933509 0.37809552861286783 0 -0.23801773827758249 0.39392053259368742 0 -0.25213085833087667 0.37355178257669552 0 -0.25152819264859128 0.38883491631829081 0 -0.24000210142933509 0.37809552861286783 0 -0.25152819264859128 0.38883491631829081 0 -0.2490618870264745 0.40647588616764979 0 -0.23801773827758249 0.39392053259368742 0 -0.22405449890785839 0.40643558214578251 0 -0.2490618870264745 0.40647588616764979 0 -0.23801773827758249 0.39392053259368742 0 -0.22405449890785839 0.40643558214578251 0 -0.22567210936962789 0.38582584627882549 0 -0.2099895612515065 0.38861519238670661 0 -0.22405449890785839 0.40643558214578251 0 -0.23801773827758249 0.39392053259368742 0 -0.22567210936962789 0.38582584627882549 0 -0.22567210936962789 0.38582584627882549 0 -0.21752164111765379 0.37637519474985792 0 -0.23054114355980421 0.3681661286558337 0 -0.24000210142933509 0.37809552861286783 0 -0.22567210936962789 0.38582584627882549 0 -0.23054114355980421 0.3681661286558337 0 -0.22567210936962789 0.38582584627882549 0 -0.21752164111765379 0.37637519474985792 0 -0.2099895612515065 0.38861519238670661 0 -0.21752164111765379 0.37637519474985792 0 -0.2099895612515065 0.38861519238670661 0 -0.20825127389149589 0.37038948781896619 0 -0.2099895612515065 0.38861519238670661 0 -0.1956253707180633 0.37355818799515828 0 -0.20825127389149589 0.37038948781896619 0 -0.22405449890785839 0.40643558214578251 0 -0.2099895612515065 0.38861519238670661 0 -0.2021706660915297 0.40578572337793972 0 -0.2021706660915297 0.40578572337793972 0 -0.19434121226752371 0.39112870189136351 0 -0.18215999063752189 0.40647208697695608 0 -0.2099895612515065 0.38861519238670661 0 -0.2021706660915297 0.40578572337793972 0 -0.19434121226752371 0.39112870189136351 0 -0.2099895612515065 0.38861519238670661 0 -0.19434121226752371 0.39112870189136351 0 -0.1956253707180633 0.37355818799515828 0 -0.19434121226752371 0.39112870189136351 0 -0.18176047263899719 0.38121231872005679 0 -0.1956253707180633 0.37355818799515828 0 -0.18176047263899719 0.38121231872005679 0 -0.16585623702428451 0.39107516703040651 0 -0.16689278400863089 0.37048631692620287 0 -0.16585623702428451 0.39107516703040651 0 -0.1532541744773912 0.375434017343177 0 -0.15169756500005979 0.38990146883471011 0 -0.16585623702428451 0.39107516703040651 0 -0.1532541744773912 0.375434017343177 0 -0.16689278400863089 0.37048631692620287 0 -0.16585623702428451 0.39107516703040651 0 -0.1665369108918931 0.40914444316194981 0 -0.1556916669008335 0.40278409093046019 0 -0.16585623702428451 0.39107516703040651 0 -0.18215999063752189 0.40647208697695608 0 -0.1665369108918931 0.40914444316194981 0 -0.16585623702428451 0.39107516703040651 0 -0.15169756500005979 0.38990146883471011 0 -0.1556916669008335 0.40278409093046019 0 -0.18176047263899719 0.38121231872005679 0 -0.16585623702428451 0.39107516703040651 0 -0.18215999063752189 0.40647208697695608 0 -0.18176047263899719 0.38121231872005679 0 -0.18215999063752189 0.40647208697695608 0 -0.19434121226752371 0.39112870189136351 0 -0.18176047263899719 0.38121231872005679 0 -0.18215999063752189 0.40647208697695608 0 -0.18215999063752189 0.40647208697695608 0 -0.18255950863604661 0.43173185523385532 0 -0.18215999063752189 0.40647208697695608 0 -0.16958367679162159 0.42493542776846188 0 -0.1665369108918931 0.40914444316194981 0 -0.19413142888046839 0.4217351031076268 0 -0.18215999063752189 0.40647208697695608 0 -0.18255950863604661 0.43173185523385532 0 -0.18215999063752189 0.40647208697695608 0 -0.18255950863604661 0.43173185523385532 0 -0.16958367679162159 0.42493542776846188 0 -0.16940388650370539 0.44815354093755089 0 -0.18255950863604661 0.43173185523385532 0 -0.16958367679162159 0.42493542776846188 0 -0.16940388650370539 0.44815354093755089 0 -0.16958367679162159 0.42493542776846188 0 -0.15912083936695831 0.4347249498771325 0 -0.16958367679162159 0.42493542776846188 0 -0.15912083936695831 0.4347249498771325 0 -0.15604886632200479 0.41831593774319042 0 -0.16958367679162159 0.42493542776846188 0 -0.1665369108918931 0.40914444316194981 0 -0.15604886632200479 0.41831593774319042 0 -0.1665369108918931 0.40914444316194981 0 -0.15604886632200479 0.41831593774319042 0 -0.1556916669008335 0.40278409093046019 0 -0.15604886632200479 0.41831593774319042 0 -0.14768726638806501 0.40958107086639878 0 -0.1556916669008335 0.40278409093046019 0 -0.15604886632200479 0.41831593774319042 0 -0.1455440964649429 0.41771164433310332 0 -0.14575226394851429 0.42876386523653243 0 -0.15604886632200479 0.41831593774319042 0 -0.1455440964649429 0.41771164433310332 0 -0.14768726638806501 0.40958107086639878 0 -0.1455440964649429 0.41771164433310332 0 -0.14768726638806501 0.40958107086639878 0 -0.13820848934052041 0.41088683445876423 0 -0.15912083936695831 0.4347249498771325 0 -0.15604886632200479 0.41831593774319042 0 -0.14575226394851429 0.42876386523653243 0 -0.14949031039727409 0.43903968606904947 0 -0.15912083936695831 0.4347249498771325 0 -0.14575226394851429 0.42876386523653243 0 -0.1455440964649429 0.41771164433310332 0 -0.14575226394851429 0.42876386523653243 0 -0.13557398954387551 0.42076075412316039 0 -0.13973201497409549 0.44099892737807922 0 -0.14949031039727409 0.43903968606904947 0 -0.14575226394851429 0.42876386523653243 0 -0.13491063247587859 0.43073185275000708 0 -0.1242188050129694 0.42501783294758849 0 -0.1248743097581413 0.44162978393037222 0 -0.13973201497409549 0.44099892737807922 0 -0.14575226394851429 0.42876386523653243 0 -0.13491063247587859 0.43073185275000708 0 -0.14575226394851429 0.42876386523653243 0 -0.13491063247587859 0.43073185275000708 0 -0.13557398954387551 0.42076075412316039 0 -0.13491063247587859 0.43073185275000708 0 -0.13557398954387551 0.42076075412316039 0 -0.1242188050129694 0.42501783294758849 0 -0.13820848934052041 0.41088683445876423 0 -0.13557398954387551 0.42076075412316039 0 -0.12623023605756489 0.41143854881348008 0 -0.1455440964649429 0.41771164433310332 0 -0.13820848934052041 0.41088683445876423 0 -0.13557398954387551 0.42076075412316039 0 -0.13557398954387551 0.42076075412316039 0 -0.12623023605756489 0.41143854881348008 0 -0.1242188050129694 0.42501783294758849 0 -0.13820848934052041 0.41088683445876423 0 -0.12623023605756489 0.41143854881348008 0 -0.13398515235888339 0.40371564514020769 0 -0.12997925716256209 0.39431640422262348 0 -0.14074253368576661 0.38200722200303072 0 -0.1429432129120235 0.39820684686647628 0 -0.12623023605756489 0.41143854881348008 0 -0.13398515235888339 0.40371564514020769 0 -0.12997925716256209 0.39431640422262348 0 -0.13398515235888339 0.40371564514020769 0 -0.12997925716256209 0.39431640422262348 0 -0.1429432129120235 0.39820684686647628 0 -0.13820848934052041 0.41088683445876423 0 -0.13398515235888339 0.40371564514020769 0 -0.1429432129120235 0.39820684686647628 0 -0.12997925716256209 0.39431640422262348 0 -0.14074253368576661 0.38200722200303072 0 -0.12523428666698541 0.37069662222368049 0 -0.12997925716256209 0.39431640422262348 0 -0.12523428666698541 0.37069662222368049 0 -0.12103247972044499 0.39311621374447298 0 -0.14074253368576661 0.38200722200303072 0 -0.15169756500005979 0.38990146883471011 0 -0.1429432129120235 0.39820684686647628 0 -0.14074253368576661 0.38200722200303072 0 -0.1532541744773912 0.375434017343177 0 -0.15169756500005979 0.38990146883471011 0 -0.15169756500005979 0.38990146883471011 0 -0.1556916669008335 0.40278409093046019 0 -0.1429432129120235 0.39820684686647628 0 -0.14768726638806501 0.40958107086639878 0 -0.1556916669008335 0.40278409093046019 0 -0.1429432129120235 0.39820684686647628 0 -0.14768726638806501 0.40958107086639878 0 -0.13820848934052041 0.41088683445876423 0 -0.1429432129120235 0.39820684686647628 0 -0.14407255521749979 0.34403263722221961 0 -0.15504053286571459 0.3545366000593369 0 -0.14129669608781389 0.36249735492572199 0 -0.14407255521749979 0.34403263722221961 0 -0.15504053286571459 0.3545366000593369 0 -0.1549481930100888 0.34056708499864929 0 -0.14074253368576661 0.38200722200303072 0 -0.1532541744773912 0.375434017343177 0 -0.14129669608781389 0.36249735492572199 0 -0.1532541744773912 0.375434017343177 0 -0.15504053286571459 0.3545366000593369 0 -0.14129669608781389 0.36249735492572199 0 -0.14129669608781389 0.36249735492572199 0 -0.12523428666698541 0.37069662222368049 0 -0.1294360936135257 0.3482770307028879 0 -0.12523428666698541 0.37069662222368049 0 -0.1294360936135257 0.3482770307028879 0 -0.14074253368576661 0.38200722200303072 0 -0.14129669608781389 0.36249735492572199 0 -0.12523428666698541 0.37069662222368049 0 -0.14407255521749979 0.34403263722221961 0 -0.14129669608781389 0.36249735492572199 0 -0.1294360936135257 0.3482770307028879 0 -0.1294360936135257 0.3482770307028879 0 -0.13363790056006589 0.32585743918209531 0 -0.14407255521749979 0.34403263722221961 0 -0.1294360936135257 0.3482770307028879 0 -0.13363790056006589 0.32585743918209531 0 -0.1294360936135257 0.3482770307028879 0 -0.13363790056006589 0.32585743918209531 0 -0.1154499742120704 0.34086754873962172 0 -0.12722248981549561 0.3181430308760943 0 -0.13363790056006589 0.32585743918209531 0 -0.1360408951285694 0.3130357752318072 0 -0.12722248981549561 0.3181430308760943 0 -0.1360408951285694 0.3130357752318072 0 -0.12136448477009221 0.30951812845445109 0 -0.12722248981549561 0.3181430308760943 0 -0.13363790056006589 0.32585743918209531 0 -0.12142985306419619 0.32461006626398298 0 -0.13363790056006589 0.32585743918209531 0 -0.12142985306419619 0.32461006626398298 0 -0.13363790056006589 0.32585743918209531 0 -0.1360408951285694 0.3130357752318072 0 -0.14290423209994971 0.32095809222069871 0 -0.13363790056006589 0.32585743918209531 0 -0.1360408951285694 0.3130357752318072 0 -0.14290423209994971 0.32095809222069871 0 -0.1532404752523272 0.32269894785805692 0 -0.1464174014568787 0.29836992735667278 0 -0.13363790056006589 0.32585743918209531 0 -0.14290423209994971 0.32095809222069871 0 -0.15729966860100811 0.32827511069417059 0 -0.13363790056006589 0.32585743918209531 0 -0.15729966860100811 0.32827511069417059 0 -0.14290423209994971 0.32095809222069871 0 -0.1532404752523272 0.32269894785805692 0 -0.15729966860100811 0.32827511069417059 0 -0.1532404752523272 0.32269894785805692 0 -0.15943794807189979 0.31595908059817063 0 -0.1547819877644892 0.3091453549012102 0 -0.14407255521749979 0.34403263722221961 0 -0.13363790056006589 0.32585743918209531 0 -0.14748957934716561 0.33468306802428371 0 -0.13363790056006589 0.32585743918209531 0 -0.14748957934716561 0.33468306802428371 0 -0.15729966860100811 0.32827511069417059 0 -0.14748957934716561 0.33468306802428371 0 -0.1549481930100888 0.34056708499864929 0 -0.15729966860100811 0.32827511069417059 0 -0.14407255521749979 0.34403263722221961 0 -0.14748957934716561 0.33468306802428371 0 -0.1549481930100888 0.34056708499864929 0 -0.15729966860100811 0.32827511069417059 0 -0.18096143664194889 0.33069278220625808 0 -0.1549481930100888 0.34056708499864929 0 -0.15729966860100811 0.32827511069417059 0 -0.16781010436956259 0.34240718275037813 0 -0.15729966860100811 0.32827511069417059 0 -0.16781010436956259 0.34240718275037813 0 -0.18096143664194889 0.33069278220625808 0 -0.15729966860100811 0.32827511069417059 0 -0.17028988351433311 0.32233995817617028 0 -0.18096143664194889 0.33069278220625808 0 -0.15943794807189979 0.31595908059817063 0 -0.16495134068588049 0.31685297469802859 0 -0.1638395481514221 0.30983277085387728 0 -0.1532404752523272 0.32269894785805692 0 -0.15943794807189979 0.31595908059817063 0 -0.16037638850537991 0.32126535467967993 0 -0.15943794807189979 0.31595908059817063 0 -0.16037638850537991 0.32126535467967993 0 -0.16495134068588049 0.31685297469802859 0 -0.15729966860100811 0.32827511069417059 0 -0.16037638850537991 0.32126535467967993 0 -0.17028988351433311 0.32233995817617028 0 -0.1532404752523272 0.32269894785805692 0 -0.15729966860100811 0.32827511069417059 0 -0.16037638850537991 0.32126535467967993 0 -0.16495134068588049 0.31685297469802859 0 -0.17285953122972289 0.31090601179704258 0 -0.1638395481514221 0.30983277085387728 0 -0.17028988351433311 0.32233995817617028 0 -0.16495134068588049 0.31685297469802859 0 -0.17285953122972289 0.31090601179704258 0 -0.16037638850537991 0.32126535467967993 0 -0.17028988351433311 0.32233995817617028 0 -0.16495134068588049 0.31685297469802859 0 -0.18077272512400111 0.31876138179813301 0 -0.17285953122972289 0.31090601179704258 0 -0.17028988351433311 0.32233995817617028 0 -0.18077272512400111 0.31876138179813301 0 -0.17285953122972289 0.31090601179704258 0 -0.17028988351433311 0.32233995817617028 0 -0.18077272512400111 0.31876138179813301 0 -0.18096143664194889 0.33069278220625808 0 -0.18077272512400111 0.31876138179813301 0 -0.19386790912735871 0.33176087567547108 0 -0.18077272512400111 0.31876138179813301 0 -0.18096143664194889 0.33069278220625808 0 -0.18077272512400111 0.31876138179813301 0 -0.18096143664194889 0.33069278220625808 0 -0.19386790912735871 0.33176087567547108 0 -0.18096143664194889 0.33069278220625808 0 -0.1813609546404725 0.35595255046315749 0 -0.18096143664194889 0.33069278220625808 0 -0.1813609546404725 0.35595255046315749 0 -0.19258948339875709 0.33633707034479371 0 -0.16781010436956259 0.34240718275037813 0 -0.18096143664194889 0.33069278220625808 0 -0.1813609546404725 0.35595255046315749 0 -0.18096143664194889 0.33069278220625808 0 -0.19386790912735871 0.33176087567547108 0 -0.15504053286571459 0.3545366000593369 0 -0.16781010436956259 0.34240718275037813 0 -0.1813609546404725 0.35595255046315749 0 -0.15504053286571459 0.3545366000593369 0 -0.1549481930100888 0.34056708499864929 0 -0.16781010436956259 0.34240718275037813 0 -0.1532541744773912 0.375434017343177 0 -0.15504053286571459 0.3545366000593369 0 -0.16689278400863089 0.37048631692620287 0 -0.15504053286571459 0.3545366000593369 0 -0.1813609546404725 0.35595255046315749 0 -0.16689278400863089 0.37048631692620287 0 -0.18176047263899719 0.38121231872005679 0 -0.1813609546404725 0.35595255046315749 0 -0.18176047263899719 0.38121231872005679 0 -0.1813609546404725 0.35595255046315749 0 -0.1956253707180633 0.37355818799515828 0 -0.18176047263899719 0.38121231872005679 0 -0.1813609546404725 0.35595255046315749 0 -0.16689278400863089 0.37048631692620287 0 -0.1813609546404725 0.35595255046315749 0 -0.1956253707180633 0.37355818799515828 0 -0.2000380028121157 0.35856944723279938 0 -0.1956253707180633 0.37355818799515828 0 -0.2000380028121157 0.35856944723279938 0 -0.20825127389149589 0.37038948781896619 0 -0.1813609546404725 0.35595255046315749 0 -0.1951678646333711 0.34883535218340811 0 -0.19258948339875709 0.33633707034479371 0 -0.1813609546404725 0.35595255046315749 0 -0.1951678646333711 0.34883535218340811 0 -0.2000380028121157 0.35856944723279938 0 -0.1951678646333711 0.34883535218340811 0 -0.2000380028121157 0.35856944723279938 0 -0.20668301768213909 0.34448234069288158 0 -0.20668301768213909 0.34448234069288158 0 -0.2120127789660084 0.36084248239747968 0 -0.21921666942493959 0.3569244055809645 0 -0.2000380028121157 0.35856944723279938 0 -0.20668301768213909 0.34448234069288158 0 -0.2120127789660084 0.36084248239747968 0 -0.2120127789660084 0.36084248239747968 0 -0.21921666942493959 0.3569244055809645 0 -0.20668301768213909 0.34448234069288158 0 -0.21921666942493959 0.3569244055809645 0 -0.22158808080033929 0.34557455345049992 0 -0.20668301768213909 0.34448234069288158 0 -0.21921666942493959 0.3569244055809645 0 -0.2000380028121157 0.35856944723279938 0 -0.20825127389149589 0.37038948781896619 0 -0.2120127789660084 0.36084248239747968 0 -0.2120127789660084 0.36084248239747968 0 -0.2199937556016836 0.36693485901855288 0 -0.21921666942493959 0.3569244055809645 0 -0.20825127389149589 0.37038948781896619 0 -0.2120127789660084 0.36084248239747968 0 -0.2199937556016836 0.36693485901855288 0 -0.21752164111765379 0.37637519474985792 0 -0.20825127389149589 0.37038948781896619 0 -0.2199937556016836 0.36693485901855288 0 -0.21752164111765379 0.37637519474985792 0 -0.23054114355980421 0.3681661286558337 0 -0.2199937556016836 0.36693485901855288 0 -0.23054114355980421 0.3681661286558337 0 -0.21921666942493959 0.3569244055809645 0 -0.23305195790672301 0.35812934693154008 0 -0.23054114355980421 0.3681661286558337 0 -0.2199937556016836 0.36693485901855288 0 -0.21921666942493959 0.3569244055809645 0 -0.23054114355980421 0.3681661286558337 0 -0.21921666942493959 0.3569244055809645 0 -0.21921666942493959 0.3569244055809645 0 -0.22158808080033929 0.34557455345049992 0 -0.23915963598069589 0.34607775607121571 0 -0.21921666942493959 0.3569244055809645 0 -0.23915963598069589 0.34607775607121571 0 -0.21921666942493959 0.3569244055809645 0 -0.23305195790672301 0.35812934693154008 0 -0.23915963598069589 0.34607775607121571 0 -0.23305195790672301 0.35812934693154008 0 -0.23915963598069589 0.34607775607121571 0 -0.24329038266145239 0.36134909741814653 0 -0.25407523553642281 0.3497448278934856 0 -0.23915963598069589 0.34607775607121571 0 -0.24329038266145239 0.36134909741814653 0 -0.25213085833087667 0.37355178257669552 0 -0.24000210142933509 0.37809552861286783 0 -0.24329038266145239 0.36134909741814653 0 -0.24000210142933509 0.37809552861286783 0 -0.23054114355980421 0.3681661286558337 0 -0.24329038266145239 0.36134909741814653 0 -0.23054114355980421 0.3681661286558337 0 -0.23305195790672301 0.35812934693154008 0 -0.24329038266145239 0.36134909741814653 0 -0.23582541811145999 0.32679902143390172 0 -0.24885494741763489 0.31718848033418301 0 -0.23189508169276829 0.30076725351495531 0 -0.23582541811145999 0.32679902143390172 0 -0.24885494741763489 0.31718848033418301 0 -0.24633099797708269 0.32737693631841108 0 -0.25451497659773847 0.32559442806853028 0 -0.24885494741763489 0.31718848033418301 0 -0.24633099797708269 0.32737693631841108 0 -0.24843663428782739 0.33758714710907461 0 -0.22129300011358269 0.33481371145693772 0 -0.25451497659773847 0.32559442806853028 0 -0.24633099797708269 0.32737693631841108 0 -0.24843663428782739 0.33758714710907461 0 -0.25910260253645218 0.33523110656146687 0 -0.23915963598069589 0.34607775607121571 0 -0.23582541811145999 0.32679902143390172 0 -0.24633099797708269 0.32737693631841108 0 -0.24843663428782739 0.33758714710907461 0 -0.25910260253645218 0.33523110656146687 0 -0.23915963598069589 0.34607775607121571 0 -0.24843663428782739 0.33758714710907461 0 -0.23582541811145999 0.32679902143390172 0 -0.24843663428782739 0.33758714710907461 0 -0.22129300011358269 0.33481371145693772 0 -0.23915963598069589 0.34607775607121571 0 -0.24843663428782739 0.33758714710907461 0 -0.22129300011358269 0.33481371145693772 0 -0.22158808080033929 0.34557455345049992 0 -0.23915963598069589 0.34607775607121571 0 -0.22129300011358269 0.33481371145693772 0 -0.23582541811145999 0.32679902143390172 0 -0.21954464392232159 0.31820766509236142 0 -0.23189508169276829 0.30076725351495531 0 -0.23582541811145999 0.32679902143390172 0 -0.22129300011358269 0.33481371145693772 0 -0.21954464392232159 0.31820766509236142 0 -0.21954464392232159 0.31820766509236142 0 -0.20492818889453221 0.32276220977772679 0 -0.20060783596013981 0.3076349397264902 0 -0.22129300011358269 0.33481371145693772 0 -0.21954464392232159 0.31820766509236142 0 -0.20492818889453221 0.32276220977772679 0 -0.22129300011358269 0.33481371145693772 0 -0.20492818889453221 0.32276220977772679 0 -0.19386790912735871 0.33176087567547108 0 -0.22129300011358269 0.33481371145693772 0 -0.19386790912735871 0.33176087567547108 0 -0.20668301768213909 0.34448234069288158 0 -0.22129300011358269 0.33481371145693772 0 -0.19386790912735871 0.33176087567547108 0 -0.20668301768213909 0.34448234069288158 0 -0.22158808080033929 0.34557455345049992 0 -0.22129300011358269 0.33481371145693772 0 -0.20668301768213909 0.34448234069288158 0 -0.19386790912735871 0.33176087567547108 0 -0.19258948339875709 0.33633707034479371 0 -0.20668301768213909 0.34448234069288158 0 -0.19386790912735871 0.33176087567547108 0 -0.1951678646333711 0.34883535218340811 0 -0.20668301768213909 0.34448234069288158 0 -0.19258948339875709 0.33633707034479371 0 -0.18096143664194889 0.33069278220625808 0 -0.19386790912735871 0.33176087567547108 0 -0.19258948339875709 0.33633707034479371 0 -0.19386790912735871 0.33176087567547108 0 -0.19258948339875709 0.33633707034479371 0 -0.18077272512400111 0.31876138179813301 0 -0.19386790912735871 0.33176087567547108 0 -0.20060783596013981 0.3076349397264902 0 -0.20492818889453221 0.32276220977772679 0 -0.19386790912735871 0.33176087567547108 0 -0.20060783596013981 0.3076349397264902 0 -0.19386790912735871 0.33176087567547108 0 -0.20060783596013981 0.3076349397264902 0 -0.20060783596013981 0.3076349397264902 0 -0.20734776279292019 0.28350900377750898 0 -0.23189508169276829 0.30076725351495531 0 -0.21954464392232159 0.31820766509236142 0 -0.20060783596013981 0.3076349397264902 0 -0.23189508169276829 0.30076725351495531 0 -0.20060783596013981 0.3076349397264902 0 -0.20734776279292019 0.28350900377750898 0 -0.18034630435624241 0.29180066960649809 0 -0.20734776279292019 0.28350900377750898 0 -0.19375927737912041 0.2730469699042487 0 -0.18034630435624241 0.29180066960649809 0 -0.20060783596013981 0.3076349397264902 0 -0.20734776279292019 0.28350900377750898 0 -0.20734776279292019 0.28350900377750898 0 -0.23189508169276829 0.30076725351495531 0 -0.22396762922540969 0.27514125130055722 0 -0.23189508169276829 0.30076725351495531 0 -0.2378434694439332 0.28391349183279069 0 -0.22396762922540969 0.27514125130055722 0 -0.25673188405007052 0.28646841290673969 0 -0.23189508169276829 0.30076725351495531 0 -0.2378434694439332 0.28391349183279069 0 -0.25673188405007052 0.28646841290673969 0 -0.23189508169276829 0.30076725351495531 0 -0.25505401324638421 0.30366623925853881 0 -0.25673188405007052 0.28646841290673969 0 -0.23189508169276829 0.30076725351495531 0 -0.25505401324638421 0.30366623925853881 0 -0.24885494741763489 0.31718848033418301 0 -0.23189508169276829 0.30076725351495531 0 -0.25265925142613249 0.26128234508680298 0 -0.23885305679183191 0.2684477152547543 0 -0.23951274761537589 0.2474853768326048 0 -0.23885305679183191 0.2684477152547543 0 -0.22811192938500721 0.25829645972706228 0 -0.23951274761537589 0.2474853768326048 0 -0.25621817608628389 0.2460965770837312 0 -0.25265925142613249 0.26128234508680298 0 -0.23951274761537589 0.2474853768326048 0 -0.25673188405007052 0.28646841290673969 0 -0.2378434694439332 0.28391349183279069 0 -0.23885305679183191 0.2684477152547543 0 -0.25265925142613249 0.26128234508680298 0 -0.25673188405007052 0.28646841290673969 0 -0.23885305679183191 0.2684477152547543 0 -0.23885305679183191 0.2684477152547543 0 -0.22396762922540969 0.27514125130055722 0 -0.22811192938500721 0.25829645972706228 0 -0.2378434694439332 0.28391349183279069 0 -0.23885305679183191 0.2684477152547543 0 -0.22396762922540969 0.27514125130055722 0 -0.22811192938500721 0.25829645972706228 0 -0.22371849106378741 0.2462845034026982 0 -0.23951274761537589 0.2474853768326048 0 -0.22396762922540969 0.27514125130055722 0 -0.22811192938500721 0.25829645972706228 0 -0.21408768962570049 0.25938306782852782 0 -0.22811192938500721 0.25829645972706228 0 -0.21408768962570049 0.25938306782852782 0 -0.22371849106378741 0.2462845034026982 0 -0.21408768962570049 0.25938306782852782 0 -0.19928355658839081 0.25766712263582692 0 -0.2066863838603582 0.24242880758937649 0 -0.21408768962570049 0.25938306782852782 0 -0.20163280817849061 0.26608937016207479 0 -0.19928355658839081 0.25766712263582692 0 -0.20734776279292019 0.28350900377750898 0 -0.21408768962570049 0.25938306782852782 0 -0.20734776279292019 0.28350900377750898 0 -0.22396762922540969 0.27514125130055722 0 -0.21408768962570049 0.25938306782852782 0 -0.20734776279292019 0.28350900377750898 0 -0.21408768962570049 0.25938306782852782 0 -0.20163280817849061 0.26608937016207479 0 -0.20734776279292019 0.28350900377750898 0 -0.20163280817849061 0.26608937016207479 0 -0.19375927737912041 0.2730469699042487 0 -0.20163280817849061 0.26608937016207479 0 -0.19375927737912041 0.2730469699042487 0 -0.19160269433399771 0.26436194023610149 0 -0.19375927737912041 0.2730469699042487 0 -0.19160269433399771 0.26436194023610149 0 -0.17991988358848049 0.26483995741486333 0 -0.19928355658839081 0.25766712263582692 0 -0.18259587964237009 0.2606558300825601 0 -0.2066863838603582 0.24242880758937649 0 -0.18259587964237009 0.2606558300825601 0 -0.19333963139412971 0.24385714112684301 0 -0.19928355658839081 0.25766712263582692 0 -0.19160269433399771 0.26436194023610149 0 -0.18259587964237009 0.2606558300825601 0 -0.18259587964237009 0.2606558300825601 0 -0.2066863838603582 0.24242880758937649 0 -0.20163280817849061 0.26608937016207479 0 -0.19928355658839081 0.25766712263582692 0 -0.19160269433399771 0.26436194023610149 0 -0.17991988358848049 0.26483995741486333 0 -0.17951502337729761 0.2392424245160312 0 -0.17991988358848049 0.26483995741486333 0 -0.17042143569771079 0.26099360542817968 0 -0.17951502337729761 0.2392424245160312 0 -0.18259587964237009 0.2606558300825601 0 -0.17991988358848049 0.26483995741486333 0 -0.17951502337729761 0.2392424245160312 0 -0.19160269433399771 0.26436194023610149 0 -0.18259587964237009 0.2606558300825601 0 -0.17991988358848049 0.26483995741486333 0 -0.18259587964237009 0.2606558300825601 0 -0.17991988358848049 0.26483995741486333 0 -0.17991988358848049 0.26483995741486333 0 -0.17042143569771079 0.26099360542817968 0 -0.17716480609589361 0.26914773470870201 0 -0.17042143569771079 0.26099360542817968 0 -0.1627301728603629 0.26968240911070368 0 -0.1532221513837192 0.25419418888983192 0 -0.17042143569771079 0.26099360542817968 0 -0.1532221513837192 0.25419418888983192 0 -0.17951502337729761 0.2392424245160312 0 -0.1627301728603629 0.26968240911070368 0 -0.1620479085915319 0.28265904931380531 0 -0.15271877240598841 0.27446820953958367 0 -0.17042143569771079 0.26099360542817968 0 -0.1627301728603629 0.26968240911070368 0 -0.1699765768805111 0.26885491792894611 0 -0.1627301728603629 0.26968240911070368 0 -0.1699765768805111 0.26885491792894611 0 -0.16860704672851359 0.27535934789532951 0 -0.1627301728603629 0.26968240911070368 0 -0.16860704672851359 0.27535934789532951 0 -0.1620479085915319 0.28265904931380531 0 -0.16860704672851359 0.27535934789532951 0 -0.17077339862397739 0.28423195702734899 0 -0.1620479085915319 0.28265904931380531 0 -0.17991988358848049 0.26483995741486333 0 -0.18034630435624241 0.29180066960649809 0 -0.17991988358848049 0.26483995741486333 0 -0.17716480609589361 0.26914773470870201 0 -0.18034630435624241 0.29180066960649809 0 -0.16860704672851359 0.27535934789532951 0 -0.17716480609589361 0.26914773470870201 0 -0.17077339862397739 0.28423195702734899 0 -0.19375927737912041 0.2730469699042487 0 -0.17991988358848049 0.26483995741486333 0 -0.18034630435624241 0.29180066960649809 0 -0.17042143569771079 0.26099360542817968 0 -0.1699765768805111 0.26885491792894611 0 -0.17716480609589361 0.26914773470870201 0 -0.1699765768805111 0.26885491792894611 0 -0.16860704672851359 0.27535934789532951 0 -0.17716480609589361 0.26914773470870201 0 -0.17991988358848049 0.26483995741486333 0 -0.17716480609589361 0.26914773470870201 0 -0.17716480609589361 0.26914773470870201 0 -0.18034630435624241 0.29180066960649809 0 -0.17077339862397739 0.28423195702734899 0 -0.18034630435624241 0.29180066960649809 0 -0.16501618616712291 0.29775164083812761 0 -0.17077339862397739 0.28423195702734899 0 -0.18077272512400111 0.31876138179813301 0 -0.18034630435624241 0.29180066960649809 0 -0.18077272512400111 0.31876138179813301 0 -0.18034630435624241 0.29180066960649809 0 -0.17285953122972289 0.31090601179704258 0 -0.18034630435624241 0.29180066960649809 0 -0.17285953122972289 0.31090601179704258 0 -0.16501618616712291 0.29775164083812761 0 -0.18077272512400111 0.31876138179813301 0 -0.20060783596013981 0.3076349397264902 0 -0.18034630435624241 0.29180066960649809 0 -0.16501618616712291 0.29775164083812761 0 -0.15329008091572741 0.28945008379417048 0 -0.1547819877644892 0.3091453549012102 0 -0.17285953122972289 0.31090601179704258 0 -0.16501618616712291 0.29775164083812761 0 -0.1638395481514221 0.30983277085387728 0 -0.16501618616712291 0.29775164083812761 0 -0.1638395481514221 0.30983277085387728 0 -0.1547819877644892 0.3091453549012102 0 -0.15943794807189979 0.31595908059817063 0 -0.1638395481514221 0.30983277085387728 0 -0.1547819877644892 0.3091453549012102 0 -0.16501618616712291 0.29775164083812761 0 -0.17077339862397739 0.28423195702734899 0 -0.1620479085915319 0.28265904931380531 0 -0.16501618616712291 0.29775164083812761 0 -0.1620479085915319 0.28265904931380531 0 -0.15329008091572741 0.28945008379417048 0 -0.1464174014568787 0.29836992735667278 0 -0.13959432766143021 0.2740409068552887 0 -0.1620479085915319 0.28265904931380531 0 -0.15329008091572741 0.28945008379417048 0 -0.15271877240598841 0.27446820953958367 0 -0.15329008091572741 0.28945008379417048 0 -0.1464174014568787 0.29836992735667278 0 -0.13959432766143021 0.2740409068552887 0 -0.15329008091572741 0.28945008379417048 0 -0.1464174014568787 0.29836992735667278 0 -0.1547819877644892 0.3091453549012102 0 -0.1532404752523272 0.32269894785805692 0 -0.1464174014568787 0.29836992735667278 0 -0.1360408951285694 0.3130357752318072 0 -0.14290423209994971 0.32095809222069871 0 -0.1464174014568787 0.29836992735667278 0 -0.1532404752523272 0.32269894785805692 0 -0.1464174014568787 0.29836992735667278 0 -0.1547819877644892 0.3091453549012102 0 -0.1360408951285694 0.3130357752318072 0 -0.1264253840414637 0.29528772621663357 0 -0.12136448477009221 0.30951812845445109 0 -0.1360408951285694 0.3130357752318072 0 -0.1464174014568787 0.29836992735667278 0 -0.1264253840414637 0.29528772621663357 0 -0.1464174014568787 0.29836992735667278 0 -0.1264253840414637 0.29528772621663357 0 -0.13959432766143021 0.2740409068552887 0 -0.1264253840414637 0.29528772621663357 0 -0.13959432766143021 0.2740409068552887 0 -0.1185373796182298 0.27837978510360878 0 -0.13959432766143021 0.2740409068552887 0 -0.1327712538659816 0.24971188635390451 0 -0.13959432766143021 0.2740409068552887 0 -0.116744543106582 0.25728181003509248 0 -0.1327712538659816 0.24971188635390451 0 -0.13959432766143021 0.2740409068552887 0 -0.1532221513837192 0.25419418888983192 0 -0.1327712538659816 0.24971188635390451 0 -0.1627301728603629 0.26968240911070368 0 -0.1532221513837192 0.25419418888983192 0 -0.15271877240598841 0.27446820953958367 0 -0.13959432766143021 0.2740409068552887 0 -0.1532221513837192 0.25419418888983192 0 -0.15271877240598841 0.27446820953958367 0 -0.15329008091572741 0.28945008379417048 0 -0.13959432766143021 0.2740409068552887 0 -0.15271877240598841 0.27446820953958367 0 -0.1061606963602142 0.26761343855331338 0 -0.1001789302111205 0.27974269320078388 0 -0.1185373796182298 0.27837978510360878 0 -0.1061606963602142 0.26761343855331338 0 -0.1001789302111205 0.27974269320078388 0 -0.092613028744971265 0.26767711662392979 0 -0.1061606963602142 0.26761343855331338 0 -0.10005120432924321 0.25626016583208688 0 -0.116744543106582 0.25728181003509248 0 -0.1061606963602142 0.26761343855331338 0 -0.10005120432924321 0.25626016583208688 0 -0.092613028744971265 0.26767711662392979 0 -0.10005120432924321 0.25626016583208688 0 -0.116744543106582 0.25728181003509248 0 -0.1045487088169635 0.24438495162540061 0 -0.13959432766143021 0.2740409068552887 0 -0.116744543106582 0.25728181003509248 0 -0.1185373796182298 0.27837978510360878 0 -0.1061606963602142 0.26761343855331338 0 -0.116744543106582 0.25728181003509248 0 -0.1185373796182298 0.27837978510360878 0 -0.1264253840414637 0.29528772621663357 0 -0.1127724140037699 0.30190213115774378 0 -0.1091517300735869 0.29135078386346752 0 -0.1264253840414637 0.29528772621663357 0 -0.1185373796182298 0.27837978510360878 0 -0.1091517300735869 0.29135078386346752 0 -0.1264253840414637 0.29528772621663357 0 -0.12136448477009221 0.30951812845445109 0 -0.1127724140037699 0.30190213115774378 0 -0.12136448477009221 0.30951812845445109 0 -0.1127724140037699 0.30190213115774378 0 -0.1061991548417472 0.31213959050036899 0 -0.1127724140037699 0.30190213115774378 0 -0.1061991548417472 0.31213959050036899 0 -0.1005146973405663 0.30141191014932889 0 -0.1127724140037699 0.30190213115774378 0 -0.1005146973405663 0.30141191014932889 0 -0.1091517300735869 0.29135078386346752 0 -0.1005146973405663 0.30141191014932889 0 -0.094430836728355921 0.29177030977787999 0 -0.089068024122243669 0.30112896568664949 0 -0.1061991548417472 0.31213959050036899 0 -0.1005146973405663 0.30141191014932889 0 -0.090928135519314904 0.31087631578889069 0 -0.1001789302111205 0.27974269320078388 0 -0.1185373796182298 0.27837978510360878 0 -0.1091517300735869 0.29135078386346752 0 -0.1005146973405663 0.30141191014932889 0 -0.1091517300735869 0.29135078386346752 0 -0.094430836728355921 0.29177030977787999 0 -0.1001789302111205 0.27974269320078388 0 -0.1091517300735869 0.29135078386346752 0 -0.094430836728355921 0.29177030977787999 0 -0.1001789302111205 0.27974269320078388 0 -0.094430836728355921 0.29177030977787999 0 -0.086145563619835275 0.2816538088019015 0 -0.094430836728355921 0.29177030977787999 0 -0.086145563619835275 0.2816538088019015 0 -0.081526075002782958 0.29533369696514911 0 -0.094430836728355921 0.29177030977787999 0 -0.081526075002782958 0.29533369696514911 0 -0.089068024122243669 0.30112896568664949 0 -0.086145563619835275 0.2816538088019015 0 -0.081526075002782958 0.29533369696514911 0 -0.070830210313899522 0.29195808219782299 0 -0.090928135519314904 0.31087631578889069 0 -0.079482369404140468 0.30560554845979909 0 -0.074915307566508993 0.31649039264194578 0 -0.090928135519314904 0.31087631578889069 0 -0.089068024122243669 0.30112896568664949 0 -0.079482369404140468 0.30560554845979909 0 -0.1005146973405663 0.30141191014932889 0 -0.090928135519314904 0.31087631578889069 0 -0.089068024122243669 0.30112896568664949 0 -0.081526075002782958 0.29533369696514911 0 -0.089068024122243669 0.30112896568664949 0 -0.079482369404140468 0.30560554845979909 0 -0.054647974243728172 0.30430181459310768 0 -0.074915307566508993 0.31649039264194578 0 -0.079482369404140468 0.30560554845979909 0 -0.068661557073843291 0.3005821027458685 0 -0.074915307566508993 0.31649039264194578 0 -0.068661557073843291 0.3005821027458685 0 -0.054647974243728172 0.30430181459310768 0 -0.074915307566508993 0.31649039264194578 0 -0.081526075002782958 0.29533369696514911 0 -0.079482369404140468 0.30560554845979909 0 -0.068661557073843291 0.3005821027458685 0 -0.070830210313899522 0.29195808219782299 0 -0.067453711470644842 0.27023673344429472 0 -0.052574645638654917 0.28480468584225688 0 -0.081526075002782958 0.29533369696514911 0 -0.068661557073843291 0.3005821027458685 0 -0.070830210313899522 0.29195808219782299 0 -0.068661557073843291 0.3005821027458685 0 -0.070830210313899522 0.29195808219782299 0 -0.068661557073843291 0.3005821027458685 0 -0.070830210313899522 0.29195808219782299 0 -0.059610011597539182 0.29372125904316332 0 -0.086145563619835275 0.2816538088019015 0 -0.070830210313899522 0.29195808219782299 0 -0.077256670317037021 0.26667642926106078 0 -0.070830210313899522 0.29195808219782299 0 -0.067453711470644842 0.27023673344429472 0 -0.070830210313899522 0.29195808219782299 0 -0.077256670317037021 0.26667642926106078 0 -0.070830210313899522 0.29195808219782299 0 -0.067453711470644842 0.27023673344429472 0 -0.077256670317037021 0.26667642926106078 0 -0.086145563619835275 0.2816538088019015 0 -0.077256670317037021 0.26667642926106078 0 -0.092613028744971265 0.26767711662392979 0 -0.1001789302111205 0.27974269320078388 0 -0.086145563619835275 0.2816538088019015 0 -0.092613028744971265 0.26767711662392979 0 -0.077256670317037021 0.26667642926106078 0 -0.086302411784292182 0.25447467192259482 0 -0.083666647235009842 0.24139059785004849 0 -0.077256670317037021 0.26667642926106078 0 -0.083666647235009842 0.24139059785004849 0 -0.10005120432924321 0.25626016583208688 0 -0.086302411784292182 0.25447467192259482 0 -0.094679029848152713 0.24609146959404629 0 -0.10005120432924321 0.25626016583208688 0 -0.092613028744971265 0.26767711662392979 0 -0.086302411784292182 0.25447467192259482 0 -0.077256670317037021 0.26667642926106078 0 -0.092613028744971265 0.26767711662392979 0 -0.086302411784292182 0.25447467192259482 0 -0.077256670317037021 0.26667642926106078 0 -0.064077212627390134 0.24851538469076631 0 -0.083666647235009842 0.24139059785004849 0 -0.067453711470644842 0.27023673344429472 0 -0.077256670317037021 0.26667642926106078 0 -0.064077212627390134 0.24851538469076631 0 -0.067453711470644842 0.27023673344429472 0 -0.064077212627390134 0.24851538469076631 0 -0.067453711470644842 0.27023673344429472 0 -0.04634179854296408 0.26632715615711849 0 -0.064077212627390134 0.24851538469076631 0 -0.04634179854296408 0.26632715615711849 0 -0.064077212627390134 0.24851538469076631 0 -0.046578861792199937 0.24361118962503389 0 -0.067453711470644842 0.27023673344429472 0 -0.04634179854296408 0.26632715615711849 0 -0.052574645638654917 0.28480468584225688 0 -0.04634179854296408 0.26632715615711849 0 -0.034380640920947357 0.29211323654426968 0 -0.052574645638654917 0.28480468584225688 0 -0.04634179854296408 0.26632715615711849 0 -0.022607631921228569 0.27169805167723737 0 -0.034380640920947357 0.29211323654426968 0 -0.04634179854296408 0.26632715615711849 0 -0.03068766995985707 0.25286978792993342 0 -0.022607631921228569 0.27169805167723737 0 -0.04634179854296408 0.26632715615711849 0 -0.03068766995985707 0.25286978792993342 0 -0.046578861792199937 0.24361118962503389 0 -0.03068766995985707 0.25286978792993342 0 -0.022607631921228569 0.27169805167723737 0 -0.0098044441781452579 0.25473951632571468 0 -0.022607631921228569 0.27169805167723737 0 -0.015153941911089409 0.29208252597919021 0 3.3590645499582607e-05 0.27236849017123349 0 -0.022607631921228569 0.27169805167723737 0 -0.0098044441781452579 0.25473951632571468 0 3.3590645499582607e-05 0.27236849017123349 0 -0.0098044441781452579 0.25473951632571468 0 0.0073806355134042019 0.25529449578482938 0 3.3590645499582607e-05 0.27236849017123349 0 -0.0088759444352828343 0.31092800175718183 0 -0.015153941911089409 0.29208252597919021 0 0.0083336089875100904 0.29343585490586271 0 -0.015153941911089409 0.29208252597919021 0 0.0083336089875100904 0.29343585490586271 0 3.3590645499582607e-05 0.27236849017123349 0 -0.022607631921228569 0.27169805167723737 0 -0.015153941911089409 0.29208252597919021 0 -0.034380640920947357 0.29211323654426968 0 -0.0088759444352828343 0.31092800175718183 0 -0.015153941911089409 0.29208252597919021 0 -0.03508050583840458 0.3127012881250415 0 -0.015153941911089409 0.29208252597919021 0 -0.034380640920947357 0.29211323654426968 0 -0.03508050583840458 0.3127012881250415 0 -0.034380640920947357 0.29211323654426968 0 -0.054647974243728172 0.30430181459310768 0 -0.034380640920947357 0.29211323654426968 0 -0.054647974243728172 0.30430181459310768 0 -0.03508050583840458 0.3127012881250415 0 -0.034380640920947357 0.29211323654426968 0 -0.052574645638654917 0.28480468584225688 0 -0.054647974243728172 0.30430181459310768 0 -0.052574645638654917 0.28480468584225688 0 -0.059610011597539182 0.29372125904316332 0 -0.054647974243728172 0.30430181459310768 0 -0.070830210313899522 0.29195808219782299 0 -0.052574645638654917 0.28480468584225688 0 -0.059610011597539182 0.29372125904316332 0 -0.068661557073843291 0.3005821027458685 0 -0.059610011597539182 0.29372125904316332 0 -0.054647974243728172 0.30430181459310768 0 -0.058679851530075752 0.32054224196392622 0 -0.045885169747561752 0.33132665820789581 0 -0.073191842414501496 0.33174208285196288 0 -0.054647974243728172 0.30430181459310768 0 -0.058679851530075752 0.32054224196392622 0 -0.03508050583840458 0.3127012881250415 0 -0.045885169747561752 0.33132665820789581 0 -0.067541502003893042 0.3482616942848048 0 -0.073191842414501496 0.33174208285196288 0 -0.045885169747561752 0.33132665820789581 0 -0.073191842414501496 0.33174208285196288 0 -0.045885169747561752 0.33132665820789581 0 -0.018578497080621779 0.33091123356382868 0 -0.045885169747561752 0.33132665820789581 0 -0.03508050583840458 0.3127012881250415 0 -0.018578497080621779 0.33091123356382868 0 -0.058679851530075752 0.32054224196392622 0 -0.045885169747561752 0.33132665820789581 0 -0.03508050583840458 0.3127012881250415 0 -0.0088759444352828343 0.31092800175718183 0 -0.03508050583840458 0.3127012881250415 0 -0.018578497080621779 0.33091123356382868 0 -0.018578497080621779 0.33091123356382868 0 -0.0050552824635438226 0.34569829691311771 0 -0.02749858990914332 0.35301881799134821 0 -0.045885169747561752 0.33132665820789581 0 -0.018578497080621779 0.33091123356382868 0 -0.02749858990914332 0.35301881799134821 0 -0.018578497080621779 0.33091123356382868 0 -0.0050552824635438226 0.34569829691311771 0 0.0064742168078369342 0.3347740657525386 0 -0.018578497080621779 0.33091123356382868 0 0.0087281755863181168 0.33049580891976171 0 -0.018578497080621779 0.33091123356382868 0 0.0064742168078369342 0.3347740657525386 0 0.0087281755863181168 0.33049580891976171 0 -0.018578497080621779 0.33091123356382868 0 -0.003280447873963227 0.32161399115684158 0 0.0087281755863181168 0.33049580891976171 0 -0.0088759444352828343 0.31092800175718183 0 -0.018578497080621779 0.33091123356382868 0 -0.003280447873963227 0.32161399115684158 0 -0.0088759444352828343 0.31092800175718183 0 -0.003280447873963227 0.32161399115684158 0 0.0056044744337335906 0.31412092038659428 0 -0.0052616759920083916 0.36132776784546622 0 -0.0045342830833226501 0.3863935686212247 0 -0.0052616759920083916 0.36132776784546622 0 -0.024169526760701381 0.37267007813580277 0 -0.0045342830833226501 0.3863935686212247 0 -0.0052616759920083916 0.36132776784546622 0 -0.0045342830833226501 0.3863935686212247 0 0.0079023355216259559 0.37348921158265391 0 -0.0052616759920083916 0.36132776784546622 0 -0.0050552824635438226 0.34569829691311771 0 0.0061318462344260851 0.35417601161121459 0 -0.0052616759920083916 0.36132776784546622 0 -0.0050552824635438226 0.34569829691311771 0 -0.02749858990914332 0.35301881799134821 0 -0.02749858990914332 0.35301881799134821 0 -0.024169526760701381 0.37267007813580277 0 -0.04149310004589906 0.37124785083274592 0 -0.0052616759920083916 0.36132776784546622 0 -0.02749858990914332 0.35301881799134821 0 -0.024169526760701381 0.37267007813580277 0 -0.02749858990914332 0.35301881799134821 0 -0.04149310004589906 0.37124785083274592 0 -0.051818441616049399 0.35735321764765782 0 -0.045885169747561752 0.33132665820789581 0 -0.02749858990914332 0.35301881799134821 0 -0.051818441616049399 0.35735321764765782 0 -0.045885169747561752 0.33132665820789581 0 -0.051818441616049399 0.35735321764765782 0 -0.067541502003893042 0.3482616942848048 0 -0.04149310004589906 0.37124785083274592 0 -0.051818441616049399 0.35735321764765782 0 -0.056875823715872062 0.37631267096962301 0 -0.051818441616049399 0.35735321764765782 0 -0.069616273344600341 0.3650636543096733 0 -0.056875823715872062 0.37631267096962301 0 -0.069616273344600341 0.3650636543096733 0 -0.085055645225370236 0.37193713089684588 0 -0.071788917171084016 0.3809272333041443 0 -0.069616273344600341 0.3650636543096733 0 -0.071788917171084016 0.3809272333041443 0 -0.056875823715872062 0.37631267096962301 0 -0.069616273344600341 0.3650636543096733 0 -0.085055645225370236 0.37193713089684588 0 -0.084100884505446297 0.3554636863979832 0 -0.085055645225370236 0.37193713089684588 0 -0.084100884505446297 0.3554636863979832 0 -0.1008292236537022 0.36036332390371462 0 -0.084100884505446297 0.3554636863979832 0 -0.067541502003893042 0.3482616942848048 0 -0.085709514220790303 0.34113927750747819 0 -0.084100884505446297 0.3554636863979832 0 -0.085709514220790303 0.34113927750747819 0 -0.099722393067727538 0.34687368244968458 0 -0.069616273344600341 0.3650636543096733 0 -0.084100884505446297 0.3554636863979832 0 -0.067541502003893042 0.3482616942848048 0 -0.051818441616049399 0.35735321764765782 0 -0.069616273344600341 0.3650636543096733 0 -0.067541502003893042 0.3482616942848048 0 -0.067541502003893042 0.3482616942848048 0 -0.073191842414501496 0.33174208285196288 0 -0.085709514220790303 0.34113927750747819 0 -0.058679851530075752 0.32054224196392622 0 -0.073191842414501496 0.33174208285196288 0 -0.074915307566508993 0.31649039264194578 0 -0.054647974243728172 0.30430181459310768 0 -0.058679851530075752 0.32054224196392622 0 -0.074915307566508993 0.31649039264194578 0 -0.073191842414501496 0.33174208285196288 0 -0.074915307566508993 0.31649039264194578 0 -0.095182640889289766 0.32867897069078372 0 -0.090928135519314904 0.31087631578889069 0 -0.074915307566508993 0.31649039264194578 0 -0.095182640889289766 0.32867897069078372 0 -0.074915307566508993 0.31649039264194578 0 -0.095182640889289766 0.32867897069078372 0 -0.073191842414501496 0.33174208285196288 0 -0.085709514220790303 0.34113927750747819 0 -0.095182640889289766 0.32867897069078372 0 -0.085709514220790303 0.34113927750747819 0 -0.095182640889289766 0.32867897069078372 0 -0.099722393067727538 0.34687368244968458 0 -0.095182640889289766 0.32867897069078372 0 -0.1154499742120704 0.34086754873962172 0 -0.095182640889289766 0.32867897069078372 0 -0.1098512680755149 0.32470257897991811 0 -0.1154499742120704 0.34086754873962172 0 -0.095182640889289766 0.32867897069078372 0 -0.1154499742120704 0.34086754873962172 0 -0.099722393067727538 0.34687368244968458 0 -0.1061991548417472 0.31213959050036899 0 -0.090928135519314904 0.31087631578889069 0 -0.095182640889289766 0.32867897069078372 0 -0.1061991548417472 0.31213959050036899 0 -0.095182640889289766 0.32867897069078372 0 -0.1098512680755149 0.32470257897991811 0 -0.1061991548417472 0.31213959050036899 0 -0.115330384384618 0.31728312261503783 0 -0.1098512680755149 0.32470257897991811 0 -0.12136448477009221 0.30951812845445109 0 -0.1061991548417472 0.31213959050036899 0 -0.115330384384618 0.31728312261503783 0 -0.115330384384618 0.31728312261503783 0 -0.1098512680755149 0.32470257897991811 0 -0.12142985306419619 0.32461006626398298 0 -0.12722248981549561 0.3181430308760943 0 -0.115330384384618 0.31728312261503783 0 -0.12142985306419619 0.32461006626398298 0 -0.12722248981549561 0.3181430308760943 0 -0.12136448477009221 0.30951812845445109 0 -0.115330384384618 0.31728312261503783 0 -0.1098512680755149 0.32470257897991811 0 -0.12142985306419619 0.32461006626398298 0 -0.1154499742120704 0.34086754873962172 0 -0.13363790056006589 0.32585743918209531 0 -0.12142985306419619 0.32461006626398298 0 -0.1154499742120704 0.34086754873962172 0 -0.12523428666698541 0.37069662222368049 0 -0.1294360936135257 0.3482770307028879 0 -0.1154159689866658 0.35521970897278921 0 -0.1154499742120704 0.34086754873962172 0 -0.1154159689866658 0.35521970897278921 0 -0.099722393067727538 0.34687368244968458 0 -0.1294360936135257 0.3482770307028879 0 -0.1154499742120704 0.34086754873962172 0 -0.1154159689866658 0.35521970897278921 0 -0.12523428666698541 0.37069662222368049 0 -0.1154159689866658 0.35521970897278921 0 -0.11117961403065831 0.36839673047223442 0 -0.12523428666698541 0.37069662222368049 0 -0.11117961403065831 0.36839673047223442 0 -0.1123930043347208 0.38073562172137532 0 -0.11117961403065831 0.36839673047223442 0 -0.1008292236537022 0.36036332390371462 0 -0.09970079949094271 0.37763208900548878 0 -0.1154159689866658 0.35521970897278921 0 -0.11117961403065831 0.36839673047223442 0 -0.1008292236537022 0.36036332390371462 0 -0.085055645225370236 0.37193713089684588 0 -0.1008292236537022 0.36036332390371462 0 -0.09970079949094271 0.37763208900548878 0 -0.084100884505446297 0.3554636863979832 0 -0.1008292236537022 0.36036332390371462 0 -0.099722393067727538 0.34687368244968458 0 -0.1154159689866658 0.35521970897278921 0 -0.1008292236537022 0.36036332390371462 0 -0.099722393067727538 0.34687368244968458 0 -0.1036554482544351 0.39516830989393792 0 -0.1102807352191843 0.41378788895710661 0 -0.09259379641793411 0.40948313349934218 0 -0.1036554482544351 0.39516830989393792 0 -0.09970079949094271 0.37763208900548878 0 -0.1123930043347208 0.38073562172137532 0 -0.1036554482544351 0.39516830989393792 0 -0.09970079949094271 0.37763208900548878 0 -0.084297773186445962 0.39217279846007119 0 -0.11117961403065831 0.36839673047223442 0 -0.09970079949094271 0.37763208900548878 0 -0.1123930043347208 0.38073562172137532 0 -0.12523428666698541 0.37069662222368049 0 -0.1123930043347208 0.38073562172137532 0 -0.12103247972044499 0.39311621374447298 0 -0.1036554482544351 0.39516830989393792 0 -0.1123930043347208 0.38073562172137532 0 -0.12103247972044499 0.39311621374447298 0 -0.12523428666698541 0.37069662222368049 0 -0.12103247972044499 0.39311621374447298 0 -0.1036554482544351 0.39516830989393792 0 -0.12103247972044499 0.39311621374447298 0 -0.1102807352191843 0.41378788895710661 0 -0.12997925716256209 0.39431640422262348 0 -0.1102807352191843 0.41378788895710661 0 -0.12997925716256209 0.39431640422262348 0 -0.12103247972044499 0.39311621374447298 0 -0.1102807352191843 0.41378788895710661 0 -0.12623023605756489 0.41143854881348008 0 -0.1102807352191843 0.41378788895710661 0 -0.1242188050129694 0.42501783294758849 0 -0.12623023605756489 0.41143854881348008 0 -0.12997925716256209 0.39431640422262348 0 -0.1102807352191843 0.41378788895710661 0 -0.1102807352191843 0.41378788895710661 0 -0.1104760497445479 0.43296770510105842 0 -0.1242188050129694 0.42501783294758849 0 -0.1104760497445479 0.43296770510105842 0 -0.1242188050129694 0.42501783294758849 0 -0.1248743097581413 0.44162978393037222 0 -0.1102807352191843 0.41378788895710661 0 -0.090582213275806372 0.43325937369158968 0 -0.1102807352191843 0.41378788895710661 0 -0.1104760497445479 0.43296770510105842 0 -0.090582213275806372 0.43325937369158968 0 -0.1102807352191843 0.41378788895710661 0 -0.09259379641793411 0.40948313349934218 0 -0.090582213275806372 0.43325937369158968 0 -0.09259379641793411 0.40948313349934218 0 -0.090582213275806372 0.43325937369158968 0 -0.074152812153798875 0.41302729649400538 0 -0.090582213275806372 0.43325937369158968 0 -0.066022972602334681 0.42956105407568013 0 -0.074152812153798875 0.41302729649400538 0 -0.066022972602334681 0.42956105407568013 0 -0.074152812153798875 0.41302729649400538 0 -0.049329429094603867 0.41198700835812702 0 -0.074152812153798875 0.41302729649400538 0 -0.063154715464804681 0.39516467689365731 0 -0.084297773186445962 0.39217279846007119 0 -0.09259379641793411 0.40948313349934218 0 -0.074152812153798875 0.41302729649400538 0 -0.084297773186445962 0.39217279846007119 0 -0.1036554482544351 0.39516830989393792 0 -0.09259379641793411 0.40948313349934218 0 -0.084297773186445962 0.39217279846007119 0 -0.085055645225370236 0.37193713089684588 0 -0.09970079949094271 0.37763208900548878 0 -0.084297773186445962 0.39217279846007119 0 -0.085055645225370236 0.37193713089684588 0 -0.084297773186445962 0.39217279846007119 0 -0.071788917171084016 0.3809272333041443 0 -0.063154715464804681 0.39516467689365731 0 -0.084297773186445962 0.39217279846007119 0 -0.071788917171084016 0.3809272333041443 0 -0.063154715464804681 0.39516467689365731 0 -0.071788917171084016 0.3809272333041443 0 -0.056875823715872062 0.37631267096962301 0 -0.04149310004589906 0.37124785083274592 0 -0.056875823715872062 0.37631267096962301 0 -0.04338349465279491 0.38811939282985902 0 -0.063154715464804681 0.39516467689365731 0 -0.056875823715872062 0.37631267096962301 0 -0.04338349465279491 0.38811939282985902 0 -0.063154715464804681 0.39516467689365731 0 -0.04338349465279491 0.38811939282985902 0 -0.049329429094603867 0.41198700835812702 0 -0.04338349465279491 0.38811939282985902 0 -0.024844401122877391 0.39948633252540261 0 -0.049329429094603867 0.41198700835812702 0 -0.024169526760701381 0.37267007813580277 0 -0.04149310004589906 0.37124785083274592 0 -0.04338349465279491 0.38811939282985902 0 -0.024169526760701381 0.37267007813580277 0 -0.04338349465279491 0.38811939282985902 0 -0.024844401122877391 0.39948633252540261 0 -0.024169526760701381 0.37267007813580277 0 -0.024844401122877391 0.39948633252540261 0 -0.0045342830833226501 0.3863935686212247 0 -0.024844401122877391 0.39948633252540261 0 -0.0045342830833226501 0.3863935686212247 0 -0.0038092142255275289 0.41137928311071797 0 -0.0045342830833226501 0.3863935686212247 0 -0.0038092142255275289 0.41137928311071797 0 -0.024169526760701381 0.37267007813580277 0 -0.0045342830833226501 0.3863935686212247 0 -0.0030841453677343121 0.43636499760021141 0 -0.0038092142255275289 0.41137928311071797 0 -0.026324668085478481 0.42779129271708288 0 -0.0030841453677343121 0.43636499760021141 0 -0.0038092142255275289 0.41137928311071797 0 -0.024844401122877391 0.39948633252540261 0 -0.0038092142255275289 0.41137928311071797 0 -0.026324668085478481 0.42779129271708288 0 -0.026324668085478481 0.42779129271708288 0 -0.049329429094603867 0.41198700835812702 0 -0.049413859365407042 0.43472239834070731 0 -0.024844401122877391 0.39948633252540261 0 -0.026324668085478481 0.42779129271708288 0 -0.049329429094603867 0.41198700835812702 0 -0.074152812153798875 0.41302729649400538 0 -0.063154715464804681 0.39516467689365731 0 -0.049329429094603867 0.41198700835812702 0 -0.066022972602334681 0.42956105407568013 0 -0.049329429094603867 0.41198700835812702 0 -0.049413859365407042 0.43472239834070731 0 -0.066022972602334681 0.42956105407568013 0 -0.049413859365407042 0.43472239834070731 0 -0.0708836913324285 0.45273085842607269 0 -0.0393713920190637 0.45112048084748302 0 -0.052402143273794041 0.47435943831340011 0 -0.0708836913324285 0.45273085842607269 0 -0.049413859365407042 0.43472239834070731 0 -0.0393713920190637 0.45112048084748302 0 -0.0708836913324285 0.45273085842607269 0 -0.0393713920190637 0.45112048084748302 0 -0.02876560419008364 0.47203163756026523 0 -0.052402143273794041 0.47435943831340011 0 -0.026324668085478481 0.42779129271708288 0 -0.049413859365407042 0.43472239834070731 0 -0.0393713920190637 0.45112048084748302 0 -0.0030841453677343121 0.43636499760021141 0 -0.026324668085478481 0.42779129271708288 0 -0.01888650882967766 0.45329231687868837 0 -0.026324668085478481 0.42779129271708288 0 -0.0393713920190637 0.45112048084748302 0 -0.01888650882967766 0.45329231687868837 0 -0.0393713920190637 0.45112048084748302 0 -0.01888650882967766 0.45329231687868837 0 -0.02876560419008364 0.47203163756026523 0 -0.01888650882967766 0.45329231687868837 0 -0.01341416680576474 0.47109478045738301 0 -0.02876560419008364 0.47203163756026523 0 -0.01888650882967766 0.45329231687868837 0 -0.002359076509941094 0.46135071208970457 0 -0.01341416680576474 0.47109478045738301 0 -0.0030841453677343121 0.43636499760021141 0 -0.01888650882967766 0.45329231687868837 0 -0.002359076509941094 0.46135071208970457 0 -0.0030841453677343121 0.43636499760021141 0 -0.002359076509941094 0.46135071208970457 0 -0.0090346539348886701 0.5 0 -0.0016340076521478781 0.48633642657919801 0 -0.017460482120078509 0.48648722646036041 0 -0.0016340076521478781 0.48633642657919801 0 -0.01341416680576474 0.47109478045738301 0 -0.017460482120078509 0.48648722646036041 0 -0.002359076509941094 0.46135071208970457 0 -0.0016340076521478781 0.48633642657919801 0 -0.01341416680576474 0.47109478045738301 0 -0.002359076509941094 0.46135071208970457 0 -0.0016340076521478781 0.48633642657919801 0 -0.002359076509941094 0.46135071208970457 0 -0.0016340076521478781 0.48633642657919801 0 0.0036787250480955699 0.47408322248379448 0 -0.01341416680576474 0.47109478045738301 0 -0.02876560419008364 0.47203163756026523 0 -0.017460482120078509 0.48648722646036041 0 -0.02876560419008364 0.47203163756026523 0 -0.017460482120078509 0.48648722646036041 0 -0.038135422162237087 0.5 0 -0.0090346539348886701 0.5 0 -0.017460482120078509 0.48648722646036041 0 -0.038135422162237087 0.5 0 -0.02876560419008364 0.47203163756026523 0 -0.038135422162237087 0.5 0 -0.052402143273794041 0.47435943831340011 0 -0.038135422162237087 0.5 0 -0.052402143273794041 0.47435943831340011 0 -0.067236190389585393 0.5 0 -0.052402143273794041 0.47435943831340011 0 -0.067236190389585393 0.5 0 -0.073349005429332273 0.47921852398434828 0 -0.067236190389585393 0.5 0 -0.073349005429332273 0.47921852398434828 0 -0.096336958616933588 0.5 0 -0.073349005429332273 0.47921852398434828 0 -0.096336958616933588 0.5 0 -0.093805091172543903 0.47224368257650851 0 -0.052402143273794041 0.47435943831340011 0 -0.073349005429332273 0.47921852398434828 0 -0.0708836913324285 0.45273085842607269 0 -0.0708836913324285 0.45273085842607269 0 -0.1043361340672995 0.45358667135048331 0 -0.093805091172543903 0.47224368257650851 0 -0.090582213275806372 0.43325937369158968 0 -0.0708836913324285 0.45273085842607269 0 -0.1043361340672995 0.45358667135048331 0 -0.090582213275806372 0.43325937369158968 0 -0.066022972602334681 0.42956105407568013 0 -0.0708836913324285 0.45273085842607269 0 -0.090582213275806372 0.43325937369158968 0 -0.0708836913324285 0.45273085842607269 0 -0.073349005429332273 0.47921852398434828 0 -0.0708836913324285 0.45273085842607269 0 -0.093805091172543903 0.47224368257650851 0 -0.1043361340672995 0.45358667135048331 0 -0.12052644250191399 0.4682622397032008 0 -0.093805091172543903 0.47224368257650851 0 -0.1104760497445479 0.43296770510105842 0 -0.090582213275806372 0.43325937369158968 0 -0.1043361340672995 0.45358667135048331 0 -0.12618187852634369 0.45882241462805679 0 -0.1043361340672995 0.45358667135048331 0 -0.1248743097581413 0.44162978393037222 0 -0.1104760497445479 0.43296770510105842 0 -0.1043361340672995 0.45358667135048331 0 -0.1248743097581413 0.44162978393037222 0 -0.12618187852634369 0.45882241462805679 0 -0.1043361340672995 0.45358667135048331 0 -0.12052644250191399 0.4682622397032008 0 -0.1317912103042716 0.47600940211286807 0 -0.12052644250191399 0.4682622397032008 0 -0.11642361318749669 0.48420448820259387 0 -0.12052644250191399 0.4682622397032008 0 -0.11642361318749669 0.48420448820259387 0 -0.093805091172543903 0.47224368257650851 0 -0.12543772684428189 0.5 0 -0.11642361318749669 0.48420448820259387 0 -0.096336958616933588 0.5 0 -0.12543772684428189 0.5 0 -0.13178312884530541 0.48627570230508688 0 -0.11642361318749669 0.48420448820259387 0 -0.11642361318749669 0.48420448820259387 0 -0.096336958616933588 0.5 0 -0.093805091172543903 0.47224368257650851 0 -0.1693268494853358 0.079538523923443544 0 -0.16945340910355561 0.089496265134995978 0 -0.1618062267740645 0.07958177760614682 0 -0.16945340910355561 0.089496265134995978 0 -0.1618062267740645 0.07958177760614682 0 -0.1616157516695074 0.095139316102685473 0 -0.1618062267740645 0.07958177760614682 0 -0.1616157516695074 0.095139316102685473 0 -0.14767322655010931 0.084806545451415583 0 -0.1618062267740645 0.07958177760614682 0 -0.16640070467345031 0.07104807823334372 0 -0.15517576509654349 0.068304766057398533 0 -0.16640070467345031 0.07104807823334372 0 -0.15517576509654349 0.068304766057398533 0 -0.16451238623864939 0.061110077383343737 0 -0.16640070467345031 0.07104807823334372 0 -0.17354141001077031 0.063798093567348918 0 -0.16451238623864939 0.061110077383343737 0 -0.17157411485926041 0.074087910936242465 0 -0.16640070467345031 0.07104807823334372 0 -0.17354141001077031 0.063798093567348918 0 -0.1693268494853358 0.079538523923443544 0 -0.17157411485926041 0.074087910936242465 0 -0.16640070467345031 0.07104807823334372 0 -0.1693268494853358 0.079538523923443544 0 -0.1618062267740645 0.07958177760614682 0 -0.16640070467345031 0.07104807823334372 0 -0.17354141001077031 0.063798093567348918 0 -0.17702749526748529 0.081966948020833708 0 -0.17656426821359539 0.052679136019797047 0 -0.18185637422210199 0.067243003367259677 0 -0.17702749526748529 0.081966948020833708 0 -0.17656426821359539 0.052679136019797047 0 -0.17702749526748529 0.081966948020833708 0 -0.17656426821359539 0.052679136019797047 0 -0.17157411485926041 0.074087910936242465 0 -0.17354141001077031 0.063798093567348918 0 -0.17702749526748529 0.081966948020833708 0 -0.18185637422210199 0.067243003367259677 0 -0.1853153676200878 0.058850167416455039 0 -0.18892740292417859 0.064703221589215376 0 -0.18185637422210199 0.067243003367259677 0 -0.19050021368002351 0.072419239531055349 0 -0.18892740292417859 0.064703221589215376 0 -0.18185637422210199 0.067243003367259677 0 -0.18141962227324601 0.075216957450553817 0 -0.17702749526748529 0.081966948020833708 0 -0.18185637422210199 0.067243003367259677 0 -0.18141962227324601 0.075216957450553817 0 -0.19050021368002351 0.072419239531055349 0 -0.18141962227324601 0.075216957450553817 0 -0.1867192510276118 0.077748512173410014 0 -0.19050021368002351 0.072419239531055349 0 -0.18141962227324601 0.075216957450553817 0 -0.1867192510276118 0.077748512173410014 0 -0.1819129998543452 0.079414551687582866 0 -0.18248563084903771 0.082725789105533951 0 -0.17702749526748529 0.081966948020833708 0 -0.17749072232138041 0.1112547600218704 0 -0.1867192510276118 0.077748512173410014 0 -0.18248563084903771 0.082725789105533951 0 -0.1819129998543452 0.079414551687582866 0 -0.18141962227324601 0.075216957450553817 0 -0.1819129998543452 0.079414551687582866 0 -0.17702749526748529 0.081966948020833708 0 -0.18248563084903771 0.082725789105533951 0 -0.1819129998543452 0.079414551687582866 0 -0.17702749526748529 0.081966948020833708 0 -0.1693268494853358 0.079538523923443544 0 -0.16945340910355561 0.089496265134995978 0 -0.17702749526748529 0.081966948020833708 0 -0.1693268494853358 0.079538523923443544 0 -0.17157411485926041 0.074087910936242465 0 -0.17702749526748529 0.081966948020833708 0 -0.17702749526748529 0.081966948020833708 0 -0.17749072232138041 0.1112547600218704 0 -0.16945340910355561 0.089496265134995978 0 -0.17702749526748529 0.081966948020833708 0 -0.17749072232138041 0.1112547600218704 0 -0.17749072232138041 0.1112547600218704 0 -0.1951643137470572 0.093770439387570487 0 -0.18248563084903771 0.082725789105533951 0 -0.17749072232138041 0.1112547600218704 0 -0.1951643137470572 0.093770439387570487 0 -0.17749072232138041 0.1112547600218704 0 -0.19150979458678249 0.1243728737611647 0 -0.17789558253256721 0.1368522929207025 0 -0.17749072232138041 0.1112547600218704 0 -0.17789558253256721 0.1368522929207025 0 -0.17749072232138041 0.1112547600218704 0 -0.16113979031376621 0.12743058591966341 0 -0.17749072232138041 0.1112547600218704 0 -0.15084139672814201 0.110160429760413 0 -0.16113979031376621 0.12743058591966341 0 -0.17749072232138041 0.1112547600218704 0 -0.1616157516695074 0.095139316102685473 0 -0.15084139672814201 0.110160429760413 0 -0.16945340910355561 0.089496265134995978 0 -0.17749072232138041 0.1112547600218704 0 -0.1616157516695074 0.095139316102685473 0 -0.1616157516695074 0.095139316102685473 0 -0.15084139672814201 0.110160429760413 0 -0.14767322655010931 0.084806545451415583 0 -0.15084139672814201 0.110160429760413 0 -0.1348328660863515 0.097215266237156234 0 -0.14767322655010931 0.084806545451415583 0 -0.15084139672814201 0.110160429760413 0 -0.13137241316615089 0.11357835761918721 0 -0.14300315410871919 0.1253406317882016 0 -0.15084139672814201 0.110160429760413 0 -0.16113979031376621 0.12743058591966341 0 -0.14300315410871919 0.1253406317882016 0 -0.13137241316615089 0.11357835761918721 0 -0.14300315410871919 0.1253406317882016 0 -0.12687331202938101 0.13192737382428379 0 -0.13137241316615089 0.11357835761918721 0 -0.1348328660863515 0.097215266237156234 0 -0.1198812247159142 0.095002477965890675 0 -0.15084139672814201 0.110160429760413 0 -0.13137241316615089 0.11357835761918721 0 -0.1348328660863515 0.097215266237156234 0 -0.1348328660863515 0.097215266237156234 0 -0.12533951967512769 0.078274991835817334 0 -0.1198812247159142 0.095002477965890675 0 -0.1348328660863515 0.097215266237156234 0 -0.12533951967512769 0.078274991835817334 0 -0.14767322655010931 0.084806545451415583 0 -0.1618062267740645 0.07958177760614682 0 -0.14767322655010931 0.084806545451415583 0 -0.15517576509654349 0.068304766057398533 0 -0.14767322655010931 0.084806545451415583 0 -0.15517576509654349 0.068304766057398533 0 -0.14001017723872511 0.063978020277280875 0 -0.12533951967512769 0.078274991835817334 0 -0.14767322655010931 0.084806545451415583 0 -0.14001017723872511 0.063978020277280875 0 -0.12533951967512769 0.078274991835817334 0 -0.14001017723872511 0.063978020277280875 0 -0.1248745965026067 0.059896082918310993 0 -0.14001017723872511 0.063978020277280875 0 -0.13626681081840961 0.042829268155062397 0 -0.1248745965026067 0.059896082918310993 0 -0.13626681081840961 0.042829268155062397 0 -0.1339340902388827 0.022300844741854581 0 -0.1180188049733784 0.030804183747700629 0 -0.13626681081840961 0.042829268155062397 0 -0.1339340902388827 0.022300844741854581 0 -0.15968783393996419 0.037567277286728401 0 -0.13626681081840961 0.042829268155062397 0 -0.15351002702878311 0.053877414325468623 0 -0.15968783393996419 0.037567277286728401 0 -0.13626681081840961 0.042829268155062397 0 -0.15968783393996419 0.037567277286728401 0 -0.14001017723872511 0.063978020277280875 0 -0.13626681081840961 0.042829268155062397 0 -0.15351002702878311 0.053877414325468623 0 -0.15517576509654349 0.068304766057398533 0 -0.14001017723872511 0.063978020277280875 0 -0.15351002702878311 0.053877414325468623 0 -0.12735709500343681 0.004015926865657337 0 -0.15177498865293759 0.016606981474429749 0 -0.12735709500343681 0.004015926865657337 0 -0.1339340902388827 0.022300844741854581 0 -0.15177498865293759 0.016606981474429749 0 -0.12735709500343681 0.004015926865657337 0 -0.1339340902388827 0.022300844741854581 0 -0.11835839359799651 0.016938700943610479 0 -0.1339340902388827 0.022300844741854581 0 -0.15177498865293759 0.016606981474429749 0 -0.15968783393996419 0.037567277286728401 0 -0.1339340902388827 0.022300844741854581 0 -0.15968783393996419 0.037567277286728401 0 -0.12735709500343681 0.004015926865657337 0 -0.15177498865293759 0.016606981474429749 0 -0.14801408494475049 0.0031182785745780331 0 -0.15177498865293759 0.016606981474429749 0 -0.14801408494475049 0.0031182785745780331 0 -0.1619193683370386 0.0066468078375689294 0 -0.15773416148281841 -0.0035868741371463562 0 -0.14801408494475049 0.0031182785745780331 0 -0.1619193683370386 0.0066468078375689294 0 -0.15177498865293759 0.016606981474429749 0 -0.1619193683370386 0.0066468078375689294 0 -0.16760309597538539 0.015861310899326669 0 -0.16716832075785379 -0.0032078365625175 0 -0.1619193683370386 0.0066468078375689294 0 -0.17584419881677341 0.0071523107965592754 0 -0.1619193683370386 0.0066468078375689294 0 -0.16760309597538539 0.015861310899326669 0 -0.17584419881677341 0.0071523107965592754 0 -0.15177498865293759 0.016606981474429749 0 -0.17619288230243149 0.029198036083215671 0 -0.15177498865293759 0.016606981474429749 0 -0.17619288230243149 0.029198036083215671 0 -0.15968783393996419 0.037567277286728401 0 -0.15177498865293759 0.016606981474429749 0 -0.16760309597538539 0.015861310899326669 0 -0.17619288230243149 0.029198036083215671 0 -0.17619288230243149 0.029198036083215671 0 -0.1852069371874478 0.015311100034367831 0 -0.17584419881677341 0.0071523107965592754 0 -0.17619288230243149 0.029198036083215671 0 -0.17584419881677341 0.0071523107965592754 0 -0.16760309597538539 0.015861310899326669 0 -0.17619288230243149 0.029198036083215671 0 -0.17584419881677341 0.0071523107965592754 0 -0.17619288230243149 0.029198036083215671 0 -0.19572946351785711 0.039272048382664133 0 -0.19029700863621521 0.024089069561314659 0 -0.17619288230243149 0.029198036083215671 0 -0.1852069371874478 0.015311100034367831 0 -0.19029700863621521 0.024089069561314659 0 -0.1852069371874478 0.015311100034367831 0 -0.18717715497560061 0.0062623078557712403 0 -0.17584419881677341 0.0071523107965592754 0 -0.18154179604087481 -0.0036104187285780349 0 -0.18717715497560061 0.0062623078557712403 0 -0.17584419881677341 0.0071523107965592754 0 -0.15351002702878311 0.053877414325468623 0 -0.1659033968134131 0.050269055427132232 0 -0.15968783393996419 0.037567277286728401 0 -0.1659033968134131 0.050269055427132232 0 -0.16451238623864939 0.061110077383343737 0 -0.17656426821359539 0.052679136019797047 0 -0.17354141001077031 0.063798093567348918 0 -0.16451238623864939 0.061110077383343737 0 -0.17656426821359539 0.052679136019797047 0 -0.16451238623864939 0.061110077383343737 0 -0.17656426821359539 0.052679136019797047 0 -0.15351002702878311 0.053877414325468623 0 -0.1659033968134131 0.050269055427132232 0 -0.16451238623864939 0.061110077383343737 0 -0.15517576509654349 0.068304766057398533 0 -0.15351002702878311 0.053877414325468623 0 -0.16451238623864939 0.061110077383343737 0 -0.15968783393996419 0.037567277286728401 0 -0.1762663423330757 0.033842591165095401 0 -0.1659033968134131 0.050269055427132232 0 -0.15968783393996419 0.037567277286728401 0 -0.1764827173319595 0.047523031967639129 0 -0.17619288230243149 0.029198036083215671 0 -0.15968783393996419 0.037567277286728401 0 -0.1762663423330757 0.033842591165095401 0 -0.15968783393996419 0.037567277286728401 0 -0.1764827173319595 0.047523031967639129 0 -0.15968783393996419 0.037567277286728401 0 -0.1762663423330757 0.033842591165095401 0 -0.1764827173319595 0.047523031967639129 0 -0.17619288230243149 0.029198036083215671 0 -0.19572946351785711 0.039272048382664133 0 -0.181281627628781 0.040827380692469641 0 -0.18051660755046151 0.049914261515807259 0 -0.1764827173319595 0.047523031967639129 0 -0.17619288230243149 0.029198036083215671 0 -0.1762663423330757 0.033842591165095401 0 -0.19572946351785711 0.039272048382664133 0 -0.1762663423330757 0.033842591165095401 0 -0.181281627628781 0.040827380692469641 0 -0.19572946351785711 0.039272048382664133 0 -0.1762663423330757 0.033842591165095401 0 -0.181281627628781 0.040827380692469641 0 -0.1764827173319595 0.047523031967639129 0 -0.1762663423330757 0.033842591165095401 0 -0.1764827173319595 0.047523031967639129 0 -0.17619288230243149 0.029198036083215671 0 -0.1762663423330757 0.033842591165095401 0 -0.181281627628781 0.040827380692469641 0 -0.18051660755046151 0.049914261515807259 0 -0.19572946351785711 0.039272048382664133 0 -0.18051660755046151 0.049914261515807259 0 -0.17656426821359539 0.052679136019797047 0 -0.1853153676200878 0.058850167416455039 0 -0.18051660755046151 0.049914261515807259 0 -0.1764827173319595 0.047523031967639129 0 -0.1764827173319595 0.047523031967639129 0 -0.17656426821359539 0.052679136019797047 0 -0.1659033968134131 0.050269055427132232 0 -0.1764827173319595 0.047523031967639129 0 -0.17656426821359539 0.052679136019797047 0 -0.18051660755046151 0.049914261515807259 0 -0.1764827173319595 0.047523031967639129 0 -0.17656426821359539 0.052679136019797047 0 -0.18051660755046151 0.049914261515807259 0 -0.17656426821359539 0.052679136019797047 0 -0.18185637422210199 0.067243003367259677 0 -0.17656426821359539 0.052679136019797047 0 -0.1853153676200878 0.058850167416455039 0 -0.1853153676200878 0.058850167416455039 0 -0.19803765617450109 0.060300476042091433 0 -0.18892740292417859 0.064703221589215376 0 -0.18051660755046151 0.049914261515807259 0 -0.19803765617450109 0.060300476042091433 0 -0.1977866825790292 0.05007637869738242 0 -0.18051660755046151 0.049914261515807259 0 -0.1853153676200878 0.058850167416455039 0 -0.19803765617450109 0.060300476042091433 0 -0.18051660755046151 0.049914261515807259 0 -0.19803765617450109 0.060300476042091433 0 -0.19803765617450109 0.060300476042091433 0 -0.1977866825790292 0.05007637869738242 0 -0.2066297839190599 0.054855205218219752 0 -0.18051660755046151 0.049914261515807259 0 -0.1977866825790292 0.05007637869738242 0 -0.19572946351785711 0.039272048382664133 0 -0.18051660755046151 0.049914261515807259 0 -0.19572946351785711 0.039272048382664133 0 -0.19572946351785711 0.039272048382664133 0 -0.2098237389609823 0.029412342647955388 0 -0.1977866825790292 0.05007637869738242 0 -0.19572946351785711 0.039272048382664133 0 -0.2073344650466164 0.045256152092875389 0 -0.19572946351785711 0.039272048382664133 0 -0.2073344650466164 0.045256152092875389 0 -0.2073344650466164 0.045256152092875389 0 -0.21702036639386221 0.038769314305699548 0 -0.2098237389609823 0.029412342647955388 0 -0.19572946351785711 0.039272048382664133 0 -0.2073344650466164 0.045256152092875389 0 -0.2098237389609823 0.029412342647955388 0 -0.21702036639386221 0.038769314305699548 0 -0.2098237389609823 0.029412342647955388 0 -0.2284051488343061 0.035137669629428533 0 -0.2073344650466164 0.045256152092875389 0 -0.21702036639386221 0.038769314305699548 0 -0.22251811273354419 0.045271092852538893 0 -0.2073344650466164 0.045256152092875389 0 -0.21769334509658461 0.055951218203848879 0 -0.22251811273354419 0.045271092852538893 0 -0.21769334509658461 0.055951218203848879 0 -0.20947987249717179 0.060448397508133619 0 -0.2066297839190599 0.054855205218219752 0 -0.21769334509658461 0.055951218203848879 0 -0.20947987249717179 0.060448397508133619 0 -0.2155587047985415 0.070686690568374386 0 -0.19803765617450109 0.060300476042091433 0 -0.20947987249717179 0.060448397508133619 0 -0.2066297839190599 0.054855205218219752 0 -0.1977866825790292 0.05007637869738242 0 -0.2073344650466164 0.045256152092875389 0 -0.2066297839190599 0.054855205218219752 0 -0.2073344650466164 0.045256152092875389 0 -0.21769334509658461 0.055951218203848879 0 -0.2066297839190599 0.054855205218219752 0 -0.1989264366345522 -0.0080023544535597537 0 -0.1965234412062255 0.0098537758749781944 0 -0.20713549204565579 6.5395444916274768e-05 0 -0.19066530249761049 -0.0041303576494283751 0 -0.18717715497560061 0.0062623078557712403 0 -0.1965234412062255 0.0098537758749781944 0 -0.1852069371874478 0.015311100034367831 0 -0.18717715497560061 0.0062623078557712403 0 -0.1965234412062255 0.0098537758749781944 0 -0.1965234412062255 0.0098537758749781944 0 -0.20113962024173071 0.02227838771243261 0 -0.2107847094499361 0.011405203725301251 0 -0.19572946351785711 0.039272048382664133 0 -0.20113962024173071 0.02227838771243261 0 -0.2098237389609823 0.029412342647955388 0 -0.19572946351785711 0.039272048382664133 0 -0.20113962024173071 0.02227838771243261 0 -0.19029700863621521 0.024089069561314659 0 -0.1965234412062255 0.0098537758749781944 0 -0.20113962024173071 0.02227838771243261 0 -0.19029700863621521 0.024089069561314659 0 -0.1852069371874478 0.015311100034367831 0 -0.1965234412062255 0.0098537758749781944 0 -0.19029700863621521 0.024089069561314659 0 -0.2098237389609823 0.029412342647955388 0 -0.2107847094499361 0.011405203725301251 0 -0.22391801440410891 0.019552636913248388 0 -0.20113962024173071 0.02227838771243261 0 -0.2098237389609823 0.029412342647955388 0 -0.2107847094499361 0.011405203725301251 0 -0.2098237389609823 0.029412342647955388 0 -0.22391801440410891 0.019552636913248388 0 -0.21702438745170211 -0.0043907958627755336 0 -0.2107847094499361 0.011405203725301251 0 -0.20713549204565579 6.5395444916274768e-05 0 -0.21702438745170211 -0.0043907958627755336 0 -0.2107847094499361 0.011405203725301251 0 -0.22391801440410891 0.019552636913248388 0 -0.1965234412062255 0.0098537758749781944 0 -0.2107847094499361 0.011405203725301251 0 -0.20713549204565579 6.5395444916274768e-05 0 -0.22867745033346079 0.0038692188645070222 0 -0.22391801440410891 0.019552636913248388 0 -0.2344599051246074 0.012178015861532989 0 -0.21702438745170211 -0.0043907958627755336 0 -0.22391801440410891 0.019552636913248388 0 -0.21702438745170211 -0.0043907958627755336 0 -0.22867745033346079 0.0038692188645070222 0 -0.22391801440410891 0.019552636913248388 0 -0.22391801440410891 0.019552636913248388 0 -0.2403792472176362 0.02548084658656756 0 -0.2344599051246074 0.012178015861532989 0 -0.2098237389609823 0.029412342647955388 0 -0.22391801440410891 0.019552636913248388 0 -0.2284051488343061 0.035137669629428533 0 -0.22391801440410891 0.019552636913248388 0 -0.2403792472176362 0.02548084658656756 0 -0.2284051488343061 0.035137669629428533 0 -0.22391801440410891 0.019552636913248388 0 -0.2344599051246074 0.012178015861532989 0 -0.22391801440410891 0.019552636913248388 0 -0.2284051488343061 0.035137669629428533 0 -0.2522816967992324 0.037264740289820159 0 -0.25157722050270093 0.012682655753942951 0 -0.2403792472176362 0.02548084658656756 0 -0.25157722050270093 0.012682655753942951 0 -0.2403792472176362 0.02548084658656756 0 -0.2344599051246074 0.012178015861532989 0 -0.25267499080189931 -0.0034516002120552492 0 -0.25157722050270093 0.012682655753942951 0 -0.2401015516947359 0.00075261550232862703 0 -0.25157722050270093 0.012682655753942951 0 -0.2344599051246074 0.012178015861532989 0 -0.2401015516947359 0.00075261550232862703 0 -0.22867745033346079 0.0038692188645070222 0 -0.2344599051246074 0.012178015861532989 0 -0.2401015516947359 0.00075261550232862703 0 -0.21769334509658461 0.055951218203848879 0 -0.23255980098598539 0.056775429521547523 0 -0.2155587047985415 0.070686690568374386 0 -0.23289228326450309 0.050722702345608793 0 -0.22641588552015429 0.052180110730886013 0 -0.22251811273354419 0.045271092852538893 0 -0.23289228326450309 0.050722702345608793 0 -0.23255980098598539 0.056775429521547523 0 -0.22641588552015429 0.052180110730886013 0 -0.21769334509658461 0.055951218203848879 0 -0.23255980098598539 0.056775429521547523 0 -0.22641588552015429 0.052180110730886013 0 -0.21769334509658461 0.055951218203848879 0 -0.22641588552015429 0.052180110730886013 0 -0.22251811273354419 0.045271092852538893 0 -0.21702036639386221 0.038769314305699548 0 -0.22251811273354419 0.045271092852538893 0 -0.2284051488343061 0.035137669629428533 0 -0.23289228326450309 0.050722702345608793 0 -0.22251811273354419 0.045271092852538893 0 -0.2284051488343061 0.035137669629428533 0 -0.23289228326450309 0.050722702345608793 0 -0.2284051488343061 0.035137669629428533 0 -0.2522816967992324 0.037264740289820159 0 -0.2403792472176362 0.02548084658656756 0 -0.2284051488343061 0.035137669629428533 0 -0.2522816967992324 0.037264740289820159 0 -0.23289228326450309 0.050722702345608793 0 -0.2284051488343061 0.035137669629428533 0 -0.2522816967992324 0.037264740289820159 0 -0.23289228326450309 0.050722702345608793 0 -0.23255980098598539 0.056775429521547523 0 -0.2522816967992324 0.037264740289820159 0 -0.23255980098598539 0.056775429521547523 0 -0.2522816967992324 0.037264740289820159 0 -0.23255980098598539 0.056775429521547523 0 -0.24906194248509719 0.058488871325365822 0 -0.23255980098598539 0.056775429521547523 0 -0.24906194248509719 0.058488871325365822 0 -0.23770452364983391 0.071010308971772351 0 -0.26257114212692878 0.06573449919026883 0 -0.24906194248509719 0.058488871325365822 0 -0.23770452364983391 0.071010308971772351 0 -0.25261226255175379 0.080423606239198905 0 -0.23770452364983391 0.071010308971772351 0 -0.23158356521460469 0.085326977986282804 0 -0.25261226255175379 0.080423606239198905 0 -0.23158356521460469 0.085326977986282804 0 -0.24377998071086901 0.096378574065869249 0 -0.23158356521460469 0.085326977986282804 0 -0.21283790517273879 0.076286118753275345 0 -0.22135706029896429 0.097751395037259853 0 -0.23158356521460469 0.085326977986282804 0 -0.22135706029896429 0.097751395037259853 0 -0.24377998071086901 0.096378574065869249 0 -0.23255980098598539 0.056775429521547523 0 -0.21283790517273879 0.076286118753275345 0 -0.23770452364983391 0.071010308971772351 0 -0.23158356521460469 0.085326977986282804 0 -0.21283790517273879 0.076286118753275345 0 -0.23255980098598539 0.056775429521547523 0 -0.23770452364983391 0.071010308971772351 0 -0.21283790517273879 0.076286118753275345 0 -0.23255980098598539 0.056775429521547523 0 -0.21283790517273879 0.076286118753275345 0 -0.2155587047985415 0.070686690568374386 0 -0.23770452364983391 0.071010308971772351 0 -0.21283790517273879 0.076286118753275345 0 -0.19803765617450109 0.060300476042091433 0 -0.20947987249717179 0.060448397508133619 0 -0.2155587047985415 0.070686690568374386 0 -0.19803765617450109 0.060300476042091433 0 -0.20333782300263301 0.070680183335342567 0 -0.2155587047985415 0.070686690568374386 0 -0.19803765617450109 0.060300476042091433 0 -0.2155587047985415 0.070686690568374386 0 -0.21283790517273879 0.076286118753275345 0 -0.19766176801088831 0.079505953929404904 0 -0.20333782300263301 0.070680183335342567 0 -0.21283790517273879 0.076286118753275345 0 -0.19766176801088831 0.079505953929404904 0 -0.20333782300263301 0.070680183335342567 0 -0.21283790517273879 0.076286118753275345 0 -0.2155587047985415 0.070686690568374386 0 -0.21283790517273879 0.076286118753275345 0 -0.1951643137470572 0.093770439387570487 0 -0.22135706029896429 0.097751395037259853 0 -0.21283790517273879 0.076286118753275345 0 -0.1951643137470572 0.093770439387570487 0 -0.21283790517273879 0.076286118753275345 0 -0.19766176801088831 0.079505953929404904 0 -0.1951643137470572 0.093770439387570487 0 -0.18248563084903771 0.082725789105533951 0 -0.19766176801088831 0.079505953929404904 0 -0.1951643137470572 0.093770439387570487 0 -0.1867192510276118 0.077748512173410014 0 -0.18248563084903771 0.082725789105533951 0 -0.19766176801088831 0.079505953929404904 0 -0.18248563084903771 0.082725789105533951 0 -0.19766176801088831 0.079505953929404904 0 -0.1867192510276118 0.077748512173410014 0 -0.19766176801088831 0.079505953929404904 0 -0.19050021368002351 0.072419239531055349 0 -0.19803765617450109 0.060300476042091433 0 -0.19050021368002351 0.072419239531055349 0 -0.18892740292417859 0.064703221589215376 0 -0.19803765617450109 0.060300476042091433 0 -0.20333782300263301 0.070680183335342567 0 -0.19050021368002351 0.072419239531055349 0 -0.20333782300263301 0.070680183335342567 0 -0.19766176801088831 0.079505953929404904 0 -0.19050021368002351 0.072419239531055349 0 -0.17749072232138041 0.1112547600218704 0 -0.19150979458678249 0.1243728737611647 0 -0.1951643137470572 0.093770439387570487 0 -0.19150979458678249 0.1243728737611647 0 -0.1951643137470572 0.093770439387570487 0 -0.20994497012605751 0.11823125198409511 0 -0.1951643137470572 0.093770439387570487 0 -0.20994497012605751 0.11823125198409511 0 -0.22135706029896429 0.097751395037259853 0 -0.20994497012605751 0.11823125198409511 0 -0.2348316268224595 0.11651500804646669 0 -0.2235388627286797 0.12965651036182041 0 -0.20994497012605751 0.11823125198409511 0 -0.22135706029896429 0.097751395037259853 0 -0.2348316268224595 0.11651500804646669 0 -0.22135706029896429 0.097751395037259853 0 -0.24377998071086901 0.096378574065869249 0 -0.2348316268224595 0.11651500804646669 0 -0.25136603029008331 0.1103208693098497 0 -0.24377998071086901 0.096378574065869249 0 -0.2348316268224595 0.11651500804646669 0 -0.25922316449870308 0.12628093809151891 0 -0.25136603029008331 0.1103208693098497 0 -0.2348316268224595 0.11651500804646669 0 -0.25922316449870308 0.12628093809151891 0 -0.2348316268224595 0.11651500804646669 0 -0.2369615480924761 0.1404602413506009 0 -0.2369615480924761 0.1404602413506009 0 -0.2235388627286797 0.12965651036182041 0 -0.2124173058737257 0.14341954006611901 0 -0.2348316268224595 0.11651500804646669 0 -0.2369615480924761 0.1404602413506009 0 -0.2235388627286797 0.12965651036182041 0 -0.2369615480924761 0.1404602413506009 0 -0.22679867445049531 0.16064067306310431 0 -0.2124173058737257 0.14341954006611901 0 -0.2369615480924761 0.1404602413506009 0 -0.247018622616726 0.15992587597476091 0 -0.22679867445049531 0.16064067306310431 0 -0.25846103874104392 0.14702121199507179 0 -0.2369615480924761 0.1404602413506009 0 -0.247018622616726 0.15992587597476091 0 -0.247018622616726 0.15992587597476091 0 -0.23359887481107691 0.1809086922627815 0 -0.247018622616726 0.15992587597476091 0 -0.23359887481107691 0.1809086922627815 0 -0.22679867445049531 0.16064067306310431 0 -0.26439180367967152 0.18225540552070321 0 -0.247018622616726 0.15992587597476091 0 -0.23359887481107691 0.1809086922627815 0 -0.23359887481107691 0.1809086922627815 0 -0.20517995294037331 0.17379218369948349 0 -0.2201791270054278 0.2018915085508021 0 -0.23359887481107691 0.1809086922627815 0 -0.22679867445049531 0.16064067306310431 0 -0.20517995294037331 0.17379218369948349 0 -0.22679867445049531 0.16064067306310431 0 -0.20517995294037331 0.17379218369948349 0 -0.2124173058737257 0.14341954006611901 0 -0.20517995294037331 0.17379218369948349 0 -0.19274338499996449 0.14807478539393409 0 -0.17830044274374979 0.16244982581953471 0 -0.19150979458678249 0.1243728737611647 0 -0.19274338499996449 0.14807478539393409 0 -0.2124173058737257 0.14341954006611901 0 -0.20994497012605751 0.11823125198409511 0 -0.2235388627286797 0.12965651036182041 0 -0.2124173058737257 0.14341954006611901 0 -0.19150979458678249 0.1243728737611647 0 -0.20994497012605751 0.11823125198409511 0 -0.2124173058737257 0.14341954006611901 0 -0.20517995294037331 0.17379218369948349 0 -0.19274338499996449 0.14807478539393409 0 -0.2124173058737257 0.14341954006611901 0 -0.22371849106378741 0.2462845034026982 0 -0.23019370483249479 0.22382880503591951 0 -0.2066863838603582 0.24242880758937649 0 -0.22371849106378741 0.2462845034026982 0 -0.23951274761537589 0.2474853768326048 0 -0.23019370483249479 0.22382880503591951 0 -0.25272375818517617 0.22994970808158929 0 -0.25621817608628389 0.2460965770837312 0 -0.23951274761537589 0.2474853768326048 0 -0.25370102580463139 0.2052288024824625 0 -0.25272375818517617 0.22994970808158929 0 -0.23019370483249479 0.22382880503591951 0 -0.25272375818517617 0.22994970808158929 0 -0.23951274761537589 0.2474853768326048 0 -0.23019370483249479 0.22382880503591951 0 -0.25370102580463139 0.2052288024824625 0 -0.23359887481107691 0.1809086922627815 0 -0.2201791270054278 0.2018915085508021 0 -0.25370102580463139 0.2052288024824625 0 -0.23019370483249479 0.22382880503591951 0 -0.2201791270054278 0.2018915085508021 0 -0.23019370483249479 0.22382880503591951 0 -0.2201791270054278 0.2018915085508021 0 -0.20675937919977869 0.22287432483882261 0 -0.25370102580463139 0.2052288024824625 0 -0.23019370483249479 0.22382880503591951 0 -0.23359887481107691 0.1809086922627815 0 -0.2201791270054278 0.2018915085508021 0 -0.20517995294037331 0.17379218369948349 0 -0.2201791270054278 0.2018915085508021 0 -0.19686056424972551 0.20437535499954981 0 -0.20517995294037331 0.17379218369948349 0 -0.19686056424972551 0.20437535499954981 0 -0.17870530295493239 0.18804735871836689 0 -0.19686056424972551 0.20437535499954981 0 -0.20675937919977869 0.22287432483882261 0 -0.19122946023172571 0.22600186257262461 0 -0.19686056424972551 0.20437535499954981 0 -0.19122946023172571 0.22600186257262461 0 -0.179110163166115 0.21364489161719899 0 -0.2201791270054278 0.2018915085508021 0 -0.19686056424972551 0.20437535499954981 0 -0.20675937919977869 0.22287432483882261 0 -0.2201791270054278 0.2018915085508021 0 -0.20675937919977869 0.22287432483882261 0 -0.23019370483249479 0.22382880503591951 0 -0.2066863838603582 0.24242880758937649 0 -0.23019370483249479 0.22382880503591951 0 -0.20675937919977869 0.22287432483882261 0 -0.2066863838603582 0.24242880758937649 0 -0.20675937919977869 0.22287432483882261 0 -0.19333963139412971 0.24385714112684301 0 -0.20675937919977869 0.22287432483882261 0 -0.19122946023172571 0.22600186257262461 0 -0.19333963139412971 0.24385714112684301 0 -0.19122946023172571 0.22600186257262461 0 -0.19333963139412971 0.24385714112684301 0 -0.17951502337729761 0.2392424245160312 0 -0.20675937919977869 0.22287432483882261 0 -0.19333963139412971 0.24385714112684301 0 -0.2066863838603582 0.24242880758937649 0 -0.18259587964237009 0.2606558300825601 0 -0.19333963139412971 0.24385714112684301 0 -0.2066863838603582 0.24242880758937649 0 -0.21408768962570049 0.25938306782852782 0 -0.22371849106378741 0.2462845034026982 0 -0.2066863838603582 0.24242880758937649 0 -0.1532221513837192 0.25419418888983192 0 -0.17951502337729761 0.2392424245160312 0 -0.15110003921584569 0.22881829817408891 0 -0.18259587964237009 0.2606558300825601 0 -0.19333963139412971 0.24385714112684301 0 -0.17951502337729761 0.2392424245160312 0 -0.17951502337729761 0.2392424245160312 0 -0.1619547442009632 0.2162214427956837 0 -0.179110163166115 0.21364489161719899 0 -0.19122946023172571 0.22600186257262461 0 -0.17951502337729761 0.2392424245160312 0 -0.179110163166115 0.21364489161719899 0 -0.17951502337729761 0.2392424245160312 0 -0.179110163166115 0.21364489161719899 0 -0.17951502337729761 0.2392424245160312 0 -0.1619547442009632 0.2162214427956837 0 -0.15110003921584569 0.22881829817408891 0 -0.1619547442009632 0.2162214427956837 0 -0.179110163166115 0.21364489161719899 0 -0.17870530295493239 0.18804735871836689 0 -0.19686056424972551 0.20437535499954981 0 -0.179110163166115 0.21364489161719899 0 -0.17870530295493239 0.18804735871836689 0 -0.179110163166115 0.21364489161719899 0 -0.17870530295493239 0.18804735871836689 0 -0.1619547442009632 0.2162214427956837 0 -0.17870530295493239 0.18804735871836689 0 -0.15775407484820861 0.18727827749961631 0 -0.14804225966403101 0.20585853828705919 0 -0.15775407484820861 0.18727827749961631 0 -0.13876353146598761 0.18223131465273959 0 -0.1619547442009632 0.2162214427956837 0 -0.14804225966403101 0.20585853828705919 0 -0.15775407484820861 0.18727827749961631 0 -0.13876353146598761 0.18223131465273959 0 -0.1245765098090509 0.17966052017845999 0 -0.1190175871807343 0.20067046473278771 0 -0.14804225966403101 0.20585853828705919 0 -0.13876353146598761 0.18223131465273959 0 -0.1190175871807343 0.20067046473278771 0 -0.14804225966403101 0.20585853828705919 0 -0.13479108425045189 0.2189379304695287 0 -0.1190175871807343 0.20067046473278771 0 -0.13479108425045189 0.2189379304695287 0 -0.12594818007053379 0.2253828658525201 0 -0.1190175871807343 0.20067046473278771 0 -0.1619547442009632 0.2162214427956837 0 -0.14804225966403101 0.20585853828705919 0 -0.15110003921584569 0.22881829817408891 0 -0.14804225966403101 0.20585853828705919 0 -0.15110003921584569 0.22881829817408891 0 -0.13479108425045189 0.2189379304695287 0 -0.15110003921584569 0.22881829817408891 0 -0.13479108425045189 0.2189379304695287 0 -0.1378537507735782 0.22769286600650679 0 -0.15110003921584569 0.22881829817408891 0 -0.1378537507735782 0.22769286600650679 0 -0.13827307027013019 0.2362506378269415 0 -0.13479108425045189 0.2189379304695287 0 -0.12594818007053379 0.2253828658525201 0 -0.1378537507735782 0.22769286600650679 0 -0.12594818007053379 0.2253828658525201 0 -0.1378537507735782 0.22769286600650679 0 -0.13827307027013019 0.2362506378269415 0 -0.12594818007053379 0.2253828658525201 0 -0.13827307027013019 0.2362506378269415 0 -0.1327712538659816 0.24971188635390451 0 -0.12594818007053379 0.2253828658525201 0 -0.1327712538659816 0.24971188635390451 0 -0.1532221513837192 0.25419418888983192 0 -0.15110003921584569 0.22881829817408891 0 -0.13827307027013019 0.2362506378269415 0 -0.1532221513837192 0.25419418888983192 0 -0.13827307027013019 0.2362506378269415 0 -0.1327712538659816 0.24971188635390451 0 -0.16317411874061041 0.14897554401654969 0 -0.16113979031376621 0.12743058591966341 0 -0.1447888583061562 0.1436064118174607 0 -0.16317411874061041 0.14897554401654969 0 -0.16113979031376621 0.12743058591966341 0 -0.17789558253256721 0.1368522929207025 0 -0.17749072232138041 0.1112547600218704 0 -0.16113979031376621 0.12743058591966341 0 -0.17789558253256721 0.1368522929207025 0 -0.19150979458678249 0.1243728737611647 0 -0.19274338499996449 0.14807478539393409 0 -0.17789558253256721 0.1368522929207025 0 -0.16317411874061041 0.14897554401654969 0 -0.17789558253256721 0.1368522929207025 0 -0.17830044274374979 0.16244982581953471 0 -0.17789558253256721 0.1368522929207025 0 -0.17830044274374979 0.16244982581953471 0 -0.19274338499996449 0.14807478539393409 0 -0.17789558253256721 0.1368522929207025 0 -0.17830044274374979 0.16244982581953471 0 -0.20517995294037331 0.17379218369948349 0 -0.17870530295493239 0.18804735871836689 0 -0.17830044274374979 0.16244982581953471 0 -0.17870530295493239 0.18804735871836689 0 -0.17830044274374979 0.16244982581953471 0 -0.17870530295493239 0.18804735871836689 0 -0.17830044274374979 0.16244982581953471 0 -0.15775407484820861 0.18727827749961631 0 -0.17830044274374979 0.16244982581953471 0 -0.15775407484820861 0.18727827749961631 0 -0.15245232938168229 0.1648839185887534 0 -0.16317411874061041 0.14897554401654969 0 -0.17830044274374979 0.16244982581953471 0 -0.15245232938168229 0.1648839185887534 0 -0.15775407484820861 0.18727827749961631 0 -0.15245232938168229 0.1648839185887534 0 -0.13876353146598761 0.18223131465273959 0 -0.13876353146598761 0.18223131465273959 0 -0.12843792629854631 0.15978223771525801 0 -0.1245765098090509 0.17966052017845999 0 -0.15245232938168229 0.1648839185887534 0 -0.13876353146598761 0.18223131465273959 0 -0.12843792629854631 0.15978223771525801 0 -0.12843792629854631 0.15978223771525801 0 -0.1447888583061562 0.1436064118174607 0 -0.12843792629854631 0.15978223771525801 0 -0.1447888583061562 0.1436064118174607 0 -0.1204435081575875 0.14623213693654391 0 -0.16317411874061041 0.14897554401654969 0 -0.15245232938168229 0.1648839185887534 0 -0.1447888583061562 0.1436064118174607 0 -0.15245232938168229 0.1648839185887534 0 -0.12843792629854631 0.15978223771525801 0 -0.1447888583061562 0.1436064118174607 0 -0.16113979031376621 0.12743058591966341 0 -0.1447888583061562 0.1436064118174607 0 -0.14300315410871919 0.1253406317882016 0 -0.16113979031376621 0.12743058591966341 0 -0.1447888583061562 0.1436064118174607 0 -0.1447888583061562 0.1436064118174607 0 -0.12687331202938101 0.13192737382428379 0 -0.1204435081575875 0.14623213693654391 0 -0.1447888583061562 0.1436064118174607 0 -0.14300315410871919 0.1253406317882016 0 -0.12687331202938101 0.13192737382428379 0 -0.12687331202938101 0.13192737382428379 0 -0.1130049083687871 0.13722853083192951 0 -0.10667563132183119 0.1260080396076822 0 -0.12687331202938101 0.13192737382428379 0 -0.1130049083687871 0.13722853083192951 0 -0.1204435081575875 0.14623213693654391 0 -0.10667563132183119 0.1260080396076822 0 -0.081978849477511453 0.1384377215961772 0 -0.096577670607123245 0.1239972751083621 0 -0.10667563132183119 0.1260080396076822 0 -0.1008242758955458 0.1385116675773613 0 -0.081978849477511453 0.1384377215961772 0 -0.10667563132183119 0.1260080396076822 0 -0.081978849477511453 0.1384377215961772 0 -0.1130049083687871 0.13722853083192951 0 -0.10667563132183119 0.1260080396076822 0 -0.1008242758955458 0.1385116675773613 0 -0.1130049083687871 0.13722853083192951 0 -0.1008242758955458 0.1385116675773613 0 -0.1078791741402548 0.14587794917826699 0 -0.094422293866394627 0.1556947047027778 0 -0.094582816169344081 0.14500609667275041 0 -0.1078791741402548 0.14587794917826699 0 -0.1008242758955458 0.1385116675773613 0 -0.094582816169344081 0.14500609667275041 0 -0.1078791741402548 0.14587794917826699 0 -0.12843792629854631 0.15978223771525801 0 -0.1204435081575875 0.14623213693654391 0 -0.1073217141416921 0.15896651377475199 0 -0.1078791741402548 0.14587794917826699 0 -0.1204435081575875 0.14623213693654391 0 -0.1073217141416921 0.15896651377475199 0 -0.1130049083687871 0.13722853083192951 0 -0.1078791741402548 0.14587794917826699 0 -0.1204435081575875 0.14623213693654391 0 -0.12843792629854631 0.15978223771525801 0 -0.1245765098090509 0.17966052017845999 0 -0.1120869942909358 0.17595806361305491 0 -0.1120869942909358 0.17595806361305491 0 -0.1073217141416921 0.15896651377475199 0 -0.12843792629854631 0.15978223771525801 0 -0.1120869942909358 0.17595806361305491 0 -0.12843792629854631 0.15978223771525801 0 -0.1120869942909358 0.17595806361305491 0 -0.1073217141416921 0.15896651377475199 0 -0.1245765098090509 0.17966052017845999 0 -0.1120869942909358 0.17595806361305491 0 -0.1190175871807343 0.20067046473278771 0 -0.1120869942909358 0.17595806361305491 0 -0.1020860412129876 0.1687304780430319 0 -0.095149617161195271 0.19271405424946009 0 -0.1020860412129876 0.1687304780430319 0 -0.095149617161195271 0.19271405424946009 0 -0.1120869942909358 0.17595806361305491 0 -0.095149617161195271 0.19271405424946009 0 -0.1020860412129876 0.1687304780430319 0 -0.093279947424905002 0.17994671451597891 0 -0.095149617161195271 0.19271405424946009 0 -0.1020860412129876 0.1687304780430319 0 -0.089956478385260899 0.16811851343374709 0 -0.093279947424905002 0.17994671451597891 0 -0.094422293866394627 0.1556947047027778 0 -0.1078791741402548 0.14587794917826699 0 -0.1020860412129876 0.1687304780430319 0 -0.1078791741402548 0.14587794917826699 0 -0.1073217141416921 0.15896651377475199 0 -0.1020860412129876 0.1687304780430319 0 -0.1120869942909358 0.17595806361305491 0 -0.1073217141416921 0.15896651377475199 0 -0.1020860412129876 0.1687304780430319 0 -0.1078791741402548 0.14587794917826699 0 -0.1020860412129876 0.1687304780430319 0 -0.094422293866394627 0.1556947047027778 0 -0.1020860412129876 0.1687304780430319 0 -0.089956478385260899 0.16811851343374709 0 -0.094422293866394627 0.1556947047027778 0 -0.089956478385260899 0.16811851343374709 0 -0.084742563178951485 0.15922574422532609 0 -0.089956478385260899 0.16811851343374709 0 -0.080023232193096983 0.1657260639694961 0 -0.084742563178951485 0.15922574422532609 0 -0.089956478385260899 0.16811851343374709 0 -0.080023232193096983 0.1657260639694961 0 -0.081293191825158789 0.17801619480298669 0 -0.080023232193096983 0.1657260639694961 0 -0.084742563178951485 0.15922574422532609 0 -0.074930767296401246 0.15918989644816289 0 -0.081293191825158789 0.17801619480298669 0 -0.095149617161195271 0.19271405424946009 0 -0.073474196407973841 0.19079473501472519 0 -0.081293191825158789 0.17801619480298669 0 -0.095149617161195271 0.19271405424946009 0 -0.093279947424905002 0.17994671451597891 0 -0.081293191825158789 0.17801619480298669 0 -0.095149617161195271 0.19271405424946009 0 -0.089956478385260899 0.16811851343374709 0 -0.093279947424905002 0.17994671451597891 0 -0.081293191825158789 0.17801619480298669 0 -0.064604308801312821 0.18244611143699499 0 -0.069549912031587807 0.17131438064227461 0 -0.073474196407973841 0.19079473501472519 0 -0.081293191825158789 0.17801619480298669 0 -0.069549912031587807 0.17131438064227461 0 -0.073474196407973841 0.19079473501472519 0 -0.069549912031587807 0.17131438064227461 0 -0.073474196407973841 0.19079473501472519 0 -0.064604308801312821 0.18244611143699499 0 -0.069549912031587807 0.17131438064227461 0 -0.062041409668937363 0.1723934095439342 0 -0.084742563178951485 0.15922574422532609 0 -0.074930767296401246 0.15918989644816289 0 -0.074588176879671189 0.15080810715310269 0 -0.080023232193096983 0.1657260639694961 0 -0.074930767296401246 0.15918989644816289 0 -0.06743676648912228 0.16331833535651319 0 -0.081293191825158789 0.17801619480298669 0 -0.069549912031587807 0.17131438064227461 0 -0.06743676648912228 0.16331833535651319 0 -0.080023232193096983 0.1657260639694961 0 -0.081293191825158789 0.17801619480298669 0 -0.06743676648912228 0.16331833535651319 0 -0.081293191825158789 0.17801619480298669 0 -0.06743676648912228 0.16331833535651319 0 -0.069549912031587807 0.17131438064227461 0 -0.062031688412593149 0.16441565219234799 0 -0.062041409668937363 0.1723934095439342 0 -0.069549912031587807 0.17131438064227461 0 -0.06743676648912228 0.16331833535651319 0 -0.062031688412593149 0.16441565219234799 0 -0.06743676648912228 0.16331833535651319 0 -0.06725389334219653 0.15771987894696021 0 -0.062031688412593149 0.16441565219234799 0 -0.074930767296401246 0.15918989644816289 0 -0.06743676648912228 0.16331833535651319 0 -0.06725389334219653 0.15771987894696021 0 -0.081978849477511453 0.1384377215961772 0 -0.05728206763319247 0.1508674035846734 0 -0.06725389334219653 0.15771987894696021 0 -0.074588176879671189 0.15080810715310269 0 -0.05728206763319247 0.1508674035846734 0 -0.074588176879671189 0.15080810715310269 0 -0.081978849477511453 0.1384377215961772 0 -0.05728206763319247 0.1508674035846734 0 -0.081978849477511453 0.1384377215961772 0 -0.06070043620975589 0.134524720015781 0 -0.05728206763319247 0.1508674035846734 0 -0.074930767296401246 0.15918989644816289 0 -0.06725389334219653 0.15771987894696021 0 -0.074588176879671189 0.15080810715310269 0 -0.071786582042575819 0.1280585334591178 0 -0.081978849477511453 0.1384377215961772 0 -0.08034823769671974 0.121089655777625 0 -0.071786582042575819 0.1280585334591178 0 -0.081978849477511453 0.1384377215961772 0 -0.06070043620975589 0.134524720015781 0 -0.071786582042575819 0.1280585334591178 0 -0.06070043620975589 0.134524720015781 0 -0.06411880478631618 0.11818203644688791 0 -0.081978849477511453 0.1384377215961772 0 -0.08034823769671974 0.121089655777625 0 -0.096577670607123245 0.1239972751083621 0 -0.1008242758955458 0.1385116675773613 0 -0.094582816169344081 0.14500609667275041 0 -0.081978849477511453 0.1384377215961772 0 -0.094582816169344081 0.14500609667275041 0 -0.081978849477511453 0.1384377215961772 0 -0.0854808471676783 0.14892295327365951 0 -0.094422293866394627 0.1556947047027778 0 -0.084742563178951485 0.15922574422532609 0 -0.0854808471676783 0.14892295327365951 0 -0.094422293866394627 0.1556947047027778 0 -0.094582816169344081 0.14500609667275041 0 -0.0854808471676783 0.14892295327365951 0 -0.084742563178951485 0.15922574422532609 0 -0.074588176879671189 0.15080810715310269 0 -0.0854808471676783 0.14892295327365951 0 -0.074588176879671189 0.15080810715310269 0 -0.081978849477511453 0.1384377215961772 0 -0.0854808471676783 0.14892295327365951 0 -0.1045487088169635 0.24438495162540061 0 -0.11455994162881621 0.23631135170566109 0 -0.098826177075254387 0.23394696074010041 0 -0.10005120432924321 0.25626016583208688 0 -0.094679029848152713 0.24609146959404629 0 -0.1045487088169635 0.24438495162540061 0 -0.094679029848152713 0.24609146959404629 0 -0.1045487088169635 0.24438495162540061 0 -0.098826177075254387 0.23394696074010041 0 -0.116744543106582 0.25728181003509248 0 -0.1045487088169635 0.24438495162540061 0 -0.11455994162881621 0.23631135170566109 0 -0.116744543106582 0.25728181003509248 0 -0.1327712538659816 0.24971188635390451 0 -0.11455994162881621 0.23631135170566109 0 -0.12594818007053379 0.2253828658525201 0 -0.1327712538659816 0.24971188635390451 0 -0.11455994162881621 0.23631135170566109 0 -0.11455994162881621 0.23631135170566109 0 -0.1144435087069731 0.2232582902708152 0 -0.1063794885369051 0.22193246116811141 0 -0.12594818007053379 0.2253828658525201 0 -0.1144435087069731 0.2232582902708152 0 -0.1108864245916369 0.20940648235696879 0 -0.12594818007053379 0.2253828658525201 0 -0.11455994162881621 0.23631135170566109 0 -0.1144435087069731 0.2232582902708152 0 -0.11455994162881621 0.23631135170566109 0 -0.1063794885369051 0.22193246116811141 0 -0.098826177075254387 0.23394696074010041 0 -0.1063794885369051 0.22193246116811141 0 -0.098826177075254387 0.23394696074010041 0 -0.089950704149474564 0.21660149084549701 0 -0.1063794885369051 0.22193246116811141 0 -0.089950704149474564 0.21660149084549701 0 -0.10053720550511509 0.21148400771379949 0 -0.095149617161195271 0.19271405424946009 0 -0.089950704149474564 0.21660149084549701 0 -0.1063794885369051 0.22193246116811141 0 -0.10053720550511509 0.21148400771379949 0 -0.089950704149474564 0.21660149084549701 0 -0.10053720550511509 0.21148400771379949 0 -0.1108864245916369 0.20940648235696879 0 -0.095149617161195271 0.19271405424946009 0 -0.1063794885369051 0.22193246116811141 0 -0.10053720550511509 0.21148400771379949 0 -0.1108864245916369 0.20940648235696879 0 -0.12594818007053379 0.2253828658525201 0 -0.1190175871807343 0.20067046473278771 0 -0.12594818007053379 0.2253828658525201 0 -0.1108864245916369 0.20940648235696879 0 -0.1190175871807343 0.20067046473278771 0 -0.12594818007053379 0.2253828658525201 0 -0.1108864245916369 0.20940648235696879 0 -0.1144435087069731 0.2232582902708152 0 -0.1063794885369051 0.22193246116811141 0 -0.1108864245916369 0.20940648235696879 0 -0.1120869942909358 0.17595806361305491 0 -0.1190175871807343 0.20067046473278771 0 -0.1108864245916369 0.20940648235696879 0 -0.1190175871807343 0.20067046473278771 0 -0.10682171669235439 0.1942096232944058 0 -0.1120869942909358 0.17595806361305491 0 -0.1190175871807343 0.20067046473278771 0 -0.10682171669235439 0.1942096232944058 0 -0.1108864245916369 0.20940648235696879 0 -0.095149617161195271 0.19271405424946009 0 -0.1108864245916369 0.20940648235696879 0 -0.10682171669235439 0.1942096232944058 0 -0.095149617161195271 0.19271405424946009 0 -0.1120869942909358 0.17595806361305491 0 -0.10682171669235439 0.1942096232944058 0 -0.095149617161195271 0.19271405424946009 0 -0.095149617161195271 0.19271405424946009 0 -0.077398480784349299 0.2102750893871779 0 -0.095149617161195271 0.19271405424946009 0 -0.073474196407973841 0.19079473501472519 0 -0.077398480784349299 0.2102750893871779 0 -0.095149617161195271 0.19271405424946009 0 -0.077398480784349299 0.2102750893871779 0 -0.087241526055590657 0.20514135106535239 0 -0.073474196407973841 0.19079473501472519 0 -0.077398480784349299 0.2102750893871779 0 -0.073474196407973841 0.19079473501472519 0 -0.077398480784349299 0.2102750893871779 0 -0.068984895145132993 0.20348567813270921 0 -0.064604308801312821 0.18244611143699499 0 -0.073474196407973841 0.19079473501472519 0 -0.062951628171730722 0.19451437844324071 0 -0.073474196407973841 0.19079473501472519 0 -0.062951628171730722 0.19451437844324071 0 -0.068984895145132993 0.20348567813270921 0 -0.062951628171730722 0.19451437844324071 0 -0.068984895145132993 0.20348567813270921 0 -0.057478398324341332 0.20606456403591589 0 -0.068984895145132993 0.20348567813270921 0 -0.075683327299925024 0.21197187487555791 0 -0.057478398324341332 0.20606456403591589 0 -0.075683327299925024 0.21197187487555791 0 -0.060700713784132942 0.2267940359372384 0 -0.057478398324341332 0.20606456403591589 0 -0.075683327299925024 0.21197187487555791 0 -0.057478398324341332 0.20606456403591589 0 -0.077398480784349299 0.2102750893871779 0 -0.068984895145132993 0.20348567813270921 0 -0.075683327299925024 0.21197187487555791 0 -0.075683327299925024 0.21197187487555791 0 -0.077884159070199604 0.2126860219832131 0 -0.060700713784132942 0.2267940359372384 0 -0.075683327299925024 0.21197187487555791 0 -0.077884159070199604 0.2126860219832131 0 -0.077398480784349299 0.2102750893871779 0 -0.075683327299925024 0.21197187487555791 0 -0.077884159070199604 0.2126860219832131 0 -0.077398480784349299 0.2102750893871779 0 -0.077884159070199604 0.2126860219832131 0 -0.077398480784349299 0.2102750893871779 0 -0.075683327299925024 0.21197187487555791 0 -0.077884159070199604 0.2126860219832131 0 -0.089950704149474564 0.21660149084549701 0 -0.077884159070199604 0.2126860219832131 0 -0.087241526055590657 0.20514135106535239 0 -0.089950704149474564 0.21660149084549701 0 -0.095149617161195271 0.19271405424946009 0 -0.087241526055590657 0.20514135106535239 0 -0.089950704149474564 0.21660149084549701 0 -0.095149617161195271 0.19271405424946009 0 -0.089950704149474564 0.21660149084549701 0 -0.077398480784349299 0.2102750893871779 0 -0.077884159070199604 0.2126860219832131 0 -0.087241526055590657 0.20514135106535239 0 -0.077884159070199604 0.2126860219832131 0 -0.083666647235009842 0.24139059785004849 0 -0.089950704149474564 0.21660149084549701 0 -0.083666647235009842 0.24139059785004849 0 -0.077884159070199604 0.2126860219832131 0 -0.089950704149474564 0.21660149084549701 0 -0.083666647235009842 0.24139059785004849 0 -0.098826177075254387 0.23394696074010041 0 -0.089950704149474564 0.21660149084549701 0 -0.083666647235009842 0.24139059785004849 0 -0.077884159070199604 0.2126860219832131 0 -0.083666647235009842 0.24139059785004849 0 -0.060700713784132942 0.2267940359372384 0 -0.075683327299925024 0.21197187487555791 0 -0.060700713784132942 0.2267940359372384 0 -0.064077212627390134 0.24851538469076631 0 -0.083666647235009842 0.24139059785004849 0 -0.060700713784132942 0.2267940359372384 0 -0.086302411784292182 0.25447467192259482 0 -0.083666647235009842 0.24139059785004849 0 -0.094679029848152713 0.24609146959404629 0 -0.098826177075254387 0.23394696074010041 0 -0.083666647235009842 0.24139059785004849 0 -0.086302411784292182 0.25447467192259482 0 -0.094679029848152713 0.24609146959404629 0 -0.083666647235009842 0.24139059785004849 0 -0.03068766995985707 0.25286978792993342 0 -0.034335222642673788 0.23481172099035691 0 -0.046578861792199937 0.24361118962503389 0 -0.034335222642673788 0.23481172099035691 0 -0.046578861792199937 0.24361118962503389 0 -0.045510089746351297 0.2289623102588538 0 -0.064077212627390134 0.24851538469076631 0 -0.046578861792199937 0.24361118962503389 0 -0.055802081643016588 0.23164020743468811 0 -0.064077212627390134 0.24851538469076631 0 -0.055802081643016588 0.23164020743468811 0 -0.060700713784132942 0.2267940359372384 0 -0.064077212627390134 0.24851538469076631 0 -0.060700713784132942 0.2267940359372384 0 -0.046578861792199937 0.24361118962503389 0 -0.055802081643016588 0.23164020743468811 0 -0.045510089746351297 0.2289623102588538 0 -0.055802081643016588 0.23164020743468811 0 -0.053252725762674542 0.2222055350902031 0 -0.045510089746351297 0.2289623102588538 0 -0.055802081643016588 0.23164020743468811 0 -0.060700713784132942 0.2267940359372384 0 -0.053252725762674542 0.2222055350902031 0 -0.055802081643016588 0.23164020743468811 0 -0.060700713784132942 0.2267940359372384 0 -0.053252725762674542 0.2222055350902031 0 -0.045510089746351297 0.2289623102588538 0 -0.046772345315528908 0.21756655778431969 0 -0.045510089746351297 0.2289623102588538 0 -0.036443083940353373 0.22210497005765251 0 -0.046772345315528908 0.21756655778431969 0 -0.034335222642673788 0.23481172099035691 0 -0.045510089746351297 0.2289623102588538 0 -0.036443083940353373 0.22210497005765251 0 -0.034335222642673788 0.23481172099035691 0 -0.036443083940353373 0.22210497005765251 0 -0.024866254401544021 0.22078734426404351 0 -0.036443083940353373 0.22210497005765251 0 -0.046772345315528908 0.21756655778431969 0 -0.031637039445344017 0.19767931081015269 0 -0.046772345315528908 0.21756655778431969 0 -0.057478398324341332 0.20606456403591589 0 -0.031637039445344017 0.19767931081015269 0 -0.060700713784132942 0.2267940359372384 0 -0.053252725762674542 0.2222055350902031 0 -0.057478398324341332 0.20606456403591589 0 -0.060700713784132942 0.2267940359372384 0 -0.057478398324341332 0.20606456403591589 0 -0.053252725762674542 0.2222055350902031 0 -0.046772345315528908 0.21756655778431969 0 -0.057478398324341332 0.20606456403591589 0 -0.062951628171730722 0.19451437844324071 0 -0.057478398324341332 0.20606456403591589 0 -0.054948738746262903 0.1897910154656581 0 -0.057478398324341332 0.20606456403591589 0 -0.054948738746262903 0.1897910154656581 0 -0.031637039445344017 0.19767931081015269 0 -0.057478398324341332 0.20606456403591589 0 -0.054948738746262903 0.1897910154656581 0 -0.054948738746262903 0.1897910154656581 0 -0.031637039445344017 0.19767931081015269 0 -0.039999697082172873 0.18418677263352329 0 -0.057478398324341332 0.20606456403591589 0 -0.031637039445344017 0.19767931081015269 0 -0.031637039445344017 0.19767931081015269 0 -0.0057956805663459468 0.1892940575843915 0 -0.031637039445344017 0.19767931081015269 0 -0.0057956805663459468 0.1892940575843915 0 -0.024775833668462071 0.17590936267321361 0 -0.031637039445344017 0.19767931081015269 0 -0.0057956805663459468 0.1892940575843915 0 -0.01019634689217482 0.20814994011246479 0 -0.0057956805663459468 0.1892940575843915 0 -0.01019634689217482 0.20814994011246479 0 0.0090806704795409685 0.20996839310177981 0 -0.01019634689217482 0.20814994011246479 0 0.00014186162909880781 0.2338185852574263 0 0.0090806704795409685 0.20996839310177981 0 -0.036443083940353373 0.22210497005765251 0 -0.031637039445344017 0.19767931081015269 0 -0.024866254401544021 0.22078734426404351 0 -0.031637039445344017 0.19767931081015269 0 -0.01019634689217482 0.20814994011246479 0 -0.024866254401544021 0.22078734426404351 0 -0.034335222642673788 0.23481172099035691 0 -0.024866254401544021 0.22078734426404351 0 -0.01991034591062427 0.239405390953495 0 -0.024866254401544021 0.22078734426404351 0 0.00014186162909880781 0.2338185852574263 0 -0.024866254401544021 0.22078734426404351 0 -0.01991034591062427 0.239405390953495 0 0.00014186162909880781 0.2338185852574263 0 -0.01019634689217482 0.20814994011246479 0 -0.024866254401544021 0.22078734426404351 0 0.00014186162909880781 0.2338185852574263 0 -0.0098044441781452579 0.25473951632571468 0 0.00014186162909880781 0.2338185852574263 0 0.0073806355134042019 0.25529449578482938 0 -0.0098044441781452579 0.25473951632571468 0 -0.01991034591062427 0.239405390953495 0 0.00014186162909880781 0.2338185852574263 0 -0.03068766995985707 0.25286978792993342 0 -0.034335222642673788 0.23481172099035691 0 -0.01991034591062427 0.239405390953495 0 -0.03068766995985707 0.25286978792993342 0 -0.0098044441781452579 0.25473951632571468 0 -0.01991034591062427 0.239405390953495 0 -0.045513089216113363 0.1481501368583191 0 -0.039963318838929777 0.1583549670989208 0 -0.028048700007850699 0.14601834090005769 0 -0.045513089216113363 0.1481501368583191 0 -0.037584816749385713 0.12707105787504261 0 -0.028048700007850699 0.14601834090005769 0 -0.037584816749385713 0.12707105787504261 0 -0.028048700007850699 0.14601834090005769 0 -0.045513089216113363 0.1481501368583191 0 -0.037584816749385713 0.12707105787504261 0 -0.045513089216113363 0.1481501368583191 0 -0.037584816749385713 0.12707105787504261 0 -0.049753839012929922 0.13582205838018921 0 -0.037584816749385713 0.12707105787504261 0 -0.049753839012929922 0.13582205838018921 0 -0.051208231868337763 0.1260313133231428 0 -0.049753839012929922 0.13582205838018921 0 -0.06070043620975589 0.134524720015781 0 -0.052276118599972977 0.1457036522838337 0 -0.051208231868337763 0.1260313133231428 0 -0.06070043620975589 0.134524720015781 0 -0.06411880478631618 0.11818203644688791 0 -0.06070043620975589 0.134524720015781 0 -0.06411880478631618 0.11818203644688791 0 -0.049753839012929922 0.13582205838018921 0 -0.051208231868337763 0.1260313133231428 0 -0.06070043620975589 0.134524720015781 0 -0.06070043620975589 0.134524720015781 0 -0.052276118599972977 0.1457036522838337 0 -0.05728206763319247 0.1508674035846734 0 -0.06070043620975589 0.134524720015781 0 -0.05728206763319247 0.1508674035846734 0 -0.045513089216113363 0.1481501368583191 0 -0.049753839012929922 0.13582205838018921 0 -0.052276118599972977 0.1457036522838337 0 -0.045513089216113363 0.1481501368583191 0 -0.052276118599972977 0.1457036522838337 0 -0.053440893212920608 0.15280063427064891 0 -0.052276118599972977 0.1457036522838337 0 -0.053440893212920608 0.15280063427064891 0 -0.05728206763319247 0.1508674035846734 0 -0.053440893212920608 0.15280063427064891 0 -0.05728206763319247 0.1508674035846734 0 -0.05728206763319247 0.1508674035846734 0 -0.062031688412593149 0.16441565219234799 0 -0.053441361682841117 0.16922921584159559 0 -0.053440893212920608 0.15280063427064891 0 -0.05728206763319247 0.1508674035846734 0 -0.053441361682841117 0.16922921584159559 0 -0.045513089216113363 0.1481501368583191 0 -0.053440893212920608 0.15280063427064891 0 -0.053441361682841117 0.16922921584159559 0 -0.045513089216113363 0.1481501368583191 0 -0.053441361682841117 0.16922921584159559 0 -0.05728206763319247 0.1508674035846734 0 -0.053441361682841117 0.16922921584159559 0 -0.06725389334219653 0.15771987894696021 0 -0.05728206763319247 0.1508674035846734 0 -0.062031688412593149 0.16441565219234799 0 -0.062031688412593149 0.16441565219234799 0 -0.053441361682841117 0.16922921584159559 0 -0.062041409668937363 0.1723934095439342 0 -0.053441361682841117 0.16922921584159559 0 -0.047633738945979477 0.17108968717192211 0 -0.039963318838929777 0.1583549670989208 0 -0.052991971448818453 0.17137768000779441 0 -0.053441361682841117 0.16922921584159559 0 -0.047633738945979477 0.17108968717192211 0 -0.052991971448818453 0.17137768000779441 0 -0.053441361682841117 0.16922921584159559 0 -0.054948738746262903 0.1897910154656581 0 -0.052419079168185397 0.17351746689540021 0 -0.046888846475854867 0.17837904804597579 0 -0.062951628171730722 0.19451437844324071 0 -0.054948738746262903 0.1897910154656581 0 -0.052419079168185397 0.17351746689540021 0 -0.062951628171730722 0.19451437844324071 0 -0.052991971448818453 0.17137768000779441 0 -0.052419079168185397 0.17351746689540021 0 -0.064604308801312821 0.18244611143699499 0 -0.062951628171730722 0.19451437844324071 0 -0.053441361682841117 0.16922921584159559 0 -0.062951628171730722 0.19451437844324071 0 -0.052991971448818453 0.17137768000779441 0 -0.053441361682841117 0.16922921584159559 0 -0.054948738746262903 0.1897910154656581 0 -0.052419079168185397 0.17351746689540021 0 -0.062951628171730722 0.19451437844324071 0 -0.053441361682841117 0.16922921584159559 0 -0.064604308801312821 0.18244611143699499 0 -0.053441361682841117 0.16922921584159559 0 -0.062041409668937363 0.1723934095439342 0 -0.052991971448818453 0.17137768000779441 0 -0.047633738945979477 0.17108968717192211 0 -0.052419079168185397 0.17351746689540021 0 -0.047633738945979477 0.17108968717192211 0 -0.052419079168185397 0.17351746689540021 0 -0.046888846475854867 0.17837904804597579 0 -0.054948738746262903 0.1897910154656581 0 -0.046888846475854867 0.17837904804597579 0 -0.039999697082172873 0.18418677263352329 0 -0.031637039445344017 0.19767931081015269 0 -0.039999697082172873 0.18418677263352329 0 -0.024775833668462071 0.17590936267321361 0 -0.046888846475854867 0.17837904804597579 0 -0.039999697082172873 0.18418677263352329 0 -0.039442978436673673 0.17331029806337539 0 -0.047633738945979477 0.17108968717192211 0 -0.046888846475854867 0.17837904804597579 0 -0.039442978436673673 0.17331029806337539 0 -0.039442978436673673 0.17331029806337539 0 -0.032139483942643897 0.16694135859911591 0 -0.024775833668462071 0.17590936267321361 0 -0.039999697082172873 0.18418677263352329 0 -0.039442978436673673 0.17331029806337539 0 -0.024775833668462071 0.17590936267321361 0 -0.045513089216113363 0.1481501368583191 0 -0.053441361682841117 0.16922921584159559 0 -0.039963318838929777 0.1583549670989208 0 -0.039963318838929777 0.1583549670989208 0 -0.032139483942643897 0.16694135859911591 0 -0.02343924065842673 0.15869802647678349 0 -0.047633738945979477 0.17108968717192211 0 -0.039442978436673673 0.17331029806337539 0 -0.039963318838929777 0.1583549670989208 0 -0.039442978436673673 0.17331029806337539 0 -0.039963318838929777 0.1583549670989208 0 -0.032139483942643897 0.16694135859911591 0 -0.032139483942643897 0.16694135859911591 0 -0.02343924065842673 0.15869802647678349 0 -0.024775833668462071 0.17590936267321361 0 -0.02343924065842673 0.15869802647678349 0 -0.024775833668462071 0.17590936267321361 0 -0.0048034666842798916 0.1614245706846468 0 -0.0057956805663459468 0.1892940575843915 0 -0.024775833668462071 0.17590936267321361 0 -0.0048034666842798916 0.1614245706846468 0 -0.0048034666842798916 0.1614245706846468 0 -0.01090464080839405 0.14353955890474629 0 0.011098566836083609 0.13484946890849181 0 -0.02343924065842673 0.15869802647678349 0 -0.0048034666842798916 0.1614245706846468 0 -0.01090464080839405 0.14353955890474629 0 -0.039963318838929777 0.1583549670989208 0 -0.02343924065842673 0.15869802647678349 0 -0.028048700007850699 0.14601834090005769 0 -0.02343924065842673 0.15869802647678349 0 -0.01090464080839405 0.14353955890474629 0 -0.028048700007850699 0.14601834090005769 0 -0.037584816749385713 0.12707105787504261 0 -0.0187932077553963 0.1304023687453105 0 -0.02482114599867602 0.1199028763409456 0 -0.01090464080839405 0.14353955890474629 0 -0.028048700007850699 0.14601834090005769 0 -0.0187932077553963 0.1304023687453105 0 -0.037584816749385713 0.12707105787504261 0 -0.028048700007850699 0.14601834090005769 0 -0.0187932077553963 0.1304023687453105 0 -0.0064436606074630637 0.13109611639504981 0 -0.007175360702145514 0.1155930690216506 0 0.011098566836083609 0.13484946890849181 0 -0.01090464080839405 0.14353955890474629 0 -0.0064436606074630637 0.13109611639504981 0 0.011098566836083609 0.13484946890849181 0 -0.0187932077553963 0.1304023687453105 0 -0.0064436606074630637 0.13109611639504981 0 -0.007175360702145514 0.1155930690216506 0 -0.01090464080839405 0.14353955890474629 0 -0.0187932077553963 0.1304023687453105 0 -0.0064436606074630637 0.13109611639504981 0 -0.007175360702145514 0.1155930690216506 0 -0.0040088977147468936 0.097024336429998151 0 -0.013655752966245171 0.094180689311720855 0 -0.007175360702145514 0.1155930690216506 0 -0.0040088977147468936 0.097024336429998151 0 0.0025937760044158291 0.1064596481343341 0 -0.007175360702145514 0.1155930690216506 0 -0.013655752966245171 0.094180689311720855 0 -0.02544928824037461 0.096336669134809427 0 -0.029459919491476121 0.1011230655410132 0 -0.021580178673492881 0.1105609364200745 0 -0.037915498494119543 0.10215930426450601 0 -0.007175360702145514 0.1155930690216506 0 -0.02544928824037461 0.096336669134809427 0 -0.007175360702145514 0.1155930690216506 0 -0.02544928824037461 0.096336669134809427 0 -0.0241566231860777 0.1021061234229471 0 -0.02544928824037461 0.096336669134809427 0 -0.029459919491476121 0.1011230655410132 0 -0.035034026511796899 0.0954599165668297 0 -0.02544928824037461 0.096336669134809427 0 -0.029459919491476121 0.1011230655410132 0 -0.0241566231860777 0.1021061234229471 0 -0.02544928824037461 0.096336669134809427 0 -0.0241566231860777 0.1021061234229471 0 -0.029459919491476121 0.1011230655410132 0 -0.0241566231860777 0.1021061234229471 0 -0.021580178673492881 0.1105609364200745 0 -0.02482114599867602 0.1199028763409456 0 -0.021580178673492881 0.1105609364200745 0 -0.032585978911933711 0.11378053360982859 0 -0.007175360702145514 0.1155930690216506 0 -0.0241566231860777 0.1021061234229471 0 -0.021580178673492881 0.1105609364200745 0 -0.0187932077553963 0.1304023687453105 0 -0.007175360702145514 0.1155930690216506 0 -0.02482114599867602 0.1199028763409456 0 -0.007175360702145514 0.1155930690216506 0 -0.02482114599867602 0.1199028763409456 0 -0.021580178673492881 0.1105609364200745 0 -0.01109578586274463 0.07592966442077155 0 -0.01963881101933795 0.057650575484614511 0 -0.0089029190745683329 0.062319161291970238 0 -0.0031702267477386531 0.067180855403790804 0 -0.01109578586274463 0.07592966442077155 0 0.0065236609159091173 0.071671444604676282 0 -0.0031702267477386531 0.067180855403790804 0 -0.0089029190745683329 0.062319161291970238 0 0.00079413703044923156 0.058803151297745167 0 -0.0031702267477386531 0.067180855403790804 0 -0.01109578586274463 0.07592966442077155 0 -0.0089029190745683329 0.062319161291970238 0 -0.0040088977147468936 0.097024336429998151 0 -0.01109578586274463 0.07592966442077155 0 0.011643404763696401 0.092949868607662828 0 -0.0040088977147468936 0.097024336429998151 0 -0.013655752966245171 0.094180689311720855 0 -0.01109578586274463 0.07592966442077155 0 -0.013655752966245171 0.094180689311720855 0 -0.01109578586274463 0.07592966442077155 0 -0.02054943231121421 0.086019707551374502 0 -0.02544928824037461 0.096336669134809427 0 -0.02054943231121421 0.086019707551374502 0 -0.029642132364781061 0.077623064684345475 0 -0.02544928824037461 0.096336669134809427 0 -0.029642132364781061 0.077623064684345475 0 -0.036673455980692451 0.084509049595857907 0 -0.01109578586274463 0.07592966442077155 0 -0.02054943231121421 0.086019707551374502 0 -0.029642132364781061 0.077623064684345475 0 -0.02544928824037461 0.096336669134809427 0 -0.029642132364781061 0.077623064684345475 0 -0.013655752966245171 0.094180689311720855 0 -0.02544928824037461 0.096336669134809427 0 -0.02054943231121421 0.086019707551374502 0 -0.02544928824037461 0.096336669134809427 0 -0.036673455980692451 0.084509049595857907 0 -0.01109578586274463 0.07592966442077155 0 -0.033834976489186493 0.058909460233881362 0 -0.01109578586274463 0.07592966442077155 0 -0.029642132364781061 0.077623064684345475 0 -0.033834976489186493 0.058909460233881362 0 -0.01109578586274463 0.07592966442077155 0 -0.033834976489186493 0.058909460233881362 0 -0.01963881101933795 0.057650575484614511 0 -0.029642132364781061 0.077623064684345475 0 -0.033834976489186493 0.058909460233881362 0 -0.029642132364781061 0.077623064684345475 0 -0.036732086871232597 0.066761861307427367 0 -0.033834976489186493 0.058909460233881362 0 -0.042969512877196837 0.063698159366550891 0 -0.036732086871232597 0.066761861307427367 0 -0.038306240480512441 0.072768089837317376 0 -0.042969512877196837 0.063698159366550891 0 -0.038306240480512441 0.072768089837317376 0 -0.046136221960229658 0.070392563092827029 0 -0.042969512877196837 0.063698159366550891 0 -0.036732086871232597 0.066761861307427367 0 -0.038907572144486188 0.060810532415041758 0 -0.029642132364781061 0.077623064684345475 0 -0.036732086871232597 0.066761861307427367 0 -0.038306240480512441 0.072768089837317376 0 -0.038306240480512441 0.072768089837317376 0 -0.046136221960229658 0.070392563092827029 0 -0.043586306971417507 0.077534071189344175 0 -0.038306240480512441 0.072768089837317376 0 -0.043586306971417507 0.077534071189344175 0 -0.036673455980692451 0.084509049595857907 0 -0.043586306971417507 0.077534071189344175 0 -0.036673455980692451 0.084509049595857907 0 -0.046978765451358998 0.084182386091036676 0 -0.029642132364781061 0.077623064684345475 0 -0.038306240480512441 0.072768089837317376 0 -0.036673455980692451 0.084509049595857907 0 -0.02544928824037461 0.096336669134809427 0 -0.036673455980692451 0.084509049595857907 0 -0.035034026511796899 0.0954599165668297 0 -0.036673455980692451 0.084509049595857907 0 -0.044089979176562301 0.093675305350012283 0 -0.035034026511796899 0.0954599165668297 0 -0.036673455980692451 0.084509049595857907 0 -0.044089979176562301 0.093675305350012283 0 -0.046978765451358998 0.084182386091036676 0 -0.044089979176562301 0.093675305350012283 0 -0.057144835734191893 0.088207312209507505 0 -0.046978765451358998 0.084182386091036676 0 -0.057144835734191893 0.088207312209507505 0 -0.046978765451358998 0.084182386091036676 0 -0.053399249393930842 0.076986192110461482 0 -0.043586306971417507 0.077534071189344175 0 -0.046978765451358998 0.084182386091036676 0 -0.053399249393930842 0.076986192110461482 0 -0.053399249393930842 0.076986192110461482 0 -0.070406408885084593 0.061857930521202607 0 -0.059815066152941319 0.061788281472960463 0 -0.057144835734191893 0.088207312209507505 0 -0.053399249393930842 0.076986192110461482 0 -0.070406408885084593 0.061857930521202607 0 -0.046136221960229658 0.070392563092827029 0 -0.043586306971417507 0.077534071189344175 0 -0.053399249393930842 0.076986192110461482 0 -0.046136221960229658 0.070392563092827029 0 -0.053399249393930842 0.076986192110461482 0 -0.05257832837313995 0.068950164376806455 0 -0.053399249393930842 0.076986192110461482 0 -0.05257832837313995 0.068950164376806455 0 -0.059815066152941319 0.061788281472960463 0 -0.05257832837313995 0.068950164376806455 0 -0.052166049838275927 0.062310195238599278 0 -0.059815066152941319 0.061788281472960463 0 -0.046136221960229658 0.070392563092827029 0 -0.05257832837313995 0.068950164376806455 0 -0.052166049838275927 0.062310195238599278 0 -0.042969512877196837 0.063698159366550891 0 -0.046136221960229658 0.070392563092827029 0 -0.052166049838275927 0.062310195238599278 0 -0.021580178673492881 0.1105609364200745 0 -0.043883262583300407 0.11455669389781301 0 -0.021580178673492881 0.1105609364200745 0 -0.043883262583300407 0.11455669389781301 0 -0.032585978911933711 0.11378053360982859 0 -0.037584816749385713 0.12707105787504261 0 -0.051208231868337763 0.1260313133231428 0 -0.043883262583300407 0.11455669389781301 0 -0.037584816749385713 0.12707105787504261 0 -0.043883262583300407 0.11455669389781301 0 -0.037584816749385713 0.12707105787504261 0 -0.032585978911933711 0.11378053360982859 0 -0.037584816749385713 0.12707105787504261 0 -0.043883262583300407 0.11455669389781301 0 -0.032585978911933711 0.11378053360982859 0 -0.037584816749385713 0.12707105787504261 0 -0.02482114599867602 0.1199028763409456 0 -0.032585978911933711 0.11378053360982859 0 -0.021580178673492881 0.1105609364200745 0 -0.043883262583300407 0.11455669389781301 0 -0.037915498494119543 0.10215930426450601 0 -0.044089979176562301 0.093675305350012283 0 -0.043883262583300407 0.11455669389781301 0 -0.037915498494119543 0.10215930426450601 0 -0.044089979176562301 0.093675305350012283 0 -0.037915498494119543 0.10215930426450601 0 -0.035034026511796899 0.0954599165668297 0 -0.029459919491476121 0.1011230655410132 0 -0.037915498494119543 0.10215930426450601 0 -0.035034026511796899 0.0954599165668297 0 -0.044089979176562301 0.093675305350012283 0 -0.057144835734191893 0.088207312209507505 0 -0.043883262583300407 0.11455669389781301 0 -0.057144835734191893 0.088207312209507505 0 -0.043883262583300407 0.11455669389781301 0 -0.057144835734191893 0.088207312209507505 0 -0.043883262583300407 0.11455669389781301 0 -0.056175626513735713 0.104231459755559 0 -0.056175626513735713 0.104231459755559 0 -0.061770267295803899 0.1005995653590098 0 -0.06411880478631618 0.11818203644688791 0 -0.057144835734191893 0.088207312209507505 0 -0.056175626513735713 0.104231459755559 0 -0.061770267295803899 0.1005995653590098 0 -0.043883262583300407 0.11455669389781301 0 -0.06411880478631618 0.11818203644688791 0 -0.051208231868337763 0.1260313133231428 0 -0.043883262583300407 0.11455669389781301 0 -0.06411880478631618 0.11818203644688791 0 -0.043883262583300407 0.11455669389781301 0 -0.056175626513735713 0.104231459755559 0 -0.06411880478631618 0.11818203644688791 0 -0.071786582042575819 0.1280585334591178 0 -0.06411880478631618 0.11818203644688791 0 -0.08034823769671974 0.121089655777625 0 -0.06411880478631618 0.11818203644688791 0 -0.08034823769671974 0.121089655777625 0 -0.075381325115152609 0.106019298300689 0 -0.06411880478631618 0.11818203644688791 0 -0.08034823769671974 0.121089655777625 0 -0.08034823769671974 0.121089655777625 0 -0.096577670607123245 0.1239972751083621 0 -0.08034823769671974 0.121089655777625 0 -0.092569001324263961 0.1124699312803344 0 -0.096577670607123245 0.1239972751083621 0 -0.08034823769671974 0.121089655777625 0 -0.083967771981719092 0.1102844810624737 0 -0.092569001324263961 0.1124699312803344 0 -0.08034823769671974 0.121089655777625 0 -0.083967771981719092 0.1102844810624737 0 -0.075381325115152609 0.106019298300689 0 -0.087572523790740042 0.10155903889124659 0 -0.082071947835387321 0.094412947715560025 0 -0.09233625647768956 0.091651488650119919 0 -0.083967771981719092 0.1102844810624737 0 -0.092569001324263961 0.1124699312803344 0 -0.087572523790740042 0.10155903889124659 0 -0.083967771981719092 0.1102844810624737 0 -0.087572523790740042 0.10155903889124659 0 -0.075381325115152609 0.106019298300689 0 -0.087572523790740042 0.10155903889124659 0 -0.082071947835387321 0.094412947715560025 0 -0.075381325115152609 0.106019298300689 0 -0.06411880478631618 0.11818203644688791 0 -0.06964180214897181 0.091777453024084701 0 -0.082071947835387321 0.094412947715560025 0 -0.075381325115152609 0.106019298300689 0 -0.06964180214897181 0.091777453024084701 0 -0.06411880478631618 0.11818203644688791 0 -0.075381325115152609 0.106019298300689 0 -0.06964180214897181 0.091777453024084701 0 -0.061770267295803899 0.1005995653590098 0 -0.06411880478631618 0.11818203644688791 0 -0.06964180214897181 0.091777453024084701 0 -0.057144835734191893 0.088207312209507505 0 -0.061770267295803899 0.1005995653590098 0 -0.06964180214897181 0.091777453024084701 0 -0.06964180214897181 0.091777453024084701 0 -0.075164799511626648 0.065372869601281192 0 -0.057144835734191893 0.088207312209507505 0 -0.06964180214897181 0.091777453024084701 0 -0.068089461569968729 0.076803891339018993 0 -0.06964180214897181 0.091777453024084701 0 -0.068089461569968729 0.076803891339018993 0 -0.075164799511626648 0.065372869601281192 0 -0.057144835734191893 0.088207312209507505 0 -0.068089461569968729 0.076803891339018993 0 -0.070406408885084593 0.061857930521202607 0 -0.06964180214897181 0.091777453024084701 0 -0.075164799511626648 0.065372869601281192 0 -0.08073347634316104 0.073575546631144614 0 -0.057144835734191893 0.088207312209507505 0 -0.070406408885084593 0.061857930521202607 0 -0.068089461569968729 0.076803891339018993 0 -0.075164799511626648 0.065372869601281192 0 -0.070406408885084593 0.061857930521202607 0 -0.089923560922876636 0.068178037636278263 0 -0.08578586832533959 0.082170087930996366 0 -0.103675070998617 0.083967309240415983 0 -0.08073347634316104 0.073575546631144614 0 -0.089923560922876636 0.068178037636278263 0 -0.083186879645449088 0.059889597987781727 0 -0.075164799511626648 0.065372869601281192 0 -0.08073347634316104 0.073575546631144614 0 -0.083186879645449088 0.059889597987781727 0 -0.08073347634316104 0.073575546631144614 0 -0.089923560922876636 0.068178037636278263 0 -0.08578586832533959 0.082170087930996366 0 -0.06964180214897181 0.091777453024084701 0 -0.08073347634316104 0.073575546631144614 0 -0.08578586832533959 0.082170087930996366 0 -0.082071947835387321 0.094412947715560025 0 -0.06964180214897181 0.091777453024084701 0 -0.08578586832533959 0.082170087930996366 0 -0.082071947835387321 0.094412947715560025 0 -0.08578586832533959 0.082170087930996366 0 -0.09233625647768956 0.091651488650119919 0 -0.09233625647768956 0.091651488650119919 0 -0.103675070998617 0.083967309240415983 0 -0.10429444750695741 0.1014886749251958 0 -0.08578586832533959 0.082170087930996366 0 -0.09233625647768956 0.091651488650119919 0 -0.103675070998617 0.083967309240415983 0 -0.103675070998617 0.083967309240415983 0 -0.1198812247159142 0.095002477965890675 0 -0.10429444750695741 0.1014886749251958 0 -0.089923560922876636 0.068178037636278263 0 -0.103675070998617 0.083967309240415983 0 -0.10785209906359081 0.065371441260914459 0 -0.12533951967512769 0.078274991835817334 0 -0.103675070998617 0.083967309240415983 0 -0.10785209906359081 0.065371441260914459 0 -0.12533951967512769 0.078274991835817334 0 -0.10785209906359081 0.065371441260914459 0 -0.1248745965026067 0.059896082918310993 0 -0.12533951967512769 0.078274991835817334 0 -0.103675070998617 0.083967309240415983 0 -0.1198812247159142 0.095002477965890675 0 -0.13137241316615089 0.11357835761918721 0 -0.1198812247159142 0.095002477965890675 0 -0.10429444750695741 0.1014886749251958 0 -0.13137241316615089 0.11357835761918721 0 -0.12687331202938101 0.13192737382428379 0 -0.10667563132183119 0.1260080396076822 0 -0.13137241316615089 0.11357835761918721 0 -0.10667563132183119 0.1260080396076822 0 -0.1062978327852654 0.11550845570815239 0 -0.13137241316615089 0.11357835761918721 0 -0.1062978327852654 0.11550845570815239 0 -0.10429444750695741 0.1014886749251958 0 -0.13137241316615089 0.11357835761918721 0 -0.10667563132183119 0.1260080396076822 0 -0.10667563132183119 0.1260080396076822 0 -0.1062978327852654 0.11550845570815239 0 -0.096577670607123245 0.1239972751083621 0 -0.092569001324263961 0.1124699312803344 0 -0.1062978327852654 0.11550845570815239 0 -0.096577670607123245 0.1239972751083621 0 -0.092569001324263961 0.1124699312803344 0 -0.1062978327852654 0.11550845570815239 0 -0.10429444750695741 0.1014886749251958 0 -0.092569001324263961 0.1124699312803344 0 -0.087572523790740042 0.10155903889124659 0 -0.10429444750695741 0.1014886749251958 0 -0.087572523790740042 0.10155903889124659 0 -0.09233625647768956 0.091651488650119919 0 -0.10429444750695741 0.1014886749251958 0 -0.10370969952600501 0.019997694726909911 0 -0.098524362227562057 0.035744340183224317 0 -0.08645931971955316 0.02325136753113614 0 -0.10370969952600501 0.019997694726909911 0 -0.08645931971955316 0.02325136753113614 0 -0.091682611010439896 0.0063963380850077774 0 -0.10370969952600501 0.019997694726909911 0 -0.1180188049733784 0.030804183747700629 0 -0.098524362227562057 0.035744340183224317 0 -0.10370969952600501 0.019997694726909911 0 -0.10877227824827949 0.0075748546359299482 0 -0.091682611010439896 0.0063963380850077774 0 -0.1029392013539359 -0.0085751277431150782 0 -0.10877227824827949 0.0075748546359299482 0 -0.091682611010439896 0.0063963380850077774 0 -0.10370969952600501 0.019997694726909911 0 -0.10877227824827949 0.0075748546359299482 0 -0.11835839359799651 0.016938700943610479 0 -0.1029392013539359 -0.0085751277431150782 0 -0.12735709500343681 0.004015926865657337 0 -0.10877227824827949 0.0075748546359299482 0 -0.12735709500343681 0.004015926865657337 0 -0.10877227824827949 0.0075748546359299482 0 -0.11835839359799651 0.016938700943610479 0 -0.1339340902388827 0.022300844741854581 0 -0.11835839359799651 0.016938700943610479 0 -0.1180188049733784 0.030804183747700629 0 -0.10370969952600501 0.019997694726909911 0 -0.11835839359799651 0.016938700943610479 0 -0.1180188049733784 0.030804183747700629 0 -0.1180188049733784 0.030804183747700629 0 -0.1128457876968547 0.048091259023394652 0 -0.098524362227562057 0.035744340183224317 0 -0.13626681081840961 0.042829268155062397 0 -0.1128457876968547 0.048091259023394652 0 -0.13626681081840961 0.042829268155062397 0 -0.1180188049733784 0.030804183747700629 0 -0.1128457876968547 0.048091259023394652 0 -0.13626681081840961 0.042829268155062397 0 -0.1128457876968547 0.048091259023394652 0 -0.1248745965026067 0.059896082918310993 0 -0.10785209906359081 0.065371441260914459 0 -0.1128457876968547 0.048091259023394652 0 -0.1248745965026067 0.059896082918310993 0 -0.1128457876968547 0.048091259023394652 0 -0.089424764575299687 0.053353249891726941 0 -0.089923560922876636 0.068178037636278263 0 -0.10785209906359081 0.065371441260914459 0 -0.089424764575299687 0.053353249891726941 0 -0.10785209906359081 0.065371441260914459 0 -0.1128457876968547 0.048091259023394652 0 -0.089424764575299687 0.053353249891726941 0 -0.1128457876968547 0.048091259023394652 0 -0.098524362227562057 0.035744340183224317 0 -0.089424764575299687 0.053353249891726941 0 -0.098524362227562057 0.035744340183224317 0 -0.080687796874281473 0.038968286178477703 0 -0.08645931971955316 0.02325136753113614 0 -0.098524362227562057 0.035744340183224317 0 -0.080687796874281473 0.038968286178477703 0 -0.089424764575299687 0.053353249891726941 0 -0.080687796874281473 0.038968286178477703 0 -0.089424764575299687 0.053353249891726941 0 -0.083186879645449088 0.059889597987781727 0 -0.075164799511626648 0.065372869601281192 0 -0.080687796874281473 0.038968286178477703 0 -0.083186879645449088 0.059889597987781727 0 -0.089923560922876636 0.068178037636278263 0 -0.089424764575299687 0.053353249891726941 0 -0.083186879645449088 0.059889597987781727 0 -0.075164799511626648 0.065372869601281192 0 -0.080687796874281473 0.038968286178477703 0 -0.071303082845968715 0.053347503409362687 0 -0.075164799511626648 0.065372869601281192 0 -0.080687796874281473 0.038968286178477703 0 -0.075164799511626648 0.065372869601281192 0 -0.070406408885084593 0.061857930521202607 0 -0.071303082845968715 0.053347503409362687 0 -0.071303082845968715 0.053347503409362687 0 -0.064856269609628314 0.055117702274744398 0 -0.065400139349222536 0.045420728471107522 0 -0.070406408885084593 0.061857930521202607 0 -0.071303082845968715 0.053347503409362687 0 -0.064856269609628314 0.055117702274744398 0 -0.070406408885084593 0.061857930521202607 0 -0.064856269609628314 0.055117702274744398 0 -0.059815066152941319 0.061788281472960463 0 -0.080687796874281473 0.038968286178477703 0 -0.065400139349222536 0.045420728471107522 0 -0.063264057366842208 0.031259222641012697 0 -0.080687796874281473 0.038968286178477703 0 -0.063264057366842208 0.031259222641012697 0 -0.073460039823911166 0.024685388153665749 0 -0.080687796874281473 0.038968286178477703 0 -0.071303082845968715 0.053347503409362687 0 -0.065400139349222536 0.045420728471107522 0 -0.063264057366842208 0.031259222641012697 0 -0.073460039823911166 0.024685388153665749 0 -0.061440697951084179 0.017621877449499421 0 -0.073460039823911166 0.024685388153665749 0 -0.076769634387976737 0.01135693610240161 0 -0.061440697951084179 0.017621877449499421 0 -0.080687796874281473 0.038968286178477703 0 -0.073460039823911166 0.024685388153665749 0 -0.08645931971955316 0.02325136753113614 0 -0.073460039823911166 0.024685388153665749 0 -0.08645931971955316 0.02325136753113614 0 -0.076769634387976737 0.01135693610240161 0 -0.08645931971955316 0.02325136753113614 0 -0.091682611010439896 0.0063963380850077774 0 -0.076769634387976737 0.01135693610240161 0 -0.091682611010439896 0.0063963380850077774 0 -0.078933949510919491 0.00072378658541613432 0 -0.076769634387976737 0.01135693610240161 0 -0.086097875964997059 -0.0058870606910941042 0 -0.091682611010439896 0.0063963380850077774 0 -0.078933949510919491 0.00072378658541613432 0 -0.078933949510919491 0.00072378658541613432 0 -0.076769634387976737 0.01135693610240161 0 -0.068462160169621672 0.0025537029525893409 0 -0.068462160169621672 0.0025537029525893409 0 -0.057836245250817257 0.0062936453779614283 0 -0.061440697951084179 0.017621877449499421 0 -0.076769634387976737 0.01135693610240161 0 -0.068462160169621672 0.0025537029525893409 0 -0.061440697951084179 0.017621877449499421 0 -0.057836245250817257 0.0062936453779614283 0 -0.061440697951084179 0.017621877449499421 0 -0.042678209040760022 0.019440128409622049 0 -0.057836245250817257 0.0062936453779614283 0 -0.042678209040760022 0.019440128409622049 0 -0.044352522143416888 0.0050416822031405977 0 -0.063264057366842208 0.031259222641012697 0 -0.042678209040760022 0.019440128409622049 0 -0.05195897498334151 0.039592758420259042 0 -0.063264057366842208 0.031259222641012697 0 -0.061440697951084179 0.017621877449499421 0 -0.042678209040760022 0.019440128409622049 0 -0.042678209040760022 0.019440128409622049 0 -0.038256592764973757 0.039174794321751791 0 -0.042678209040760022 0.019440128409622049 0 -0.038256592764973757 0.039174794321751791 0 -0.027511467414372541 0.03001296694831072 0 -0.042678209040760022 0.019440128409622049 0 -0.028180513839983729 0.018098474401369 0 -0.027511467414372541 0.03001296694831072 0 -0.042678209040760022 0.019440128409622049 0 -0.032770024037711037 0.0084985419153508525 0 -0.028180513839983729 0.018098474401369 0 -0.032770024037711037 0.0084985419153508525 0 -0.03614709390981162 0.0015378833132510439 0 -0.044352522143416888 0.0050416822031405977 0 -0.029539197120254941 -0.00051038393964639519 0 -0.032770024037711037 0.0084985419153508525 0 -0.03614709390981162 0.0015378833132510439 0 -0.042678209040760022 0.019440128409622049 0 -0.032770024037711037 0.0084985419153508525 0 -0.044352522143416888 0.0050416822031405977 0 -0.042969512877196837 0.063698159366550891 0 -0.047980875447113908 0.056604040506729722 0 -0.052166049838275927 0.062310195238599278 0 -0.047980875447113908 0.056604040506729722 0 -0.052166049838275927 0.062310195238599278 0 -0.055804220694704088 0.051985500715961808 0 -0.064856269609628314 0.055117702274744398 0 -0.059815066152941319 0.061788281472960463 0 -0.055804220694704088 0.051985500715961808 0 -0.052166049838275927 0.062310195238599278 0 -0.059815066152941319 0.061788281472960463 0 -0.055804220694704088 0.051985500715961808 0 -0.064856269609628314 0.055117702274744398 0 -0.065400139349222536 0.045420728471107522 0 -0.055804220694704088 0.051985500715961808 0 -0.047980875447113908 0.056604040506729722 0 -0.055804220694704088 0.051985500715961808 0 -0.046350630683546529 0.050276175962098407 0 -0.055804220694704088 0.051985500715961808 0 -0.05195897498334151 0.039592758420259042 0 -0.046350630683546529 0.050276175962098407 0 -0.065400139349222536 0.045420728471107522 0 -0.055804220694704088 0.051985500715961808 0 -0.05195897498334151 0.039592758420259042 0 -0.065400139349222536 0.045420728471107522 0 -0.063264057366842208 0.031259222641012697 0 -0.05195897498334151 0.039592758420259042 0 -0.042678209040760022 0.019440128409622049 0 -0.05195897498334151 0.039592758420259042 0 -0.038256592764973757 0.039174794321751791 0 -0.05195897498334151 0.039592758420259042 0 -0.038256592764973757 0.039174794321751791 0 -0.046350630683546529 0.050276175962098407 0 -0.038256592764973757 0.039174794321751791 0 -0.033834976489186493 0.058909460233881362 0 -0.038256592764973757 0.039174794321751791 0 -0.038513274033404883 0.055407770980391423 0 -0.033834976489186493 0.058909460233881362 0 -0.038256592764973757 0.039174794321751791 0 -0.046350630683546529 0.050276175962098407 0 -0.038513274033404883 0.055407770980391423 0 -0.038256592764973757 0.039174794321751791 0 -0.033834976489186493 0.058909460233881362 0 -0.02879531395286377 0.050132256585483953 0 -0.046350630683546529 0.050276175962098407 0 -0.038513274033404883 0.055407770980391423 0 -0.042914570065583427 0.057802329486214707 0 -0.036732086871232597 0.066761861307427367 0 -0.033834976489186493 0.058909460233881362 0 -0.038907572144486188 0.060810532415041758 0 -0.038513274033404883 0.055407770980391423 0 -0.033834976489186493 0.058909460233881362 0 -0.038513274033404883 0.055407770980391423 0 -0.033834976489186493 0.058909460233881362 0 -0.038907572144486188 0.060810532415041758 0 -0.042969512877196837 0.063698159366550891 0 -0.038907572144486188 0.060810532415041758 0 -0.042914570065583427 0.057802329486214707 0 -0.038513274033404883 0.055407770980391423 0 -0.038907572144486188 0.060810532415041758 0 -0.042914570065583427 0.057802329486214707 0 -0.047980875447113908 0.056604040506729722 0 -0.046350630683546529 0.050276175962098407 0 -0.042914570065583427 0.057802329486214707 0 -0.042969512877196837 0.063698159366550891 0 -0.047980875447113908 0.056604040506729722 0 -0.042914570065583427 0.057802329486214707 0 -0.033834976489186493 0.058909460233881362 0 -0.01963881101933795 0.057650575484614511 0 -0.02879531395286377 0.050132256585483953 0 -0.01963881101933795 0.057650575484614511 0 -0.02879531395286377 0.050132256585483953 0 -0.02345087553795689 0.044794196301688183 0 -0.01963881101933795 0.057650575484614511 0 -0.02345087553795689 0.044794196301688183 0 -0.012175026131353321 0.050402421608982242 0 -0.02345087553795689 0.044794196301688183 0 -0.014695186475719159 0.0359408453649432 0 -0.012175026131353321 0.050402421608982242 0 -0.038256592764973757 0.039174794321751791 0 -0.02879531395286377 0.050132256585483953 0 -0.02345087553795689 0.044794196301688183 0 -0.038256592764973757 0.039174794321751791 0 -0.02345087553795689 0.044794196301688183 0 -0.027511467414372541 0.03001296694831072 0 -0.02345087553795689 0.044794196301688183 0 -0.014695186475719159 0.0359408453649432 0 -0.027511467414372541 0.03001296694831072 0 -0.014695186475719159 0.0359408453649432 0 -0.0023331541944977092 0.045311556235899067 0 0.00074240361007229996 0.028778475488121531 0 -0.014695186475719159 0.0359408453649432 0 -0.0023331541944977092 0.045311556235899067 0 -0.012175026131353321 0.050402421608982242 0 -0.0023331541944977092 0.045311556235899067 0 -0.012175026131353321 0.050402421608982242 0 0.00079413703044923156 0.058803151297745167 0 -0.012175026131353321 0.050402421608982242 0 -0.0089029190745683329 0.062319161291970238 0 0.00079413703044923156 0.058803151297745167 0 -0.01963881101933795 0.057650575484614511 0 -0.012175026131353321 0.050402421608982242 0 -0.0089029190745683329 0.062319161291970238 0 -0.021996997598287969 0.010981086364913869 0 -0.02112675760807068 0.0030512678310729521 0 -0.0083058662928979787 0.012079608812324741 0 -0.021996997598287969 0.010981086364913869 0 -0.01661374249992489 0.02103319015209278 0 -0.0083058662928979787 0.012079608812324741 0 -0.021996997598287969 0.010981086364913869 0 -0.02112675760807068 0.0030512678310729521 0 -0.02631380729169577 0.0053104208567875946 0 -0.029539197120254941 -0.00051038393964639519 0 -0.02112675760807068 0.0030512678310729521 0 -0.02631380729169577 0.0053104208567875946 0 -0.029539197120254941 -0.00051038393964639519 0 -0.032770024037711037 0.0084985419153508525 0 -0.02631380729169577 0.0053104208567875946 0 -0.032770024037711037 0.0084985419153508525 0 -0.021996997598287969 0.010981086364913869 0 -0.02631380729169577 0.0053104208567875946 0 -0.032770024037711037 0.0084985419153508525 0 -0.021996997598287969 0.010981086364913869 0 -0.028180513839983729 0.018098474401369 0 -0.028180513839983729 0.018098474401369 0 -0.027511467414372541 0.03001296694831072 0 -0.01661374249992489 0.02103319015209278 0 -0.014695186475719159 0.0359408453649432 0 -0.027511467414372541 0.03001296694831072 0 -0.01661374249992489 0.02103319015209278 0 -0.021996997598287969 0.010981086364913869 0 -0.028180513839983729 0.018098474401369 0 -0.01661374249992489 0.02103319015209278 0 -0.01661374249992489 0.02103319015209278 0 0.00074240361007229996 0.028778475488121531 0 -0.0083058662928979787 0.012079608812324741 0 0.0060294939382754481 0.01286563290641534 0 0.00074240361007229996 0.028778475488121531 0 -0.014695186475719159 0.0359408453649432 0 -0.01661374249992489 0.02103319015209278 0 0.00074240361007229996 0.028778475488121531 0 -0.0083058662928979787 0.012079608812324741 0 0.00074240361007229996 0.028778475488121531 0 -0.01661374249992489 0.02103319015209278 0 -0.0083058662928979787 0.012079608812324741 0 0.00074240361007229996 0.028778475488121531 0 -0.0072764121498596901 -0.0036325873431357339 0 -0.0083058662928979787 0.012079608812324741 0 0.0012074066645448821 -0.00065723147797176382 0 -0.0072764121498596901 -0.0036325873431357339 0 -0.013607688627124061 -0.00178224205395049 0 -0.0083058662928979787 0.012079608812324741 0 -0.017354136195868258 -0.0046192578634720229 0 -0.0083058662928979787 0.012079608812324741 0 -0.017354136195868258 -0.0046192578634720229 0 -0.013607688627124061 -0.00178224205395049 0 -0.0083058662928979787 0.012079608812324741 0 -0.0083058662928979787 0.012079608812324741 0 0.0060294939382754481 0.01286563290641534 0 0.0012074066645448821 -0.00065723147797176382 0 -0.017354136195868258 -0.0046192578634720229 0 -0.02112675760807068 0.0030512678310729521 0 -0.0083058662928979787 0.012079608812324741 0 0.0060294939382754481 0.01286563290641534 0 0.0012074066645448821 -0.00065723147797176382 0 0.01265631079038235 -0.01012693536007268 0 0.0060294939382754481 0.01286563290641534 0 0.020311547060899309 0.014329649790385431 0 0.01265631079038235 -0.01012693536007268 0 0.00074240361007229996 0.028778475488121531 0 0.015746539320639769 0.024046632949657649 0 0.022626785018342459 0.038544513255683338 0 0.0060294939382754481 0.01286563290641534 0 0.00074240361007229996 0.028778475488121531 0 0.015746539320639769 0.024046632949657649 0 0.0060294939382754481 0.01286563290641534 0 0.015746539320639769 0.024046632949657649 0 0.020311547060899309 0.014329649790385431 0 0.015746539320639769 0.024046632949657649 0 0.029022466975609298 0.02571489330768258 0 0.020311547060899309 0.014329649790385431 0 0.015746539320639769 0.024046632949657649 0 0.029022466975609298 0.02571489330768258 0 0.022626785018342459 0.038544513255683338 0 0.020311547060899309 0.014329649790385431 0 0.034885408484197772 0.0062912350017927032 0 0.01265631079038235 -0.01012693536007268 0 0.029022466975609298 0.02571489330768258 0 0.020311547060899309 0.014329649790385431 0 0.034885408484197772 0.0062912350017927032 0 0.00079413703044923156 0.058803151297745167 0 0.01366790099406239 0.052632887419703241 0 0.0065236609159091173 0.071671444604676282 0 -0.0023331541944977092 0.045311556235899067 0 0.00079413703044923156 0.058803151297745167 0 0.01366790099406239 0.052632887419703241 0 0.00074240361007229996 0.028778475488121531 0 0.01366790099406239 0.052632887419703241 0 0.022626785018342459 0.038544513255683338 0 0.00074240361007229996 0.028778475488121531 0 0.022626785018342459 0.038544513255683338 0 -0.0023331541944977092 0.045311556235899067 0 0.00074240361007229996 0.028778475488121531 0 0.01366790099406239 0.052632887419703241 0 0.00074240361007229996 0.028778475488121531 0 0.01366790099406239 0.052632887419703241 0 0.029022466975609298 0.02571489330768258 0 0.022626785018342459 0.038544513255683338 0 0.037630953216902623 0.033668105561091018 0 0.01366790099406239 0.052632887419703241 0 0.022626785018342459 0.038544513255683338 0 0.025434983742737761 0.055249644843112657 0 0.022626785018342459 0.038544513255683338 0 0.025434983742737761 0.055249644843112657 0 0.034616451435572633 0.051242168749322393 0 0.025434983742737761 0.055249644843112657 0 0.034062632092931817 0.061255223706808547 0 0.02703491536905472 0.067401080742933134 0 0.01366790099406239 0.052632887419703241 0 0.025434983742737761 0.055249644843112657 0 0.02703491536905472 0.067401080742933134 0 0.034616451435572633 0.051242168749322393 0 0.044511166426612833 0.04831055102324476 0 0.060132464308973767 0.062986029428160187 0 0.034616451435572633 0.051242168749322393 0 0.060132464308973767 0.062986029428160187 0 0.044258496001147778 0.063884183083345675 0 0.034062632092931817 0.061255223706808547 0 0.034616451435572633 0.051242168749322393 0 0.044258496001147778 0.063884183083345675 0 0.025434983742737761 0.055249644843112657 0 0.034062632092931817 0.061255223706808547 0 0.034616451435572633 0.051242168749322393 0 0.022626785018342459 0.038544513255683338 0 0.044511166426612833 0.04831055102324476 0 0.022626785018342459 0.038544513255683338 0 0.034616451435572633 0.051242168749322393 0 0.044511166426612833 0.04831055102324476 0 0.022626785018342459 0.038544513255683338 0 0.044511166426612833 0.04831055102324476 0 0.037630953216902623 0.033668105561091018 0 0.044511166426612833 0.04831055102324476 0 0.037630953216902623 0.033668105561091018 0 0.0484135161167236 0.034205204957136963 0 0.0484135161167236 0.034205204957136963 0 0.060669767880595721 0.038134724015348051 0 0.0518117103670514 0.042737821036878322 0 0.0484135161167236 0.034205204957136963 0 0.060669767880595721 0.038134724015348051 0 0.057623658326613529 0.02352368721002385 0 0.060669767880595721 0.038134724015348051 0 0.0518117103670514 0.042737821036878322 0 0.059559274975242667 0.047504887075434543 0 0.044511166426612833 0.04831055102324476 0 0.0518117103670514 0.042737821036878322 0 0.059559274975242667 0.047504887075434543 0 0.044511166426612833 0.04831055102324476 0 0.0484135161167236 0.034205204957136963 0 0.0518117103670514 0.042737821036878322 0 0.044511166426612833 0.04831055102324476 0 0.066395547834883203 0.05807658879080619 0 0.060132464308973767 0.062986029428160187 0 0.034616451435572633 0.051242168749322393 0 0.060132464308973767 0.062986029428160187 0 0.044511166426612833 0.04831055102324476 0 0.066395547834883203 0.05807658879080619 0 0.044511166426612833 0.04831055102324476 0 0.059559274975242667 0.047504887075434543 0 0.066395547834883203 0.05807658879080619 0 0.034885408484197772 0.0062912350017927032 0 0.052968053050369737 0.0090809173488315582 0 0.042517259973231587 -0.011683923625132649 0 0.034885408484197772 0.0062912350017927032 0 0.043580831547224863 0.021565365261707499 0 0.052968053050369737 0.0090809173488315582 0 0.029022466975609298 0.02571489330768258 0 0.034885408484197772 0.0062912350017927032 0 0.043580831547224863 0.021565365261707499 0 0.029022466975609298 0.02571489330768258 0 0.037630953216902623 0.033668105561091018 0 0.043580831547224863 0.021565365261707499 0 0.037630953216902623 0.033668105561091018 0 0.0484135161167236 0.034205204957136963 0 0.043580831547224863 0.021565365261707499 0 0.057623658326613529 0.02352368721002385 0 0.052968053050369737 0.0090809173488315582 0 0.071708216805815503 0.016768608491387289 0 0.043580831547224863 0.021565365261707499 0 0.057623658326613529 0.02352368721002385 0 0.052968053050369737 0.0090809173488315582 0 0.0484135161167236 0.034205204957136963 0 0.043580831547224863 0.021565365261707499 0 0.057623658326613529 0.02352368721002385 0 0.052968053050369737 0.0090809173488315582 0 0.071708216805815503 0.016768608491387289 0 0.067492943165135169 -0.0019794682467893379 0 0.083930998993742512 0.0059737405228527038 0 0.071708216805815503 0.016768608491387289 0 0.067492943165135169 -0.0019794682467893379 0 0.083930998993742512 0.0059737405228527038 0 0.098495163759696414 0.0029673617968291321 0 0.094917995650245529 0.021722354499223519 0 0.083930998993742512 0.0059737405228527038 0 0.071708216805815503 0.016768608491387289 0 0.094917995650245529 0.021722354499223519 0 0.071708216805815503 0.016768608491387289 0 0.07449934060461412 0.03258063005354956 0 0.094917995650245529 0.021722354499223519 0 0.07449934060461412 0.03258063005354956 0 0.087237150257314613 0.037926204838731957 0 0.094917995650245529 0.021722354499223519 0 0.057623658326613529 0.02352368721002385 0 0.071708216805815503 0.016768608491387289 0 0.07449934060461412 0.03258063005354956 0 0.060669767880595721 0.038134724015348051 0 0.057623658326613529 0.02352368721002385 0 0.07449934060461412 0.03258063005354956 0 0.060669767880595721 0.038134724015348051 0 0.069155187538762042 0.045022305850501279 0 0.07449934060461412 0.03258063005354956 0 0.060669767880595721 0.038134724015348051 0 0.059559274975242667 0.047504887075434543 0 0.069155187538762042 0.045022305850501279 0 0.069155187538762042 0.045022305850501279 0 0.07449934060461412 0.03258063005354956 0 0.079692196512252927 0.044953406994506007 0 0.059559274975242667 0.047504887075434543 0 0.069155187538762042 0.045022305850501279 0 0.067326156772233525 0.050603546620565112 0 0.059559274975242667 0.047504887075434543 0 0.066395547834883203 0.05807658879080619 0 0.067326156772233525 0.050603546620565112 0 0.066395547834883203 0.05807658879080619 0 0.067326156772233525 0.050603546620565112 0 0.074194616740046182 0.051810404765518438 0 0.069155187538762042 0.045022305850501279 0 0.067326156772233525 0.050603546620565112 0 0.074194616740046182 0.051810404765518438 0 0.069155187538762042 0.045022305850501279 0 0.074194616740046182 0.051810404765518438 0 0.079692196512252927 0.044953406994506007 0 0.066395547834883203 0.05807658879080619 0 0.074194616740046182 0.051810404765518438 0 0.080343143758095259 0.058335218209008277 0 0.066395547834883203 0.05807658879080619 0 0.080343143758095259 0.058335218209008277 0 0.08827992924315356 0.067842626558367619 0 0.080343143758095259 0.058335218209008277 0 0.083306510346727383 0.05351440315152866 0 0.090416084875221875 0.058235299142909973 0 0.074194616740046182 0.051810404765518438 0 0.083306510346727383 0.05351440315152866 0 0.079692196512252927 0.044953406994506007 0 0.083306510346727383 0.05351440315152866 0 0.089760373586053266 0.048866493307206167 0 0.079692196512252927 0.044953406994506007 0 0.074194616740046182 0.051810404765518438 0 0.080343143758095259 0.058335218209008277 0 0.083306510346727383 0.05351440315152866 0 0.083306510346727383 0.05351440315152866 0 0.089760373586053266 0.048866493307206167 0 0.090416084875221875 0.058235299142909973 0 0.089760373586053266 0.048866493307206167 0 0.090416084875221875 0.058235299142909973 0 0.099395501669828634 0.055681054702382278 0 0.080343143758095259 0.058335218209008277 0 0.090416084875221875 0.058235299142909973 0 0.08827992924315356 0.067842626558367619 0 0.087237150257314613 0.037926204838731957 0 0.098930039005792711 0.04227996871225087 0 0.094917995650245529 0.021722354499223519 0 0.07449934060461412 0.03258063005354956 0 0.079692196512252927 0.044953406994506007 0 0.087237150257314613 0.037926204838731957 0 0.089760373586053266 0.048866493307206167 0 0.079692196512252927 0.044953406994506007 0 0.087237150257314613 0.037926204838731957 0 0.089760373586053266 0.048866493307206167 0 0.087237150257314613 0.037926204838731957 0 0.098930039005792711 0.04227996871225087 0 0.10894092886672049 0.033503019923715648 0 0.098930039005792711 0.04227996871225087 0 0.11550376979223601 0.054551475820320147 0 0.10894092886672049 0.033503019923715648 0 0.098930039005792711 0.04227996871225087 0 0.094917995650245529 0.021722354499223519 0 0.098930039005792711 0.04227996871225087 0 0.099395501669828634 0.055681054702382278 0 0.11550376979223601 0.054551475820320147 0 0.099395501669828634 0.055681054702382278 0 0.11550376979223601 0.054551475820320147 0 0.10561354398445311 0.069921878226714862 0 0.090416084875221875 0.058235299142909973 0 0.099395501669828634 0.055681054702382278 0 0.095618088847860577 0.065038419849084594 0 0.089760373586053266 0.048866493307206167 0 0.098930039005792711 0.04227996871225087 0 0.099395501669828634 0.055681054702382278 0 0.10894092886672049 0.033503019923715648 0 0.11961069471150609 0.02296590295220987 0 0.12977361784467401 0.039215218793308727 0 0.10894092886672049 0.033503019923715648 0 0.11550376979223601 0.054551475820320147 0 0.12977361784467401 0.039215218793308727 0 0.11961069471150609 0.02296590295220987 0 0.1158546052028349 0.0064685721448778594 0 0.094917995650245529 0.021722354499223519 0 0.11961069471150609 0.02296590295220987 0 0.1158546052028349 0.0064685721448778594 0 0.13894824890776639 0.02136224913872127 0 0.1158546052028349 0.0064685721448778594 0 0.098495163759696414 0.0029673617968291321 0 0.094917995650245529 0.021722354499223519 0 0.10894092886672049 0.033503019923715648 0 0.11961069471150609 0.02296590295220987 0 0.094917995650245529 0.021722354499223519 0 0.097728221435088053 0.099184528615223033 0 0.110275064223293 0.10236359857942121 0 0.11116449005577619 0.086473750785835857 0 0.099894961061174667 0.1104201015940532 0 0.11150799601301251 0.1117412241471519 0 0.110275064223293 0.10236359857942121 0 0.097728221435088053 0.099184528615223033 0 0.099894961061174667 0.1104201015940532 0 0.110275064223293 0.10236359857942121 0 0.097728221435088053 0.099184528615223033 0 0.099894961061174667 0.1104201015940532 0 0.084925795867796111 0.1103515185161017 0 0.099894961061174667 0.1104201015940532 0 0.096984900528893664 0.1212489081817222 0 0.084925795867796111 0.1103515185161017 0 0.099894961061174667 0.1104201015940532 0 0.096984900528893664 0.1212489081817222 0 0.10712684862241641 0.1210429748963526 0 0.096984900528893664 0.1212489081817222 0 0.10712684862241641 0.1210429748963526 0 0.10589272808503949 0.13156516273042271 0 0.099894961061174667 0.1104201015940532 0 0.10712684862241641 0.1210429748963526 0 0.11150799601301251 0.1117412241471519 0 0.10712684862241641 0.1210429748963526 0 0.11150799601301251 0.1117412241471519 0 0.1187293914863337 0.1182846474287873 0 0.11150799601301251 0.1117412241471519 0 0.1187293914863337 0.1182846474287873 0 0.1197878353292403 0.1092484053650479 0 0.10712684862241641 0.1210429748963526 0 0.1187293914863337 0.1182846474287873 0 0.114987521205969 0.1268010028982309 0 0.1187293914863337 0.1182846474287873 0 0.12813823657366311 0.12049833089676459 0 0.12624189261331301 0.1140678077034443 0 0.1187293914863337 0.1182846474287873 0 0.12212988809696081 0.1249307776834532 0 0.12813823657366311 0.12049833089676459 0 0.1187293914863337 0.1182846474287873 0 0.12212988809696081 0.1249307776834532 0 0.114987521205969 0.1268010028982309 0 0.1187293914863337 0.1182846474287873 0 0.1197878353292403 0.1092484053650479 0 0.12624189261331301 0.1140678077034443 0 0.1216961693062274 0.1020981758197984 0 0.110275064223293 0.10236359857942121 0 0.11116449005577619 0.086473750785835857 0 0.1197878353292403 0.1092484053650479 0 0.1216961693062274 0.1020981758197984 0 0.1302764983332621 0.10693497851168419 0 0.1216961693062274 0.1020981758197984 0 0.11116449005577619 0.086473750785835857 0 0.13668050292917741 0.098217611464673699 0 0.1197878353292403 0.1092484053650479 0 0.1216961693062274 0.1020981758197984 0 0.110275064223293 0.10236359857942121 0 0.11150799601301251 0.1117412241471519 0 0.1197878353292403 0.1092484053650479 0 0.110275064223293 0.10236359857942121 0 0.11116449005577619 0.086473750785835857 0 0.1207366242219714 0.074251990558816788 0 0.1300820653953097 0.084166932106396392 0 0.11116449005577619 0.086473750785835857 0 0.13668050292917741 0.098217611464673699 0 0.11116449005577619 0.086473750785835857 0 0.1207366242219714 0.074251990558816788 0 0.10561354398445311 0.069921878226714862 0 0.11550376979223601 0.054551475820320147 0 0.1207366242219714 0.074251990558816788 0 0.13255022158949201 0.068763676371196639 0 0.11550376979223601 0.054551475820320147 0 0.1207366242219714 0.074251990558816788 0 0.10561354398445311 0.069921878226714862 0 0.11116449005577619 0.086473750785835857 0 0.10561354398445311 0.069921878226714862 0 0.085648477182374977 0.074729890106998029 0 0.10561354398445311 0.069921878226714862 0 0.095618088847860577 0.065038419849084594 0 0.085648477182374977 0.074729890106998029 0 0.099395501669828634 0.055681054702382278 0 0.10561354398445311 0.069921878226714862 0 0.095618088847860577 0.065038419849084594 0 0.11116449005577619 0.086473750785835857 0 0.085648477182374977 0.074729890106998029 0 0.11116449005577619 0.086473750785835857 0 0.090808031879269946 0.087622927320568048 0 0.085648477182374977 0.074729890106998029 0 0.097728221435088053 0.099184528615223033 0 0.11116449005577619 0.086473750785835857 0 0.090808031879269946 0.087622927320568048 0 0.097728221435088053 0.099184528615223033 0 0.090808031879269946 0.087622927320568048 0 0.080235742217082393 0.093435287859391092 0 0.090808031879269946 0.087622927320568048 0 0.078675001300488379 0.083882301042573534 0 0.085648477182374977 0.074729890106998029 0 0.090808031879269946 0.087622927320568048 0 0.078675001300488379 0.083882301042573534 0 0.080235742217082393 0.093435287859391092 0 0.066395547834883203 0.05807658879080619 0 0.08827992924315356 0.067842626558367619 0 0.085648477182374977 0.074729890106998029 0 0.095618088847860577 0.065038419849084594 0 0.08827992924315356 0.067842626558367619 0 0.085648477182374977 0.074729890106998029 0 0.090416084875221875 0.058235299142909973 0 0.095618088847860577 0.065038419849084594 0 0.08827992924315356 0.067842626558367619 0 0.066395547834883203 0.05807658879080619 0 0.085648477182374977 0.074729890106998029 0 0.060132464308973767 0.062986029428160187 0 0.066395547834883203 0.05807658879080619 0 0.08827992924315356 0.067842626558367619 0 0.085648477182374977 0.074729890106998029 0 0.068637102026180674 0.07792917868559901 0 0.060132464308973767 0.062986029428160187 0 0.085648477182374977 0.074729890106998029 0 0.060132464308973767 0.062986029428160187 0 0.078675001300488379 0.083882301042573534 0 0.085648477182374977 0.074729890106998029 0 0.068637102026180674 0.07792917868559901 0 0.080235742217082393 0.093435287859391092 0 0.069503799956795384 0.087722797055870286 0 0.068523875558259784 0.095111972458496966 0 0.078675001300488379 0.083882301042573534 0 0.080235742217082393 0.093435287859391092 0 0.069503799956795384 0.087722797055870286 0 0.078675001300488379 0.083882301042573534 0 0.068637102026180674 0.07792917868559901 0 0.069503799956795384 0.087722797055870286 0 0.068637102026180674 0.07792917868559901 0 0.069503799956795384 0.087722797055870286 0 0.060111091978902922 0.083782113849914977 0 0.069503799956795384 0.087722797055870286 0 0.06135777996986308 0.093915161513068182 0 0.060111091978902922 0.083782113849914977 0 0.069503799956795384 0.087722797055870286 0 0.068523875558259784 0.095111972458496966 0 0.06135777996986308 0.093915161513068182 0 0.068523875558259784 0.095111972458496966 0 0.071520258741129425 0.10189571548122769 0 0.062413973273008162 0.1018934272394761 0 0.068523875558259784 0.095111972458496966 0 0.062413973273008162 0.1018934272394761 0 0.06135777996986308 0.093915161513068182 0 0.071520258741129425 0.10189571548122769 0 0.072821304814728441 0.1108529925529516 0 0.063718101814298073 0.11016590081819259 0 0.071520258741129425 0.10189571548122769 0 0.063718101814298073 0.11016590081819259 0 0.062413973273008162 0.1018934272394761 0 0.071520258741129425 0.10189571548122769 0 0.084925795867796111 0.1103515185161017 0 0.072821304814728441 0.1108529925529516 0 0.080235742217082393 0.093435287859391092 0 0.068523875558259784 0.095111972458496966 0 0.071520258741129425 0.10189571548122769 0 0.097728221435088053 0.099184528615223033 0 0.080235742217082393 0.093435287859391092 0 0.084925795867796111 0.1103515185161017 0 0.080235742217082393 0.093435287859391092 0 0.071520258741129425 0.10189571548122769 0 0.084925795867796111 0.1103515185161017 0 0.084925795867796111 0.1103515185161017 0 0.074154959480044275 0.1204842858357125 0 0.087075880893963842 0.12621803440601359 0 0.096984900528893664 0.1212489081817222 0 0.084925795867796111 0.1103515185161017 0 0.087075880893963842 0.12621803440601359 0 0.084925795867796111 0.1103515185161017 0 0.074154959480044275 0.1204842858357125 0 0.072821304814728441 0.1108529925529516 0 0.074154959480044275 0.1204842858357125 0 0.072821304814728441 0.1108529925529516 0 0.063718101814298073 0.11016590081819259 0 0.074154959480044275 0.1204842858357125 0 0.063718101814298073 0.11016590081819259 0 0.060124536552058239 0.11864948812996751 0 0.074154959480044275 0.1204842858357125 0 0.060124536552058239 0.11864948812996751 0 0.061109117960118017 0.12720913792676911 0 0.060124536552058239 0.11864948812996751 0 0.052595679859244633 0.1236025024456274 0 0.054913207086597561 0.11271600588853189 0 0.060124536552058239 0.11864948812996751 0 0.052595679859244633 0.1236025024456274 0 0.061109117960118017 0.12720913792676911 0 0.052595679859244633 0.1236025024456274 0 0.054913207086597561 0.11271600588853189 0 0.046771683079868627 0.1089772416004138 0 0.063718101814298073 0.11016590081819259 0 0.060124536552058239 0.11864948812996751 0 0.054913207086597561 0.11271600588853189 0 0.063718101814298073 0.11016590081819259 0 0.062413973273008162 0.1018934272394761 0 0.053620768430252298 0.1031656988462608 0 0.063718101814298073 0.11016590081819259 0 0.054913207086597561 0.11271600588853189 0 0.053620768430252298 0.1031656988462608 0 0.06135777996986308 0.093915161513068182 0 0.053620768430252298 0.1031656988462608 0 0.051535176025136201 0.090416251810209708 0 0.062413973273008162 0.1018934272394761 0 0.06135777996986308 0.093915161513068182 0 0.053620768430252298 0.1031656988462608 0 0.053620768430252298 0.1031656988462608 0 0.042875633238578528 0.09739353282270094 0 0.051535176025136201 0.090416251810209708 0 0.053620768430252298 0.1031656988462608 0 0.046771683079868627 0.1089772416004138 0 0.042875633238578528 0.09739353282270094 0 0.054913207086597561 0.11271600588853189 0 0.053620768430252298 0.1031656988462608 0 0.046771683079868627 0.1089772416004138 0 0.046771683079868627 0.1089772416004138 0 0.042875633238578528 0.09739353282270094 0 0.034382595390138257 0.1099700727945534 0 0.042875633238578528 0.09739353282270094 0 0.034382595390138257 0.1099700727945534 0 0.030708755379597181 0.088685576768743155 0 0.034382595390138257 0.1099700727945534 0 0.030708755379597181 0.088685576768743155 0 0.052595679859244633 0.1236025024456274 0 0.046771683079868627 0.1089772416004138 0 0.034382595390138257 0.1099700727945534 0 0.034382595390138257 0.1099700727945534 0 0.02520709702204247 0.1232263280856261 0 0.037354296692750887 0.12718670835402709 0 0.052595679859244633 0.1236025024456274 0 0.034382595390138257 0.1099700727945534 0 0.037354296692750887 0.12718670835402709 0 0.034382595390138257 0.1099700727945534 0 0.037354296692750887 0.12718670835402709 0 0.052595679859244633 0.1236025024456274 0 0.034382595390138257 0.1099700727945534 0 0.060132464308973767 0.062986029428160187 0 0.051537231586459821 0.0703604747810012 0 0.044258496001147778 0.063884183083345675 0 0.051537231586459821 0.0703604747810012 0 0.045053238281461433 0.071665999821029613 0 0.044258496001147778 0.063884183083345675 0 0.060132464308973767 0.062986029428160187 0 0.058160070023191839 0.074213970699792686 0 0.051537231586459821 0.0703604747810012 0 0.068637102026180674 0.07792917868559901 0 0.060132464308973767 0.062986029428160187 0 0.058160070023191839 0.074213970699792686 0 0.051537231586459821 0.0703604747810012 0 0.049495561811348857 0.078896267932753172 0 0.045053238281461433 0.071665999821029613 0 0.058160070023191839 0.074213970699792686 0 0.051537231586459821 0.0703604747810012 0 0.049495561811348857 0.078896267932753172 0 0.049495561811348857 0.078896267932753172 0 0.051535176025136201 0.090416251810209708 0 0.041750220721871581 0.085344735896560275 0 0.049495561811348857 0.078896267932753172 0 0.060111091978902922 0.083782113849914977 0 0.051535176025136201 0.090416251810209708 0 0.068637102026180674 0.07792917868559901 0 0.058160070023191839 0.074213970699792686 0 0.060111091978902922 0.083782113849914977 0 0.058160070023191839 0.074213970699792686 0 0.049495561811348857 0.078896267932753172 0 0.060111091978902922 0.083782113849914977 0 0.06135777996986308 0.093915161513068182 0 0.060111091978902922 0.083782113849914977 0 0.051535176025136201 0.090416251810209708 0 0.042875633238578528 0.09739353282270094 0 0.051535176025136201 0.090416251810209708 0 0.041750220721871581 0.085344735896560275 0 0.042875633238578528 0.09739353282270094 0 0.041750220721871581 0.085344735896560275 0 0.030708755379597181 0.088685576768743155 0 0.041750220721871581 0.085344735896560275 0 0.037489048909448763 0.07466528487264068 0 0.030708755379597181 0.088685576768743155 0 0.049495561811348857 0.078896267932753172 0 0.041750220721871581 0.085344735896560275 0 0.037489048909448763 0.07466528487264068 0 0.037489048909448763 0.07466528487264068 0 0.02703491536905472 0.067401080742933134 0 0.030708755379597181 0.088685576768743155 0 0.049495561811348857 0.078896267932753172 0 0.045053238281461433 0.071665999821029613 0 0.037489048909448763 0.07466528487264068 0 0.045053238281461433 0.071665999821029613 0 0.037489048909448763 0.07466528487264068 0 0.037579666130808903 0.067774354445351542 0 0.034062632092931817 0.061255223706808547 0 0.037579666130808903 0.067774354445351542 0 0.02703491536905472 0.067401080742933134 0 0.037489048909448763 0.07466528487264068 0 0.037579666130808903 0.067774354445351542 0 0.02703491536905472 0.067401080742933134 0 0.034062632092931817 0.061255223706808547 0 0.037579666130808903 0.067774354445351542 0 0.044258496001147778 0.063884183083345675 0 0.045053238281461433 0.071665999821029613 0 0.037579666130808903 0.067774354445351542 0 0.044258496001147778 0.063884183083345675 0 0.02703491536905472 0.067401080742933134 0 0.030708755379597181 0.088685576768743155 0 0.01366790099406239 0.052632887419703241 0 0.026593398378051959 0.076487299351285121 0 0.01366790099406239 0.052632887419703241 0 0.02703491536905472 0.067401080742933134 0 0.026593398378051959 0.076487299351285121 0 0.02703491536905472 0.067401080742933134 0 0.026593398378051959 0.076487299351285121 0 0.030708755379597181 0.088685576768743155 0 0.01366790099406239 0.052632887419703241 0 0.026593398378051959 0.076487299351285121 0 0.01611389888654503 0.070322973248010373 0 0.026593398378051959 0.076487299351285121 0 0.01611389888654503 0.070322973248010373 0 0.01767063525815666 0.080500261616376856 0 0.01767063525815666 0.080500261616376856 0 0.030708755379597181 0.088685576768743155 0 0.011643404763696401 0.092949868607662828 0 0.026593398378051959 0.076487299351285121 0 0.01767063525815666 0.080500261616376856 0 0.030708755379597181 0.088685576768743155 0 0.01767063525815666 0.080500261616376856 0 0.011643404763696401 0.092949868607662828 0 0.0065236609159091173 0.071671444604676282 0 -0.01109578586274463 0.07592966442077155 0 0.011643404763696401 0.092949868607662828 0 0.0065236609159091173 0.071671444604676282 0 -0.01109578586274463 0.07592966442077155 0 0.011643404763696401 0.092949868607662828 0 0.01366790099406239 0.052632887419703241 0 0.01611389888654503 0.070322973248010373 0 0.0065236609159091173 0.071671444604676282 0 0.01611389888654503 0.070322973248010373 0 0.01767063525815666 0.080500261616376856 0 0.0065236609159091173 0.071671444604676282 0 -0.0031702267477386531 0.067180855403790804 0 0.00079413703044923156 0.058803151297745167 0 0.0065236609159091173 0.071671444604676282 0 0.034382595390138257 0.1099700727945534 0 0.02520709702204247 0.1232263280856261 0 0.01356063639681436 0.11371506303709419 0 0.02520709702204247 0.1232263280856261 0 0.01356063639681436 0.11371506303709419 0 0.011098566836083609 0.13484946890849181 0 0.034382595390138257 0.1099700727945534 0 0.011643404763696401 0.092949868607662828 0 0.01356063639681436 0.11371506303709419 0 0.034382595390138257 0.1099700727945534 0 0.011643404763696401 0.092949868607662828 0 0.034382595390138257 0.1099700727945534 0 0.030708755379597181 0.088685576768743155 0 0.011643404763696401 0.092949868607662828 0 -0.0040088977147468936 0.097024336429998151 0 0.011643404763696401 0.092949868607662828 0 0.0025937760044158291 0.1064596481343341 0 0.011643404763696401 0.092949868607662828 0 0.0025937760044158291 0.1064596481343341 0 0.01356063639681436 0.11371506303709419 0 -0.007175360702145514 0.1155930690216506 0 0.0025937760044158291 0.1064596481343341 0 0.01356063639681436 0.11371506303709419 0 -0.007175360702145514 0.1155930690216506 0 0.01356063639681436 0.11371506303709419 0 0.011098566836083609 0.13484946890849181 0 -0.007175360702145514 0.1155930690216506 0 0.011098566836083609 0.13484946890849181 0 0.02520709702204247 0.1232263280856261 0 0.011098566836083609 0.13484946890849181 0 0.028759663239593541 0.13617761485890201 0 0.02520709702204247 0.1232263280856261 0 0.028759663239593541 0.13617761485890201 0 0.037354296692750887 0.12718670835402709 0 0.011098566836083609 0.13484946890849181 0 0.029372494374312729 0.15410586879533311 0 0.013538337341477229 0.1636201682865295 0 0.011098566836083609 0.13484946890849181 0 0.028759663239593541 0.13617761485890201 0 0.029372494374312729 0.15410586879533311 0 0.011098566836083609 0.13484946890849181 0 0.029372494374312729 0.15410586879533311 0 -0.0048034666842798916 0.1614245706846468 0 0.011098566836083609 0.13484946890849181 0 0.013538337341477229 0.1636201682865295 0 -0.0057956805663459468 0.1892940575843915 0 -0.0048034666842798916 0.1614245706846468 0 0.013538337341477229 0.1636201682865295 0 -0.0057956805663459468 0.1892940575843915 0 0.013538337341477229 0.1636201682865295 0 0.020045678312652242 0.18090880435863019 0 -0.0057956805663459468 0.1892940575843915 0 0.020045678312652242 0.18090880435863019 0 0.029372494374312729 0.15410586879533311 0 0.013538337341477229 0.1636201682865295 0 0.020045678312652242 0.18090880435863019 0 0.029372494374312729 0.15410586879533311 0 0.045887037191650451 0.17252355113286891 0 0.04813315871709322 0.1541455757588851 0 0.029372494374312729 0.15410586879533311 0 0.020045678312652242 0.18090880435863019 0 0.045887037191650451 0.17252355113286891 0 0.020045678312652242 0.18090880435863019 0 0.045887037191650451 0.17252355113286891 0 0.020045678312652242 0.18090880435863019 0 0.045887037191650451 0.17252355113286891 0 0.041991232206495782 0.1919910870650737 0 0.045887037191650451 0.17252355113286891 0 0.060802696405823108 0.1787365445376432 0 0.041991232206495782 0.1919910870650737 0 0.045887037191650451 0.17252355113286891 0 0.071728396070648653 0.1641382979071076 0 0.045887037191650451 0.17252355113286891 0 0.060802696405823108 0.1787365445376432 0 0.071728396070648653 0.1641382979071076 0 0.045887037191650451 0.17252355113286891 0 0.059657673584757237 0.15824269734654939 0 0.04813315871709322 0.1541455757588851 0 0.045887037191650451 0.17252355113286891 0 0.059657673584757237 0.15824269734654939 0 0.071728396070648653 0.1641382979071076 0 0.059657673584757237 0.15824269734654939 0 0.04813315871709322 0.1541455757588851 0 0.060329678829100349 0.1474246815113264 0 0.04813315871709322 0.1541455757588851 0 0.050215372913412007 0.1458935282758238 0 0.060329678829100349 0.1474246815113264 0 0.050215372913412007 0.1458935282758238 0 0.060329678829100349 0.1474246815113264 0 0.052072656112092337 0.13760051191958289 0 0.050215372913412007 0.1458935282758238 0 0.052072656112092337 0.13760051191958289 0 0.040325997995362128 0.14440334391350099 0 0.060329678829100349 0.1474246815113264 0 0.062159468211553673 0.13737243366585769 0 0.052072656112092337 0.13760051191958289 0 0.062159468211553673 0.13737243366585769 0 0.054733357378362921 0.13083888414419281 0 0.052072656112092337 0.13760051191958289 0 0.052595679859244633 0.1236025024456274 0 0.054733357378362921 0.13083888414419281 0 0.061109117960118017 0.12720913792676911 0 0.062159468211553673 0.13737243366585769 0 0.054733357378362921 0.13083888414419281 0 0.061109117960118017 0.12720913792676911 0 0.052595679859244633 0.1236025024456274 0 0.054733357378362921 0.13083888414419281 0 0.046346625143134958 0.1312929959830558 0 0.054733357378362921 0.13083888414419281 0 0.052072656112092337 0.13760051191958289 0 0.046346625143134958 0.1312929959830558 0 0.037354296692750887 0.12718670835402709 0 0.040325997995362128 0.14440334391350099 0 0.046346625143134958 0.1312929959830558 0 0.037354296692750887 0.12718670835402709 0 0.040325997995362128 0.14440334391350099 0 0.028759663239593541 0.13617761485890201 0 0.037354296692750887 0.12718670835402709 0 0.040325997995362128 0.14440334391350099 0 0.052072656112092337 0.13760051191958289 0 0.046346625143134958 0.1312929959830558 0 0.040325997995362128 0.14440334391350099 0 0.052595679859244633 0.1236025024456274 0 0.046346625143134958 0.1312929959830558 0 0.037354296692750887 0.12718670835402709 0 0.028759663239593541 0.13617761485890201 0 0.029372494374312729 0.15410586879533311 0 0.040325997995362128 0.14440334391350099 0 0.029372494374312729 0.15410586879533311 0 0.04813315871709322 0.1541455757588851 0 0.040325997995362128 0.14440334391350099 0 0.04813315871709322 0.1541455757588851 0 0.050215372913412007 0.1458935282758238 0 0.040325997995362128 0.14440334391350099 0 0.025149977659741599 0.24684982625080901 0 0.00014186162909880781 0.2338185852574263 0 0.02177620002751179 0.22559840920251981 0 0.025149977659741599 0.24684982625080901 0 0.00014186162909880781 0.2338185852574263 0 0.025149977659741599 0.24684982625080901 0 0.00014186162909880781 0.2338185852574263 0 0.0073806355134042019 0.25529449578482938 0 0.00014186162909880781 0.2338185852574263 0 0.02177620002751179 0.22559840920251981 0 0.0090806704795409685 0.20996839310177981 0 0.025149977659741599 0.24684982625080901 0 0.02177620002751179 0.22559840920251981 0 0.039960986899899173 0.22780444499479169 0 0.02177620002751179 0.22559840920251981 0 0.0090806704795409685 0.20996839310177981 0 0.034547503469278373 0.20955079640779209 0 0.0090806704795409685 0.20996839310177981 0 0.02162293693503077 0.1981024475624624 0 0.034547503469278373 0.20955079640779209 0 -0.0057956805663459468 0.1892940575843915 0 0.0090806704795409685 0.20996839310177981 0 0.02162293693503077 0.1981024475624624 0 -0.0057956805663459468 0.1892940575843915 0 0.020045678312652242 0.18090880435863019 0 0.02162293693503077 0.1981024475624624 0 0.020045678312652242 0.18090880435863019 0 0.02162293693503077 0.1981024475624624 0 0.041991232206495782 0.1919910870650737 0 0.02162293693503077 0.1981024475624624 0 0.041991232206495782 0.1919910870650737 0 0.034547503469278373 0.20955079640779209 0 0.041991232206495782 0.1919910870650737 0 0.05849467095877426 0.1965416733816682 0 0.050764695011206777 0.20916964222725651 0 0.060802696405823108 0.1787365445376432 0 0.041991232206495782 0.1919910870650737 0 0.05849467095877426 0.1965416733816682 0 0.050764695011206777 0.20916964222725651 0 0.066981886553135278 0.20878848804672309 0 0.05849467095877426 0.1965416733816682 0 0.050764695011206777 0.20916964222725651 0 0.066981886553135278 0.20878848804672309 0 0.050764695011206777 0.20916964222725651 0 0.061514006406540499 0.23071042489022231 0 0.066981886553135278 0.20878848804672309 0 0.050764695011206777 0.20916964222725651 0 0.034547503469278373 0.20955079640779209 0 0.039960986899899173 0.22780444499479169 0 0.050764695011206777 0.20916964222725651 0 0.034547503469278373 0.20955079640779209 0 0.041991232206495782 0.1919910870650737 0 0.050764695011206777 0.20916964222725651 0 0.034547503469278373 0.20955079640779209 0 0.02177620002751179 0.22559840920251981 0 0.034547503469278373 0.20955079640779209 0 0.039960986899899173 0.22780444499479169 0 0.039960986899899173 0.22780444499479169 0 0.061514006406540499 0.23071042489022231 0 0.045472231705318063 0.24424317023843681 0 0.050764695011206777 0.20916964222725651 0 0.039960986899899173 0.22780444499479169 0 0.061514006406540499 0.23071042489022231 0 0.061514006406540499 0.23071042489022231 0 0.056046126259945157 0.25263236173372139 0 0.061514006406540499 0.23071042489022231 0 0.056046126259945157 0.25263236173372139 0 0.067905867336300579 0.25358800162702 0 0.061514006406540499 0.23071042489022231 0 0.045472231705318063 0.24424317023843681 0 0.056046126259945157 0.25263236173372139 0 0.025149977659741599 0.24684982625080901 0 0.039960986899899173 0.22780444499479169 0 0.045472231705318063 0.24424317023843681 0 0.092857250133516089 0.24175825718487831 0 0.078525547080241467 0.2465942846531784 0 0.093798877441032588 0.2579700649065903 0 0.092857250133516089 0.24175825718487831 0 0.078525547080241467 0.2465942846531784 0 0.081986142109724491 0.22560265144644431 0 0.061514006406540499 0.23071042489022231 0 0.078525547080241467 0.2465942846531784 0 0.067905867336300579 0.25358800162702 0 0.061514006406540499 0.23071042489022231 0 0.078525547080241467 0.2465942846531784 0 0.081986142109724491 0.22560265144644431 0 0.061514006406540499 0.23071042489022231 0 0.081986142109724491 0.22560265144644431 0 0.066981886553135278 0.20878848804672309 0 0.061514006406540499 0.23071042489022231 0 0.066981886553135278 0.20878848804672309 0 0.081986142109724491 0.22560265144644431 0 0.09236794217301933 0.20819183719001669 0 0.066981886553135278 0.20878848804672309 0 0.09236794217301933 0.20819183719001669 0 0.066981886553135278 0.20878848804672309 0 0.09236794217301933 0.20819183719001669 0 0.066981886553135278 0.20878848804672309 0 0.071445073857882777 0.19089458628000441 0 0.060802696405823108 0.1787365445376432 0 0.05849467095877426 0.1965416733816682 0 0.071445073857882777 0.19089458628000441 0 0.066981886553135278 0.20878848804672309 0 0.071445073857882777 0.19089458628000441 0 0.05849467095877426 0.1965416733816682 0 0.066981886553135278 0.20878848804672309 0 0.071445073857882777 0.19089458628000441 0 0.09236794217301933 0.20819183719001669 0 0.071445073857882777 0.19089458628000441 0 0.086464584236575506 0.1862285865309723 0 0.09236794217301933 0.20819183719001669 0 0.086464584236575506 0.1862285865309723 0 0.1023855527362314 0.18749689463882899 0 0.09236794217301933 0.20819183719001669 0 0.11775399779290339 0.20759518633331239 0 0.1023855527362314 0.18749689463882899 0 0.11775399779290339 0.20759518633331239 0 0.1023855527362314 0.18749689463882899 0 0.12550986450034471 0.186594373040398 0 0.09236794217301933 0.20819183719001669 0 0.11775399779290339 0.20759518633331239 0 0.09236794217301933 0.20819183719001669 0 0.11775399779290339 0.20759518633331239 0 0.10906069526472741 0.22998953009969161 0 0.092857250133516089 0.24175825718487831 0 0.081986142109724491 0.22560265144644431 0 0.10906069526472741 0.22998953009969161 0 0.081986142109724491 0.22560265144644431 0 0.09236794217301933 0.20819183719001669 0 0.10906069526472741 0.22998953009969161 0 0.11775399779290339 0.20759518633331239 0 0.10906069526472741 0.22998953009969161 0 0.1382648444377183 0.22719855966067881 0 0.10906069526472741 0.22998953009969161 0 0.12787711237058769 0.24521089126939841 0 0.1100607559553454 0.25396994184181759 0 0.092857250133516089 0.24175825718487831 0 0.10906069526472741 0.22998953009969161 0 0.1100607559553454 0.25396994184181759 0 0.081151633673542972 0.15313158297098389 0 0.083920606388658545 0.14050817004821939 0 0.0975697549496468 0.15575304468134629 0 0.081151633673542972 0.15313158297098389 0 0.083920606388658545 0.14050817004821939 0 0.071387777285217918 0.15212681924726251 0 0.074154959480044275 0.1204842858357125 0 0.087075880893963842 0.12621803440601359 0 0.083920606388658545 0.14050817004821939 0 0.087075880893963842 0.12621803440601359 0 0.083920606388658545 0.14050817004821939 0 0.097906888154765004 0.1362305538396491 0 0.062159468211553673 0.13737243366585769 0 0.061109117960118017 0.12720913792676911 0 0.083920606388658545 0.14050817004821939 0 0.074154959480044275 0.1204842858357125 0 0.061109117960118017 0.12720913792676911 0 0.083920606388658545 0.14050817004821939 0 0.061109117960118017 0.12720913792676911 0 0.083920606388658545 0.14050817004821939 0 0.062159468211553673 0.13737243366585769 0 0.083920606388658545 0.14050817004821939 0 0.069449382678632612 0.1443580261181665 0 0.060329678829100349 0.1474246815113264 0 0.062159468211553673 0.13737243366585769 0 0.069449382678632612 0.1443580261181665 0 0.060329678829100349 0.1474246815113264 0 0.069449382678632612 0.1443580261181665 0 0.071387777285217918 0.15212681924726251 0 0.083920606388658545 0.14050817004821939 0 0.069449382678632612 0.1443580261181665 0 0.071387777285217918 0.15212681924726251 0 0.059657673584757237 0.15824269734654939 0 0.060329678829100349 0.1474246815113264 0 0.071387777285217918 0.15212681924726251 0 0.059657673584757237 0.15824269734654939 0 0.071387777285217918 0.15212681924726251 0 0.071728396070648653 0.1641382979071076 0 0.081151633673542972 0.15313158297098389 0 0.071387777285217918 0.15212681924726251 0 0.071728396070648653 0.1641382979071076 0 0.071445073857882777 0.19089458628000441 0 0.075908261162629706 0.17300068451328551 0 0.086464584236575506 0.1862285865309723 0 0.060802696405823108 0.1787365445376432 0 0.071445073857882777 0.19089458628000441 0 0.075908261162629706 0.17300068451328551 0 0.071445073857882777 0.19089458628000441 0 0.075908261162629706 0.17300068451328551 0 0.060802696405823108 0.1787365445376432 0 0.071728396070648653 0.1641382979071076 0 0.075908261162629706 0.17300068451328551 0 0.086464584236575506 0.1862285865309723 0 0.090216091253114361 0.17155893003272579 0 0.1023855527362314 0.18749689463882899 0 0.075908261162629706 0.17300068451328551 0 0.086464584236575506 0.1862285865309723 0 0.090216091253114361 0.17155893003272579 0 0.081151633673542972 0.15313158297098389 0 0.071728396070648653 0.1641382979071076 0 0.0975697549496468 0.15575304468134629 0 0.071728396070648653 0.1641382979071076 0 0.090216091253114361 0.17155893003272579 0 0.0975697549496468 0.15575304468134629 0 0.071728396070648653 0.1641382979071076 0 0.075908261162629706 0.17300068451328551 0 0.090216091253114361 0.17155893003272579 0 0.071728396070648653 0.1641382979071076 0 0.0975697549496468 0.15575304468134629 0 0.090216091253114361 0.17155893003272579 0 0.1064810698159025 0.16893633516972181 0 0.0975697549496468 0.15575304468134629 0 0.1064810698159025 0.16893633516972181 0 0.1067320948171991 0.1538072021696697 0 0.0975697549496468 0.15575304468134629 0 0.090216091253114361 0.17155893003272579 0 0.1064810698159025 0.16893633516972181 0 0.1023855527362314 0.18749689463882899 0 0.1064810698159025 0.16893633516972181 0 0.12954358324573961 0.16710623429112001 0 0.12550986450034471 0.186594373040398 0 0.1064810698159025 0.16893633516972181 0 0.1023855527362314 0.18749689463882899 0 0.12550986450034471 0.186594373040398 0 0.1064810698159025 0.16893633516972181 0 0.1067320948171991 0.1538072021696697 0 0.12954358324573961 0.16710623429112001 0 0.1067320948171991 0.1538072021696697 0 0.1262856736452258 0.1537478882528979 0 0.12954358324573961 0.16710623429112001 0 0.1067320948171991 0.1538072021696697 0 0.12954358324573961 0.16710623429112001 0 0.1148569119608701 0.14824987142416859 0 0.1067320948171991 0.1538072021696697 0 0.1262856736452258 0.1537478882528979 0 0.118317888191051 0.14254191757659121 0 0.1148569119608701 0.14824987142416859 0 0.1262856736452258 0.1537478882528979 0 0.118317888191051 0.14254191757659121 0 0.12756241452120801 0.13893694775055651 0 0.1262856736452258 0.1537478882528979 0 0.1148569119608701 0.14824987142416859 0 0.1067320948171991 0.1538072021696697 0 0.1080919911900045 0.14290247769751591 0 0.118317888191051 0.14254191757659121 0 0.1148569119608701 0.14824987142416859 0 0.1080919911900045 0.14290247769751591 0 0.083920606388658545 0.14050817004821939 0 0.1067320948171991 0.1538072021696697 0 0.1067320948171991 0.1538072021696697 0 0.1080919911900045 0.14290247769751591 0 0.097906888154765004 0.1362305538396491 0 0.083920606388658545 0.14050817004821939 0 0.1067320948171991 0.1538072021696697 0 0.097906888154765004 0.1362305538396491 0 0.083920606388658545 0.14050817004821939 0 0.1067320948171991 0.1538072021696697 0 0.0975697549496468 0.15575304468134629 0 0.096984900528893664 0.1212489081817222 0 0.097906888154765004 0.1362305538396491 0 0.10589272808503949 0.13156516273042271 0 0.096984900528893664 0.1212489081817222 0 0.087075880893963842 0.12621803440601359 0 0.097906888154765004 0.1362305538396491 0 0.1080919911900045 0.14290247769751591 0 0.097906888154765004 0.1362305538396491 0 0.10589272808503949 0.13156516273042271 0 0.1080919911900045 0.14290247769751591 0 0.10589272808503949 0.13156516273042271 0 0.11327312463209829 0.13597294690712769 0 0.10712684862241641 0.1210429748963526 0 0.10589272808503949 0.13156516273042271 0 0.114987521205969 0.1268010028982309 0 0.10589272808503949 0.13156516273042271 0 0.114987521205969 0.1268010028982309 0 0.11327312463209829 0.13597294690712769 0 0.114987521205969 0.1268010028982309 0 0.11327312463209829 0.13597294690712769 0 0.1203000125167645 0.13336293759413789 0 0.118317888191051 0.14254191757659121 0 0.1080919911900045 0.14290247769751591 0 0.11327312463209829 0.13597294690712769 0 0.118317888191051 0.14254191757659121 0 0.1203000125167645 0.13336293759413789 0 0.12756241452120801 0.13893694775055651 0 0.118317888191051 0.14254191757659121 0 0.11327312463209829 0.13597294690712769 0 0.1203000125167645 0.13336293759413789 0 0.12212988809696081 0.1249307776834532 0 0.114987521205969 0.1268010028982309 0 0.1203000125167645 0.13336293759413789 0 0.12212988809696081 0.1249307776834532 0 0.1203000125167645 0.13336293759413789 0 0.12788127083107459 0.1291064789800366 0 0.12788127083107459 0.1291064789800366 0 0.13409394305489639 0.1257339851238449 0 0.12813823657366311 0.12049833089676459 0 0.12788127083107459 0.1291064789800366 0 0.13410827310584911 0.13282331674432049 0 0.13409394305489639 0.1257339851238449 0 0.12788127083107459 0.1291064789800366 0 0.12756241452120801 0.13893694775055651 0 0.13410827310584911 0.13282331674432049 0 0.1203000125167645 0.13336293759413789 0 0.12788127083107459 0.1291064789800366 0 0.12756241452120801 0.13893694775055651 0 0.13410827310584911 0.13282331674432049 0 0.14295710802469111 0.12768772724150559 0 0.13848136883728299 0.14203914735535511 0 0.12756241452120801 0.13893694775055651 0 0.13410827310584911 0.13282331674432049 0 0.13848136883728299 0.14203914735535511 0 0.13410827310584911 0.13282331674432049 0 0.13409394305489639 0.1257339851238449 0 0.14295710802469111 0.12768772724150559 0 0.14295710802469111 0.12768772724150559 0 0.15698787762036359 0.14007723406829989 0 0.15364605026385231 0.1227496740475859 0 0.14295710802469111 0.12768772724150559 0 0.13848136883728299 0.14203914735535511 0 0.15698787762036359 0.14007723406829989 0 0.13848136883728299 0.14203914735535511 0 0.1441447949138806 0.1573716891147208 0 0.15698787762036359 0.14007723406829989 0 0.1441447949138806 0.1573716891147208 0 0.1598153361361678 0.15982657838785511 0 0.15698787762036359 0.14007723406829989 0 0.13848136883728299 0.14203914735535511 0 0.1262856736452258 0.1537478882528979 0 0.1441447949138806 0.1573716891147208 0 0.12756241452120801 0.13893694775055651 0 0.13848136883728299 0.14203914735535511 0 0.1262856736452258 0.1537478882528979 0 0.1262856736452258 0.1537478882528979 0 0.12954358324573961 0.16710623429112001 0 0.1441447949138806 0.1573716891147208 0 0.12954358324573961 0.16710623429112001 0 0.12550986450034471 0.186594373040398 0 0.15375492999850379 0.1814330523327968 0 0.12954358324573961 0.16710623429112001 0 0.15375492999850379 0.1814330523327968 0 0.1441447949138806 0.1573716891147208 0 0.15375492999850379 0.1814330523327968 0 0.1441447949138806 0.1573716891147208 0 0.1598153361361678 0.15982657838785511 0 0.1598153361361678 0.15982657838785511 0 0.17205847002769489 0.1711246398383999 0 0.17247097746626519 0.1464629757798975 0 0.15375492999850379 0.1814330523327968 0 0.1598153361361678 0.15982657838785511 0 0.17205847002769489 0.1711246398383999 0 0.15375492999850379 0.1814330523327968 0 0.17205847002769489 0.1711246398383999 0 0.18411838942066619 0.18828130780555291 0 0.17205847002769489 0.1711246398383999 0 0.18411838942066619 0.18828130780555291 0 0.19050902449260759 0.164433536692701 0 0.17205847002769489 0.1711246398383999 0 0.17247097746626519 0.1464629757798975 0 0.19050902449260759 0.164433536692701 0 0.17247097746626519 0.1464629757798975 0 0.1903693880120208 0.14015559280000461 0 0.19050902449260759 0.164433536692701 0 0.17247097746626519 0.1464629757798975 0 0.18002451345814399 0.12716596121819479 0 0.1903693880120208 0.14015559280000461 0 0.17247097746626519 0.1464629757798975 0 0.18002451345814399 0.12716596121819479 0 0.16417220099380411 0.12505127510387981 0 0.15698787762036359 0.14007723406829989 0 0.16417220099380411 0.12505127510387981 0 0.15364605026385231 0.1227496740475859 0 0.17247097746626519 0.1464629757798975 0 0.15698787762036359 0.14007723406829989 0 0.16417220099380411 0.12505127510387981 0 0.1598153361361678 0.15982657838785511 0 0.17247097746626519 0.1464629757798975 0 0.15698787762036359 0.14007723406829989 0 0.14702044576598061 0.2478904659134552 0 0.1382648444377183 0.22719855966067881 0 0.15828943790025421 0.22969507774947781 0 0.14702044576598061 0.2478904659134552 0 0.12787711237058769 0.24521089126939841 0 0.1382648444377183 0.22719855966067881 0 0.10906069526472741 0.22998953009969161 0 0.12787711237058769 0.24521089126939841 0 0.1382648444377183 0.22719855966067881 0 0.1382648444377183 0.22719855966067881 0 0.14314005341278749 0.20699853547660821 0 0.15828943790025421 0.22969507774947781 0 0.14314005341278749 0.20699853547660821 0 0.16852610903267151 0.206401884619904 0 0.11775399779290339 0.20759518633331239 0 0.1382648444377183 0.22719855966067881 0 0.14314005341278749 0.20699853547660821 0 0.11775399779290339 0.20759518633331239 0 0.14314005341278749 0.20699853547660821 0 0.11775399779290339 0.20759518633331239 0 0.12550986450034471 0.186594373040398 0 0.14314005341278749 0.20699853547660821 0 0.15375492999850379 0.1814330523327968 0 0.14314005341278749 0.20699853547660821 0 0.16852610903267151 0.206401884619904 0 0.12550986450034471 0.186594373040398 0 0.15375492999850379 0.1814330523327968 0 0.14314005341278749 0.20699853547660821 0 0.15375492999850379 0.1814330523327968 0 0.18411838942066619 0.18828130780555291 0 0.16852610903267151 0.206401884619904 0 0.18411838942066619 0.18828130780555291 0 0.16852610903267151 0.206401884619904 0 0.1878214256448299 0.20672411698152671 0 0.16852610903267151 0.206401884619904 0 0.17766068788986381 0.23020170431202469 0 0.1878214256448299 0.20672411698152671 0 0.14314005341278749 0.20699853547660821 0 0.16852610903267151 0.206401884619904 0 0.15828943790025421 0.22969507774947781 0 0.16852610903267151 0.206401884619904 0 0.15828943790025421 0.22969507774947781 0 0.17766068788986381 0.23020170431202469 0 0.17766068788986381 0.23020170431202469 0 0.19353513124668931 0.22246748781277501 0 0.1878214256448299 0.20672411698152671 0 0.17766068788986381 0.23020170431202469 0 0.18692125413578081 0.24552837502103991 0 0.19379669244916639 0.23440003217329089 0 0.17766068788986381 0.23020170431202469 0 0.18692125413578081 0.24552837502103991 0 0.16774616909827719 0.2460930353984315 0 0.15828943790025421 0.22969507774947781 0 0.17766068788986381 0.23020170431202469 0 0.16774616909827719 0.2460930353984315 0 0.14702044576598061 0.2478904659134552 0 0.15828943790025421 0.22969507774947781 0 0.16774616909827719 0.2460930353984315 0 0.21557305570370441 0.24515722135805329 0 0.2029257889591993 0.24295866219667439 0 0.23007231546290949 0.2334513308517342 0 0.2029257889591993 0.24295866219667439 0 0.23007231546290949 0.2334513308517342 0 0.21557305570370441 0.24515722135805329 0 0.2029257889591993 0.24295866219667439 0 0.20107379594449931 0.25686311186437227 0 0.18692125413578081 0.24552837502103991 0 0.2029257889591993 0.24295866219667439 0 0.20107379594449931 0.25686311186437227 0 0.18692125413578081 0.24552837502103991 0 0.19379669244916639 0.23440003217329089 0 0.2029257889591993 0.24295866219667439 0 0.17766068788986381 0.23020170431202469 0 0.19379669244916639 0.23440003217329089 0 0.19353513124668931 0.22246748781277501 0 0.19379669244916639 0.23440003217329089 0 0.2029257889591993 0.24295866219667439 0 0.20920449219815451 0.22515354045629349 0 0.19379669244916639 0.23440003217329089 0 0.19353513124668931 0.22246748781277501 0 0.20920449219815451 0.22515354045629349 0 0.2029257889591993 0.24295866219667439 0 0.20920449219815451 0.22515354045629349 0 0.23007231546290949 0.2334513308517342 0 0.19353513124668931 0.22246748781277501 0 0.20920449219815451 0.22515354045629349 0 0.20732414099141369 0.20672295990195361 0 0.20920449219815451 0.22515354045629349 0 0.20732414099141369 0.20672295990195361 0 0.22783619495118521 0.20973527166224001 0 0.19353513124668931 0.22246748781277501 0 0.20732414099141369 0.20672295990195361 0 0.1878214256448299 0.20672411698152671 0 0.18411838942066619 0.18828130780555291 0 0.1878214256448299 0.20672411698152671 0 0.20343121377691101 0.18825927067945539 0 0.20732414099141369 0.20672295990195361 0 0.1878214256448299 0.20672411698152671 0 0.20343121377691101 0.18825927067945539 0 0.20732414099141369 0.20672295990195361 0 0.20343121377691101 0.18825927067945539 0 0.2219787971027708 0.18678942035429349 0 0.20732414099141369 0.20672295990195361 0 0.22783619495118521 0.20973527166224001 0 0.2219787971027708 0.18678942035429349 0 0.24528107816237801 0.1907036486386274 0 0.22783619495118521 0.20973527166224001 0 0.2219787971027708 0.18678942035429349 0 0.24528107816237801 0.1907036486386274 0 0.25242827713160498 0.21540237912569379 0 0.24528107816237801 0.1907036486386274 0 0.22783619495118521 0.20973527166224001 0 0.25242827713160498 0.21540237912569379 0 0.20920449219815451 0.22515354045629349 0 0.22783619495118521 0.20973527166224001 0 0.23007231546290949 0.2334513308517342 0 0.23007231546290949 0.2334513308517342 0 0.25242827713160498 0.21540237912569379 0 0.23007231546290949 0.2334513308517342 0 0.25511338863332461 0.22468137717712711 0 0.25242827713160498 0.21540237912569379 0 0.23007231546290949 0.2334513308517342 0 0.25511338863332461 0.22468137717712711 0 0.23007231546290949 0.2334513308517342 0 0.2457442494512444 0.24022391879071339 0 0.25511338863332461 0.22468137717712711 0 0.22783619495118521 0.20973527166224001 0 0.23007231546290949 0.2334513308517342 0 0.25242827713160498 0.21540237912569379 0 0.2457442494512444 0.24022391879071339 0 0.23628031136540401 0.25597328662156199 0 0.26221447651104962 0.2479993693513689 0 0.23007231546290949 0.2334513308517342 0 0.2457442494512444 0.24022391879071339 0 0.23628031136540401 0.25597328662156199 0 0.21557305570370441 0.24515722135805329 0 0.23007231546290949 0.2334513308517342 0 0.23628031136540401 0.25597328662156199 0 0.21557305570370441 0.24515722135805329 0 0.23007231546290949 0.2334513308517342 0 0.21023583046185859 0.14706018503428281 0 0.22521494488481819 0.12557893006429149 0 0.2001236667938262 0.1180422718546187 0 0.18002451345814399 0.12716596121819479 0 0.1903693880120208 0.14015559280000461 0 0.2001236667938262 0.1180422718546187 0 0.21023583046185859 0.14706018503428281 0 0.1903693880120208 0.14015559280000461 0 0.2001236667938262 0.1180422718546187 0 0.21023583046185859 0.14706018503428281 0 0.1903693880120208 0.14015559280000461 0 0.19050902449260759 0.164433536692701 0 0.18411838942066619 0.18828130780555291 0 0.20343121377691101 0.18825927067945539 0 0.19050902449260759 0.164433536692701 0 0.20343121377691101 0.18825927067945539 0 0.19050902449260759 0.164433536692701 0 0.20962662881846919 0.1707346457134423 0 0.20343121377691101 0.18825927067945539 0 0.20962662881846919 0.1707346457134423 0 0.2219787971027708 0.18678942035429349 0 0.21023583046185859 0.14706018503428281 0 0.20962662881846919 0.1707346457134423 0 0.2254160648188453 0.164078398330023 0 0.21023583046185859 0.14706018503428281 0 0.19050902449260759 0.164433536692701 0 0.20962662881846919 0.1707346457134423 0 0.20962662881846919 0.1707346457134423 0 0.2254160648188453 0.164078398330023 0 0.2219787971027708 0.18678942035429349 0 0.2254160648188453 0.164078398330023 0 0.2219787971027708 0.18678942035429349 0 0.23714843650665229 0.1758398884969993 0 0.24528107816237801 0.1907036486386274 0 0.2219787971027708 0.18678942035429349 0 0.23714843650665229 0.1758398884969993 0 0.24528107816237801 0.1907036486386274 0 0.23714843650665229 0.1758398884969993 0 0.25292738168467233 0.17649485219682931 0 0.2254160648188453 0.164078398330023 0 0.24653130607993951 0.16237692388552691 0 0.23688534306575301 0.1458043597726891 0 0.23714843650665229 0.1758398884969993 0 0.24653130607993951 0.16237692388552691 0 0.25292738168467233 0.17649485219682931 0 0.2254160648188453 0.164078398330023 0 0.23714843650665229 0.1758398884969993 0 0.24653130607993951 0.16237692388552691 0 0.24653130607993951 0.16237692388552691 0 0.2496536413094039 0.15044712256699261 0 0.23688534306575301 0.1458043597726891 0 0.2496536413094039 0.15044712256699261 0 0.23688534306575301 0.1458043597726891 0 0.25004344172447263 0.14019424959050239 0 0.21023583046185859 0.14706018503428281 0 0.2254160648188453 0.164078398330023 0 0.23688534306575301 0.1458043597726891 0 0.21023583046185859 0.14706018503428281 0 0.23688534306575301 0.1458043597726891 0 0.22521494488481819 0.12557893006429149 0 0.22521494488481819 0.12557893006429149 0 0.25030622297580962 0.13311558827396619 0 0.23688534306575301 0.1458043597726891 0 0.22521494488481819 0.12557893006429149 0 0.25030622297580962 0.13311558827396619 0 0.23688534306575301 0.1458043597726891 0 0.25004344172447263 0.14019424959050239 0 0.25030622297580962 0.13311558827396619 0 0.22521494488481819 0.12557893006429149 0 0.2369469616243938 0.1144798656387125 0 0.25030622297580962 0.13311558827396619 0 0.2369469616243938 0.1144798656387125 0 0.25094552198087999 0.11589449234768209 0 0.25030622297580962 0.13311558827396619 0 0.2369469616243938 0.1144798656387125 0 0.25158482098595109 0.098673396421397969 0 0.25094552198087999 0.11589449234768209 0 0.2369469616243938 0.1144798656387125 0 0.2308580048349978 0.09939168424622695 0 0.25158482098595109 0.098673396421397969 0 0.2308580048349978 0.09939168424622695 0 0.2177667053289645 0.10879872465146249 0 0.21723881235993189 0.092441087960636145 0 0.2369469616243938 0.1144798656387125 0 0.2308580048349978 0.09939168424622695 0 0.2177667053289645 0.10879872465146249 0 0.22521494488481819 0.12557893006429149 0 0.2369469616243938 0.1144798656387125 0 0.2177667053289645 0.10879872465146249 0 0.2177667053289645 0.10879872465146249 0 0.1970849337058638 0.1019164286603922 0 0.2001236667938262 0.1180422718546187 0 0.22521494488481819 0.12557893006429149 0 0.2177667053289645 0.10879872465146249 0 0.2001236667938262 0.1180422718546187 0 0.22521494488481819 0.12557893006429149 0 0.2001236667938262 0.1180422718546187 0 0.1970849337058638 0.1019164286603922 0 0.20420713705815571 0.090978010823124941 0 0.21723881235993189 0.092441087960636145 0 0.1970849337058638 0.1019164286603922 0 0.21723881235993189 0.092441087960636145 0 0.2177667053289645 0.10879872465146249 0 0.1970849337058638 0.1019164286603922 0 0.21723881235993189 0.092441087960636145 0 0.1970849337058638 0.1019164286603922 0 0.1916307843626972 0.08827444688259839 0 0.17503238870283441 0.11050561364494491 0 0.2001236667938262 0.1180422718546187 0 0.17503238870283441 0.11050561364494491 0 0.1970849337058638 0.1019164286603922 0 0.2001236667938262 0.1180422718546187 0 0.17503238870283441 0.11050561364494491 0 0.1916307843626972 0.08827444688259839 0 0.2082291800225603 0.066043280120252124 0 0.19067723801237901 0.065525043857756982 0 0.1916307843626972 0.08827444688259839 0 0.2082291800225603 0.066043280120252124 0 0.1916307843626972 0.08827444688259839 0 0.21087401780412959 0.081280079788873041 0 0.20420713705815571 0.090978010823124941 0 0.1970849337058638 0.1019164286603922 0 0.1916307843626972 0.08827444688259839 0 0.20420713705815571 0.090978010823124941 0 0.1916307843626972 0.08827444688259839 0 0.21087401780412959 0.081280079788873041 0 0.2082291800225603 0.066043280120252124 0 0.21087401780412959 0.081280079788873041 0 0.20420713705815571 0.090978010823124941 0 0.21723881235993189 0.092441087960636145 0 0.21087401780412959 0.081280079788873041 0 0.21723881235993189 0.092441087960636145 0 0.22613356481757629 0.0775902723280468 0 0.21087401780412959 0.081280079788873041 0 0.2082291800225603 0.066043280120252124 0 0.22613356481757629 0.0775902723280468 0 0.2082291800225603 0.066043280120252124 0 0.22613356481757629 0.0775902723280468 0 0.2082291800225603 0.066043280120252124 0 0.2259496113806885 0.070300708218039992 0 0.21450653174737461 0.057635669175196122 0 0.2259496113806885 0.070300708218039992 0 0.21450653174737461 0.057635669175196122 0 0.2082291800225603 0.066043280120252124 0 0.2259496113806885 0.070300708218039992 0 0.22613356481757629 0.0775902723280468 0 0.2259496113806885 0.070300708218039992 0 0.2248665156508784 0.061611733455129589 0 0.21450653174737461 0.057635669175196122 0 0.2259496113806885 0.070300708218039992 0 0.22613356481757629 0.0775902723280468 0 0.23739269101400209 0.082965747260884265 0 0.2259496113806885 0.070300708218039992 0 0.23739269101400209 0.082965747260884265 0 0.237967452106535 0.070105640596903412 0 0.2259496113806885 0.070300708218039992 0 0.23739269101400209 0.082965747260884265 0 0.2259496113806885 0.070300708218039992 0 0.2330718446673557 0.064441819436705627 0 0.2248665156508784 0.061611733455129589 0 0.2259496113806885 0.070300708218039992 0 0.2330718446673557 0.064441819436705627 0 0.237967452106535 0.070105640596903412 0 0.2308580048349978 0.09939168424622695 0 0.21723881235993189 0.092441087960636145 0 0.23739269101400209 0.082965747260884265 0 0.21723881235993189 0.092441087960636145 0 0.22613356481757629 0.0775902723280468 0 0.23739269101400209 0.082965747260884265 0 0.21723881235993189 0.092441087960636145 0 0.23739269101400209 0.082965747260884265 0 0.23739269101400209 0.082965747260884265 0 0.25158482098595109 0.098673396421397969 0 0.23739269101400209 0.082965747260884265 0 0.25243039498113262 0.075895774732197205 0 0.25158482098595109 0.098673396421397969 0 0.2308580048349978 0.09939168424622695 0 0.23739269101400209 0.082965747260884265 0 0.25158482098595109 0.098673396421397969 0 0.23739269101400209 0.082965747260884265 0 0.25243039498113262 0.075895774732197205 0 0.23934469018649959 0.064583282500140851 0 0.237967452106535 0.070105640596903412 0 0.24496427956833819 0.066036472520138348 0 0.2330718446673557 0.064441819436705627 0 0.23934469018649959 0.064583282500140851 0 0.2376257901407148 0.059976102198904507 0 0.2330718446673557 0.064441819436705627 0 0.23934469018649959 0.064583282500140851 0 0.237967452106535 0.070105640596903412 0 0.23739269101400209 0.082965747260884265 0 0.237967452106535 0.070105640596903412 0 0.24429048066179679 0.072622021298478806 0 0.24429048066179679 0.072622021298478806 0 0.24842415088314279 0.069033451464499671 0 0.25243039498113262 0.075895774732197205 0 0.23739269101400209 0.082965747260884265 0 0.24429048066179679 0.072622021298478806 0 0.25243039498113262 0.075895774732197205 0 0.24842415088314279 0.069033451464499671 0 0.24853219730195361 0.063845178725116872 0 0.25274476311700622 0.067427493409812952 0 0.237967452106535 0.070105640596903412 0 0.24429048066179679 0.072622021298478806 0 0.24496427956833819 0.066036472520138348 0 0.24429048066179679 0.072622021298478806 0 0.24842415088314279 0.069033451464499671 0 0.24496427956833819 0.066036472520138348 0 0.23934469018649959 0.064583282500140851 0 0.24496427956833819 0.066036472520138348 0 0.24309408444955441 0.062356377748052388 0 0.24496427956833819 0.066036472520138348 0 0.24602681454492631 0.062964227281045088 0 0.24309408444955441 0.062356377748052388 0 0.24496427956833819 0.066036472520138348 0 0.24602681454492631 0.062964227281045088 0 0.24853219730195361 0.063845178725116872 0 0.24842415088314279 0.069033451464499671 0 0.24496427956833819 0.066036472520138348 0 0.24853219730195361 0.063845178725116872 0 0.24751669685985911 0.059618880130872708 0 0.24309408444955441 0.062356377748052388 0 0.2376257901407148 0.059976102198904507 0 0.24751669685985911 0.059618880130872708 0 0.24426241142214139 0.049994713685017962 0 0.2310385276818335 0.053106641608170198 0 0.24751669685985911 0.059618880130872708 0 0.2376257901407148 0.059976102198904507 0 0.2310385276818335 0.053106641608170198 0 0.24751669685985911 0.059618880130872708 0 0.2310385276818335 0.053106641608170198 0 0.24853219730195361 0.063845178725116872 0 0.24751669685985911 0.059618880130872708 0 0.2530174900015254 0.0600809219264858 0 0.24602681454492631 0.062964227281045088 0 0.24853219730195361 0.063845178725116872 0 0.24751669685985911 0.059618880130872708 0 0.24602681454492631 0.062964227281045088 0 0.24751669685985911 0.059618880130872708 0 0.24309408444955441 0.062356377748052388 0 0.23934469018649959 0.064583282500140851 0 0.24309408444955441 0.062356377748052388 0 0.2376257901407148 0.059976102198904507 0 0.24426241142214139 0.049994713685017962 0 0.23928634064401511 0.040096757013566242 0 0.2310385276818335 0.053106641608170198 0 0.24751669685985911 0.059618880130872708 0 0.24426241142214139 0.049994713685017962 0 0.25102243244437311 0.053297338652025752 0 0.24426241142214139 0.049994713685017962 0 0.25174039047255609 0.044464402284776217 0 0.25102243244437311 0.053297338652025752 0 0.23928634064401511 0.040096757013566242 0 0.2320502206633881 0.021165953515508481 0 0.25044211127373811 0.032849993626191502 0 0.23928634064401511 0.040096757013566242 0 0.25044211127373811 0.032849993626191502 0 0.25174039047255609 0.044464402284776217 0 0.24426241142214139 0.049994713685017962 0 0.23928634064401511 0.040096757013566242 0 0.25174039047255609 0.044464402284776217 0 0.22618438235043381 0.038998837361733103 0 0.2320502206633881 0.021165953515508481 0 0.20963369093729961 0.03941564640516447 0 0.23928634064401511 0.040096757013566242 0 0.22618438235043381 0.038998837361733103 0 0.2320502206633881 0.021165953515508481 0 0.22618438235043381 0.038998837361733103 0 0.2310385276818335 0.053106641608170198 0 0.21456035850380811 0.046594403085467223 0 0.23928634064401511 0.040096757013566242 0 0.22618438235043381 0.038998837361733103 0 0.2310385276818335 0.053106641608170198 0 0.2310385276818335 0.053106641608170198 0 0.21456035850380811 0.046594403085467223 0 0.2248665156508784 0.061611733455129589 0 0.2310385276818335 0.053106641608170198 0 0.21456035850380811 0.046594403085467223 0 0.2248665156508784 0.061611733455129589 0 0.21456035850380811 0.046594403085467223 0 0.2330718446673557 0.064441819436705627 0 0.2248665156508784 0.061611733455129589 0 0.23150027442910881 0.059501590197602497 0 0.2248665156508784 0.061611733455129589 0 0.23150027442910881 0.059501590197602497 0 0.2310385276818335 0.053106641608170198 0 0.2330718446673557 0.064441819436705627 0 0.2376257901407148 0.059976102198904507 0 0.23150027442910881 0.059501590197602497 0 0.2376257901407148 0.059976102198904507 0 0.23150027442910881 0.059501590197602497 0 0.2310385276818335 0.053106641608170198 0 0.2320502206633881 0.021165953515508481 0 0.22999165343287109 0.0038227322559807589 0 0.25446675038947358 0.0029162606258486688 0 0.2320502206633881 0.021165953515508481 0 0.2600935707136679 0.019574361616358959 0 0.25446675038947358 0.0029162606258486688 0 0.22999165343287109 0.0038227322559807589 0 0.25446675038947358 0.0029162606258486688 0 0.24138147174972829 -0.0061427828714447699 0 0.2320502206633881 0.021165953515508481 0 0.25446675038947358 0.0029162606258486688 0 0.2320502206633881 0.021165953515508481 0 0.2600935707136679 0.019574361616358959 0 0.25044211127373811 0.032849993626191502 0 0.2320502206633881 0.021165953515508481 0 0.20963369093729961 0.03941564640516447 0 0.22999165343287109 0.0038227322559807589 0 0.21340461703840111 0.0096506044731711187 0 0.21351355446813719 -0.0021103410187178909 0 0.2320502206633881 0.021165953515508481 0 0.22999165343287109 0.0038227322559807589 0 0.21340461703840111 0.0096506044731711187 0 0.21340461703840111 0.0096506044731711187 0 0.1998105265397013 0.00335350757378736 0 0.21351355446813719 -0.0021103410187178909 0 0.21340461703840111 0.0096506044731711187 0 0.20371525389429951 0.01279949030761077 0 0.2082588668535221 0.02245160931237615 0 0.21340461703840111 0.0096506044731711187 0 0.20371525389429951 0.01279949030761077 0 0.1998105265397013 0.00335350757378736 0 0.2320502206633881 0.021165953515508481 0 0.2082588668535221 0.02245160931237615 0 0.20963369093729961 0.03941564640516447 0 0.2320502206633881 0.021165953515508481 0 0.21340461703840111 0.0096506044731711187 0 0.2082588668535221 0.02245160931237615 0 0.2082588668535221 0.02245160931237615 0 0.19338700514557339 0.015742239871108451 0 0.20963369093729961 0.03941564640516447 0 0.19338700514557339 0.015742239871108451 0 0.1989601287501698 0.040429129743079398 0 0.18048502430789731 0.01998114488410483 0 0.1989601287501698 0.040429129743079398 0 0.18048502430789731 0.01998114488410483 0 0.19338700514557339 0.015742239871108451 0 0.20963369093729961 0.03941564640516447 0 0.20371525389429951 0.01279949030761077 0 0.2082588668535221 0.02245160931237615 0 0.19338700514557339 0.015742239871108451 0 0.19338700514557339 0.015742239871108451 0 0.1998105265397013 0.00335350757378736 0 0.17714031935384769 -0.0079311666629475405 0 0.20371525389429951 0.01279949030761077 0 0.19338700514557339 0.015742239871108451 0 0.1998105265397013 0.00335350757378736 0 0.21450653174737461 0.057635669175196122 0 0.2029561920580818 0.044851916216142339 0 0.21450653174737461 0.057635669175196122 0 0.2029561920580818 0.044851916216142339 0 0.2021088015620611 0.053433964061651712 0 0.21450653174737461 0.057635669175196122 0 0.21456035850380811 0.046594403085467223 0 0.2029561920580818 0.044851916216142339 0 0.2082291800225603 0.066043280120252124 0 0.21450653174737461 0.057635669175196122 0 0.2021088015620611 0.053433964061651712 0 0.2248665156508784 0.061611733455129589 0 0.21450653174737461 0.057635669175196122 0 0.21456035850380811 0.046594403085467223 0 0.2082291800225603 0.066043280120252124 0 0.21450653174737461 0.057635669175196122 0 0.22618438235043381 0.038998837361733103 0 0.21456035850380811 0.046594403085467223 0 0.20963369093729961 0.03941564640516447 0 0.21456035850380811 0.046594403085467223 0 0.20963369093729961 0.03941564640516447 0 0.21456035850380811 0.046594403085467223 0 0.20530753189452691 0.042937648913457381 0 0.2029561920580818 0.044851916216142339 0 0.20963369093729961 0.03941564640516447 0 0.20530753189452691 0.042937648913457381 0 0.1989601287501698 0.040429129743079398 0 0.21456035850380811 0.046594403085467223 0 0.20530753189452691 0.042937648913457381 0 0.21456035850380811 0.046594403085467223 0 0.20963369093729961 0.03941564640516447 0 0.20530753189452691 0.042937648913457381 0 0.20963369093729961 0.03941564640516447 0 0.20530753189452691 0.042937648913457381 0 0.20530753189452691 0.042937648913457381 0 0.2029561920580818 0.044851916216142339 0 0.1989601287501698 0.040429129743079398 0 0.1774654858828027 0.031934360706524292 0 0.2029561920580818 0.044851916216142339 0 0.1989601287501698 0.040429129743079398 0 0.19971656766465989 0.047489351670260083 0 0.1989601287501698 0.040429129743079398 0 0.19133087755196571 0.045131483978966998 0 0.19971656766465989 0.047489351670260083 0 0.2029561920580818 0.044851916216142339 0 0.19971656766465989 0.047489351670260083 0 0.19338700514557339 0.015742239871108451 0 0.20963369093729961 0.03941564640516447 0 0.1989601287501698 0.040429129743079398 0 0.1989601287501698 0.040429129743079398 0 0.19133087755196571 0.045131483978966998 0 0.18298678422305309 0.040980100737508622 0 0.20530753189452691 0.042937648913457381 0 0.2029561920580818 0.044851916216142339 0 0.1989601287501698 0.040429129743079398 0 0.20530753189452691 0.042937648913457381 0 0.1989601287501698 0.040429129743079398 0 0.2029561920580818 0.044851916216142339 0 0.1989601287501698 0.040429129743079398 0 0.2082291800225603 0.066043280120252124 0 0.18513553631762919 0.051149603126408108 0 0.2021088015620611 0.053433964061651712 0 0.19971656766465989 0.047489351670260083 0 0.18513553631762919 0.051149603126408108 0 0.2082291800225603 0.066043280120252124 0 0.2021088015620611 0.053433964061651712 0 0.18513553631762919 0.051149603126408108 0 0.19067723801237901 0.065525043857756982 0 0.2082291800225603 0.066043280120252124 0 0.18513553631762919 0.051149603126408108 0 0.19133087755196571 0.045131483978966998 0 0.19971656766465989 0.047489351670260083 0 0.18513553631762919 0.051149603126408108 0 0.2029561920580818 0.044851916216142339 0 0.2021088015620611 0.053433964061651712 0 0.19971656766465989 0.047489351670260083 0 0.17734631865053521 0.060730067185729229 0 0.18513553631762919 0.051149603126408108 0 0.16725106424272049 0.052894846580172288 0 0.19067723801237901 0.065525043857756982 0 0.17734631865053521 0.060730067185729229 0 0.18513553631762919 0.051149603126408108 0 0.18298678422305309 0.040980100737508622 0 0.1774654858828027 0.031934360706524292 0 0.1620418926126978 0.036255926132564682 0 0.19133087755196571 0.045131483978966998 0 0.18513553631762919 0.051149603126408108 0 0.18298678422305309 0.040980100737508622 0 0.18513553631762919 0.051149603126408108 0 0.18298678422305309 0.040980100737508622 0 0.1620418926126978 0.036255926132564682 0 0.1989601287501698 0.040429129743079398 0 0.18298678422305309 0.040980100737508622 0 0.1774654858828027 0.031934360706524292 0 0.18513553631762919 0.051149603126408108 0 0.1620418926126978 0.036255926132564682 0 0.1620418926126978 0.036255926132564682 0 0.16725106424272049 0.052894846580172288 0 0.15541952745182569 0.04677658384696623 0 0.18513553631762919 0.051149603126408108 0 0.1620418926126978 0.036255926132564682 0 0.16725106424272049 0.052894846580172288 0 0.16725106424272049 0.052894846580172288 0 0.15507694825043991 0.057889849327421902 0 0.15541952745182569 0.04677658384696623 0 0.16725106424272049 0.052894846580172288 0 0.15507694825043991 0.057889849327421902 0 0.1653937448538241 0.067538194789913991 0 0.17734631865053521 0.060730067185729229 0 0.16725106424272049 0.052894846580172288 0 0.1653937448538241 0.067538194789913991 0 0.18048502430789731 0.01998114488410483 0 0.1657030786406338 0.0084270166623369204 0 0.17714031935384769 -0.0079311666629475405 0 0.19338700514557339 0.015742239871108451 0 0.17714031935384769 -0.0079311666629475405 0 0.19338700514557339 0.015742239871108451 0 0.18048502430789731 0.01998114488410483 0 0.17714031935384769 -0.0079311666629475405 0 0.1989601287501698 0.040429129743079398 0 0.1774654858828027 0.031934360706524292 0 0.18048502430789731 0.01998114488410483 0 0.1774654858828027 0.031934360706524292 0 0.18048502430789731 0.01998114488410483 0 0.16935520337559401 0.020657770454092759 0 0.1774654858828027 0.031934360706524292 0 0.15597084301543529 0.02343959166996953 0 0.1774654858828027 0.031934360706524292 0 0.1620418926126978 0.036255926132564682 0 0.15597084301543529 0.02343959166996953 0 0.1774654858828027 0.031934360706524292 0 0.16935520337559401 0.020657770454092759 0 0.15597084301543529 0.02343959166996953 0 0.16935520337559401 0.020657770454092759 0 0.1657030786406338 0.0084270166623369204 0 0.15597084301543529 0.02343959166996953 0 0.18048502430789731 0.01998114488410483 0 0.16935520337559401 0.020657770454092759 0 0.1657030786406338 0.0084270166623369204 0 0.1657030786406338 0.0084270166623369204 0 0.14883794818754281 0.01110572894874149 0 0.15480995508657039 -0.001084596553268768 0 0.1657030786406338 0.0084270166623369204 0 0.14883794818754281 0.01110572894874149 0 0.15597084301543529 0.02343959166996953 0 0.14883794818754281 0.01110572894874149 0 0.13464870039648349 0.00080453217212592717 0 0.15480995508657039 -0.001084596553268768 0 0.14883794818754281 0.01110572894874149 0 0.13894824890776639 0.02136224913872127 0 0.13464870039648349 0.00080453217212592717 0 0.1620418926126978 0.036255926132564682 0 0.13894824890776639 0.02136224913872127 0 0.14883794818754281 0.01110572894874149 0 0.15597084301543529 0.02343959166996953 0 0.13894824890776639 0.02136224913872127 0 0.1620418926126978 0.036255926132564682 0 0.15597084301543529 0.02343959166996953 0 0.13894824890776639 0.02136224913872127 0 0.11961069471150609 0.02296590295220987 0 0.13894824890776639 0.02136224913872127 0 0.12977361784467401 0.039215218793308727 0 0.1158546052028349 0.0064685721448778594 0 0.13894824890776639 0.02136224913872127 0 0.1158546052028349 0.0064685721448778594 0 0.13894824890776639 0.02136224913872127 0 0.13464870039648349 0.00080453217212592717 0 0.14278372382386809 0.048416123664777412 0 0.1428601767931531 0.062084067640591357 0 0.15507694825043991 0.057889849327421902 0 0.14278372382386809 0.048416123664777412 0 0.15507694825043991 0.057889849327421902 0 0.15541952745182569 0.04677658384696623 0 0.1620418926126978 0.036255926132564682 0 0.13894824890776639 0.02136224913872127 0 0.14579340212816641 0.038405220315267663 0 0.1620418926126978 0.036255926132564682 0 0.15541952745182569 0.04677658384696623 0 0.14579340212816641 0.038405220315267663 0 0.14278372382386809 0.048416123664777412 0 0.15541952745182569 0.04677658384696623 0 0.14579340212816641 0.038405220315267663 0 0.14278372382386809 0.048416123664777412 0 0.14579340212816641 0.038405220315267663 0 0.12977361784467401 0.039215218793308727 0 0.13894824890776639 0.02136224913872127 0 0.14579340212816641 0.038405220315267663 0 0.12977361784467401 0.039215218793308727 0 0.11550376979223601 0.054551475820320147 0 0.12977361784467401 0.039215218793308727 0 0.1326943019686847 0.054606112458038862 0 0.11550376979223601 0.054551475820320147 0 0.1326943019686847 0.054606112458038862 0 0.13255022158949201 0.068763676371196639 0 0.14278372382386809 0.048416123664777412 0 0.12977361784467401 0.039215218793308727 0 0.1326943019686847 0.054606112458038862 0 0.14278372382386809 0.048416123664777412 0 0.1428601767931531 0.062084067640591357 0 0.1326943019686847 0.054606112458038862 0 0.1428601767931531 0.062084067640591357 0 0.1326943019686847 0.054606112458038862 0 0.13255022158949201 0.068763676371196639 0 0.1207366242219714 0.074251990558816788 0 0.13255022158949201 0.068763676371196639 0 0.13578085374332971 0.077614708003019631 0 0.13255022158949201 0.068763676371196639 0 0.13578085374332971 0.077614708003019631 0 0.1430759120552613 0.073085192731263071 0 0.1428601767931531 0.062084067640591357 0 0.13255022158949201 0.068763676371196639 0 0.1430759120552613 0.073085192731263071 0 0.1428601767931531 0.062084067640591357 0 0.1430759120552613 0.073085192731263071 0 0.15260580868734391 0.069203578475014266 0 0.1430759120552613 0.073085192731263071 0 0.14969883640752091 0.076610515579137797 0 0.14563192422462459 0.083183778073064013 0 0.13578085374332971 0.077614708003019631 0 0.1430759120552613 0.073085192731263071 0 0.14563192422462459 0.083183778073064013 0 0.1430759120552613 0.073085192731263071 0 0.14969883640752091 0.076610515579137797 0 0.15260580868734391 0.069203578475014266 0 0.14969883640752091 0.076610515579137797 0 0.15260580868734391 0.069203578475014266 0 0.15677919641446331 0.080277826610221981 0 0.1428601767931531 0.062084067640591357 0 0.15507694825043991 0.057889849327421902 0 0.15260580868734391 0.069203578475014266 0 0.1506819444987289 0.088437751930635633 0 0.14868901735932749 0.09586058707093438 0 0.157853861938485 0.092527754269896317 0 0.1506819444987289 0.088437751930635633 0 0.15677919641446331 0.080277826610221981 0 0.157853861938485 0.092527754269896317 0 0.14969883640752091 0.076610515579137797 0 0.14563192422462459 0.083183778073064013 0 0.15677919641446331 0.080277826610221981 0 0.1506819444987289 0.088437751930635633 0 0.14563192422462459 0.083183778073064013 0 0.15677919641446331 0.080277826610221981 0 0.14563192422462459 0.083183778073064013 0 0.1444557225567443 0.090338813629061501 0 0.13888671887288589 0.088270852986767859 0 0.1506819444987289 0.088437751930635633 0 0.14563192422462459 0.083183778073064013 0 0.1444557225567443 0.090338813629061501 0 0.1444557225567443 0.090338813629061501 0 0.14209274384079601 0.094639397504520467 0 0.14868901735932749 0.09586058707093438 0 0.1506819444987289 0.088437751930635633 0 0.1444557225567443 0.090338813629061501 0 0.14868901735932749 0.09586058707093438 0 0.1444557225567443 0.090338813629061501 0 0.13888671887288589 0.088270852986767859 0 0.14209274384079601 0.094639397504520467 0 0.13888671887288589 0.088270852986767859 0 0.13668050292917741 0.098217611464673699 0 0.14209274384079601 0.094639397504520467 0 0.13888671887288589 0.088270852986767859 0 0.1300820653953097 0.084166932106396392 0 0.13668050292917741 0.098217611464673699 0 0.11116449005577619 0.086473750785835857 0 0.1300820653953097 0.084166932106396392 0 0.13668050292917741 0.098217611464673699 0 0.13578085374332971 0.077614708003019631 0 0.13888671887288589 0.088270852986767859 0 0.1300820653953097 0.084166932106396392 0 0.13578085374332971 0.077614708003019631 0 0.14563192422462459 0.083183778073064013 0 0.13888671887288589 0.088270852986767859 0 0.1207366242219714 0.074251990558816788 0 0.13578085374332971 0.077614708003019631 0 0.1300820653953097 0.084166932106396392 0 0.1216961693062274 0.1020981758197984 0 0.1302764983332621 0.10693497851168419 0 0.13668050292917741 0.098217611464673699 0 0.1302764983332621 0.10693497851168419 0 0.13758713408363871 0.1043360441680015 0 0.13668050292917741 0.098217611464673699 0 0.1302764983332621 0.10693497851168419 0 0.1360833458267342 0.1084620534226548 0 0.13758713408363871 0.1043360441680015 0 0.1360833458267342 0.1084620534226548 0 0.13758713408363871 0.1043360441680015 0 0.14314356584317489 0.10755645506983 0 0.13758713408363871 0.1043360441680015 0 0.13668050292917741 0.098217611464673699 0 0.14175175748584509 0.1005091223711649 0 0.13668050292917741 0.098217611464673699 0 0.14209274384079601 0.094639397504520467 0 0.14175175748584509 0.1005091223711649 0 0.12813823657366311 0.12049833089676459 0 0.13246275659848361 0.1130811342378658 0 0.13708322035591489 0.118794437000363 0 0.12212988809696081 0.1249307776834532 0 0.12788127083107459 0.1291064789800366 0 0.12813823657366311 0.12049833089676459 0 0.1197878353292403 0.1092484053650479 0 0.1302764983332621 0.10693497851168419 0 0.12624189261331301 0.1140678077034443 0 0.12813823657366311 0.12049833089676459 0 0.12624189261331301 0.1140678077034443 0 0.13246275659848361 0.1130811342378658 0 0.1302764983332621 0.10693497851168419 0 0.12624189261331301 0.1140678077034443 0 0.13246275659848361 0.1130811342378658 0 0.138866780176991 0.11235807520418389 0 0.13708322035591489 0.118794437000363 0 0.14572099158606311 0.1154247658161887 0 0.1360833458267342 0.1084620534226548 0 0.13246275659848361 0.1130811342378658 0 0.138866780176991 0.11235807520418389 0 0.1302764983332621 0.10693497851168419 0 0.1360833458267342 0.1084620534226548 0 0.13246275659848361 0.1130811342378658 0 0.1360833458267342 0.1084620534226548 0 0.138866780176991 0.11235807520418389 0 0.14314356584317489 0.10755645506983 0 0.13246275659848361 0.1130811342378658 0 0.138866780176991 0.11235807520418389 0 0.13708322035591489 0.118794437000363 0 0.13409394305489639 0.1257339851238449 0 0.14295710802469111 0.12768772724150559 0 0.13708322035591489 0.118794437000363 0 0.13409394305489639 0.1257339851238449 0 0.12813823657366311 0.12049833089676459 0 0.13708322035591489 0.118794437000363 0 0.14572099158606311 0.1154247658161887 0 0.15364605026385231 0.1227496740475859 0 0.15839207309433961 0.10550736800805539 0 0.14295710802469111 0.12768772724150559 0 0.13708322035591489 0.118794437000363 0 0.14572099158606311 0.1154247658161887 0 0.14295710802469111 0.12768772724150559 0 0.14572099158606311 0.1154247658161887 0 0.15364605026385231 0.1227496740475859 0 0.138866780176991 0.11235807520418389 0 0.14572099158606311 0.1154247658161887 0 0.14314356584317489 0.10755645506983 0 0.14572099158606311 0.1154247658161887 0 0.14314356584317489 0.10755645506983 0 0.15839207309433961 0.10550736800805539 0 0.14175175748584509 0.1005091223711649 0 0.15839207309433961 0.10550736800805539 0 0.14175175748584509 0.1005091223711649 0 0.14314356584317489 0.10755645506983 0 0.15839207309433961 0.10550736800805539 0 0.14175175748584509 0.1005091223711649 0 0.14868901735932749 0.09586058707093438 0 0.15839207309433961 0.10550736800805539 0 0.14209274384079601 0.094639397504520467 0 0.14175175748584509 0.1005091223711649 0 0.14868901735932749 0.09586058707093438 0 0.13758713408363871 0.1043360441680015 0 0.14175175748584509 0.1005091223711649 0 0.14314356584317489 0.10755645506983 0 0.14868901735932749 0.09586058707093438 0 0.15839207309433961 0.10550736800805539 0 0.157853861938485 0.092527754269896317 0 0.15839207309433961 0.10550736800805539 0 0.17503238870283441 0.11050561364494491 0 0.15839207309433961 0.10550736800805539 0 0.1705578526620479 0.095927182961129481 0 0.157853861938485 0.092527754269896317 0 0.15839207309433961 0.10550736800805539 0 0.1705578526620479 0.095927182961129481 0 0.17503238870283441 0.11050561364494491 0 0.16417220099380411 0.12505127510387981 0 0.15839207309433961 0.10550736800805539 0 0.17503238870283441 0.11050561364494491 0 0.16417220099380411 0.12505127510387981 0 0.15364605026385231 0.1227496740475859 0 0.15839207309433961 0.10550736800805539 0 0.16417220099380411 0.12505127510387981 0 0.17503238870283441 0.11050561364494491 0 0.18002451345814399 0.12716596121819479 0 0.16417220099380411 0.12505127510387981 0 0.17503238870283441 0.11050561364494491 0 0.18002451345814399 0.12716596121819479 0 0.2001236667938262 0.1180422718546187 0 0.17503238870283441 0.11050561364494491 0 0.1916307843626972 0.08827444688259839 0 0.1705578526620479 0.095927182961129481 0 0.17503238870283441 0.11050561364494491 0 0.1916307843626972 0.08827444688259839 0 0.17503238870283441 0.11050561364494491 0 0.1916307843626972 0.08827444688259839 0 0.17935943521264269 0.07135827912697662 0 0.16988015521188329 0.08282073200015258 0 0.1916307843626972 0.08827444688259839 0 0.1705578526620479 0.095927182961129481 0 0.16988015521188329 0.08282073200015258 0 0.19067723801237901 0.065525043857756982 0 0.1916307843626972 0.08827444688259839 0 0.17935943521264269 0.07135827912697662 0 0.19067723801237901 0.065525043857756982 0 0.17734631865053521 0.060730067185729229 0 0.17935943521264269 0.07135827912697662 0 0.17734631865053521 0.060730067185729229 0 0.17935943521264269 0.07135827912697662 0 0.1653937448538241 0.067538194789913991 0 0.17935943521264269 0.07135827912697662 0 0.1653937448538241 0.067538194789913991 0 0.16988015521188329 0.08282073200015258 0 0.15507694825043991 0.057889849327421902 0 0.15260580868734391 0.069203578475014266 0 0.1653937448538241 0.067538194789913991 0 0.15260580868734391 0.069203578475014266 0 0.1653937448538241 0.067538194789913991 0 0.15677919641446331 0.080277826610221981 0 0.1653937448538241 0.067538194789913991 0 0.15677919641446331 0.080277826610221981 0 0.16988015521188329 0.08282073200015258 0 0.15677919641446331 0.080277826610221981 0 0.157853861938485 0.092527754269896317 0 0.16988015521188329 0.08282073200015258 0 0.1705578526620479 0.095927182961129481 0 0.157853861938485 0.092527754269896317 0 0.16988015521188329 0.08282073200015258 0 0.099456207782380623 0.4822659283708195 0 0.1141892196830592 0.48396198267476093 0 0.11304725129434449 0.46767028325629811 0 0.099456207782380623 0.4822659283708195 0 0.11304725129434449 0.46767028325629811 0 0.096803680563272876 0.46646214520586099 0 0.099456207782380623 0.4822659283708195 0 0.10782601469385079 0.5 0 0.078267650747156567 0.50000000000000133 0 0.099456207782380623 0.4822659283708195 0 0.10782601469385079 0.5 0 0.1141892196830592 0.48396198267476093 0 0.10782601469385079 0.5 0 0.1249193769550877 0.49369376296818718 0 0.1141892196830592 0.48396198267476093 0 0.1249193769550877 0.49369376296818718 0 0.1141892196830592 0.48396198267476093 0 0.12569724768963239 0.47617993877849962 0 0.10782601469385079 0.5 0 0.1249193769550877 0.49369376296818718 0 0.13738437864054501 0.5 0 0.1141892196830592 0.48396198267476093 0 0.11304725129434449 0.46767028325629811 0 0.12569724768963239 0.47617993877849962 0 0.11304725129434449 0.46767028325629811 0 0.1267882431275838 0.46370707134437261 0 0.12569724768963239 0.47617993877849962 0 0.11304725129434449 0.46767028325629811 0 0.1221607865463437 0.4507156547582637 0 0.1004821270038239 0.44949914822431608 0 0.11304725129434449 0.46767028325629811 0 0.1221607865463437 0.4507156547582637 0 0.1267882431275838 0.46370707134437261 0 0.1221607865463437 0.4507156547582637 0 0.1004821270038239 0.44949914822431608 0 0.12259086230274099 0.42947812748907283 0 0.1004821270038239 0.44949914822431608 0 0.096803680563272876 0.46646214520586099 0 0.084307548883437972 0.45862843933572522 0 0.11304725129434449 0.46767028325629811 0 0.1004821270038239 0.44949914822431608 0 0.096803680563272876 0.46646214520586099 0 0.084307548883437972 0.45862843933572522 0 0.070120974899159305 0.46867166915081548 0 0.08254081050968877 0.47642281665818748 0 0.096803680563272876 0.46646214520586099 0 0.084307548883437972 0.45862843933572522 0 0.08254081050968877 0.47642281665818748 0 0.084307548883437972 0.45862843933572522 0 0.083205653112744402 0.44008551456546158 0 0.070599818540594342 0.45171728711773013 0 0.1004821270038239 0.44949914822431608 0 0.084307548883437972 0.45862843933572522 0 0.083205653112744402 0.44008551456546158 0 0.1004821270038239 0.44949914822431608 0 0.083205653112744402 0.44008551456546158 0 0.095892719888732866 0.42453745382262881 0 0.070599818540594342 0.45171728711773013 0 0.057347956450285731 0.44480695268810438 0 0.068330088192809502 0.43602814955066621 0 0.083205653112744402 0.44008551456546158 0 0.070599818540594342 0.45171728711773013 0 0.068330088192809502 0.43602814955066621 0 0.070599818540594342 0.45171728711773013 0 0.070120974899159305 0.46867166915081548 0 0.05832870883015126 0.45973880463956351 0 0.084307548883437972 0.45862843933572522 0 0.070599818540594342 0.45171728711773013 0 0.070120974899159305 0.46867166915081548 0 0.070120974899159305 0.46867166915081548 0 0.08254081050968877 0.47642281665818748 0 0.061557047466102868 0.48310025102256282 0 0.070120974899159305 0.46867166915081548 0 0.061557047466102868 0.48310025102256282 0 0.05832870883015126 0.45973880463956351 0 0.099456207782380623 0.4822659283708195 0 0.096803680563272876 0.46646214520586099 0 0.08254081050968877 0.47642281665818748 0 0.099456207782380623 0.4822659283708195 0 0.08254081050968877 0.47642281665818748 0 0.078267650747156567 0.50000000000000133 0 0.078267650747156567 0.50000000000000133 0 0.049166882519808157 0.5 0 0.061557047466102868 0.48310025102256282 0 0.08254081050968877 0.47642281665818748 0 0.078267650747156567 0.50000000000000133 0 0.061557047466102868 0.48310025102256282 0 0.078267650747156567 0.50000000000000133 0 0.061557047466102868 0.48310025102256282 0 0.049166882519808157 0.5 0 0.061557047466102868 0.48310025102256282 0 0.038208171894904559 0.48286056860770488 0 0.061557047466102868 0.48310025102256282 0 0.044846444185049857 0.46620050204512359 0 0.05832870883015126 0.45973880463956351 0 0.061557047466102868 0.48310025102256282 0 0.044846444185049857 0.46620050204512359 0 0.061557047466102868 0.48310025102256282 0 0.038208171894904559 0.48286056860770488 0 0.044846444185049857 0.46620050204512359 0 0.038208171894904559 0.48286056860770488 0 0.029572045059576241 0.469060477695939 0 0.044846444185049857 0.46620050204512359 0 0.049166882519808157 0.5 0 0.038208171894904559 0.48286056860770488 0 0.020066114292459799 0.5 0 0.038208171894904559 0.48286056860770488 0 0.020066114292459799 0.5 0 0.021055159894441029 0.48095839664786189 0 0.038208171894904559 0.48286056860770488 0 0.029572045059576241 0.469060477695939 0 0.021055159894441029 0.48095839664786189 0 0.029572045059576241 0.469060477695939 0 0.021055159894441029 0.48095839664786189 0 0.01561460841948897 0.46598216811131982 0 0.021055159894441029 0.48095839664786189 0 0.0030933759349822849 0.48266358315495572 0 0.01561460841948897 0.46598216811131982 0 0.0030933759349822849 0.48266358315495572 0 0.01561460841948897 0.46598216811131982 0 0.0036787250480955699 0.47408322248379448 0 0.0030933759349822849 0.48266358315495572 0 0.01561460841948897 0.46598216811131982 0 -0.0016340076521478781 0.48633642657919801 0 0.0036787250480955699 0.47408322248379448 0 0.0030933759349822849 0.48266358315495572 0 0.020066114292459799 0.5 0 0.021055159894441029 0.48095839664786189 0 0.0030933759349822849 0.48266358315495572 0 -0.0090346539348886701 0.5 0 -0.0016340076521478781 0.48633642657919801 0 0.020066114292459799 0.5 0 -0.0016340076521478781 0.48633642657919801 0 0.020066114292459799 0.5 0 0.0030933759349822849 0.48266358315495572 0 -0.0030841453677343121 0.43636499760021141 0 -0.002359076509941094 0.46135071208970457 0 0.010470448459028871 0.45111158928184719 0 -0.0030841453677343121 0.43636499760021141 0 0.010470448459028871 0.45111158928184719 0 0.017893296784651399 0.43894227458572882 0 -0.002359076509941094 0.46135071208970457 0 0.010470448459028871 0.45111158928184719 0 0.01561460841948897 0.46598216811131982 0 -0.002359076509941094 0.46135071208970457 0 0.0036787250480955699 0.47408322248379448 0 0.01561460841948897 0.46598216811131982 0 0.010470448459028871 0.45111158928184719 0 0.01561460841948897 0.46598216811131982 0 0.0281358409039968 0.44930075306768458 0 0.029572045059576241 0.469060477695939 0 0.01561460841948897 0.46598216811131982 0 0.0281358409039968 0.44930075306768458 0 0.01561460841948897 0.46598216811131982 0 0.0281358409039968 0.44930075306768458 0 0.010470448459028871 0.45111158928184719 0 0.0281358409039968 0.44930075306768458 0 0.017893296784651399 0.43894227458572882 0 0.0281358409039968 0.44930075306768458 0 0.017893296784651399 0.43894227458572882 0 0.03800042812263172 0.43615865433005307 0 0.0281358409039968 0.44930075306768458 0 0.017893296784651399 0.43894227458572882 0 0.0281358409039968 0.44930075306768458 0 0.04587361322417214 0.448769157871174 0 0.03800042812263172 0.43615865433005307 0 0.0281358409039968 0.44930075306768458 0 0.03800042812263172 0.43615865433005307 0 0.04587361322417214 0.448769157871174 0 0.049411209704934803 0.43621283219101809 0 0.03800042812263172 0.43615865433005307 0 0.029572045059576241 0.469060477695939 0 0.0281358409039968 0.44930075306768458 0 0.044846444185049857 0.46620050204512359 0 0.0281358409039968 0.44930075306768458 0 0.04587361322417214 0.448769157871174 0 0.044846444185049857 0.46620050204512359 0 0.0281358409039968 0.44930075306768458 0 0.044846444185049857 0.46620050204512359 0 0.04587361322417214 0.448769157871174 0 0.044846444185049857 0.46620050204512359 0 0.05832870883015126 0.45973880463956351 0 0.04587361322417214 0.448769157871174 0 0.057347956450285731 0.44480695268810438 0 0.049411209704934803 0.43621283219101809 0 0.04587361322417214 0.448769157871174 0 0.05832870883015126 0.45973880463956351 0 0.057347956450285731 0.44480695268810438 0 0.070599818540594342 0.45171728711773013 0 0.05832870883015126 0.45973880463956351 0 0.057347956450285731 0.44480695268810438 0 0.057347956450285731 0.44480695268810438 0 0.058238482531349368 0.43512174465279091 0 0.068330088192809502 0.43602814955066621 0 0.057347956450285731 0.44480695268810438 0 0.058238482531349368 0.43512174465279091 0 0.049411209704934803 0.43621283219101809 0 0.058238482531349368 0.43512174465279091 0 0.05412352915042095 0.42739076434297479 0 0.063786863135573219 0.4234822836218442 0 0.05412352915042095 0.42739076434297479 0 0.047865015341267358 0.42301655559242213 0 0.049411209704934803 0.43621283219101809 0 0.05412352915042095 0.42739076434297479 0 0.047865015341267358 0.42301655559242213 0 0.058238482531349368 0.43512174465279091 0 0.05412352915042095 0.42739076434297479 0 0.049411209704934803 0.43621283219101809 0 0.047865015341267358 0.42301655559242213 0 0.055388731832649349 0.41299308245440008 0 0.044385004541519633 0.40583709082877739 0 0.055388731832649349 0.41299308245440008 0 0.057103340742871267 0.4006394318358022 0 0.0691327228978319 0.40699071288372829 0 0.05412352915042095 0.42739076434297479 0 0.055388731832649349 0.41299308245440008 0 0.063786863135573219 0.4234822836218442 0 0.047865015341267358 0.42301655559242213 0 0.055388731832649349 0.41299308245440008 0 0.05412352915042095 0.42739076434297479 0 0.047865015341267358 0.42301655559242213 0 0.055388731832649349 0.41299308245440008 0 0.055388731832649349 0.41299308245440008 0 0.044385004541519633 0.40583709082877739 0 0.057103340742871267 0.4006394318358022 0 0.047865015341267358 0.42301655559242213 0 0.030398582533070099 0.41080889326869052 0 0.044385004541519633 0.40583709082877739 0 0.047865015341267358 0.42301655559242213 0 0.035686717363660143 0.42423985257235269 0 0.030398582533070099 0.41080889326869052 0 0.047865015341267358 0.42301655559242213 0 0.030398582533070099 0.41080889326869052 0 0.047865015341267358 0.42301655559242213 0 0.049411209704934803 0.43621283219101809 0 0.03800042812263172 0.43615865433005307 0 0.047865015341267358 0.42301655559242213 0 0.03800042812263172 0.43615865433005307 0 0.047865015341267358 0.42301655559242213 0 0.035686717363660143 0.42423985257235269 0 0.03800042812263172 0.43615865433005307 0 0.035686717363660143 0.42423985257235269 0 0.03800042812263172 0.43615865433005307 0 0.0264828434576714 0.42697530709824522 0 0.017893296784651399 0.43894227458572882 0 0.0264828434576714 0.42697530709824522 0 0.013451351612083251 0.42022136891186163 0 0.017893296784651399 0.43894227458572882 0 0.03800042812263172 0.43615865433005307 0 0.0264828434576714 0.42697530709824522 0 0.030398582533070099 0.41080889326869052 0 0.013451351612083251 0.42022136891186163 0 0.012932149724872831 0.39860123094495892 0 0.0264828434576714 0.42697530709824522 0 0.030398582533070099 0.41080889326869052 0 0.013451351612083251 0.42022136891186163 0 0.035686717363660143 0.42423985257235269 0 0.0264828434576714 0.42697530709824522 0 0.030398582533070099 0.41080889326869052 0 -0.0038092142255275289 0.41137928311071797 0 0.013451351612083251 0.42022136891186163 0 0.012932149724872831 0.39860123094495892 0 -0.0030841453677343121 0.43636499760021141 0 0.017893296784651399 0.43894227458572882 0 0.013451351612083251 0.42022136891186163 0 -0.0030841453677343121 0.43636499760021141 0 -0.0038092142255275289 0.41137928311071797 0 0.013451351612083251 0.42022136891186163 0 -0.0045342830833226501 0.3863935686212247 0 0.012932149724872831 0.39860123094495892 0 0.0079023355216259559 0.37348921158265391 0 0.012932149724872831 0.39860123094495892 0 0.025375843575522711 0.38021681034322929 0 0.0079023355216259559 0.37348921158265391 0 -0.0045342830833226501 0.3863935686212247 0 0.012932149724872831 0.39860123094495892 0 -0.0045342830833226501 0.3863935686212247 0 -0.0038092142255275289 0.41137928311071797 0 0.012932149724872831 0.39860123094495892 0 0.030398582533070099 0.41080889326869052 0 0.012932149724872831 0.39860123094495892 0 0.030398582533070099 0.41080889326869052 0 0.012932149724872831 0.39860123094495892 0 0.030218872497922818 0.39559608178221078 0 0.012932149724872831 0.39860123094495892 0 0.030218872497922818 0.39559608178221078 0 0.025375843575522711 0.38021681034322929 0 0.025375843575522711 0.38021681034322929 0 0.045236422390978262 0.39339421550307069 0 0.045418656597819553 0.37354288132317159 0 0.030218872497922818 0.39559608178221078 0 0.025375843575522711 0.38021681034322929 0 0.045236422390978262 0.39339421550307069 0 0.030398582533070099 0.41080889326869052 0 0.030218872497922818 0.39559608178221078 0 0.044385004541519633 0.40583709082877739 0 0.030218872497922818 0.39559608178221078 0 0.045236422390978262 0.39339421550307069 0 0.044385004541519633 0.40583709082877739 0 0.045236422390978262 0.39339421550307069 0 0.057103340742871267 0.4006394318358022 0 0.06607043693335328 0.38973814947632979 0 0.045236422390978262 0.39339421550307069 0 0.044385004541519633 0.40583709082877739 0 0.057103340742871267 0.4006394318358022 0 0.045236422390978262 0.39339421550307069 0 0.06607043693335328 0.38973814947632979 0 0.045418656597819553 0.37354288132317159 0 0.06607043693335328 0.38973814947632979 0 0.066778362586220691 0.36264744131756171 0 0.045418656597819553 0.37354288132317159 0 0.06607043693335328 0.38973814947632979 0 0.086713905658550791 0.37461406501925459 0 0.066778362586220691 0.36264744131756171 0 0.091303312773641829 0.3995757594209417 0 0.1025776524751303 0.38486691706586951 0 0.086713905658550791 0.37461406501925459 0 0.06607043693335328 0.38973814947632979 0 0.091303312773641829 0.3995757594209417 0 0.086713905658550791 0.37461406501925459 0 0.091303312773641829 0.3995757594209417 0 0.086713905658550791 0.37461406501925459 0 0.06607043693335328 0.38973814947632979 0 0.091303312773641829 0.3995757594209417 0 0.0691327228978319 0.40699071288372829 0 0.057103340742871267 0.4006394318358022 0 0.06607043693335328 0.38973814947632979 0 0.0691327228978319 0.40699071288372829 0 0.055388731832649349 0.41299308245440008 0 0.0691327228978319 0.40699071288372829 0 0.063786863135573219 0.4234822836218442 0 0.0691327228978319 0.40699071288372829 0 0.077714875811277062 0.4214876261871765 0 0.063786863135573219 0.4234822836218442 0 0.083205653112744402 0.44008551456546158 0 0.077714875811277062 0.4214876261871765 0 0.068330088192809502 0.43602814955066621 0 0.058238482531349368 0.43512174465279091 0 0.068330088192809502 0.43602814955066621 0 0.063786863135573219 0.4234822836218442 0 0.077714875811277062 0.4214876261871765 0 0.068330088192809502 0.43602814955066621 0 0.063786863135573219 0.4234822836218442 0 0.083205653112744402 0.44008551456546158 0 0.077714875811277062 0.4214876261871765 0 0.095892719888732866 0.42453745382262881 0 0.091303312773641829 0.3995757594209417 0 0.0691327228978319 0.40699071288372829 0 0.077714875811277062 0.4214876261871765 0 0.091303312773641829 0.3995757594209417 0 0.095892719888732866 0.42453745382262881 0 0.091303312773641829 0.3995757594209417 0 0.077714875811277062 0.4214876261871765 0 0.095892719888732866 0.42453745382262881 0 0.091303312773641829 0.3995757594209417 0 0.095892719888732866 0.42453745382262881 0 0.115428724103706 0.40267530492779557 0 0.1004821270038239 0.44949914822431608 0 0.095892719888732866 0.42453745382262881 0 0.12259086230274099 0.42947812748907283 0 0.1004821270038239 0.44949914822431608 0 0.095892719888732866 0.42453745382262881 0 0.095892719888732866 0.42453745382262881 0 0.12259086230274099 0.42947812748907283 0 0.115428724103706 0.40267530492779557 0 0.115428724103706 0.40267530492779557 0 0.119448870245615 0.38256434187866972 0 0.13692284990477191 0.38930777957628943 0 0.119448870245615 0.38256434187866972 0 0.1025776524751303 0.38486691706586951 0 0.1087205780393706 0.3656269003386084 0 0.115428724103706 0.40267530492779557 0 0.119448870245615 0.38256434187866972 0 0.1025776524751303 0.38486691706586951 0 0.1025776524751303 0.38486691706586951 0 0.1087205780393706 0.3656269003386084 0 0.086713905658550791 0.37461406501925459 0 0.091303312773641829 0.3995757594209417 0 0.115428724103706 0.40267530492779557 0 0.1025776524751303 0.38486691706586951 0 0.1087205780393706 0.3656269003386084 0 0.1202868522871179 0.34060046584014031 0 0.0915497208986496 0.34709204532757532 0 0.1087205780393706 0.3656269003386084 0 0.0915497208986496 0.34709204532757532 0 0.086713905658550791 0.37461406501925459 0 0.119448870245615 0.38256434187866972 0 0.1087205780393706 0.3656269003386084 0 0.13274728415341139 0.36410634055334368 0 0.1087205780393706 0.3656269003386084 0 0.1202868522871179 0.34060046584014031 0 0.13274728415341139 0.36410634055334368 0 0.1202868522871179 0.34060046584014031 0 0.1104734498024164 0.31171603628350752 0 0.14183880654046921 0.32250528078568202 0 0.1202868522871179 0.34060046584014031 0 0.1016552612267161 0.33013161519950079 0 0.1104734498024164 0.31171603628350752 0 0.1016552612267161 0.33013161519950079 0 0.081254576285268804 0.3210829637434266 0 0.1104734498024164 0.31171603628350752 0 0.1202868522871179 0.34060046584014031 0 0.1016552612267161 0.33013161519950079 0 0.0915497208986496 0.34709204532757532 0 0.081254576285268804 0.3210829637434266 0 0.072654821413094289 0.33942743407960763 0 0.0915497208986496 0.34709204532757532 0 0.1016552612267161 0.33013161519950079 0 0.081254576285268804 0.3210829637434266 0 0.0915497208986496 0.34709204532757532 0 0.081254576285268804 0.3210829637434266 0 0.06358813508901956 0.32234581427363851 0 0.071244474661197085 0.3036312559279935 0 0.081254576285268804 0.3210829637434266 0 0.06358813508901956 0.32234581427363851 0 0.072654821413094289 0.33942743407960763 0 0.06358813508901956 0.32234581427363851 0 0.072654821413094289 0.33942743407960763 0 0.055199983679349987 0.34246375673151652 0 0.072654821413094289 0.33942743407960763 0 0.066778362586220691 0.36264744131756171 0 0.055199983679349987 0.34246375673151652 0 0.072654821413094289 0.33942743407960763 0 0.0915497208986496 0.34709204532757532 0 0.066778362586220691 0.36264744131756171 0 0.0915497208986496 0.34709204532757532 0 0.086713905658550791 0.37461406501925459 0 0.066778362586220691 0.36264744131756171 0 0.066778362586220691 0.36264744131756171 0 0.044951457965310811 0.3555124197003488 0 0.045418656597819553 0.37354288132317159 0 0.066778362586220691 0.36264744131756171 0 0.044951457965310811 0.3555124197003488 0 0.055199983679349987 0.34246375673151652 0 0.044951457965310811 0.3555124197003488 0 0.021903196078839001 0.35746348141110651 0 0.035457090884324839 0.34144453771838768 0 0.044951457965310811 0.3555124197003488 0 0.035457090884324839 0.34144453771838768 0 0.055199983679349987 0.34246375673151652 0 0.044951457965310811 0.3555124197003488 0 0.045418656597819553 0.37354288132317159 0 0.021903196078839001 0.35746348141110651 0 0.025375843575522711 0.38021681034322929 0 0.021903196078839001 0.35746348141110651 0 0.0079023355216259559 0.37348921158265391 0 0.025375843575522711 0.38021681034322929 0 0.045418656597819553 0.37354288132317159 0 0.021903196078839001 0.35746348141110651 0 0.021903196078839001 0.35746348141110651 0 0.017151683724365509 0.3376665205351736 0 0.035457090884324839 0.34144453771838768 0 0.021903196078839001 0.35746348141110651 0 0.0095650341834115256 0.34490192427506011 0 0.017151683724365509 0.3376665205351736 0 0.021903196078839001 0.35746348141110651 0 0.0095650341834115256 0.34490192427506011 0 0.0061318462344260851 0.35417601161121459 0 -0.0050552824635438226 0.34569829691311771 0 0.0095650341834115256 0.34490192427506011 0 0.0061318462344260851 0.35417601161121459 0 0.021903196078839001 0.35746348141110651 0 0.0061318462344260851 0.35417601161121459 0 0.0079023355216259559 0.37348921158265391 0 -0.0052616759920083916 0.36132776784546622 0 0.0061318462344260851 0.35417601161121459 0 0.0079023355216259559 0.37348921158265391 0 0.0087281755863181168 0.33049580891976171 0 0.020410497070949891 0.30832150289807031 0 0.0056044744337335906 0.31412092038659428 0 0.0087281755863181168 0.33049580891976171 0 0.020410497070949891 0.30832150289807031 0 -0.003280447873963227 0.32161399115684158 0 0.0056044744337335906 0.31412092038659428 0 0.0087281755863181168 0.33049580891976171 0 0.0064742168078369342 0.3347740657525386 0 0.0087281755863181168 0.33049580891976171 0 -0.0050552824635438226 0.34569829691311771 0 0.0095650341834115256 0.34490192427506011 0 0.0064742168078369342 0.3347740657525386 0 0.0095650341834115256 0.34490192427506011 0 0.0064742168078369342 0.3347740657525386 0 0.017151683724365509 0.3376665205351736 0 0.0064742168078369342 0.3347740657525386 0 0.0087281755863181168 0.33049580891976171 0 0.017151683724365509 0.3376665205351736 0 0.0087281755863181168 0.33049580891976171 0 0.025353163704189718 0.33024288796319817 0 0.017151683724365509 0.3376665205351736 0 0.0087281755863181168 0.33049580891976171 0 0.025353163704189718 0.33024288796319817 0 0.025353163704189718 0.33024288796319817 0 0.017151683724365509 0.3376665205351736 0 0.035457090884324839 0.34144453771838768 0 0.0087281755863181168 0.33049580891976171 0 0.025353163704189718 0.33024288796319817 0 0.020410497070949891 0.30832150289807031 0 0.025353163704189718 0.33024288796319817 0 0.038017806832533571 0.30672300381527179 0 0.020410497070949891 0.30832150289807031 0 0.025353163704189718 0.33024288796319817 0 0.045812945845809312 0.32351293560108041 0 0.038017806832533571 0.30672300381527179 0 0.025353163704189718 0.33024288796319817 0 0.045812945845809312 0.32351293560108041 0 0.035457090884324839 0.34144453771838768 0 0.045812945845809312 0.32351293560108041 0 0.035457090884324839 0.34144453771838768 0 0.055199983679349987 0.34246375673151652 0 0.06358813508901956 0.32234581427363851 0 0.045812945845809312 0.32351293560108041 0 0.055199983679349987 0.34246375673151652 0 0.06358813508901956 0.32234581427363851 0 0.045812945845809312 0.32351293560108041 0 0.055148108477292443 0.3057593846019967 0 0.055148108477292443 0.3057593846019967 0 0.047586914097201803 0.29032131063477928 0 0.038017806832533571 0.30672300381527179 0 0.055148108477292443 0.3057593846019967 0 0.047586914097201803 0.29032131063477928 0 0.066935962560195753 0.28615893812798288 0 0.047586914097201803 0.29032131063477928 0 0.050578246113349837 0.27455429857722041 0 0.066935962560195753 0.28615893812798288 0 0.047586914097201803 0.29032131063477928 0 0.032092818555581597 0.28614719687637868 0 0.038017806832533571 0.30672300381527179 0 0.047586914097201803 0.29032131063477928 0 0.032092818555581597 0.28614719687637868 0 0.050578246113349837 0.27455429857722041 0 0.045812945845809312 0.32351293560108041 0 0.055148108477292443 0.3057593846019967 0 0.038017806832533571 0.30672300381527179 0 0.032092818555581597 0.28614719687637868 0 0.038017806832533571 0.30672300381527179 0 0.020410497070949891 0.30832150289807031 0 0.032092818555581597 0.28614719687637868 0 0.020410497070949891 0.30832150289807031 0 0.032092818555581597 0.28614719687637868 0 0.020410497070949891 0.30832150289807031 0 0.0083336089875100904 0.29343585490586271 0 0.032092818555581597 0.28614719687637868 0 0.0083336089875100904 0.29343585490586271 0 0.021382191810826279 0.2686960609189637 0 -0.0088759444352828343 0.31092800175718183 0 0.0056044744337335906 0.31412092038659428 0 0.0083336089875100904 0.29343585490586271 0 0.0056044744337335906 0.31412092038659428 0 0.020410497070949891 0.30832150289807031 0 0.0083336089875100904 0.29343585490586271 0 0.0073806355134042019 0.25529449578482938 0 3.3590645499582607e-05 0.27236849017123349 0 0.021382191810826279 0.2686960609189637 0 0.0083336089875100904 0.29343585490586271 0 3.3590645499582607e-05 0.27236849017123349 0 0.021382191810826279 0.2686960609189637 0 0.025149977659741599 0.24684982625080901 0 0.0073806355134042019 0.25529449578482938 0 0.021382191810826279 0.2686960609189637 0 0.025149977659741599 0.24684982625080901 0 0.021382191810826279 0.2686960609189637 0 0.043775140040213267 0.26397289085468728 0 0.025149977659741599 0.24684982625080901 0 0.045472231705318063 0.24424317023843681 0 0.050158093690384618 0.2598810672441918 0 0.025149977659741599 0.24684982625080901 0 0.050158093690384618 0.2598810672441918 0 0.025149977659741599 0.24684982625080901 0 0.043775140040213267 0.26397289085468728 0 0.050158093690384618 0.2598810672441918 0 0.032092818555581597 0.28614719687637868 0 0.043775140040213267 0.26397289085468728 0 0.032092818555581597 0.28614719687637868 0 0.021382191810826279 0.2686960609189637 0 0.043775140040213267 0.26397289085468728 0 0.032092818555581597 0.28614719687637868 0 0.043775140040213267 0.26397289085468728 0 0.050578246113349837 0.27455429857722041 0 0.050578246113349837 0.27455429857722041 0 0.063875668081316214 0.2678607518654692 0 0.066935962560195753 0.28615893812798288 0 0.043775140040213267 0.26397289085468728 0 0.050578246113349837 0.27455429857722041 0 0.050158093690384618 0.2598810672441918 0 0.050578246113349837 0.27455429857722041 0 0.056046126259945157 0.25263236173372139 0 0.063875668081316214 0.2678607518654692 0 0.050578246113349837 0.27455429857722041 0 0.050158093690384618 0.2598810672441918 0 0.056046126259945157 0.25263236173372139 0 0.045472231705318063 0.24424317023843681 0 0.050158093690384618 0.2598810672441918 0 0.056046126259945157 0.25263236173372139 0 0.050578246113349837 0.27455429857722041 0 0.056046126259945157 0.25263236173372139 0 0.078525547080241467 0.2465942846531784 0 0.067905867336300579 0.25358800162702 0 0.079567988853459573 0.27014218499250892 0 0.067905867336300579 0.25358800162702 0 0.079567988853459573 0.27014218499250892 0 0.063875668081316214 0.2678607518654692 0 0.056046126259945157 0.25263236173372139 0 0.067905867336300579 0.25358800162702 0 0.063875668081316214 0.2678607518654692 0 0.078525547080241467 0.2465942846531784 0 0.079567988853459573 0.27014218499250892 0 0.093798877441032588 0.2579700649065903 0 0.079567988853459573 0.27014218499250892 0 0.063875668081316214 0.2678607518654692 0 0.066935962560195753 0.28615893812798288 0 0.079567988853459573 0.27014218499250892 0 0.066935962560195753 0.28615893812798288 0 0.087430381393448858 0.29852998767476718 0 0.066935962560195753 0.28615893812798288 0 0.071244474661197085 0.3036312559279935 0 0.087430381393448858 0.29852998767476718 0 0.055148108477292443 0.3057593846019967 0 0.066935962560195753 0.28615893812798288 0 0.071244474661197085 0.3036312559279935 0 0.06358813508901956 0.32234581427363851 0 0.055148108477292443 0.3057593846019967 0 0.071244474661197085 0.3036312559279935 0 0.081254576285268804 0.3210829637434266 0 0.087430381393448858 0.29852998767476718 0 0.1104734498024164 0.31171603628350752 0 0.081254576285268804 0.3210829637434266 0 0.071244474661197085 0.3036312559279935 0 0.087430381393448858 0.29852998767476718 0 0.079567988853459573 0.27014218499250892 0 0.087430381393448858 0.29852998767476718 0 0.1079828451826004 0.27738565586056829 0 0.087430381393448858 0.29852998767476718 0 0.1104734498024164 0.31171603628350752 0 0.1079828451826004 0.27738565586056829 0 0.1104734498024164 0.31171603628350752 0 0.1079828451826004 0.27738565586056829 0 0.13401849175413849 0.29214957311260448 0 0.1079828451826004 0.27738565586056829 0 0.13401849175413849 0.29214957311260448 0 0.1100607559553454 0.25396994184181759 0 0.1079828451826004 0.27738565586056829 0 0.13366986361514199 0.26692500362740812 0 0.12787711237058769 0.24521089126939841 0 0.1100607559553454 0.25396994184181759 0 0.13366986361514199 0.26692500362740812 0 0.092857250133516089 0.24175825718487831 0 0.1100607559553454 0.25396994184181759 0 0.093798877441032588 0.2579700649065903 0 0.1100607559553454 0.25396994184181759 0 0.093798877441032588 0.2579700649065903 0 0.1079828451826004 0.27738565586056829 0 0.079567988853459573 0.27014218499250892 0 0.093798877441032588 0.2579700649065903 0 0.1079828451826004 0.27738565586056829 0 0.13366986361514199 0.26692500362740812 0 0.1558685034792309 0.28595093384994291 0 0.15959452244756481 0.26367036214955358 0 0.14702044576598061 0.2478904659134552 0 0.13366986361514199 0.26692500362740812 0 0.15959452244756481 0.26367036214955358 0 0.14702044576598061 0.2478904659134552 0 0.12787711237058769 0.24521089126939841 0 0.13366986361514199 0.26692500362740812 0 0.1079828451826004 0.27738565586056829 0 0.13366986361514199 0.26692500362740812 0 0.13401849175413849 0.29214957311260448 0 0.1104734498024164 0.31171603628350752 0 0.13401849175413849 0.29214957311260448 0 0.14183880654046921 0.32250528078568202 0 0.13401849175413849 0.29214957311260448 0 0.16005413832567669 0.30691349036464077 0 0.14183880654046921 0.32250528078568202 0 0.13401849175413849 0.29214957311260448 0 0.16005413832567669 0.30691349036464077 0 0.13401849175413849 0.29214957311260448 0 0.1558685034792309 0.28595093384994291 0 0.16005413832567669 0.30691349036464077 0 0.13366986361514199 0.26692500362740812 0 0.13401849175413849 0.29214957311260448 0 0.1558685034792309 0.28595093384994291 0 0.1558685034792309 0.28595093384994291 0 0.1700220001876428 0.28782965529906401 0 0.16005413832567669 0.30691349036464077 0 0.1558685034792309 0.28595093384994291 0 0.1700220001876428 0.28782965529906401 0 0.17370236977615991 0.27502287964280692 0 0.1700220001876428 0.28782965529906401 0 0.16005413832567669 0.30691349036464077 0 0.1764196225356903 0.29880027385689728 0 0.16005413832567669 0.30691349036464077 0 0.1764196225356903 0.29880027385689728 0 0.18686192329242929 0.31378732528256248 0 0.1764196225356903 0.29880027385689728 0 0.18674031124236579 0.30201460306836742 0 0.19086383386244751 0.2907864273273883 0 0.1764196225356903 0.29880027385689728 0 0.18674031124236579 0.30201460306836742 0 0.18686192329242929 0.31378732528256248 0 0.1700220001876428 0.28782965529906401 0 0.18013512871176271 0.28566990799825959 0 0.17370236977615991 0.27502287964280692 0 0.1700220001876428 0.28782965529906401 0 0.1764196225356903 0.29880027385689728 0 0.18013512871176271 0.28566990799825959 0 0.1764196225356903 0.29880027385689728 0 0.18013512871176271 0.28566990799825959 0 0.19086383386244751 0.2907864273273883 0 0.18013512871176271 0.28566990799825959 0 0.1896678171968729 0.27591030386514148 0 0.19086383386244751 0.2907864273273883 0 0.18251379545819379 0.26835647973838378 0 0.17370236977615991 0.27502287964280692 0 0.1896678171968729 0.27591030386514148 0 0.18013512871176271 0.28566990799825959 0 0.17370236977615991 0.27502287964280692 0 0.1896678171968729 0.27591030386514148 0 0.18251379545819379 0.26835647973838378 0 0.17370236977615991 0.27502287964280692 0 0.17699066645021869 0.2595722272450377 0 0.17370236977615991 0.27502287964280692 0 0.15959452244756481 0.26367036214955358 0 0.17699066645021869 0.2595722272450377 0 0.1558685034792309 0.28595093384994291 0 0.17370236977615991 0.27502287964280692 0 0.15959452244756481 0.26367036214955358 0 0.16774616909827719 0.2460930353984315 0 0.15959452244756481 0.26367036214955358 0 0.17699066645021869 0.2595722272450377 0 0.14702044576598061 0.2478904659134552 0 0.16774616909827719 0.2460930353984315 0 0.15959452244756481 0.26367036214955358 0 0.18692125413578081 0.24552837502103991 0 0.16774616909827719 0.2460930353984315 0 0.17699066645021869 0.2595722272450377 0 0.18692125413578081 0.24552837502103991 0 0.17699066645021869 0.2595722272450377 0 0.19242781921148469 0.26384338938458129 0 0.18251379545819379 0.26835647973838378 0 0.17699066645021869 0.2595722272450377 0 0.19242781921148469 0.26384338938458129 0 0.18692125413578081 0.24552837502103991 0 0.19242781921148469 0.26384338938458129 0 0.20107379594449931 0.25686311186437227 0 0.18692125413578081 0.24552837502103991 0 0.20107379594449931 0.25686311186437227 0 0.19242781921148469 0.26384338938458129 0 0.20107379594449931 0.25686311186437227 0 0.2008998280478862 0.26959186196165702 0 0.19242781921148469 0.26384338938458129 0 0.20107379594449931 0.25686311186437227 0 0.19242781921148469 0.26384338938458129 0 0.1896678171968729 0.27591030386514148 0 0.2008998280478862 0.26959186196165702 0 0.18251379545819379 0.26835647973838378 0 0.19242781921148469 0.26384338938458129 0 0.1896678171968729 0.27591030386514148 0 0.1896678171968729 0.27591030386514148 0 0.2008998280478862 0.26959186196165702 0 0.20354188417430641 0.281093168015905 0 0.2008998280478862 0.26959186196165702 0 0.2177878237122676 0.27024933667828532 0 0.20354188417430641 0.281093168015905 0 0.2177878237122676 0.27024933667828532 0 0.20354188417430641 0.281093168015905 0 0.2166033006779626 0.28924568688104418 0 0.21557305570370441 0.24515722135805329 0 0.20107379594449931 0.25686311186437227 0 0.2177878237122676 0.27024933667828532 0 0.20107379594449931 0.25686311186437227 0 0.2177878237122676 0.27024933667828532 0 0.20107379594449931 0.25686311186437227 0 0.2008998280478862 0.26959186196165702 0 0.2177878237122676 0.27024933667828532 0 0.21557305570370441 0.24515722135805329 0 0.20107379594449931 0.25686311186437227 0 0.21557305570370441 0.24515722135805329 0 0.2177878237122676 0.27024933667828532 0 0.23628031136540401 0.25597328662156199 0 0.2177878237122676 0.27024933667828532 0 0.23628031136540401 0.25597328662156199 0 0.23450185148003599 0.28363556149219821 0 0.2177878237122676 0.27024933667828532 0 0.23450185148003599 0.28363556149219821 0 0.2166033006779626 0.28924568688104418 0 0.2177878237122676 0.27024933667828532 0 0.23450185148003599 0.28363556149219821 0 0.23628031136540401 0.25597328662156199 0 0.23450185148003599 0.28363556149219821 0 0.25102838231212438 0.26850893423506528 0 0.23450185148003599 0.28363556149219821 0 0.25953152444998728 0.28294166139542631 0 0.25102838231212438 0.26850893423506528 0 0.23628031136540401 0.25597328662156199 0 0.25102838231212438 0.26850893423506528 0 0.26221447651104962 0.2479993693513689 0 0.2297645605960125 0.30261029929826411 0 0.25121587924780342 0.29702178630611242 0 0.2484846271056145 0.31037308609574782 0 0.2297645605960125 0.30261029929826411 0 0.23798581837376781 0.31938142953188831 0 0.2484846271056145 0.31037308609574782 0 0.2297645605960125 0.30261029929826411 0 0.25121587924780342 0.29702178630611242 0 0.23450185148003599 0.28363556149219821 0 0.2297645605960125 0.30261029929826411 0 0.25121587924780342 0.29702178630611242 0 0.23450185148003599 0.28363556149219821 0 0.25121587924780342 0.29702178630611242 0 0.23450185148003599 0.28363556149219821 0 0.25953152444998728 0.28294166139542631 0 0.25121587924780342 0.29702178630611242 0 0.23450185148003599 0.28363556149219821 0 0.2297645605960125 0.30261029929826411 0 0.2166033006779626 0.28924568688104418 0 0.2297645605960125 0.30261029929826411 0 0.20831324194422091 0.30819881229041318 0 0.2297645605960125 0.30261029929826411 0 0.20831324194422091 0.30819881229041318 0 0.21977364325038071 0.31928170538083578 0 0.20831324194422091 0.30819881229041318 0 0.2166033006779626 0.28924568688104418 0 0.20288664267638859 0.29424953150154581 0 0.2297645605960125 0.30261029929826411 0 0.20831324194422091 0.30819881229041318 0 0.2166033006779626 0.28924568688104418 0 0.20354188417430641 0.281093168015905 0 0.2166033006779626 0.28924568688104418 0 0.20288664267638859 0.29424953150154581 0 0.20354188417430641 0.281093168015905 0 0.20288664267638859 0.29424953150154581 0 0.19086383386244751 0.2907864273273883 0 0.20288664267638859 0.29424953150154581 0 0.19086383386244751 0.2907864273273883 0 0.19511095272300569 0.3019235629929784 0 0.1896678171968729 0.27591030386514148 0 0.20354188417430641 0.281093168015905 0 0.19086383386244751 0.2907864273273883 0 0.20831324194422091 0.30819881229041318 0 0.18686192329242929 0.31378732528256248 0 0.20831324194422091 0.30819881229041318 0 0.19511095272300569 0.3019235629929784 0 0.18686192329242929 0.31378732528256248 0 0.20831324194422091 0.30819881229041318 0 0.20288664267638859 0.29424953150154581 0 0.19511095272300569 0.3019235629929784 0 0.18674031124236579 0.30201460306836742 0 0.19086383386244751 0.2907864273273883 0 0.19511095272300569 0.3019235629929784 0 0.18674031124236579 0.30201460306836742 0 0.19511095272300569 0.3019235629929784 0 0.18686192329242929 0.31378732528256248 0 0.20141288137377081 0.31920030670374799 0 0.18686192329242929 0.31378732528256248 0 0.18608978489721489 0.32167740761667712 0 0.20831324194422091 0.30819881229041318 0 0.20141288137377081 0.31920030670374799 0 0.18686192329242929 0.31378732528256248 0 0.20141288137377081 0.31920030670374799 0 0.21212543146875301 0.33644132486871342 0 0.18608978489721489 0.32167740761667712 0 0.21212543146875301 0.33644132486871342 0 0.18608978489721489 0.32167740761667712 0 0.19231113454718349 0.34165597013868199 0 0.21212543146875301 0.33644132486871342 0 0.18608978489721489 0.32167740761667712 0 0.20831324194422091 0.30819881229041318 0 0.20141288137377081 0.31920030670374799 0 0.21977364325038071 0.31928170538083578 0 0.20141288137377081 0.31920030670374799 0 0.21212543146875301 0.33644132486871342 0 0.21977364325038071 0.31928170538083578 0 0.21977364325038071 0.31928170538083578 0 0.2290399257457596 0.32985805959198788 0 0.23798581837376781 0.31938142953188831 0 0.2297645605960125 0.30261029929826411 0 0.21977364325038071 0.31928170538083578 0 0.23798581837376781 0.31938142953188831 0 0.21212543146875301 0.33644132486871342 0 0.21977364325038071 0.31928170538083578 0 0.2290399257457596 0.32985805959198788 0 0.21212543146875301 0.33644132486871342 0 0.23060518033342339 0.33807106122714048 0 0.2290399257457596 0.32985805959198788 0 0.21212543146875301 0.33644132486871342 0 0.23060518033342339 0.33807106122714048 0 0.23816107804029091 0.35120524212074949 0 0.23060518033342339 0.33807106122714048 0 0.2290399257457596 0.32985805959198788 0 0.2430942860788903 0.33477961832711151 0 0.23060518033342339 0.33807106122714048 0 0.2430942860788903 0.33477961832711151 0 0.23816107804029091 0.35120524212074949 0 0.2484846271056145 0.31037308609574782 0 0.23798581837376781 0.31938142953188831 0 0.25508783524565293 0.32209220201309929 0 0.2430942860788903 0.33477961832711151 0 0.23798581837376781 0.31938142953188831 0 0.25508783524565293 0.32209220201309929 0 0.2290399257457596 0.32985805959198788 0 0.2430942860788903 0.33477961832711151 0 0.23798581837376781 0.31938142953188831 0 0.23439037865920059 0.35560025357312369 0 0.2386764282036242 0.37725286527910618 0 0.24311907173897271 0.36013203008567057 0 0.23439037865920059 0.35560025357312369 0 0.2386764282036242 0.37725286527910618 0 0.2492643002430574 0.365916522193315 0 0.24311907173897271 0.36013203008567057 0 0.2386764282036242 0.37725286527910618 0 0.2492643002430574 0.365916522193315 0 0.2386764282036242 0.37725286527910618 0 0.25383912625151372 0.37755129754335942 0 0.24311907173897271 0.36013203008567057 0 0.23816107804029091 0.35120524212074949 0 0.2641967246118288 0.36596915937278562 0 0.2430942860788903 0.33477961832711151 0 0.23816107804029091 0.35120524212074949 0 0.26173146881309822 0.35734024057335978 0 0.24311907173897271 0.36013203008567057 0 0.23816107804029091 0.35120524212074949 0 0.23439037865920059 0.35560025357312369 0 0.21212543146875301 0.33644132486871342 0 0.23816107804029091 0.35120524212074949 0 0.21848510057545151 0.35453686872473111 0 0.23816107804029091 0.35120524212074949 0 0.23439037865920059 0.35560025357312369 0 0.21848510057545151 0.35453686872473111 0 0.21212543146875301 0.33644132486871342 0 0.23816107804029091 0.35120524212074949 0 0.23439037865920059 0.35560025357312369 0 0.22513916990612379 0.36868200325308897 0 0.2386764282036242 0.37725286527910618 0 0.23439037865920059 0.35560025357312369 0 0.22513916990612379 0.36868200325308897 0 0.21848510057545151 0.35453686872473111 0 0.22513916990612379 0.36868200325308897 0 0.20931495008602691 0.36890180222237801 0 0.21961872799640589 0.38146559318592133 0 0.22513916990612379 0.36868200325308897 0 0.20931495008602691 0.36890180222237801 0 0.21848510057545151 0.35453686872473111 0 0.20931495008602691 0.36890180222237801 0 0.21848510057545151 0.35453686872473111 0 0.2018014651714847 0.35413555731190122 0 0.21212543146875301 0.33644132486871342 0 0.21848510057545151 0.35453686872473111 0 0.2018014651714847 0.35413555731190122 0 0.19231113454718349 0.34165597013868199 0 0.2018014651714847 0.35413555731190122 0 0.1832131523033072 0.3569188224833833 0 0.19231113454718349 0.34165597013868199 0 0.21212543146875301 0.33644132486871342 0 0.2018014651714847 0.35413555731190122 0 0.20931495008602691 0.36890180222237801 0 0.2018014651714847 0.35413555731190122 0 0.19217836357317111 0.36996972767433872 0 0.20931495008602691 0.36890180222237801 0 0.19217836357317111 0.36996972767433872 0 0.20289108470775991 0.38370682355227331 0 0.2018014651714847 0.35413555731190122 0 0.19217836357317111 0.36996972767433872 0 0.1832131523033072 0.3569188224833833 0 0.19217836357317111 0.36996972767433872 0 0.17197644233242751 0.37002706837148541 0 0.1832131523033072 0.3569188224833833 0 0.17197644233242751 0.37002706837148541 0 0.16866852787741549 0.35230522619665788 0 0.1832131523033072 0.3569188224833833 0 0.17197644233242751 0.37002706837148541 0 0.16866852787741549 0.35230522619665788 0 0.15186920095361911 0.35620033980905319 0 0.17197644233242751 0.37002706837148541 0 0.15186920095361911 0.35620033980905319 0 0.15185568245476189 0.37707061606136422 0 0.16866852787741549 0.35230522619665788 0 0.1579580049025659 0.33927316190663209 0 0.15186920095361911 0.35620033980905319 0 0.16866852787741549 0.35230522619665788 0 0.1832131523033072 0.3569188224833833 0 0.17832583889515771 0.33910673841273542 0 0.19231113454718349 0.34165597013868199 0 0.1832131523033072 0.3569188224833833 0 0.17832583889515771 0.33910673841273542 0 0.17832583889515771 0.33910673841273542 0 0.18608978489721489 0.32167740761667712 0 0.16647560889869609 0.32578562508456149 0 0.19231113454718349 0.34165597013868199 0 0.17832583889515771 0.33910673841273542 0 0.18608978489721489 0.32167740761667712 0 0.16005413832567669 0.30691349036464077 0 0.18608978489721489 0.32167740761667712 0 0.16005413832567669 0.30691349036464077 0 0.18686192329242929 0.31378732528256248 0 0.18608978489721489 0.32167740761667712 0 0.16005413832567669 0.30691349036464077 0 0.18608978489721489 0.32167740761667712 0 0.16647560889869609 0.32578562508456149 0 0.17832583889515771 0.33910673841273542 0 0.16647560889869609 0.32578562508456149 0 0.1579580049025659 0.33927316190663209 0 0.16866852787741549 0.35230522619665788 0 0.17832583889515771 0.33910673841273542 0 0.1579580049025659 0.33927316190663209 0 0.16647560889869609 0.32578562508456149 0 0.1579580049025659 0.33927316190663209 0 0.14183880654046921 0.32250528078568202 0 0.1579580049025659 0.33927316190663209 0 0.14183880654046921 0.32250528078568202 0 0.14054269679001921 0.34363296691054102 0 0.16005413832567669 0.30691349036464077 0 0.16647560889869609 0.32578562508456149 0 0.14183880654046921 0.32250528078568202 0 0.1202868522871179 0.34060046584014031 0 0.14183880654046921 0.32250528078568202 0 0.14054269679001921 0.34363296691054102 0 0.1202868522871179 0.34060046584014031 0 0.14054269679001921 0.34363296691054102 0 0.13274728415341139 0.36410634055334368 0 0.13274728415341139 0.36410634055334368 0 0.15186920095361911 0.35620033980905319 0 0.15185568245476189 0.37707061606136422 0 0.14054269679001921 0.34363296691054102 0 0.13274728415341139 0.36410634055334368 0 0.15186920095361911 0.35620033980905319 0 0.1579580049025659 0.33927316190663209 0 0.14054269679001921 0.34363296691054102 0 0.15186920095361911 0.35620033980905319 0 0.15352992747694119 0.40026604784697911 0 0.13692284990477191 0.38930777957628943 0 0.1397509022148696 0.40843688002483958 0 0.15352992747694119 0.40026604784697911 0 0.15185568245476189 0.37707061606136422 0 0.13692284990477191 0.38930777957628943 0 0.13274728415341139 0.36410634055334368 0 0.15185568245476189 0.37707061606136422 0 0.13692284990477191 0.38930777957628943 0 0.119448870245615 0.38256434187866972 0 0.13274728415341139 0.36410634055334368 0 0.13692284990477191 0.38930777957628943 0 0.115428724103706 0.40267530492779557 0 0.13692284990477191 0.38930777957628943 0 0.1397509022148696 0.40843688002483958 0 0.12259086230274099 0.42947812748907283 0 0.1397509022148696 0.40843688002483958 0 0.14363603346764281 0.42707530835579988 0 0.12259086230274099 0.42947812748907283 0 0.115428724103706 0.40267530492779557 0 0.1397509022148696 0.40843688002483958 0 0.12259086230274099 0.42947812748907283 0 0.14363603346764281 0.42707530835579988 0 0.13510526379757609 0.44116740875256688 0 0.14363603346764281 0.42707530835579988 0 0.16526304614212209 0.42908608809292892 0 0.1507341445198021 0.44370602134863157 0 0.14363603346764281 0.42707530835579988 0 0.15527295380072001 0.4153931176925994 0 0.16526304614212209 0.42908608809292892 0 0.14363603346764281 0.42707530835579988 0 0.1507341445198021 0.44370602134863157 0 0.13510526379757609 0.44116740875256688 0 0.1397509022148696 0.40843688002483958 0 0.14363603346764281 0.42707530835579988 0 0.15527295380072001 0.4153931176925994 0 0.15352992747694119 0.40026604784697911 0 0.1397509022148696 0.40843688002483958 0 0.15527295380072001 0.4153931176925994 0 0.15527295380072001 0.4153931176925994 0 0.1711416470664554 0.41062619466687539 0 0.16526304614212209 0.42908608809292892 0 0.15352992747694119 0.40026604784697911 0 0.15527295380072001 0.4153931176925994 0 0.1711416470664554 0.41062619466687539 0 0.16526304614212209 0.42908608809292892 0 0.1809560021812836 0.43814832633623357 0 0.16598328874466911 0.44273574664910909 0 0.16526304614212209 0.42908608809292892 0 0.18469425222239219 0.42125941149134333 0 0.1809560021812836 0.43814832633623357 0 0.1711416470664554 0.41062619466687539 0 0.16526304614212209 0.42908608809292892 0 0.18469425222239219 0.42125941149134333 0 0.1711416470664554 0.41062619466687539 0 0.18469425222239219 0.42125941149134333 0 0.1843100454414533 0.40126956181167389 0 0.1711416470664554 0.41062619466687539 0 0.1843100454414533 0.40126956181167389 0 0.16952276405911931 0.3912061138884545 0 0.1843100454414533 0.40126956181167389 0 0.16952276405911931 0.3912061138884545 0 0.18589276442329861 0.38606835492789338 0 0.15352992747694119 0.40026604784697911 0 0.1711416470664554 0.41062619466687539 0 0.16952276405911931 0.3912061138884545 0 0.15352992747694119 0.40026604784697911 0 0.15185568245476189 0.37707061606136422 0 0.16952276405911931 0.3912061138884545 0 0.17197644233242751 0.37002706837148541 0 0.15185568245476189 0.37707061606136422 0 0.16952276405911931 0.3912061138884545 0 0.17197644233242751 0.37002706837148541 0 0.16952276405911931 0.3912061138884545 0 0.18589276442329861 0.38606835492789338 0 0.19217836357317111 0.36996972767433872 0 0.17197644233242751 0.37002706837148541 0 0.18589276442329861 0.38606835492789338 0 0.18589276442329861 0.38606835492789338 0 0.20289108470775991 0.38370682355227331 0 0.19700705340585539 0.39579078134538831 0 0.19217836357317111 0.36996972767433872 0 0.18589276442329861 0.38606835492789338 0 0.20289108470775991 0.38370682355227331 0 0.19700705340585539 0.39579078134538831 0 0.21316338490038089 0.39704202397260657 0 0.19877798755638451 0.41086714246249401 0 0.1843100454414533 0.40126956181167389 0 0.19700705340585539 0.39579078134538831 0 0.19877798755638451 0.41086714246249401 0 0.1843100454414533 0.40126956181167389 0 0.18589276442329861 0.38606835492789338 0 0.19700705340585539 0.39579078134538831 0 0.20289108470775991 0.38370682355227331 0 0.19700705340585539 0.39579078134538831 0 0.21316338490038089 0.39704202397260657 0 0.20931495008602691 0.36890180222237801 0 0.20289108470775991 0.38370682355227331 0 0.21961872799640589 0.38146559318592133 0 0.20289108470775991 0.38370682355227331 0 0.21316338490038089 0.39704202397260657 0 0.21961872799640589 0.38146559318592133 0 0.22513916990612379 0.36868200325308897 0 0.21961872799640589 0.38146559318592133 0 0.2386764282036242 0.37725286527910618 0 0.21961872799640589 0.38146559318592133 0 0.22852735017452019 0.39320804083607441 0 0.2386764282036242 0.37725286527910618 0 0.21316338490038089 0.39704202397260657 0 0.21961872799640589 0.38146559318592133 0 0.22852735017452019 0.39320804083607441 0 0.21316338490038089 0.39704202397260657 0 0.22852735017452019 0.39320804083607441 0 0.22983145469658259 0.40925978250573319 0 0.21316338490038089 0.39704202397260657 0 0.22983145469658259 0.40925978250573319 0 0.22852735017452019 0.39320804083607441 0 0.2429624777480478 0.39890547698508871 0 0.22983145469658259 0.40925978250573319 0 0.2429624777480478 0.39890547698508871 0 0.2386764282036242 0.37725286527910618 0 0.22852735017452019 0.39320804083607441 0 0.2429624777480478 0.39890547698508871 0 0.2386764282036242 0.37725286527910618 0 0.2429624777480478 0.39890547698508871 0 0.2386764282036242 0.37725286527910618 0 0.25341304662754638 0.38974012394171498 0 0.2386764282036242 0.37725286527910618 0 0.25383912625151372 0.37755129754335942 0 0.25341304662754638 0.38974012394171498 0 0.24649952449278431 0.42147754103885982 0 0.22996656543308741 0.44177288309861867 0 0.24946733303660301 0.43176723098649622 0 0.24649952449278431 0.42147754103885982 0 0.22996656543308741 0.44177288309861867 0 0.24649952449278431 0.42147754103885982 0 0.22738899126970491 0.42458926785457718 0 0.22996656543308741 0.44177288309861867 0 0.24946733303660301 0.43176723098649622 0 0.24649952449278431 0.42147754103885982 0 0.2429624777480478 0.39890547698508871 0 0.24649952449278431 0.42147754103885982 0 0.24649952449278431 0.42147754103885982 0 0.22983145469658259 0.40925978250573319 0 0.22738899126970491 0.42458926785457718 0 0.24649952449278431 0.42147754103885982 0 0.22983145469658259 0.40925978250573319 0 0.2429624777480478 0.39890547698508871 0 0.24649952449278431 0.42147754103885982 0 0.22983145469658259 0.40925978250573319 0 0.21316338490038089 0.39704202397260657 0 0.22983145469658259 0.40925978250573319 0 0.21370806227123909 0.41789950377956148 0 0.22983145469658259 0.40925978250573319 0 0.22738899126970491 0.42458926785457718 0 0.21370806227123909 0.41789950377956148 0 0.22738899126970491 0.42458926785457718 0 0.21739304288862979 0.43200563017257382 0 0.22996656543308741 0.44177288309861867 0 0.22738899126970491 0.42458926785457718 0 0.21739304288862979 0.43200563017257382 0 0.21370806227123909 0.41789950377956148 0 0.21739304288862979 0.43200563017257382 0 0.1999317510848099 0.43097584272053618 0 0.2111195299095035 0.44359306409302351 0 0.21739304288862979 0.43200563017257382 0 0.21370806227123909 0.41789950377956148 0 0.1999317510848099 0.43097584272053618 0 0.21370806227123909 0.41789950377956148 0 0.19877798755638451 0.41086714246249401 0 0.1999317510848099 0.43097584272053618 0 0.21316338490038089 0.39704202397260657 0 0.21370806227123909 0.41789950377956148 0 0.19877798755638451 0.41086714246249401 0 0.18469425222239219 0.42125941149134333 0 0.19877798755638451 0.41086714246249401 0 0.1999317510848099 0.43097584272053618 0 0.18469425222239219 0.42125941149134333 0 0.1843100454414533 0.40126956181167389 0 0.19877798755638451 0.41086714246249401 0 0.18469425222239219 0.42125941149134333 0 0.1999317510848099 0.43097584272053618 0 0.1809560021812836 0.43814832633623357 0 0.1999317510848099 0.43097584272053618 0 0.19479511809318301 0.4526549487178691 0 0.2111195299095035 0.44359306409302351 0 0.1999317510848099 0.43097584272053618 0 0.19479511809318301 0.4526549487178691 0 0.1809560021812836 0.43814832633623357 0 0.19479511809318301 0.4526549487178691 0 0.213169792932182 0.46047172596691099 0 0.19211155850092579 0.47790980627879082 0 0.19479511809318301 0.4526549487178691 0 0.19211155850092579 0.47790980627879082 0 0.18348770279874721 0.46143911161818069 0 0.213169792932182 0.46047172596691099 0 0.2111195299095035 0.44359306409302351 0 0.22996656543308741 0.44177288309861867 0 0.19479511809318301 0.4526549487178691 0 0.213169792932182 0.46047172596691099 0 0.2111195299095035 0.44359306409302351 0 0.21739304288862979 0.43200563017257382 0 0.2111195299095035 0.44359306409302351 0 0.22996656543308741 0.44177288309861867 0 0.22996656543308741 0.44177288309861867 0 0.22854105436186559 0.46372788353366717 0 0.24141841662185301 0.45603819576859073 0 0.213169792932182 0.46047172596691099 0 0.22854105436186559 0.46372788353366717 0 0.221321310837439 0.47674074212904899 0 0.213169792932182 0.46047172596691099 0 0.22996656543308741 0.44177288309861867 0 0.22854105436186559 0.46372788353366717 0 0.24141841662185301 0.45603819576859073 0 0.23645949407781469 0.47608243786178739 0 0.25047151807745072 0.47036873115219768 0 0.22854105436186559 0.46372788353366717 0 0.24141841662185301 0.45603819576859073 0 0.23645949407781469 0.47608243786178739 0 0.24141841662185301 0.45603819576859073 0 0.25047151807745072 0.47036873115219768 0 0.25477099823403621 0.45804476415031298 0 0.24141841662185301 0.45603819576859073 0 0.25282491994113748 0.44831200937164878 0 0.25477099823403621 0.45804476415031298 0 0.22996656543308741 0.44177288309861867 0 0.24141841662185301 0.45603819576859073 0 0.24583280085865111 0.44361242472787987 0 0.24946733303660301 0.43176723098649622 0 0.22996656543308741 0.44177288309861867 0 0.24583280085865111 0.44361242472787987 0 0.24141841662185301 0.45603819576859073 0 0.24583280085865111 0.44361242472787987 0 0.25282491994113748 0.44831200937164878 0 0.24904418528453851 0.48634810883828161 0 0.23645949407781469 0.47608243786178739 0 0.23352830384551029 0.49999999999999978 0 0.24904418528453851 0.48634810883828161 0 0.23352830384551029 0.49999999999999978 0 0.25181722630913472 0.5 0 0.24904418528453851 0.48634810883828161 0 0.23645949407781469 0.47608243786178739 0 0.25047151807745072 0.47036873115219768 0 0.23645949407781469 0.47608243786178739 0 0.221321310837439 0.47674074212904899 0 0.23352830384551029 0.49999999999999978 0 0.22854105436186559 0.46372788353366717 0 0.23645949407781469 0.47608243786178739 0 0.221321310837439 0.47674074212904899 0 0.23352830384551029 0.49999999999999978 0 0.2128199311732181 0.48895490313939532 0 0.21702906166474581 0.5 0 0.23352830384551029 0.49999999999999978 0 0.2128199311732181 0.48895490313939532 0 0.221321310837439 0.47674074212904899 0 0.23352830384551029 0.49999999999999978 0 0.2128199311732181 0.48895490313939532 0 0.2128199311732181 0.48895490313939532 0 0.21702906166474581 0.5 0 0.20052981948398141 0.49999999999999989 0 0.213169792932182 0.46047172596691099 0 0.221321310837439 0.47674074212904899 0 0.19211155850092579 0.47790980627879082 0 0.221321310837439 0.47674074212904899 0 0.2128199311732181 0.48895490313939532 0 0.19211155850092579 0.47790980627879082 0 0.2128199311732181 0.48895490313939532 0 0.19211155850092579 0.47790980627879082 0 0.2128199311732181 0.48895490313939532 0 0.20052981948398141 0.49999999999999989 0 0.19295831529489699 0.4905304616351287 0 0.2128199311732181 0.48895490313939532 0 0.19211155850092579 0.47790980627879082 0 0.19295831529489699 0.4905304616351287 0 0.20052981948398141 0.49999999999999989 0 0.1839227339461352 0.49861489743603538 0 0.20052981948398141 0.49999999999999989 0 0.19295831529489699 0.4905304616351287 0 0.1839227339461352 0.49861489743603538 0 0.19211155850092579 0.47790980627879082 0 0.19295831529489699 0.4905304616351287 0 0.1809625144841838 0.48570342190566712 0 0.1839227339461352 0.49861489743603538 0 0.1809625144841838 0.48570342190566712 0 0.16731564840828889 0.49722979487207219 0 0.1839227339461352 0.49861489743603538 0 0.16731564840828889 0.49722979487207219 0 0.1839227339461352 0.49861489743603538 0 0.1669427425872391 0.49999999999999922 0 0.16731564840828889 0.49722979487207219 0 0.19295831529489699 0.4905304616351287 0 0.1839227339461352 0.49861489743603538 0 0.1809625144841838 0.48570342190566712 0 0.1809625144841838 0.48570342190566712 0 0.16731564840828889 0.49722979487207219 0 0.16935941711846161 0.48204725214512889 0 0.16731564840828889 0.49722979487207219 0 0.157708884996551 0.48584061526662409 0 0.14611751268168829 0.49546177892012921 0 0.16731564840828889 0.49722979487207219 0 0.14611751268168829 0.49546177892012921 0 0.1669427425872391 0.49999999999999922 0 0.16731564840828889 0.49722979487207219 0 0.14611751268168829 0.49546177892012921 0 0.1669427425872391 0.49999999999999922 0 0.16731564840828889 0.49722979487207219 0 0.16731564840828889 0.49722979487207219 0 0.16935941711846161 0.48204725214512889 0 0.16731564840828889 0.49722979487207219 0 0.157708884996551 0.48584061526662409 0 0.16935941711846161 0.48204725214512889 0 0.16382575626869561 0.4735735187060508 0 0.15802571703479451 0.46684670821381258 0 0.1531189490294651 0.47544631339495541 0 0.157708884996551 0.48584061526662409 0 0.16382575626869561 0.4735735187060508 0 0.1531189490294651 0.47544631339495541 0 0.157708884996551 0.48584061526662409 0 0.16382575626869561 0.4735735187060508 0 0.16935941711846161 0.48204725214512889 0 0.16935941711846161 0.48204725214512889 0 0.17140318582863401 0.46686470941818559 0 0.16382575626869561 0.4735735187060508 0 0.16935941711846161 0.48204725214512889 0 0.17140318582863401 0.46686470941818559 0 0.1809625144841838 0.48570342190566712 0 0.16935941711846161 0.48204725214512889 0 0.17140318582863401 0.46686470941818559 0 0.19211155850092579 0.47790980627879082 0 0.1809625144841838 0.48570342190566712 0 0.17140318582863401 0.46686470941818559 0 0.19211155850092579 0.47790980627879082 0 0.17140318582863401 0.46686470941818559 0 0.19479511809318301 0.4526549487178691 0 0.18348770279874721 0.46143911161818069 0 0.17341546959919829 0.45191605883299152 0 0.19211155850092579 0.47790980627879082 0 0.18348770279874721 0.46143911161818069 0 0.17140318582863401 0.46686470941818559 0 0.18348770279874721 0.46143911161818069 0 0.17341546959919829 0.45191605883299152 0 0.17140318582863401 0.46686470941818559 0 0.17341546959919829 0.45191605883299152 0 0.17140318582863401 0.46686470941818559 0 0.19479511809318301 0.4526549487178691 0 0.1809560021812836 0.43814832633623357 0 0.17341546959919829 0.45191605883299152 0 0.1809560021812836 0.43814832633623357 0 0.17341546959919829 0.45191605883299152 0 0.16598328874466911 0.44273574664910909 0 0.17341546959919829 0.45191605883299152 0 0.16598328874466911 0.44273574664910909 0 0.15954778128093949 0.4508222386347599 0 0.16598328874466911 0.44273574664910909 0 0.15954778128093949 0.4508222386347599 0 0.1507341445198021 0.44370602134863157 0 0.16526304614212209 0.42908608809292892 0 0.16598328874466911 0.44273574664910909 0 0.1507341445198021 0.44370602134863157 0 0.16382575626869561 0.4735735187060508 0 0.1651762257979181 0.46354347419730452 0 0.17140318582863401 0.46686470941818559 0 0.1651762257979181 0.46354347419730452 0 0.17140318582863401 0.46686470941818559 0 0.17341546959919829 0.45191605883299152 0 0.1651762257979181 0.46354347419730452 0 0.17140318582863401 0.46686470941818559 0 0.17341546959919829 0.45191605883299152 0 0.15954778128093949 0.4508222386347599 0 0.1651762257979181 0.46354347419730452 0 0.15954778128093949 0.4508222386347599 0 0.1651762257979181 0.46354347419730452 0 0.1582471669695637 0.45974252444074731 0 0.16382575626869561 0.4735735187060508 0 0.1651762257979181 0.46354347419730452 0 0.15802571703479451 0.46684670821381258 0 0.1651762257979181 0.46354347419730452 0 0.1582471669695637 0.45974252444074731 0 0.15802571703479451 0.46684670821381258 0 0.14976048710833001 0.46192771033000529 0 0.1507341445198021 0.44370602134863157 0 0.136404492151351 0.45486193181106682 0 0.1582471669695637 0.45974252444074731 0 0.15802571703479451 0.46684670821381258 0 0.14976048710833001 0.46192771033000529 0 0.15802571703479451 0.46684670821381258 0 0.14976048710833001 0.46192771033000529 0 0.1531189490294651 0.47544631339495541 0 0.15954778128093949 0.4508222386347599 0 0.1582471669695637 0.45974252444074731 0 0.14976048710833001 0.46192771033000529 0 0.14976048710833001 0.46192771033000529 0 0.136404492151351 0.45486193181106682 0 0.13663143795624749 0.46910754811773492 0 0.15954778128093949 0.4508222386347599 0 0.14976048710833001 0.46192771033000529 0 0.1507341445198021 0.44370602134863157 0 0.1507341445198021 0.44370602134863157 0 0.13510526379757609 0.44116740875256688 0 0.136404492151351 0.45486193181106682 0 0.1221607865463437 0.4507156547582637 0 0.12259086230274099 0.42947812748907283 0 0.13510526379757609 0.44116740875256688 0 0.1221607865463437 0.4507156547582637 0 0.13510526379757609 0.44116740875256688 0 0.136404492151351 0.45486193181106682 0 0.136404492151351 0.45486193181106682 0 0.1267882431275838 0.46370707134437261 0 0.13663143795624749 0.46910754811773492 0 0.1221607865463437 0.4507156547582637 0 0.136404492151351 0.45486193181106682 0 0.1267882431275838 0.46370707134437261 0 0.1267882431275838 0.46370707134437261 0 0.12569724768963239 0.47617993877849962 0 0.13663143795624749 0.46910754811773492 0 0.12569724768963239 0.47617993877849962 0 0.13663143795624749 0.46910754811773492 0 0.1364132019148096 0.48384982340983701 0 0.13663143795624749 0.46910754811773492 0 0.1364132019148096 0.48384982340983701 0 0.14361111091913481 0.47574478002545789 0 0.1249193769550877 0.49369376296818718 0 0.1364132019148096 0.48384982340983701 0 0.14611751268168829 0.49546177892012921 0 0.1249193769550877 0.49369376296818718 0 0.14611751268168829 0.49546177892012921 0 0.1249193769550877 0.49369376296818718 0 0.12569724768963239 0.47617993877849962 0 0.1364132019148096 0.48384982340983701 0 0.1249193769550877 0.49369376296818718 0 0.13738437864054501 0.5 0 0.14611751268168829 0.49546177892012921 0 0.1364132019148096 0.48384982340983701 0 0.14611751268168829 0.49546177892012921 0 0.14718343377546941 0.48347361591025501 0 0.1669427425872391 0.49999999999999922 0 0.13738437864054501 0.5 0 0.14611751268168829 0.49546177892012921 0 0.157708884996551 0.48584061526662409 0 0.14611751268168829 0.49546177892012921 0 0.14718343377546941 0.48347361591025501 0 0.157708884996551 0.48584061526662409 0 0.1531189490294651 0.47544631339495541 0 0.14718343377546941 0.48347361591025501 0 0.14976048710833001 0.46192771033000529 0 0.1531189490294651 0.47544631339495541 0 0.14361111091913481 0.47574478002545789 0 0.14976048710833001 0.46192771033000529 0 0.13663143795624749 0.46910754811773492 0 0.14361111091913481 0.47574478002545789 0 0.1364132019148096 0.48384982340983701 0 0.14361111091913481 0.47574478002545789 0 0.14718343377546941 0.48347361591025501 0 0.1531189490294651 0.47544631339495541 0 0.14361111091913481 0.47574478002545789 0 0.14718343377546941 0.48347361591025501 0 0.35832214194920592 0.47929915408112939 0 0.34611268429232461 0.46591887339206078 0 0.3375369348076922 0.4829399206954248 0 0.35832214194920592 0.47929915408112939 0 0.35850557312216419 0.5 0 0.3375369348076922 0.4829399206954248 0 0.35850557312216419 0.5 0 0.37801407526051067 0.48065415083330842 0 0.38797204790529932 0.5 0 0.35832214194920592 0.47929915408112939 0 0.35850557312216419 0.5 0 0.37801407526051067 0.48065415083330842 0 0.35832214194920592 0.47929915408112939 0 0.36980735363827261 0.46050290225189661 0 0.37801407526051067 0.48065415083330842 0 0.36980735363827261 0.46050290225189661 0 0.34502769605759259 0.44546544446971242 0 0.36959298495063608 0.43610817863788948 0 0.35832214194920592 0.47929915408112939 0 0.36980735363827261 0.46050290225189661 0 0.34611268429232461 0.46591887339206078 0 0.36980735363827261 0.46050290225189661 0 0.34502769605759259 0.44546544446971242 0 0.34611268429232461 0.46591887339206078 0 0.36980735363827261 0.46050290225189661 0 0.34611268429232461 0.46591887339206078 0 0.34611268429232461 0.46591887339206078 0 0.3317687487832644 0.45597005559148451 0 0.32241801494637662 0.47133484453222518 0 0.34502769605759259 0.44546544446971242 0 0.34611268429232461 0.46591887339206078 0 0.3317687487832644 0.45597005559148451 0 0.34611268429232461 0.46591887339206078 0 0.32241801494637662 0.47133484453222518 0 0.34502769605759259 0.44546544446971242 0 0.3317687487832644 0.45597005559148451 0 0.32480939915707069 0.44218818576869201 0 0.34502769605759259 0.44546544446971242 0 0.32480939915707069 0.44218818576869201 0 0.33523501366627878 0.43221560569608392 0 0.3107318966111981 0.4514989769174147 0 0.3227404476219688 0.42624713816244092 0 0.3317687487832644 0.45597005559148451 0 0.32480939915707069 0.44218818576869201 0 0.3107318966111981 0.4514989769174147 0 0.32480939915707069 0.44218818576869201 0 0.3107318966111981 0.4514989769174147 0 0.3227404476219688 0.42624713816244092 0 0.3317687487832644 0.45597005559148451 0 0.32241801494637662 0.47133484453222518 0 0.3107318966111981 0.4514989769174147 0 0.32241801494637662 0.47133484453222518 0 0.3375369348076922 0.4829399206954248 0 0.31372501333874958 0.48784291822244708 0 0.34611268429232461 0.46591887339206078 0 0.32241801494637662 0.47133484453222518 0 0.3375369348076922 0.4829399206954248 0 0.35850557312216419 0.5 0 0.3375369348076922 0.4829399206954248 0 0.32903909833902928 0.5 0 0.32903909833902928 0.5 0 0.31372501333874958 0.48784291822244708 0 0.29957262355589431 0.5 0 0.3375369348076922 0.4829399206954248 0 0.32903909833902928 0.5 0 0.31372501333874958 0.48784291822244708 0 0.31372501333874958 0.48784291822244708 0 0.30130976803097798 0.48891801032572652 0 0.29957262355589431 0.5 0 0.31372501333874958 0.48784291822244708 0 0.30130976803097798 0.48891801032572652 0 0.29872334560042851 0.47675081567238892 0 0.30130976803097798 0.48891801032572652 0 0.29957262355589431 0.5 0 0.28978827390519868 0.49553967616935518 0 0.32241801494637662 0.47133484453222518 0 0.29872334560042851 0.47675081567238892 0 0.32241801494637662 0.47133484453222518 0 0.31372501333874958 0.48784291822244708 0 0.29872334560042851 0.47675081567238892 0 0.29872334560042851 0.47675081567238892 0 0.28397488520641462 0.48012192141307769 0 0.28978827390519868 0.49553967616935518 0 0.29872334560042851 0.47675081567238892 0 0.28929399795500932 0.47058792179259418 0 0.29703527816799058 0.46117092995693892 0 0.29872334560042851 0.47675081567238892 0 0.28929399795500932 0.47058792179259418 0 0.28397488520641462 0.48012192141307769 0 0.29872334560042851 0.47675081567238892 0 0.28397488520641462 0.48012192141307769 0 0.28929399795500932 0.47058792179259418 0 0.28397488520641462 0.48012192141307769 0 0.27920072977811172 0.47805830749059319 0 0.28397488520641462 0.48012192141307769 0 0.28978827390519868 0.49553967616935518 0 0.27010614877275918 0.50000000000000067 0 0.29957262355589431 0.5 0 0.28978827390519868 0.49553967616935518 0 0.27010614877275918 0.50000000000000067 0 0.30130976803097798 0.48891801032572652 0 0.29872334560042851 0.47675081567238892 0 0.28978827390519868 0.49553967616935518 0 0.29872334560042851 0.47675081567238892 0 0.28978827390519868 0.49553967616935518 0 0.28397488520641462 0.48012192141307769 0 0.27010614877275918 0.50000000000000067 0 0.27920072977811172 0.47805830749059319 0 0.27010614877275918 0.50000000000000067 0 0.26909437115437917 0.48384867389528768 0 0.26130641782501518 0.49139676135406141 0 0.27010614877275918 0.50000000000000067 0 0.27920072977811172 0.47805830749059319 0 0.26909437115437917 0.48384867389528768 0 0.27010614877275918 0.50000000000000067 0 0.27920072977811172 0.47805830749059319 0 0.27920072977811172 0.47805830749059319 0 0.27306774476234302 0.47644699960251641 0 0.26909437115437917 0.48384867389528768 0 0.27920072977811172 0.47805830749059319 0 0.27306774476234302 0.47644699960251641 0 0.27643472525740193 0.46726539210963169 0 0.26824582816420722 0.47348896141386071 0 0.27306774476234302 0.47644699960251641 0 0.27643472525740193 0.46726539210963169 0 0.26824582816420722 0.47348896141386071 0 0.26909437115437917 0.48384867389528768 0 0.25993240985832161 0.47939275616227872 0 0.26824582816420722 0.47348896141386071 0 0.27306774476234302 0.47644699960251641 0 0.26909437115437917 0.48384867389528768 0 0.24904418528453851 0.48634810883828161 0 0.25993240985832161 0.47939275616227872 0 0.25047151807745072 0.47036873115219768 0 0.26824582816420722 0.47348896141386071 0 0.25993240985832161 0.47939275616227872 0 0.26165523792153211 0.46576309323832682 0 0.25993240985832161 0.47939275616227872 0 0.25047151807745072 0.47036873115219768 0 0.26165523792153211 0.46576309323832682 0 0.27010614877275918 0.50000000000000067 0 0.25181722630913472 0.5 0 0.26130641782501518 0.49139676135406141 0 0.24904418528453851 0.48634810883828161 0 0.25993240985832161 0.47939275616227872 0 0.26130641782501518 0.49139676135406141 0 0.24904418528453851 0.48634810883828161 0 0.25181722630913472 0.5 0 0.26130641782501518 0.49139676135406141 0 0.26909437115437917 0.48384867389528768 0 0.25993240985832161 0.47939275616227872 0 0.26130641782501518 0.49139676135406141 0 0.26490489917960358 0.45079530358348557 0 0.25548676926057468 0.44017180441404491 0 0.26331147225899149 0.43380076267102891 0 0.24946733303660301 0.43176723098649622 0 0.24583280085865111 0.44361242472787987 0 0.25548676926057468 0.44017180441404491 0 0.24583280085865111 0.44361242472787987 0 0.25548676926057468 0.44017180441404491 0 0.25282491994113748 0.44831200937164878 0 0.26490489917960358 0.45079530358348557 0 0.25548676926057468 0.44017180441404491 0 0.25282491994113748 0.44831200937164878 0 0.26490489917960358 0.45079530358348557 0 0.25282491994113748 0.44831200937164878 0 0.25477099823403621 0.45804476415031298 0 0.25047151807745072 0.47036873115219768 0 0.25477099823403621 0.45804476415031298 0 0.26165523792153211 0.46576309323832682 0 0.26490489917960358 0.45079530358348557 0 0.25477099823403621 0.45804476415031298 0 0.26165523792153211 0.46576309323832682 0 0.26490489917960358 0.45079530358348557 0 0.27160577401557351 0.46248804296782559 0 0.27679169795675967 0.45600994403837303 0 0.26490489917960358 0.45079530358348557 0 0.26165523792153211 0.46576309323832682 0 0.27160577401557351 0.46248804296782559 0 0.26824582816420722 0.47348896141386071 0 0.27160577401557351 0.46248804296782559 0 0.27643472525740193 0.46726539210963169 0 0.26824582816420722 0.47348896141386071 0 0.26165523792153211 0.46576309323832682 0 0.27160577401557351 0.46248804296782559 0 0.27160577401557351 0.46248804296782559 0 0.27643472525740193 0.46726539210963169 0 0.27679169795675967 0.45600994403837303 0 0.27643472525740193 0.46726539210963169 0 0.27679169795675967 0.45600994403837303 0 0.28829531078346382 0.45611661498118572 0 0.27903440424894049 0.4453257315987294 0 0.26331147225899149 0.43380076267102891 0 0.26490489917960358 0.45079530358348557 0 0.27903440424894049 0.4453257315987294 0 0.26331147225899149 0.43380076267102891 0 0.26490489917960358 0.45079530358348557 0 0.27679169795675967 0.45600994403837303 0 0.27903440424894049 0.4453257315987294 0 0.27903440424894049 0.4453257315987294 0 0.2917470315179379 0.44281751567604499 0 0.28179675760275558 0.42932557237874241 0 0.27679169795675967 0.45600994403837303 0 0.27903440424894049 0.4453257315987294 0 0.28829531078346382 0.45611661498118572 0 0.27903440424894049 0.4453257315987294 0 0.2917470315179379 0.44281751567604499 0 0.28829531078346382 0.45611661498118572 0 0.2917470315179379 0.44281751567604499 0 0.28829531078346382 0.45611661498118572 0 0.29813183988985342 0.45090032042111128 0 0.27920072977811172 0.47805830749059319 0 0.27643472525740193 0.46726539210963169 0 0.28829531078346382 0.45611661498118572 0 0.28929399795500932 0.47058792179259418 0 0.27920072977811172 0.47805830749059319 0 0.28829531078346382 0.45611661498118572 0 0.27920072977811172 0.47805830749059319 0 0.28829531078346382 0.45611661498118572 0 0.28829531078346382 0.45611661498118572 0 0.29703527816799058 0.46117092995693892 0 0.29813183988985342 0.45090032042111128 0 0.28929399795500932 0.47058792179259418 0 0.28829531078346382 0.45611661498118572 0 0.29703527816799058 0.46117092995693892 0 0.29872334560042851 0.47675081567238892 0 0.29703527816799058 0.46117092995693892 0 0.3107318966111981 0.4514989769174147 0 0.29872334560042851 0.47675081567238892 0 0.3107318966111981 0.4514989769174147 0 0.32241801494637662 0.47133484453222518 0 0.29872334560042851 0.47675081567238892 0 0.3107318966111981 0.4514989769174147 0 0.29703527816799058 0.46117092995693892 0 0.29813183988985342 0.45090032042111128 0 0.3107318966111981 0.4514989769174147 0 0.30159082278473881 0.44219288247638061 0 0.3107318966111981 0.4514989769174147 0 0.30884109342504262 0.43428586920116352 0 0.2917470315179379 0.44281751567604499 0 0.30159082278473881 0.44219288247638061 0 0.29850225247966211 0.43146173016616862 0 0.2917470315179379 0.44281751567604499 0 0.30159082278473881 0.44219288247638061 0 0.29813183988985342 0.45090032042111128 0 0.30159082278473881 0.44219288247638061 0 0.29813183988985342 0.45090032042111128 0 0.3107318966111981 0.4514989769174147 0 0.30884109342504262 0.43428586920116352 0 0.29850225247966211 0.43146173016616862 0 0.30862162828234507 0.42004495563460759 0 0.29850225247966211 0.43146173016616862 0 0.30862162828234507 0.42004495563460759 0 0.29547148538100448 0.41817397575591742 0 0.30159082278473881 0.44219288247638061 0 0.30884109342504262 0.43428586920116352 0 0.29850225247966211 0.43146173016616862 0 0.30862162828234507 0.42004495563460759 0 0.30304430461131138 0.40735012112542651 0 0.3196782615082488 0.40265332564926309 0 0.30862162828234507 0.42004495563460759 0 0.30304430461131138 0.40735012112542651 0 0.29547148538100448 0.41817397575591742 0 0.30304430461131138 0.40735012112542651 0 0.29062365375375682 0.40708788978866228 0 0.29547148538100448 0.41817397575591742 0 0.29062365375375682 0.40708788978866228 0 0.29547148538100448 0.41817397575591742 0 0.28288479604298378 0.41446876034122271 0 0.29547148538100448 0.41817397575591742 0 0.28288479604298378 0.41446876034122271 0 0.28179675760275558 0.42932557237874241 0 0.29062365375375682 0.40708788978866228 0 0.28288479604298378 0.41446876034122271 0 0.28001120465417539 0.40182109974822727 0 0.29850225247966211 0.43146173016616862 0 0.29547148538100448 0.41817397575591742 0 0.28179675760275558 0.42932557237874241 0 0.2917470315179379 0.44281751567604499 0 0.29850225247966211 0.43146173016616862 0 0.28179675760275558 0.42932557237874241 0 0.28179675760275558 0.42932557237874241 0 0.27042562322166658 0.41684269204638819 0 0.26331147225899149 0.43380076267102891 0 0.27903440424894049 0.4453257315987294 0 0.28179675760275558 0.42932557237874241 0 0.26331147225899149 0.43380076267102891 0 0.27042562322166658 0.41684269204638819 0 0.26380858941988822 0.4002294757553399 0 0.28001120465417539 0.40182109974822727 0 0.28288479604298378 0.41446876034122271 0 0.28179675760275558 0.42932557237874241 0 0.27042562322166658 0.41684269204638819 0 0.28288479604298378 0.41446876034122271 0 0.27042562322166658 0.41684269204638819 0 0.28001120465417539 0.40182109974822727 0 0.24649952449278431 0.42147754103885982 0 0.25492995388566009 0.41993008507457552 0 0.26380858941988822 0.4002294757553399 0 0.27042562322166658 0.41684269204638819 0 0.25492995388566009 0.41993008507457552 0 0.26380858941988822 0.4002294757553399 0 0.24649952449278431 0.42147754103885982 0 0.26380858941988822 0.4002294757553399 0 0.2429624777480478 0.39890547698508871 0 0.24649952449278431 0.42147754103885982 0 0.26380858941988822 0.4002294757553399 0 0.24946733303660301 0.43176723098649622 0 0.24649952449278431 0.42147754103885982 0 0.26331147225899149 0.43380076267102891 0 0.24649952449278431 0.42147754103885982 0 0.25492995388566009 0.41993008507457552 0 0.26331147225899149 0.43380076267102891 0 0.24649952449278431 0.42147754103885982 0 0.26331147225899149 0.43380076267102891 0 0.27042562322166658 0.41684269204638819 0 0.25492995388566009 0.41993008507457552 0 0.26331147225899149 0.43380076267102891 0 0.24946733303660301 0.43176723098649622 0 0.25548676926057468 0.44017180441404491 0 0.26331147225899149 0.43380076267102891 0 0.26350653962281989 0.38010735630523079 0 0.25341304662754638 0.38974012394171498 0 0.26380858941988822 0.4002294757553399 0 0.26350653962281989 0.38010735630523079 0 0.25383912625151372 0.37755129754335942 0 0.25710864090743918 0.37145542319719338 0 0.26350653962281989 0.38010735630523079 0 0.25383912625151372 0.37755129754335942 0 0.25341304662754638 0.38974012394171498 0 0.2429624777480478 0.39890547698508871 0 0.25341304662754638 0.38974012394171498 0 0.26380858941988822 0.4002294757553399 0 0.26380858941988822 0.4002294757553399 0 0.28001120465417539 0.40182109974822727 0 0.28036865154730628 0.37990086281960789 0 0.26350653962281989 0.38010735630523079 0 0.28036865154730628 0.37990086281960789 0 0.2641967246118288 0.36596915937278562 0 0.26380858941988822 0.4002294757553399 0 0.28036865154730628 0.37990086281960789 0 0.26350653962281989 0.38010735630523079 0 0.26380858941988822 0.4002294757553399 0 0.28036865154730628 0.37990086281960789 0 0.28036865154730628 0.37990086281960789 0 0.29170647807930872 0.39362549197251728 0 0.2987730087010142 0.37934426936791982 0 0.28036865154730628 0.37990086281960789 0 0.29170647807930872 0.39362549197251728 0 0.28001120465417539 0.40182109974822727 0 0.28036865154730628 0.37990086281960789 0 0.29170647807930872 0.39362549197251728 0 0.29062365375375682 0.40708788978866228 0 0.28001120465417539 0.40182109974822727 0 0.29170647807930872 0.39362549197251728 0 0.30304430461131138 0.40735012112542651 0 0.29062365375375682 0.40708788978866228 0 0.29170647807930872 0.39362549197251728 0 0.30304430461131138 0.40735012112542651 0 0.30637452063024528 0.39219955594670219 0 0.3196782615082488 0.40265332564926309 0 0.30304430461131138 0.40735012112542651 0 0.29170647807930872 0.39362549197251728 0 0.30304430461131138 0.40735012112542651 0 0.29170647807930872 0.39362549197251728 0 0.30637452063024528 0.39219955594670219 0 0.30637452063024528 0.39219955594670219 0 0.2987730087010142 0.37934426936791982 0 0.31661607539452802 0.37905951313608538 0 0.29170647807930872 0.39362549197251728 0 0.30637452063024528 0.39219955594670219 0 0.2987730087010142 0.37934426936791982 0 0.31661607539452802 0.37905951313608538 0 0.32905198958534931 0.38831461949406398 0 0.3196782615082488 0.40265332564926309 0 0.31661607539452802 0.37905951313608538 0 0.32905198958534931 0.38831461949406398 0 0.33389487655237682 0.3658352592629312 0 0.32905198958534931 0.38831461949406398 0 0.34270248502322931 0.38427053755298168 0 0.33389487655237682 0.3658352592629312 0 0.32905198958534931 0.38831461949406398 0 0.34270248502322931 0.38427053755298168 0 0.33272146632259869 0.40525883785771122 0 0.34270248502322931 0.38427053755298168 0 0.33272146632259869 0.40525883785771122 0 0.34270248502322931 0.38427053755298168 0 0.33272146632259869 0.40525883785771122 0 0.34670895149724801 0.40816004440777182 0 0.31661607539452802 0.37905951313608538 0 0.3196782615082488 0.40265332564926309 0 0.32905198958534931 0.38831461949406398 0 0.33272146632259869 0.40525883785771122 0 0.3196782615082488 0.40265332564926309 0 0.30637452063024528 0.39219955594670219 0 0.31661607539452802 0.37905951313608538 0 0.3196782615082488 0.40265332564926309 0 0.3196782615082488 0.40265332564926309 0 0.3227404476219688 0.42624713816244092 0 0.30862162828234507 0.42004495563460759 0 0.3196782615082488 0.40265332564926309 0 0.3227404476219688 0.42624713816244092 0 0.33272146632259869 0.40525883785771122 0 0.3196782615082488 0.40265332564926309 0 0.3227404476219688 0.42624713816244092 0 0.33272146632259869 0.40525883785771122 0 0.3227404476219688 0.42624713816244092 0 0.32480939915707069 0.44218818576869201 0 0.3227404476219688 0.42624713816244092 0 0.3107318966111981 0.4514989769174147 0 0.30884109342504262 0.43428586920116352 0 0.3227404476219688 0.42624713816244092 0 0.32480939915707069 0.44218818576869201 0 0.3227404476219688 0.42624713816244092 0 0.33523501366627878 0.43221560569608392 0 0.30884109342504262 0.43428586920116352 0 0.30862162828234507 0.42004495563460759 0 0.3227404476219688 0.42624713816244092 0 0.34502769605759259 0.44546544446971242 0 0.33523501366627878 0.43221560569608392 0 0.34795858503051302 0.425881111768525 0 0.3227404476219688 0.42624713816244092 0 0.33523501366627878 0.43221560569608392 0 0.33659904832278342 0.4201421825902541 0 0.33523501366627878 0.43221560569608392 0 0.33659904832278342 0.4201421825902541 0 0.34795858503051302 0.425881111768525 0 0.33272146632259869 0.40525883785771122 0 0.3227404476219688 0.42624713816244092 0 0.33659904832278342 0.4201421825902541 0 0.33272146632259869 0.40525883785771122 0 0.33659904832278342 0.4201421825902541 0 0.34670895149724801 0.40816004440777182 0 0.33659904832278342 0.4201421825902541 0 0.34670895149724801 0.40816004440777182 0 0.34795858503051302 0.425881111768525 0 0.34670895149724801 0.40816004440777182 0 0.34795858503051302 0.425881111768525 0 0.36336601300371613 0.41450991002864218 0 0.34670895149724801 0.40816004440777182 0 0.36336601300371613 0.41450991002864218 0 0.35690611128064731 0.3988976866485166 0 0.34502769605759259 0.44546544446971242 0 0.34795858503051302 0.425881111768525 0 0.36959298495063608 0.43610817863788948 0 0.34795858503051302 0.425881111768525 0 0.36959298495063608 0.43610817863788948 0 0.36336601300371613 0.41450991002864218 0 0.36959298495063608 0.43610817863788948 0 0.36336601300371613 0.41450991002864218 0 0.38530342098431941 0.41064856824057122 0 0.36336601300371613 0.41450991002864218 0 0.3736470799201031 0.39378130610698531 0 0.38530342098431941 0.41064856824057122 0 0.3736470799201031 0.39378130610698531 0 0.3601059063978746 0.38125551426405008 0 0.35690611128064731 0.3988976866485166 0 0.36336601300371613 0.41450991002864218 0 0.3736470799201031 0.39378130610698531 0 0.35690611128064731 0.3988976866485166 0 0.3736470799201031 0.39378130610698531 0 0.3601059063978746 0.38125551426405008 0 0.37414389550204002 0.36898578533419818 0 0.34270248502322931 0.38427053755298168 0 0.3601059063978746 0.38125551426405008 0 0.35690611128064731 0.3988976866485166 0 0.34270248502322931 0.38427053755298168 0 0.3601059063978746 0.38125551426405008 0 0.35268350372385993 0.36328223724825232 0 0.34270248502322931 0.38427053755298168 0 0.34670895149724801 0.40816004440777182 0 0.35690611128064731 0.3988976866485166 0 0.35268350372385993 0.36328223724825232 0 0.36266452242448938 0.34229393694352239 0 0.35030182712711511 0.35130594720886232 0 0.35268350372385993 0.36328223724825232 0 0.36266452242448938 0.34229393694352239 0 0.35030182712711511 0.35130594720886232 0 0.35146565257524442 0.34420791440797271 0 0.36266452242448938 0.34229393694352239 0 0.35030182712711511 0.35130594720886232 0 0.35146565257524442 0.34420791440797271 0 0.34269927497721508 0.34493512072036142 0 0.35030182712711511 0.35130594720886232 0 0.35268350372385993 0.36328223724825232 0 0.33389487655237682 0.3658352592629312 0 0.34270248502322931 0.38427053755298168 0 0.35268350372385993 0.36328223724825232 0 0.3601059063978746 0.38125551426405008 0 0.35268350372385993 0.36328223724825232 0 0.37414389550204002 0.36898578533419818 0 0.35268350372385993 0.36328223724825232 0 0.37414389550204002 0.36898578533419818 0 0.36300645299402812 0.35604351837507042 0 0.37414389550204002 0.36898578533419818 0 0.37228166628853332 0.35471301169251829 0 0.36300645299402812 0.35604351837507042 0 0.35268350372385993 0.36328223724825232 0 0.36300645299402812 0.35604351837507042 0 0.36266452242448938 0.34229393694352239 0 0.37228166628853332 0.35471301169251829 0 0.36300645299402812 0.35604351837507042 0 0.36840829020790361 0.34668560051738673 0 0.36300645299402812 0.35604351837507042 0 0.36840829020790361 0.34668560051738673 0 0.36266452242448938 0.34229393694352239 0 0.36840829020790361 0.34668560051738673 0 0.36266452242448938 0.34229393694352239 0 0.36587418437400321 0.34278907974668538 0 0.37228166628853332 0.35471301169251829 0 0.36840829020790361 0.34668560051738673 0 0.37486749369974542 0.34694596905823039 0 0.37486749369974542 0.34694596905823039 0 0.37256750073976291 0.34304532959464751 0 0.37670219357667811 0.34177383067972761 0 0.36840829020790361 0.34668560051738673 0 0.37486749369974542 0.34694596905823039 0 0.37256750073976291 0.34304532959464751 0 0.36124897776362869 0.33531944770056321 0 0.36266452242448938 0.34229393694352239 0 0.36411885078159001 0.32644375487552563 0 0.37256750073976291 0.34304532959464751 0 0.36916640720496519 0.34145859007673351 0 0.37369311900952262 0.33836265764115908 0 0.37256750073976291 0.34304532959464751 0 0.37369311900952262 0.33836265764115908 0 0.37670219357667811 0.34177383067972761 0 0.36266452242448938 0.34229393694352239 0 0.37014896644917339 0.316543878568457 0 0.36770298492566261 0.33637877995368609 0 0.36266452242448938 0.34229393694352239 0 0.37368960646642962 0.31911015363466272 0 0.36770298492566261 0.33637877995368609 0 0.36985494237623989 0.33311962493185521 0 0.37368960646642962 0.31911015363466272 0 0.36266452242448938 0.34229393694352239 0 0.37368960646642962 0.31911015363466272 0 0.36266452242448938 0.34229393694352239 0 0.37014896644917339 0.316543878568457 0 0.36411885078159001 0.32644375487552563 0 0.36840829020790361 0.34668560051738673 0 0.36916640720496519 0.34145859007673351 0 0.36587418437400321 0.34278907974668538 0 0.36840829020790361 0.34668560051738673 0 0.37256750073976291 0.34304532959464751 0 0.36916640720496519 0.34145859007673351 0 0.36916640720496519 0.34145859007673351 0 0.36587418437400321 0.34278907974668538 0 0.36708394454210669 0.33994961910346172 0 0.36916640720496519 0.34145859007673351 0 0.37010024416019238 0.33739894816112592 0 0.36708394454210669 0.33994961910346172 0 0.36916640720496519 0.34145859007673351 0 0.37010024416019238 0.33739894816112592 0 0.37369311900952262 0.33836265764115908 0 0.36770298492566261 0.33637877995368609 0 0.37010024416019238 0.33739894816112592 0 0.36708394454210669 0.33994961910346172 0 0.37010024416019238 0.33739894816112592 0 0.37369311900952262 0.33836265764115908 0 0.3722735272100694 0.33425106354392481 0 0.3722735272100694 0.33425106354392481 0 0.37245621682226088 0.32924087979990557 0 0.375263113682131 0.33313320718557798 0 0.37369311900952262 0.33836265764115908 0 0.3722735272100694 0.33425106354392481 0 0.375263113682131 0.33313320718557798 0 0.3722735272100694 0.33425106354392481 0 0.37245621682226088 0.32924087979990557 0 0.36985494237623989 0.33311962493185521 0 0.37245621682226088 0.32924087979990557 0 0.37577016905582622 0.32787937856968757 0 0.375263113682131 0.33313320718557798 0 0.37010024416019238 0.33739894816112592 0 0.3722735272100694 0.33425106354392481 0 0.36985494237623989 0.33311962493185521 0 0.36770298492566261 0.33637877995368609 0 0.37010024416019238 0.33739894816112592 0 0.36985494237623989 0.33311962493185521 0 0.36128237795215928 0.33126347269122047 0 0.36124897776362869 0.33531944770056321 0 0.36411885078159001 0.32644375487552563 0 0.36150631125237548 0.32912422255951068 0 0.36128237795215928 0.33126347269122047 0 0.36411885078159001 0.32644375487552563 0 0.36150631125237548 0.32912422255951068 0 0.35994194411877378 0.32646204206530971 0 0.35835984371964152 0.33045614064968309 0 0.36128237795215928 0.33126347269122047 0 0.35899626180536931 0.33430086833413269 0 0.35835984371964152 0.33045614064968309 0 0.36150631125237548 0.32912422255951068 0 0.36128237795215928 0.33126347269122047 0 0.35835984371964152 0.33045614064968309 0 0.36128237795215928 0.33126347269122047 0 0.36124897776362869 0.33531944770056321 0 0.35899626180536931 0.33430086833413269 0 0.36124897776362869 0.33531944770056321 0 0.36001134864139028 0.33778823672905661 0 0.35899626180536931 0.33430086833413269 0 0.36124897776362869 0.33531944770056321 0 0.36001134864139028 0.33778823672905661 0 0.36266452242448938 0.34229393694352239 0 0.36001134864139028 0.33778823672905661 0 0.36266452242448938 0.34229393694352239 0 0.3582225103283424 0.33883319475427592 0 0.36266452242448938 0.34229393694352239 0 0.36587418437400321 0.34278907974668538 0 0.36708394454210669 0.33994961910346172 0 0.36770298492566261 0.33637877995368609 0 0.36266452242448938 0.34229393694352239 0 0.36708394454210669 0.33994961910346172 0 0.36266452242448938 0.34229393694352239 0 0.37368960646642962 0.31911015363466272 0 0.37014896644917339 0.316543878568457 0 0.37014896644917339 0.316543878568457 0 0.36604953812300478 0.31497278055865852 0 0.36630954626425261 0.31087512405144152 0 0.37499251130121058 0.31593455150060828 0 0.37014896644917339 0.316543878568457 0 0.37695808612291098 0.31120865645681561 0 0.37499251130121058 0.31593455150060828 0 0.37368960646642962 0.31911015363466272 0 0.37014896644917339 0.316543878568457 0 0.37014896644917339 0.316543878568457 0 0.36646072203027302 0.32009490443849897 0 0.3659238024377004 0.31770243144255911 0 0.37014896644917339 0.316543878568457 0 0.3659238024377004 0.31770243144255911 0 0.36604953812300478 0.31497278055865852 0 0.37245621682226088 0.32924087979990557 0 0.36985494237623989 0.33311962493185521 0 0.37368960646642962 0.31911015363466272 0 0.37245621682226088 0.32924087979990557 0 0.37368960646642962 0.31911015363466272 0 0.37506056064123422 0.32471797871916308 0 0.37245621682226088 0.32924087979990557 0 0.37577016905582622 0.32787937856968757 0 0.37506056064123422 0.32471797871916308 0 0.37014896644917339 0.316543878568457 0 0.36411885078159001 0.32644375487552563 0 0.36646072203027302 0.32009490443849897 0 0.36411885078159001 0.32644375487552563 0 0.35994194411877378 0.32646204206530971 0 0.36132202517978662 0.32303080634539388 0 0.36150631125237548 0.32912422255951068 0 0.36411885078159001 0.32644375487552563 0 0.35994194411877378 0.32646204206530971 0 0.36132202517978662 0.32303080634539388 0 0.36348301458407639 0.32047903077872458 0 0.35962675317161102 0.31893041505789499 0 0.36411885078159001 0.32644375487552563 0 0.36132202517978662 0.32303080634539388 0 0.36348301458407639 0.32047903077872458 0 0.36411885078159001 0.32644375487552563 0 0.36348301458407639 0.32047903077872458 0 0.36646072203027302 0.32009490443849897 0 0.36348301458407639 0.32047903077872458 0 0.36646072203027302 0.32009490443849897 0 0.3659238024377004 0.31770243144255911 0 0.3659238024377004 0.31770243144255911 0 0.36344593390349789 0.31667187251247519 0 0.36604953812300478 0.31497278055865852 0 0.36348301458407639 0.32047903077872458 0 0.3659238024377004 0.31770243144255911 0 0.36344593390349789 0.31667187251247519 0 0.36348301458407639 0.32047903077872458 0 0.36344593390349789 0.31667187251247519 0 0.35962675317161102 0.31893041505789499 0 0.36344593390349789 0.31667187251247519 0 0.35962675317161102 0.31893041505789499 0 0.35878641637012221 0.31305233625990619 0 0.36344593390349789 0.31667187251247519 0 0.36331333565659901 0.31283202127524651 0 0.35878641637012221 0.31305233625990619 0 0.36331333565659901 0.31283202127524651 0 0.36604953812300478 0.31497278055865852 0 0.36630954626425261 0.31087512405144152 0 0.36344593390349789 0.31667187251247519 0 0.36331333565659901 0.31283202127524651 0 0.36604953812300478 0.31497278055865852 0 0.35878641637012221 0.31305233625990619 0 0.35512602374864599 0.31718053618965047 0 0.35090510471213721 0.31152713165908658 0 0.35512602374864599 0.31718053618965047 0 0.34983435518440159 0.31943204998396652 0 0.35090510471213721 0.31152713165908658 0 0.35962675317161102 0.31893041505789499 0 0.35878641637012221 0.31305233625990619 0 0.35512602374864599 0.31718053618965047 0 0.35962675317161102 0.31893041505789499 0 0.35512602374864599 0.31718053618965047 0 0.35673455485560862 0.32229528426682241 0 0.35512602374864599 0.31718053618965047 0 0.35673455485560862 0.32229528426682241 0 0.34983435518440159 0.31943204998396652 0 0.35673455485560862 0.32229528426682241 0 0.35060422568955008 0.32587015674736058 0 0.34983435518440159 0.31943204998396652 0 0.35994194411877378 0.32646204206530971 0 0.36132202517978662 0.32303080634539388 0 0.35673455485560862 0.32229528426682241 0 0.36132202517978662 0.32303080634539388 0 0.35962675317161102 0.31893041505789499 0 0.35673455485560862 0.32229528426682241 0 0.35994194411877378 0.32646204206530971 0 0.35673455485560862 0.32229528426682241 0 0.35627338036128769 0.32705738058013539 0 0.35994194411877378 0.32646204206530971 0 0.35627338036128769 0.32705738058013539 0 0.35835984371964152 0.33045614064968309 0 0.35627338036128769 0.32705738058013539 0 0.35060422568955008 0.32587015674736058 0 0.35398721241228231 0.33095327650953749 0 0.35673455485560862 0.32229528426682241 0 0.35627338036128769 0.32705738058013539 0 0.35060422568955008 0.32587015674736058 0 0.35060422568955008 0.32587015674736058 0 0.34514221143703899 0.32919058107390442 0 0.34284551192874652 0.32364904383841531 0 0.35060422568955008 0.32587015674736058 0 0.34983435518440159 0.31943204998396652 0 0.34284551192874652 0.32364904383841531 0 0.34983435518440159 0.31943204998396652 0 0.34480088275632298 0.31606258733578418 0 0.35090510471213721 0.31152713165908658 0 0.34983435518440159 0.31943204998396652 0 0.34480088275632298 0.31606258733578418 0 0.34284551192874652 0.32364904383841531 0 0.35146565257524442 0.34420791440797271 0 0.36266452242448938 0.34229393694352239 0 0.35562031764263757 0.34031424282986023 0 0.35302683950207769 0.33602013814058929 0 0.35562031764263757 0.34031424282986023 0 0.35672120529774148 0.33684362974708199 0 0.35202203774268331 0.33965573310897551 0 0.35302683950207769 0.33602013814058929 0 0.35562031764263757 0.34031424282986023 0 0.35146565257524442 0.34420791440797271 0 0.35202203774268331 0.33965573310897551 0 0.35562031764263757 0.34031424282986023 0 0.36266452242448938 0.34229393694352239 0 0.35562031764263757 0.34031424282986023 0 0.3582225103283424 0.33883319475427592 0 0.35562031764263757 0.34031424282986023 0 0.3582225103283424 0.33883319475427592 0 0.35672120529774148 0.33684362974708199 0 0.36001134864139028 0.33778823672905661 0 0.3582225103283424 0.33883319475427592 0 0.35672120529774148 0.33684362974708199 0 0.36001134864139028 0.33778823672905661 0 0.35672120529774148 0.33684362974708199 0 0.35899626180536931 0.33430086833413269 0 0.35899626180536931 0.33430086833413269 0 0.35641212776078268 0.33381706902087938 0 0.35835984371964152 0.33045614064968309 0 0.35672120529774148 0.33684362974708199 0 0.35899626180536931 0.33430086833413269 0 0.35641212776078268 0.33381706902087938 0 0.35627338036128769 0.32705738058013539 0 0.35835984371964152 0.33045614064968309 0 0.35398721241228231 0.33095327650953749 0 0.35641212776078268 0.33381706902087938 0 0.35835984371964152 0.33045614064968309 0 0.35398721241228231 0.33095327650953749 0 0.35302683950207769 0.33602013814058929 0 0.35641212776078268 0.33381706902087938 0 0.35398721241228231 0.33095327650953749 0 0.35302683950207769 0.33602013814058929 0 0.35398721241228231 0.33095327650953749 0 0.34924685744035389 0.33249877391857741 0 0.35302683950207769 0.33602013814058929 0 0.35672120529774148 0.33684362974708199 0 0.35641212776078268 0.33381706902087938 0 0.35302683950207769 0.33602013814058929 0 0.34924685744035389 0.33249877391857741 0 0.34788509595764172 0.33882226599831611 0 0.35060422568955008 0.32587015674736058 0 0.34924685744035389 0.33249877391857741 0 0.34514221143703899 0.32919058107390442 0 0.35060422568955008 0.32587015674736058 0 0.35398721241228231 0.33095327650953749 0 0.34924685744035389 0.33249877391857741 0 0.34924685744035389 0.33249877391857741 0 0.34514221143703899 0.32919058107390442 0 0.34474234507332802 0.33433591834825649 0 0.34924685744035389 0.33249877391857741 0 0.34474234507332802 0.33433591834825649 0 0.34788509595764172 0.33882226599831611 0 0.34474234507332802 0.33433591834825649 0 0.34788509595764172 0.33882226599831611 0 0.34057592936449049 0.33809639891542392 0 0.35146565257524442 0.34420791440797271 0 0.34788509595764172 0.33882226599831611 0 0.34269927497721508 0.34493512072036142 0 0.35202203774268331 0.33965573310897551 0 0.35302683950207769 0.33602013814058929 0 0.34788509595764172 0.33882226599831611 0 0.35146565257524442 0.34420791440797271 0 0.35202203774268331 0.33965573310897551 0 0.34788509595764172 0.33882226599831611 0 0.34057592936449049 0.33809639891542392 0 0.33318390910610529 0.34358855052096038 0 0.34269927497721508 0.34493512072036142 0 0.34788509595764172 0.33882226599831611 0 0.34057592936449049 0.33809639891542392 0 0.34269927497721508 0.34493512072036142 0 0.34474234507332802 0.33433591834825649 0 0.34057592936449049 0.33809639891542392 0 0.33946855119551672 0.33096103471374028 0 0.34514221143703899 0.32919058107390442 0 0.34474234507332802 0.33433591834825649 0 0.33946855119551672 0.33096103471374028 0 0.34057592936449049 0.33809639891542392 0 0.33946855119551672 0.33096103471374028 0 0.33283637980140879 0.33469331179832718 0 0.33946855119551672 0.33096103471374028 0 0.33283637980140879 0.33469331179832718 0 0.33464693517381472 0.32630086361949601 0 0.33283637980140879 0.33469331179832718 0 0.33464693517381472 0.32630086361949601 0 0.3250964778074269 0.32978689602061512 0 0.34057592936449049 0.33809639891542392 0 0.33283637980140879 0.33469331179832718 0 0.33318390910610529 0.34358855052096038 0 0.33283637980140879 0.33469331179832718 0 0.33318390910610529 0.34358855052096038 0 0.32611481079287369 0.33974729713420021 0 0.34480088275632298 0.31606258733578418 0 0.33769186663180051 0.31814262317354819 0 0.34192449374142192 0.30753297203612773 0 0.34480088275632298 0.31606258733578418 0 0.33769186663180051 0.31814262317354819 0 0.34284551192874652 0.32364904383841531 0 0.33946855119551672 0.33096103471374028 0 0.34284551192874652 0.32364904383841531 0 0.33464693517381472 0.32630086361949601 0 0.33769186663180051 0.31814262317354819 0 0.34284551192874652 0.32364904383841531 0 0.33464693517381472 0.32630086361949601 0 0.34514221143703899 0.32919058107390442 0 0.33946855119551672 0.33096103471374028 0 0.34284551192874652 0.32364904383841531 0 0.33769186663180051 0.31814262317354819 0 0.33464693517381472 0.32630086361949601 0 0.32994282367798861 0.32057227217232959 0 0.33464693517381472 0.32630086361949601 0 0.32994282367798861 0.32057227217232959 0 0.3250964778074269 0.32978689602061512 0 0.33769186663180051 0.31814262317354819 0 0.32994282367798861 0.32057227217232959 0 0.32867162081685902 0.31028670060733149 0 0.32176892132522322 0.32006025561378759 0 0.31440941436971798 0.31242774502049953 0 0.32867162081685902 0.31028670060733149 0 0.32994282367798861 0.32057227217232959 0 0.32176892132522322 0.32006025561378759 0 0.32867162081685902 0.31028670060733149 0 0.32176892132522322 0.32006025561378759 0 0.31484893044661 0.32778579360563193 0 0.3250964778074269 0.32978689602061512 0 0.32994282367798861 0.32057227217232959 0 0.32176892132522322 0.32006025561378759 0 0.3250964778074269 0.32978689602061512 0 0.32176892132522322 0.32006025561378759 0 0.31484893044661 0.32778579360563193 0 0.31440941436971798 0.31242774502049953 0 0.32611481079287369 0.33974729713420021 0 0.3250964778074269 0.32978689602061512 0 0.31767498628904178 0.33862919533695518 0 0.32611481079287369 0.33974729713420021 0 0.31767498628904178 0.33862919533695518 0 0.32336406622478242 0.34852958887145069 0 0.33283637980140879 0.33469331179832718 0 0.32611481079287369 0.33974729713420021 0 0.3250964778074269 0.32978689602061512 0 0.31484893044661 0.32778579360563193 0 0.31767498628904178 0.33862919533695518 0 0.30654896287530792 0.34033791233229299 0 0.31484893044661 0.32778579360563193 0 0.3250964778074269 0.32978689602061512 0 0.31767498628904178 0.33862919533695518 0 0.31767498628904178 0.33862919533695518 0 0.31315570067328902 0.3464643712977632 0 0.32336406622478242 0.34852958887145069 0 0.31315570067328902 0.3464643712977632 0 0.31355388928080707 0.35546570062290778 0 0.32336406622478242 0.34852958887145069 0 0.32336406622478242 0.34852958887145069 0 0.33442175170730049 0.35218858713626039 0 0.32437013183195901 0.3602157298059272 0 0.31355388928080707 0.35546570062290778 0 0.32336406622478242 0.34852958887145069 0 0.32437013183195901 0.3602157298059272 0 0.33318390910610529 0.34358855052096038 0 0.32611481079287369 0.33974729713420021 0 0.32336406622478242 0.34852958887145069 0 0.35030182712711511 0.35130594720886232 0 0.33442175170730049 0.35218858713626039 0 0.33389487655237682 0.3658352592629312 0 0.33318390910610529 0.34358855052096038 0 0.32336406622478242 0.34852958887145069 0 0.33442175170730049 0.35218858713626039 0 0.35030182712711511 0.35130594720886232 0 0.33442175170730049 0.35218858713626039 0 0.34269927497721508 0.34493512072036142 0 0.33318390910610529 0.34358855052096038 0 0.33442175170730049 0.35218858713626039 0 0.34269927497721508 0.34493512072036142 0 0.34270248502322931 0.38427053755298168 0 0.35268350372385993 0.36328223724825232 0 0.33389487655237682 0.3658352592629312 0 0.33442175170730049 0.35218858713626039 0 0.33389487655237682 0.3658352592629312 0 0.32437013183195901 0.3602157298059272 0 0.31661607539452802 0.37905951313608538 0 0.33389487655237682 0.3658352592629312 0 0.32437013183195901 0.3602157298059272 0 0.31661607539452802 0.37905951313608538 0 0.31355388928080707 0.35546570062290778 0 0.32437013183195901 0.3602157298059272 0 0.31661607539452802 0.37905951313608538 0 0.31355388928080707 0.35546570062290778 0 0.31661607539452802 0.37905951313608538 0 0.31355388928080707 0.35546570062290778 0 0.30541822204374358 0.36584678197342768 0 0.2987730087010142 0.37934426936791982 0 0.31661607539452802 0.37905951313608538 0 0.30541822204374358 0.36584678197342768 0 0.30541822204374358 0.36584678197342768 0 0.30393955747459928 0.35096595789874813 0 0.29215410451095353 0.36543341035917859 0 0.2987730087010142 0.37934426936791982 0 0.30541822204374358 0.36584678197342768 0 0.29215410451095353 0.36543341035917859 0 0.31315570067328902 0.3464643712977632 0 0.30393955747459928 0.35096595789874813 0 0.30654896287530792 0.34033791233229299 0 0.31315570067328902 0.3464643712977632 0 0.31355388928080707 0.35546570062290778 0 0.30393955747459928 0.35096595789874813 0 0.31355388928080707 0.35546570062290778 0 0.30541822204374358 0.36584678197342768 0 0.30393955747459928 0.35096595789874813 0 0.30393955747459928 0.35096595789874813 0 0.29215410451095353 0.36543341035917859 0 0.30393955747459928 0.35096595789874813 0 0.29720735802849829 0.34424744790442102 0 0.29027641861796738 0.35164951467646482 0 0.30393955747459928 0.35096595789874813 0 0.29720735802849829 0.34424744790442102 0 0.30654896287530792 0.34033791233229299 0 0.29720735802849829 0.34424744790442102 0 0.29027641861796738 0.35164951467646482 0 0.28998304713239348 0.34105976447064218 0 0.30393955747459928 0.35096595789874813 0 0.29027641861796738 0.35164951467646482 0 0.29215410451095353 0.36543341035917859 0 0.29027641861796738 0.35164951467646482 0 0.29215410451095353 0.36543341035917859 0 0.27920137084664282 0.3573603676334649 0 0.29027641861796738 0.35164951467646482 0 0.27920137084664282 0.3573603676334649 0 0.28068773357058369 0.34198453751068081 0 0.29027641861796738 0.35164951467646482 0 0.28068773357058369 0.34198453751068081 0 0.28998304713239348 0.34105976447064218 0 0.28036865154730628 0.37990086281960789 0 0.29215410451095353 0.36543341035917859 0 0.27920137084664282 0.3573603676334649 0 0.28036865154730628 0.37990086281960789 0 0.2987730087010142 0.37934426936791982 0 0.29215410451095353 0.36543341035917859 0 0.28036865154730628 0.37990086281960789 0 0.29215410451095353 0.36543341035917859 0 0.28036865154730628 0.37990086281960789 0 0.27920137084664282 0.3573603676334649 0 0.26173146881309822 0.35734024057335978 0 0.28036865154730628 0.37990086281960789 0 0.26173146881309822 0.35734024057335978 0 0.28036865154730628 0.37990086281960789 0 0.26173146881309822 0.35734024057335978 0 0.2641967246118288 0.36596915937278562 0 0.27920137084664282 0.3573603676334649 0 0.27030047393074008 0.3474963096498429 0 0.26173146881309822 0.35734024057335978 0 0.27920137084664282 0.3573603676334649 0 0.27030047393074008 0.3474963096498429 0 0.28068773357058369 0.34198453751068081 0 0.2430942860788903 0.33477961832711151 0 0.26173146881309822 0.35734024057335978 0 0.27030047393074008 0.3474963096498429 0 0.26173146881309822 0.35734024057335978 0 0.26240083601839698 0.33727672217147331 0 0.23816107804029091 0.35120524212074949 0 0.26173146881309822 0.35734024057335978 0 0.2641967246118288 0.36596915937278562 0 0.23816107804029091 0.35120524212074949 0 0.2641967246118288 0.36596915937278562 0 0.2492643002430574 0.365916522193315 0 0.24311907173897271 0.36013203008567057 0 0.2641967246118288 0.36596915937278562 0 0.2492643002430574 0.365916522193315 0 0.25710864090743918 0.37145542319719338 0 0.2641967246118288 0.36596915937278562 0 0.2492643002430574 0.365916522193315 0 0.25383912625151372 0.37755129754335942 0 0.25710864090743918 0.37145542319719338 0 0.26350653962281989 0.38010735630523079 0 0.25710864090743918 0.37145542319719338 0 0.2641967246118288 0.36596915937278562 0 0.2484846271056145 0.31037308609574782 0 0.25508783524565293 0.32209220201309929 0 0.26836904206483531 0.31075971332937607 0 0.25508783524565293 0.32209220201309929 0 0.26240083601839698 0.33727672217147331 0 0.26677092012209491 0.32204036282613252 0 0.25508783524565293 0.32209220201309929 0 0.26677092012209491 0.32204036282613252 0 0.26836904206483531 0.31075971332937607 0 0.2430942860788903 0.33477961832711151 0 0.25508783524565293 0.32209220201309929 0 0.26240083601839698 0.33727672217147331 0 0.2430942860788903 0.33477961832711151 0 0.26173146881309822 0.35734024057335978 0 0.26240083601839698 0.33727672217147331 0 0.26240083601839698 0.33727672217147331 0 0.27184092000699639 0.33891315949469752 0 0.27388917516664008 0.32964775149744319 0 0.26240083601839698 0.33727672217147331 0 0.27388917516664008 0.32964775149744319 0 0.26677092012209491 0.32204036282613252 0 0.27030047393074008 0.3474963096498429 0 0.26240083601839698 0.33727672217147331 0 0.27184092000699639 0.33891315949469752 0 0.27030047393074008 0.3474963096498429 0 0.27184092000699639 0.33891315949469752 0 0.28068773357058369 0.34198453751068081 0 0.27184092000699639 0.33891315949469752 0 0.28068773357058369 0.34198453751068081 0 0.27388917516664008 0.32964775149744319 0 0.28068773357058369 0.34198453751068081 0 0.27388917516664008 0.32964775149744319 0 0.28570907475377572 0.33188311037056872 0 0.27388917516664008 0.32964775149744319 0 0.26677092012209491 0.32204036282613252 0 0.28178409254690689 0.31684790712797722 0 0.27388917516664008 0.32964775149744319 0 0.28178409254690689 0.31684790712797722 0 0.28570907475377572 0.33188311037056872 0 0.26677092012209491 0.32204036282613252 0 0.28178409254690689 0.31684790712797722 0 0.26836904206483531 0.31075971332937607 0 0.28178409254690689 0.31684790712797722 0 0.29262159606390598 0.32453461147271162 0 0.29660332646403359 0.30785121346786842 0 0.28178409254690689 0.31684790712797722 0 0.29262159606390598 0.32453461147271162 0 0.28570907475377572 0.33188311037056872 0 0.28068773357058369 0.34198453751068081 0 0.28570907475377572 0.33188311037056872 0 0.28998304713239348 0.34105976447064218 0 0.29262159606390598 0.32453461147271162 0 0.28570907475377572 0.33188311037056872 0 0.29603465069114282 0.33553421189107618 0 0.29720735802849829 0.34424744790442102 0 0.29603465069114282 0.33553421189107618 0 0.28998304713239348 0.34105976447064218 0 0.28570907475377572 0.33188311037056872 0 0.29603465069114282 0.33553421189107618 0 0.28998304713239348 0.34105976447064218 0 0.29720735802849829 0.34424744790442102 0 0.29603465069114282 0.33553421189107618 0 0.30654896287530792 0.34033791233229299 0 0.29603465069114282 0.33553421189107618 0 0.30654896287530792 0.34033791233229299 0 0.30445412428221041 0.32558903425911379 0 0.29262159606390598 0.32453461147271162 0 0.29603465069114282 0.33553421189107618 0 0.30445412428221041 0.32558903425911379 0 0.31484893044661 0.32778579360563193 0 0.30654896287530792 0.34033791233229299 0 0.30445412428221041 0.32558903425911379 0 0.31767498628904178 0.33862919533695518 0 0.31315570067328902 0.3464643712977632 0 0.30654896287530792 0.34033791233229299 0 0.30445412428221041 0.32558903425911379 0 0.29660332646403359 0.30785121346786842 0 0.31440941436971798 0.31242774502049953 0 0.29262159606390598 0.32453461147271162 0 0.30445412428221041 0.32558903425911379 0 0.29660332646403359 0.30785121346786842 0 0.31484893044661 0.32778579360563193 0 0.30445412428221041 0.32558903425911379 0 0.31440941436971798 0.31242774502049953 0 0.30822946874662033 0.29998271616579031 0 0.29660332646403359 0.30785121346786842 0 0.31440941436971798 0.31242774502049953 0 0.30822946874662033 0.29998271616579031 0 0.30055108247350393 0.28416894361273021 0 0.29660332646403359 0.30785121346786842 0 0.30822946874662033 0.29998271616579031 0 0.30055108247350393 0.28416894361273021 0 0.32109763140443309 0.29547610107375327 0 0.30055108247350393 0.28416894361273021 0 0.29660332646403359 0.30785121346786842 0 0.27430616976337108 0.29100628718303567 0 0.30055108247350393 0.28416894361273021 0 0.27430616976337108 0.29100628718303567 0 0.28443506245096839 0.27205148705280008 0 0.30055108247350393 0.28416894361273021 0 0.27430616976337108 0.29100628718303567 0 0.28178409254690689 0.31684790712797722 0 0.29660332646403359 0.30785121346786842 0 0.27430616976337108 0.29100628718303567 0 0.28178409254690689 0.31684790712797722 0 0.26836904206483531 0.31075971332937607 0 0.27430616976337108 0.29100628718303567 0 0.28178409254690689 0.31684790712797722 0 0.27430616976337108 0.29100628718303567 0 0.27430616976337108 0.29100628718303567 0 0.25121587924780342 0.29702178630611242 0 0.27430616976337108 0.29100628718303567 0 0.25953152444998728 0.28294166139542631 0 0.25121587924780342 0.29702178630611242 0 0.26836904206483531 0.31075971332937607 0 0.27430616976337108 0.29100628718303567 0 0.25121587924780342 0.29702178630611242 0 0.26836904206483531 0.31075971332937607 0 0.25121587924780342 0.29702178630611242 0 0.2484846271056145 0.31037308609574782 0 0.26836904206483531 0.31075971332937607 0 0.25121587924780342 0.29702178630611242 0 0.25102838231212438 0.26850893423506528 0 0.26790857605335527 0.26889798384773289 0 0.26221447651104962 0.2479993693513689 0 0.26790857605335527 0.26889798384773289 0 0.26221447651104962 0.2479993693513689 0 0.25953152444998728 0.28294166139542631 0 0.25102838231212438 0.26850893423506528 0 0.26790857605335527 0.26889798384773289 0 0.27430616976337108 0.29100628718303567 0 0.26790857605335527 0.26889798384773289 0 0.28443506245096839 0.27205148705280008 0 0.27430616976337108 0.29100628718303567 0 0.25953152444998728 0.28294166139542631 0 0.26790857605335527 0.26889798384773289 0 0.27430616976337108 0.29100628718303567 0 0.26790857605335527 0.26889798384773289 0 0.26790857605335527 0.26889798384773289 0 0.28119448123381058 0.25405304303149878 0 0.26221447651104962 0.2479993693513689 0 0.26790857605335527 0.26889798384773289 0 0.28119448123381058 0.25405304303149878 0 0.28443506245096839 0.27205148705280008 0 0.28119448123381058 0.25405304303149878 0 0.28443506245096839 0.27205148705280008 0 0.2982150027308012 0.26213117758900317 0 0.28119448123381058 0.25405304303149878 0 0.2982150027308012 0.26213117758900317 0 0.30328699804120918 0.24394477185791469 0 0.30055108247350393 0.28416894361273021 0 0.28443506245096839 0.27205148705280008 0 0.2982150027308012 0.26213117758900317 0 0.30055108247350393 0.28416894361273021 0 0.2982150027308012 0.26213117758900317 0 0.31879452400631653 0.25919465198291952 0 0.2982150027308012 0.26213117758900317 0 0.31879452400631653 0.25919465198291952 0 0.30328699804120918 0.24394477185791469 0 0.31879452400631653 0.25919465198291952 0 0.33092809789354199 0.24744869965648561 0 0.31845456220733243 0.24449663650262579 0 0.31879452400631653 0.25919465198291952 0 0.33565265393095528 0.25675142138279861 0 0.33982225619875311 0.26765994074234428 0 0.31879452400631653 0.25919465198291952 0 0.33982225619875311 0.26765994074234428 0 0.31879452400631653 0.25919465198291952 0 0.33565265393095528 0.25675142138279861 0 0.33092809789354199 0.24744869965648561 0 0.33565265393095528 0.25675142138279861 0 0.33982225619875311 0.26765994074234428 0 0.34536281311255052 0.25941060478944128 0 0.33565265393095528 0.25675142138279861 0 0.3433555784436142 0.25004320974280247 0 0.33092809789354199 0.24744869965648561 0 0.33565265393095528 0.25675142138279861 0 0.3433555784436142 0.25004320974280247 0 0.34536281311255052 0.25941060478944128 0 0.31879452400631653 0.25919465198291952 0 0.33982225619875311 0.26765994074234428 0 0.32679599518363661 0.27733160004242491 0 0.33982225619875311 0.26765994074234428 0 0.32679599518363661 0.27733160004242491 0 0.34056182851336592 0.28206143899133118 0 0.30055108247350393 0.28416894361273021 0 0.32679599518363661 0.27733160004242491 0 0.30055108247350393 0.28416894361273021 0 0.31879452400631653 0.25919465198291952 0 0.32679599518363661 0.27733160004242491 0 0.32679599518363661 0.27733160004242491 0 0.32109763140443309 0.29547610107375327 0 0.33248404658197278 0.28876668272462419 0 0.30055108247350393 0.28416894361273021 0 0.32679599518363661 0.27733160004242491 0 0.32109763140443309 0.29547610107375327 0 0.32109763140443309 0.29547610107375327 0 0.31440941436971798 0.31242774502049953 0 0.32867162081685902 0.31028670060733149 0 0.30822946874662033 0.29998271616579031 0 0.32109763140443309 0.29547610107375327 0 0.31440941436971798 0.31242774502049953 0 0.32867162081685902 0.31028670060733149 0 0.33472549883669622 0.29791121211074773 0 0.34192449374142192 0.30753297203612773 0 0.32109763140443309 0.29547610107375327 0 0.32867162081685902 0.31028670060733149 0 0.33472549883669622 0.29791121211074773 0 0.33472549883669622 0.29791121211074773 0 0.34281583705185747 0.29966479619329672 0 0.34192449374142192 0.30753297203612773 0 0.33769186663180051 0.31814262317354819 0 0.32867162081685902 0.31028670060733149 0 0.34192449374142192 0.30753297203612773 0 0.32679599518363661 0.27733160004242491 0 0.33248404658197278 0.28876668272462419 0 0.34056182851336592 0.28206143899133118 0 0.32109763140443309 0.29547610107375327 0 0.33472549883669622 0.29791121211074773 0 0.33248404658197278 0.28876668272462419 0 0.33472549883669622 0.29791121211074773 0 0.33248404658197278 0.28876668272462419 0 0.34417327957572558 0.29277050597204329 0 0.33472549883669622 0.29791121211074773 0 0.34281583705185747 0.29966479619329672 0 0.34417327957572558 0.29277050597204329 0 0.33248404658197278 0.28876668272462419 0 0.34056182851336592 0.28206143899133118 0 0.34417327957572558 0.29277050597204329 0 0.34056182851336592 0.28206143899133118 0 0.34979868535227071 0.28728326233729501 0 0.34417327957572558 0.29277050597204329 0 0.34056182851336592 0.28206143899133118 0 0.34979868535227071 0.28728326233729501 0 0.35183199075491411 0.27966461044832719 0 0.34417327957572558 0.29277050597204329 0 0.35334053836337709 0.29410458558147129 0 0.34972900846361488 0.30172704795696642 0 0.34979868535227071 0.28728326233729501 0 0.34417327957572558 0.29277050597204329 0 0.35334053836337709 0.29410458558147129 0 0.34979868535227071 0.28728326233729501 0 0.35334053836337709 0.29410458558147129 0 0.35722235408413222 0.28831366276426512 0 0.35334053836337709 0.29410458558147129 0 0.35826071325737319 0.3003277240158499 0 0.36091512844171192 0.29433704443458902 0 0.35334053836337709 0.29410458558147129 0 0.35722235408413222 0.28831366276426512 0 0.36091512844171192 0.29433704443458902 0 0.34979868535227071 0.28728326233729501 0 0.35722235408413222 0.28831366276426512 0 0.35183199075491411 0.27966461044832719 0 0.35722235408413222 0.28831366276426512 0 0.36152496379752869 0.28359539021876212 0 0.35183199075491411 0.27966461044832719 0 0.34480088275632298 0.31606258733578418 0 0.34192449374142192 0.30753297203612773 0 0.35090510471213721 0.31152713165908658 0 0.34192449374142192 0.30753297203612773 0 0.35090510471213721 0.31152713165908658 0 0.34972900846361488 0.30172704795696642 0 0.34281583705185747 0.29966479619329672 0 0.34417327957572558 0.29277050597204329 0 0.34972900846361488 0.30172704795696642 0 0.34281583705185747 0.29966479619329672 0 0.34192449374142192 0.30753297203612773 0 0.34972900846361488 0.30172704795696642 0 0.34972900846361488 0.30172704795696642 0 0.35826071325737319 0.3003277240158499 0 0.35721607615581658 0.30656573559573969 0 0.35334053836337709 0.29410458558147129 0 0.34972900846361488 0.30172704795696642 0 0.35826071325737319 0.3003277240158499 0 0.35090510471213721 0.31152713165908658 0 0.34972900846361488 0.30172704795696642 0 0.35721607615581658 0.30656573559573969 0 0.35878641637012221 0.31305233625990619 0 0.35090510471213721 0.31152713165908658 0 0.35721607615581658 0.30656573559573969 0 0.37014896644917339 0.316543878568457 0 0.37763341047385651 0.29079382019339128 0 0.37014896644917339 0.316543878568457 0 0.37108481648816682 0.30013899891886681 0 0.36845835323010317 0.30596496181531441 0 0.37014896644917339 0.316543878568457 0 0.37763341047385651 0.29079382019339128 0 0.37695808612291098 0.31120865645681561 0 0.37014896644917339 0.316543878568457 0 0.37108481648816682 0.30013899891886681 0 0.37763341047385651 0.29079382019339128 0 0.36630954626425261 0.31087512405144152 0 0.36228941999803421 0.30896529616435242 0 0.36543096483439103 0.3064802843427199 0 0.36331333565659901 0.31283202127524651 0 0.36630954626425261 0.31087512405144152 0 0.36228941999803421 0.30896529616435242 0 0.36331333565659901 0.31283202127524651 0 0.35878641637012221 0.31305233625990619 0 0.36228941999803421 0.30896529616435242 0 0.35878641637012221 0.31305233625990619 0 0.35721607615581658 0.30656573559573969 0 0.36228941999803421 0.30896529616435242 0 0.35721607615581658 0.30656573559573969 0 0.36228941999803421 0.30896529616435242 0 0.36268018070702418 0.30398627546106088 0 0.36630954626425261 0.31087512405144152 0 0.36543096483439103 0.3064802843427199 0 0.36845835323010317 0.30596496181531441 0 0.36228941999803421 0.30896529616435242 0 0.36543096483439103 0.3064802843427199 0 0.36268018070702418 0.30398627546106088 0 0.36543096483439103 0.3064802843427199 0 0.36607900901995372 0.30349396637540749 0 0.36845835323010317 0.30596496181531441 0 0.36607900901995372 0.30349396637540749 0 0.36268018070702418 0.30398627546106088 0 0.36558719123160882 0.29969948119116269 0 0.36607900901995372 0.30349396637540749 0 0.36558719123160882 0.29969948119116269 0 0.36823835509664099 0.30133882906677939 0 0.36543096483439103 0.3064802843427199 0 0.36607900901995372 0.30349396637540749 0 0.36268018070702418 0.30398627546106088 0 0.35826071325737319 0.3003277240158499 0 0.35721607615581658 0.30656573559573969 0 0.36268018070702418 0.30398627546106088 0 0.35826071325737319 0.3003277240158499 0 0.36268018070702418 0.30398627546106088 0 0.36558719123160882 0.29969948119116269 0 0.35826071325737319 0.3003277240158499 0 0.36558719123160882 0.29969948119116269 0 0.36091512844171192 0.29433704443458902 0 0.36871223371641282 0.29817542324200702 0 0.37108481648816682 0.30013899891886681 0 0.37014933742706652 0.29575476169949788 0 0.36558719123160882 0.29969948119116269 0 0.36871223371641282 0.29817542324200702 0 0.36734652779664789 0.29411680932906442 0 0.36558719123160882 0.29969948119116269 0 0.36871223371641282 0.29817542324200702 0 0.36823835509664099 0.30133882906677939 0 0.36871223371641282 0.29817542324200702 0 0.37108481648816682 0.30013899891886681 0 0.36823835509664099 0.30133882906677939 0 0.37108481648816682 0.30013899891886681 0 0.36823835509664099 0.30133882906677939 0 0.36845835323010317 0.30596496181531441 0 0.36607900901995372 0.30349396637540749 0 0.36823835509664099 0.30133882906677939 0 0.36845835323010317 0.30596496181531441 0 0.37014896644917339 0.316543878568457 0 0.36630954626425261 0.31087512405144152 0 0.36845835323010317 0.30596496181531441 0 0.36812955944888692 0.28419813691800921 0 0.36084998839118931 0.2761252295017701 0 0.37969218042614078 0.28371066929036243 0 0.36152496379752869 0.28359539021876212 0 0.36812955944888692 0.28419813691800921 0 0.36084998839118931 0.2761252295017701 0 0.36414496955441777 0.28941104037434479 0 0.36911771796651938 0.28986917351547109 0 0.36812955944888692 0.28419813691800921 0 0.36152496379752869 0.28359539021876212 0 0.36414496955441777 0.28941104037434479 0 0.36812955944888692 0.28419813691800921 0 0.35722235408413222 0.28831366276426512 0 0.36152496379752869 0.28359539021876212 0 0.36414496955441777 0.28941104037434479 0 0.35722235408413222 0.28831366276426512 0 0.36091512844171192 0.29433704443458902 0 0.36414496955441777 0.28941104037434479 0 0.36558719123160882 0.29969948119116269 0 0.36091512844171192 0.29433704443458902 0 0.36734652779664789 0.29411680932906442 0 0.36091512844171192 0.29433704443458902 0 0.36414496955441777 0.28941104037434479 0 0.36734652779664789 0.29411680932906442 0 0.36414496955441777 0.28941104037434479 0 0.36911771796651938 0.28986917351547109 0 0.36734652779664789 0.29411680932906442 0 0.36911771796651938 0.28986917351547109 0 0.37026464520563152 0.29279186409727531 0 0.36734652779664789 0.29411680932906442 0 0.37108481648816682 0.30013899891886681 0 0.37306860395079622 0.29341917559567809 0 0.37763341047385651 0.29079382019339128 0 0.36911771796651938 0.28986917351547109 0 0.37026464520563152 0.29279186409727531 0 0.37237913536365119 0.29056320862162688 0 0.36871223371641282 0.29817542324200702 0 0.36734652779664789 0.29411680932906442 0 0.37014933742706652 0.29575476169949788 0 0.37026464520563152 0.29279186409727531 0 0.36734652779664789 0.29411680932906442 0 0.37014933742706652 0.29575476169949788 0 0.37108481648816682 0.30013899891886681 0 0.37014933742706652 0.29575476169949788 0 0.37306860395079622 0.29341917559567809 0 0.37026464520563152 0.29279186409727531 0 0.37014933742706652 0.29575476169949788 0 0.37306860395079622 0.29341917559567809 0 0.36911771796651938 0.28986917351547109 0 0.37237913536365119 0.29056320862162688 0 0.37333201972158658 0.2878654242033048 0 0.37306860395079622 0.29341917559567809 0 0.37237913536365119 0.29056320862162688 0 0.37763341047385651 0.29079382019339128 0 0.37237913536365119 0.29056320862162688 0 0.37333201972158658 0.2878654242033048 0 0.37763341047385651 0.29079382019339128 0 0.37026464520563152 0.29279186409727531 0 0.37306860395079622 0.29341917559567809 0 0.37237913536365119 0.29056320862162688 0 0.37333201972158658 0.2878654242033048 0 0.36812955944888692 0.28419813691800921 0 0.37969218042614078 0.28371066929036243 0 0.36911771796651938 0.28986917351547109 0 0.37333201972158658 0.2878654242033048 0 0.36812955944888692 0.28419813691800921 0 0.36084998839118931 0.2761252295017701 0 0.37969218042614078 0.28371066929036243 0 0.36084998839118931 0.2761252295017701 0 0.37017340450925651 0.266060206293324 0 0.3539366042426153 0.26554047293381039 0 0.36084998839118931 0.2761252295017701 0 0.38460708535355081 0.26680105137204091 0 0.36084998839118931 0.2761252295017701 0 0.37017340450925651 0.266060206293324 0 0.38460708535355081 0.26680105137204091 0 0.3539366042426153 0.26554047293381039 0 0.38129994004966872 0.25577407136566988 0 0.37169426656027921 0.24972740256563611 0 0.37017340450925651 0.266060206293324 0 0.3539366042426153 0.26554047293381039 0 0.38129994004966872 0.25577407136566988 0 0.3539366042426153 0.26554047293381039 0 0.37169426656027921 0.24972740256563611 0 0.36205361842742478 0.24882498742118489 0 0.3539366042426153 0.26554047293381039 0 0.38129994004966872 0.25577407136566988 0 0.3539366042426153 0.26554047293381039 0 0.35175757775775729 0.2532797976346674 0 0.36205361842742478 0.24882498742118489 0 0.3433555784436142 0.25004320974280247 0 0.35175757775775729 0.2532797976346674 0 0.34536281311255052 0.25941060478944128 0 0.33982225619875311 0.26765994074234428 0 0.3539366042426153 0.26554047293381039 0 0.34536281311255052 0.25941060478944128 0 0.3539366042426153 0.26554047293381039 0 0.35175757775775729 0.2532797976346674 0 0.34536281311255052 0.25941060478944128 0 0.33982225619875311 0.26765994074234428 0 0.36084998839118931 0.2761252295017701 0 0.33982225619875311 0.26765994074234428 0 0.36084998839118931 0.2761252295017701 0 0.3539366042426153 0.26554047293381039 0 0.33982225619875311 0.26765994074234428 0 0.36084998839118931 0.2761252295017701 0 0.35183199075491411 0.27966461044832719 0 0.33982225619875311 0.26765994074234428 0 0.34056182851336592 0.28206143899133118 0 0.35183199075491411 0.27966461044832719 0 0.36152496379752869 0.28359539021876212 0 0.36084998839118931 0.2761252295017701 0 0.35183199075491411 0.27966461044832719 0 0.36084998839118931 0.2761252295017701 0 0.35183199075491411 0.27966461044832719 0 0.39945440726228237 0.27350419034528239 0 0.38460708535355081 0.26680105137204091 0 0.40768566828284042 0.25774317622192677 0 0.39945440726228237 0.27350419034528239 0 0.4092682188351508 0.26816031590002881 0 0.40768566828284042 0.25774317622192677 0 0.39945440726228237 0.27350419034528239 0 0.38460708535355081 0.26680105137204091 0 0.3904751567012596 0.27530993325585928 0 0.39945440726228237 0.27350419034528239 0 0.3904751567012596 0.27530993325585928 0 0.39488150240831521 0.28173053148540511 0 0.39945440726228237 0.27350419034528239 0 0.40366985246608472 0.28285995447659418 0 0.40929088926209078 0.279020096056181 0 0.39945440726228237 0.27350419034528239 0 0.4092682188351508 0.26816031590002881 0 0.40929088926209078 0.279020096056181 0 0.39945440726228237 0.27350419034528239 0 0.39488150240831521 0.28173053148540511 0 0.40366985246608472 0.28285995447659418 0 0.38783836144724232 0.2556839199238965 0 0.38129994004966872 0.25577407136566988 0 0.40866327585672191 0.24600766979752939 0 0.38460708535355081 0.26680105137204091 0 0.40768566828284042 0.25774317622192677 0 0.38783836144724232 0.2556839199238965 0 0.40768566828284042 0.25774317622192677 0 0.40866327585672191 0.24600766979752939 0 0.38783836144724232 0.2556839199238965 0 0.38460708535355081 0.26680105137204091 0 0.40768566828284042 0.25774317622192677 0 0.38129994004966872 0.25577407136566988 0 0.40866327585672191 0.24600766979752939 0 0.38783836144724232 0.2556839199238965 0 0.38129994004966872 0.25577407136566988 0 0.38460708535355081 0.26680105137204091 0 0.38783836144724232 0.2556839199238965 0 0.38460708535355081 0.26680105137204091 0 0.38129994004966872 0.25577407136566988 0 0.37169426656027921 0.24972740256563611 0 0.38106847269238292 0.24536179082341181 0 0.37017340450925651 0.266060206293324 0 0.38129994004966872 0.25577407136566988 0 0.38460708535355081 0.26680105137204091 0 0.36084998839118931 0.2761252295017701 0 0.38460708535355081 0.26680105137204091 0 0.37969218042614078 0.28371066929036243 0 0.38460708535355081 0.26680105137204091 0 0.3904751567012596 0.27530993325585928 0 0.37969218042614078 0.28371066929036243 0 0.38460708535355081 0.26680105137204091 0 0.37969218042614078 0.28371066929036243 0 0.3904751567012596 0.27530993325585928 0 0.37969218042614078 0.28371066929036243 0 0.39488150240831521 0.28173053148540511 0 0.37969218042614078 0.28371066929036243 0 0.37763341047385651 0.29079382019339128 0 0.40259214502479168 0.29292967641552992 0 0.37763341047385651 0.29079382019339128 0 0.4027243230010164 0.30147339632314252 0 0.37969218042614078 0.28371066929036243 0 0.37763341047385651 0.29079382019339128 0 0.37333201972158658 0.2878654242033048 0 0.37969218042614078 0.28371066929036243 0 0.37763341047385651 0.29079382019339128 0 0.37763341047385651 0.29079382019339128 0 0.37695808612291098 0.31120865645681561 0 0.38599374742651271 0.30414296713942529 0 0.37763341047385651 0.29079382019339128 0 0.38599374742651271 0.30414296713942529 0 0.4027243230010164 0.30147339632314252 0 0.37695808612291098 0.31120865645681561 0 0.38599374742651271 0.30414296713942529 0 0.38754735899376969 0.31282171123814728 0 0.38599374742651271 0.30414296713942529 0 0.4027243230010164 0.30147339632314252 0 0.38754735899376969 0.31282171123814728 0 0.4027243230010164 0.30147339632314252 0 0.3956366020903157 0.32248231082130752 0 0.38754735899376969 0.31282171123814728 0 0.37969218042614078 0.28371066929036243 0 0.40259214502479168 0.29292967641552992 0 0.37969218042614078 0.28371066929036243 0 0.39488150240831521 0.28173053148540511 0 0.40259214502479168 0.29292967641552992 0 0.37763341047385651 0.29079382019339128 0 0.4027243230010164 0.30147339632314252 0 0.40259214502479168 0.29292967641552992 0 0.4027243230010164 0.30147339632314252 0 0.40259214502479168 0.29292967641552992 0 0.41139710839419091 0.29189735433941028 0 0.40259214502479168 0.29292967641552992 0 0.40366985246608472 0.28285995447659418 0 0.41139710839419091 0.29189735433941028 0 0.39488150240831521 0.28173053148540511 0 0.40259214502479168 0.29292967641552992 0 0.40366985246608472 0.28285995447659418 0 0.40366985246608472 0.28285995447659418 0 0.41139710839419091 0.29189735433941028 0 0.40929088926209078 0.279020096056181 0 0.41139710839419091 0.29189735433941028 0 0.42781523552817591 0.31215297245289481 0 0.42226183937510081 0.28327127115801121 0 0.41139710839419091 0.29189735433941028 0 0.42226183937510081 0.28327127115801121 0 0.40929088926209078 0.279020096056181 0 0.4027243230010164 0.30147339632314252 0 0.41139710839419091 0.29189735433941028 0 0.42781523552817591 0.31215297245289481 0 0.4027243230010164 0.30147339632314252 0 0.42781523552817591 0.31215297245289481 0 0.41357021602424721 0.32279281759874212 0 0.4027243230010164 0.30147339632314252 0 0.42781523552817591 0.31215297245289481 0 0.42781523552817591 0.31215297245289481 0 0.42226183937510081 0.28327127115801121 0 0.42781523552817591 0.31215297245289481 0 0.42226183937510081 0.28327127115801121 0 0.44120727567718632 0.28746005308771089 0 0.42226183937510081 0.28327127115801121 0 0.43023391716603732 0.27040224467912161 0 0.44120727567718632 0.28746005308771089 0 0.42226183937510081 0.28327127115801121 0 0.43023391716603732 0.27040224467912161 0 0.41664462513020523 0.25422696758609492 0 0.43023391716603732 0.27040224467912161 0 0.43692075095235122 0.26433370861442979 0 0.44373838257505849 0.27050131303512348 0 0.42226183937510081 0.28327127115801121 0 0.4092682188351508 0.26816031590002881 0 0.41664462513020523 0.25422696758609492 0 0.42226183937510081 0.28327127115801121 0 0.41664462513020523 0.25422696758609492 0 0.42226183937510081 0.28327127115801121 0 0.4092682188351508 0.26816031590002881 0 0.40929088926209078 0.279020096056181 0 0.40768566828284042 0.25774317622192677 0 0.41664462513020523 0.25422696758609492 0 0.40866327585672191 0.24600766979752939 0 0.40768566828284042 0.25774317622192677 0 0.41664462513020523 0.25422696758609492 0 0.4092682188351508 0.26816031590002881 0 0.40768566828284042 0.25774317622192677 0 0.41664462513020523 0.25422696758609492 0 0.42749544465446981 0.25699566217507153 0 0.45166362976964691 0.25106894999712381 0 0.43076425121212841 0.2486853010718087 0 0.41664462513020523 0.25422696758609492 0 0.42749544465446981 0.25699566217507153 0 0.43076425121212841 0.2486853010718087 0 0.43023391716603732 0.27040224467912161 0 0.41664462513020523 0.25422696758609492 0 0.42749544465446981 0.25699566217507153 0 0.41664462513020523 0.25422696758609492 0 0.43076425121212841 0.2486853010718087 0 0.42749544465446981 0.25699566217507153 0 0.43692075095235122 0.26433370861442979 0 0.44456450099631911 0.26043047377218492 0 0.43023391716603732 0.27040224467912161 0 0.42749544465446981 0.25699566217507153 0 0.43692075095235122 0.26433370861442979 0 0.42749544465446981 0.25699566217507153 0 0.45166362976964691 0.25106894999712381 0 0.42749544465446981 0.25699566217507153 0 0.44456450099631911 0.26043047377218492 0 0.45166362976964691 0.25106894999712381 0 0.43692075095235122 0.26433370861442979 0 0.44456450099631911 0.26043047377218492 0 0.44373838257505849 0.27050131303512348 0 0.44456450099631911 0.26043047377218492 0 0.44373838257505849 0.27050131303512348 0 0.45508065662597141 0.26402805921732958 0 0.44456450099631911 0.26043047377218492 0 0.45166362976964691 0.25106894999712381 0 0.45508065662597141 0.26402805921732958 0 0.44373838257505849 0.27050131303512348 0 0.45472874274978531 0.27586911806656422 0 0.44120727567718632 0.28746005308771089 0 0.43023391716603732 0.27040224467912161 0 0.44373838257505849 0.27050131303512348 0 0.44120727567718632 0.28746005308771089 0 0.44373838257505849 0.27050131303512348 0 0.45472874274978531 0.27586911806656422 0 0.45508065662597141 0.26402805921732958 0 0.45472874274978531 0.27586911806656422 0 0.46665275363318931 0.27127710252775639 0 0.46192346945889701 0.28817835066990299 0 0.45472874274978531 0.27586911806656422 0 0.46665275363318931 0.27127710252775639 0 0.45508065662597141 0.26402805921732958 0 0.45166362976964691 0.25106894999712381 0 0.46652816171208539 0.25830808769848879 0 0.47583181488482379 0.2451422378191761 0 0.45166362976964691 0.25106894999712381 0 0.45508065662597141 0.26402805921732958 0 0.46652816171208539 0.25830808769848879 0 0.46665275363318931 0.27127710252775639 0 0.45508065662597141 0.26402805921732958 0 0.46652816171208539 0.25830808769848879 0 0.46665275363318931 0.27127710252775639 0 0.46652816171208539 0.25830808769848879 0 0.48341195364679568 0.26002408893105827 0 0.46652816171208539 0.25830808769848879 0 0.48341195364679568 0.26002408893105827 0 0.47583181488482379 0.2451422378191761 0 0.46665275363318931 0.27127710252775639 0 0.48341195364679568 0.26002408893105827 0 0.48138518434246891 0.28130646820503019 0 0.46665275363318931 0.27127710252775639 0 0.48138518434246891 0.28130646820503019 0 0.46192346945889701 0.28817835066990299 0 0.5 0.26671351767664991 0 0.5 0.29421150971207138 0 0.48138518434246891 0.28130646820503019 0 0.48341195364679568 0.26002408893105827 0 0.5 0.26671351767664991 0 0.48138518434246891 0.28130646820503019 0 0.48341195364679568 0.26002408893105827 0 0.5 0.26671351767664991 0 0.50000000000000067 0.2392155256412283 0 0.5 0.29421150971207138 0 0.47556093647901088 0.30733800586058863 0 0.5 0.32170950174749302 0 0.5 0.29421150971207138 0 0.48138518434246891 0.28130646820503019 0 0.47556093647901088 0.30733800586058863 0 0.48138518434246891 0.28130646820503019 0 0.47556093647901088 0.30733800586058863 0 0.46192346945889701 0.28817835066990299 0 0.47556093647901088 0.30733800586058863 0 0.45214514511688908 0.30370412902975941 0 0.45421880844117613 0.32339126307769928 0 0.47556093647901088 0.30733800586058863 0 0.46192346945889701 0.28817835066990299 0 0.45214514511688908 0.30370412902975941 0 0.46192346945889701 0.28817835066990299 0 0.44120727567718632 0.28746005308771089 0 0.45214514511688908 0.30370412902975941 0 0.45472874274978531 0.27586911806656422 0 0.46192346945889701 0.28817835066990299 0 0.44120727567718632 0.28746005308771089 0 0.42781523552817591 0.31215297245289481 0 0.44120727567718632 0.28746005308771089 0 0.45214514511688908 0.30370412902975941 0 0.42781523552817591 0.31215297245289481 0 0.45421880844117613 0.32339126307769928 0 0.43298436918619881 0.33903622913929549 0 0.42781523552817591 0.31215297245289481 0 0.45214514511688908 0.30370412902975941 0 0.45421880844117613 0.32339126307769928 0 0.42781523552817591 0.31215297245289481 0 0.45421880844117613 0.32339126307769928 0 0.45421880844117613 0.32339126307769928 0 0.45970761232660212 0.34692044601787542 0 0.43298436918619881 0.33903622913929549 0 0.45421880844117613 0.32339126307769928 0 0.48062238135417568 0.33462955370250519 0 0.45421880844117613 0.32339126307769928 0 0.48062238135417568 0.33462955370250519 0 0.45970761232660212 0.34692044601787542 0 0.47556093647901088 0.30733800586058863 0 0.45421880844117613 0.32339126307769928 0 0.48062238135417568 0.33462955370250519 0 0.48062238135417568 0.33462955370250519 0 0.5 0.32170950174749302 0 0.5 0.34920749378291471 0 0.47556093647901088 0.30733800586058863 0 0.48062238135417568 0.33462955370250519 0 0.5 0.32170950174749302 0 0.5 0.34920749378291471 0 0.48254603458521478 0.3522402998402685 0 0.5 0.37670548581833618 0 0.48062238135417568 0.33462955370250519 0 0.5 0.34920749378291471 0 0.48254603458521478 0.3522402998402685 0 0.48254603458521478 0.3522402998402685 0 0.46972057754862501 0.36630584452178799 0 0.45970761232660212 0.34692044601787542 0 0.48062238135417568 0.33462955370250519 0 0.48254603458521478 0.3522402998402685 0 0.45970761232660212 0.34692044601787542 0 0.48254603458521478 0.3522402998402685 0 0.46972057754862501 0.36630584452178799 0 0.5 0.37670548581833618 0 0.46972057754862501 0.36630584452178799 0 0.43815350284422228 0.36591948582569622 0 0.45848938469160699 0.38276388730883248 0 0.46972057754862501 0.36630584452178799 0 0.45970761232660212 0.34692044601787542 0 0.43815350284422228 0.36591948582569622 0 0.45970761232660212 0.34692044601787542 0 0.43815350284422228 0.36591948582569622 0 0.43298436918619881 0.33903622913929549 0 0.43815350284422228 0.36591948582569622 0 0.4167242930516859 0.35972934744593471 0 0.42344095457037051 0.38268701701273461 0 0.4167242930516859 0.35972934744593471 0 0.40101385701800268 0.38518895784325291 0 0.4167242930516859 0.35972934744593471 0 0.40181680918128981 0.35947395412181382 0 0.40101385701800268 0.38518895784325291 0 0.4167242930516859 0.35972934744593471 0 0.40869055031553031 0.33881917925707022 0 0.40181680918128981 0.35947395412181382 0 0.4167242930516859 0.35972934744593471 0 0.43298436918619881 0.33903622913929549 0 0.40869055031553031 0.33881917925707022 0 0.43815350284422228 0.36591948582569622 0 0.4167242930516859 0.35972934744593471 0 0.43298436918619881 0.33903622913929549 0 0.43815350284422228 0.36591948582569622 0 0.43298436918619881 0.33903622913929549 0 0.42781523552817591 0.31215297245289481 0 0.43298436918619881 0.33903622913929549 0 0.42781523552817591 0.31215297245289481 0 0.43298436918619881 0.33903622913929549 0 0.41357021602424721 0.32279281759874212 0 0.43298436918619881 0.33903622913929549 0 0.41357021602424721 0.32279281759874212 0 0.40869055031553031 0.33881917925707022 0 0.40869055031553031 0.33881917925707022 0 0.39369601167170543 0.33564153172070438 0 0.39209274976778918 0.34814598654190299 0 0.40869055031553031 0.33881917925707022 0 0.39369601167170543 0.33564153172070438 0 0.3956366020903157 0.32248231082130752 0 0.39369601167170543 0.33564153172070438 0 0.3956366020903157 0.32248231082130752 0 0.38362385659697051 0.32926172455430031 0 0.39369601167170543 0.33564153172070438 0 0.38635485741833753 0.33883185827426582 0 0.39209274976778918 0.34814598654190299 0 0.41357021602424721 0.32279281759874212 0 0.40869055031553031 0.33881917925707022 0 0.3956366020903157 0.32248231082130752 0 0.4027243230010164 0.30147339632314252 0 0.41357021602424721 0.32279281759874212 0 0.3956366020903157 0.32248231082130752 0 0.3956366020903157 0.32248231082130752 0 0.38754735899376969 0.31282171123814728 0 0.38479800915553353 0.32074741934569512 0 0.38754735899376969 0.31282171123814728 0 0.38479800915553353 0.32074741934569512 0 0.37917338616632867 0.3168755173424983 0 0.3956366020903157 0.32248231082130752 0 0.38479800915553353 0.32074741934569512 0 0.38362385659697051 0.32926172455430031 0 0.38479800915553353 0.32074741934569512 0 0.37832625022041982 0.32264150287239662 0 0.38362385659697051 0.32926172455430031 0 0.37577016905582622 0.32787937856968757 0 0.37832625022041982 0.32264150287239662 0 0.38362385659697051 0.32926172455430031 0 0.37577016905582622 0.32787937856968757 0 0.37506056064123422 0.32471797871916308 0 0.37832625022041982 0.32264150287239662 0 0.37368960646642962 0.31911015363466272 0 0.37506056064123422 0.32471797871916308 0 0.37832625022041982 0.32264150287239662 0 0.37695808612291098 0.31120865645681561 0 0.38754735899376969 0.31282171123814728 0 0.37917338616632867 0.3168755173424983 0 0.38479800915553353 0.32074741934569512 0 0.37832625022041982 0.32264150287239662 0 0.37917338616632867 0.3168755173424983 0 0.37368960646642962 0.31911015363466272 0 0.37832625022041982 0.32264150287239662 0 0.37917338616632867 0.3168755173424983 0 0.37499251130121058 0.31593455150060828 0 0.37368960646642962 0.31911015363466272 0 0.37917338616632867 0.3168755173424983 0 0.37499251130121058 0.31593455150060828 0 0.37695808612291098 0.31120865645681561 0 0.37917338616632867 0.3168755173424983 0 0.38635485741833753 0.33883185827426582 0 0.3795813787571668 0.3363772241379393 0 0.38278029029805521 0.34473282441648212 0 0.39369601167170543 0.33564153172070438 0 0.38635485741833753 0.33883185827426582 0 0.38362385659697051 0.32926172455430031 0 0.38635485741833753 0.33883185827426582 0 0.38362385659697051 0.32926172455430031 0 0.3795813787571668 0.3363772241379393 0 0.37577016905582622 0.32787937856968757 0 0.38362385659697051 0.32926172455430031 0 0.37868435463470768 0.3315773541462857 0 0.38362385659697051 0.32926172455430031 0 0.37868435463470768 0.3315773541462857 0 0.3795813787571668 0.3363772241379393 0 0.37577016905582622 0.32787937856968757 0 0.37868435463470768 0.3315773541462857 0 0.375263113682131 0.33313320718557798 0 0.37868435463470768 0.3315773541462857 0 0.375263113682131 0.33313320718557798 0 0.3795813787571668 0.3363772241379393 0 0.37369311900952262 0.33836265764115908 0 0.3795813787571668 0.3363772241379393 0 0.37670219357667811 0.34177383067972761 0 0.3795813787571668 0.3363772241379393 0 0.37670219357667811 0.34177383067972761 0 0.38278029029805521 0.34473282441648212 0 0.37369311900952262 0.33836265764115908 0 0.375263113682131 0.33313320718557798 0 0.3795813787571668 0.3363772241379393 0 0.3809821990389497 0.35490418517770578 0 0.39056259575344082 0.36548629952090861 0 0.39209274976778918 0.34814598654190299 0 0.37486749369974542 0.34694596905823039 0 0.37670219357667811 0.34177383067972761 0 0.38278029029805521 0.34473282441648212 0 0.37486749369974542 0.34694596905823039 0 0.38278029029805521 0.34473282441648212 0 0.3809821990389497 0.35490418517770578 0 0.38278029029805521 0.34473282441648212 0 0.3809821990389497 0.35490418517770578 0 0.39209274976778918 0.34814598654190299 0 0.38635485741833753 0.33883185827426582 0 0.38278029029805521 0.34473282441648212 0 0.39209274976778918 0.34814598654190299 0 0.37228166628853332 0.35471301169251829 0 0.37486749369974542 0.34694596905823039 0 0.3809821990389497 0.35490418517770578 0 0.37414389550204002 0.36898578533419818 0 0.3809821990389497 0.35490418517770578 0 0.39056259575344082 0.36548629952090861 0 0.37414389550204002 0.36898578533419818 0 0.39056259575344082 0.36548629952090861 0 0.40101385701800268 0.38518895784325291 0 0.37414389550204002 0.36898578533419818 0 0.37228166628853332 0.35471301169251829 0 0.3809821990389497 0.35490418517770578 0 0.39056259575344082 0.36548629952090861 0 0.40181680918128981 0.35947395412181382 0 0.40101385701800268 0.38518895784325291 0 0.39056259575344082 0.36548629952090861 0 0.40181680918128981 0.35947395412181382 0 0.39209274976778918 0.34814598654190299 0 0.40869055031553031 0.33881917925707022 0 0.40181680918128981 0.35947395412181382 0 0.39209274976778918 0.34814598654190299 0 0.40101385701800268 0.38518895784325291 0 0.38530342098431941 0.41064856824057122 0 0.40101385701800268 0.38518895784325291 0 0.38530342098431941 0.41064856824057122 0 0.41521715527738928 0.40390661881175682 0 0.3736470799201031 0.39378130610698531 0 0.37414389550204002 0.36898578533419818 0 0.40101385701800268 0.38518895784325291 0 0.3736470799201031 0.39378130610698531 0 0.40101385701800268 0.38518895784325291 0 0.38530342098431941 0.41064856824057122 0 0.36959298495063608 0.43610817863788948 0 0.38530342098431941 0.41064856824057122 0 0.36959298495063608 0.43610817863788948 0 0.38530342098431941 0.41064856824057122 0 0.3889231515195431 0.43141286456833011 0 0.3889231515195431 0.43141286456833011 0 0.40362265567455102 0.42304679086704539 0 0.39942544658573009 0.43872588670818857 0 0.40362265567455102 0.42304679086704539 0 0.41248490446316177 0.43293377153942381 0 0.39942544658573009 0.43872588670818857 0 0.38530342098431941 0.41064856824057122 0 0.3889231515195431 0.43141286456833011 0 0.40362265567455102 0.42304679086704539 0 0.38530342098431941 0.41064856824057122 0 0.40362265567455102 0.42304679086704539 0 0.41521715527738928 0.40390661881175682 0 0.40362265567455102 0.42304679086704539 0 0.42233359500988371 0.42307221464191669 0 0.41521715527738928 0.40390661881175682 0 0.40362265567455102 0.42304679086704539 0 0.41248490446316177 0.43293377153942381 0 0.42233359500988371 0.42307221464191669 0 0.41248490446316177 0.43293377153942381 0 0.42233359500988371 0.42307221464191669 0 0.42326813014219627 0.43909650749986368 0 0.42233359500988371 0.42307221464191669 0 0.43681876433844857 0.43497208046478802 0 0.42326813014219627 0.43909650749986368 0 0.42233359500988371 0.42307221464191669 0 0.43681876433844857 0.43497208046478802 0 0.43655617137350622 0.42038510460191503 0 0.42233359500988371 0.42307221464191669 0 0.42830887421762198 0.41018013153495869 0 0.41521715527738928 0.40390661881175682 0 0.42233359500988371 0.42307221464191669 0 0.42830887421762198 0.41018013153495869 0 0.43655617137350622 0.42038510460191503 0 0.42830887421762198 0.41018013153495869 0 0.43655617137350622 0.42038510460191503 0 0.439625884597032 0.40642404903869822 0 0.42978568865087441 0.39901034440009059 0 0.42344095457037051 0.38268701701273461 0 0.4433226365022459 0.39280274251209668 0 0.42978568865087441 0.39901034440009059 0 0.41521715527738928 0.40390661881175682 0 0.42344095457037051 0.38268701701273461 0 0.42830887421762198 0.41018013153495869 0 0.42978568865087441 0.39901034440009059 0 0.439625884597032 0.40642404903869822 0 0.42830887421762198 0.41018013153495869 0 0.42978568865087441 0.39901034440009059 0 0.41521715527738928 0.40390661881175682 0 0.4167242930516859 0.35972934744593471 0 0.40101385701800268 0.38518895784325291 0 0.42344095457037051 0.38268701701273461 0 0.40101385701800268 0.38518895784325291 0 0.41521715527738928 0.40390661881175682 0 0.42344095457037051 0.38268701701273461 0 0.43815350284422228 0.36591948582569622 0 0.42344095457037051 0.38268701701273461 0 0.4433226365022459 0.39280274251209668 0 0.43815350284422228 0.36591948582569622 0 0.4433226365022459 0.39280274251209668 0 0.43815350284422228 0.36591948582569622 0 0.4433226365022459 0.39280274251209668 0 0.45848938469160699 0.38276388730883248 0 0.4433226365022459 0.39280274251209668 0 0.4587292321942566 0.40377894109977869 0 0.44849177016026981 0.41968599919849731 0 0.4433226365022459 0.39280274251209668 0 0.44849177016026981 0.41968599919849731 0 0.42978568865087441 0.39901034440009059 0 0.4433226365022459 0.39280274251209668 0 0.439625884597032 0.40642404903869822 0 0.4433226365022459 0.39280274251209668 0 0.4587292321942566 0.40377894109977869 0 0.45848938469160699 0.38276388730883248 0 0.4587292321942566 0.40377894109977869 0 0.45848938469160699 0.38276388730883248 0 0.47720201034463561 0.39055994944820821 0 0.46972057754862501 0.36630584452178799 0 0.45848938469160699 0.38276388730883248 0 0.47720201034463561 0.39055994944820821 0 0.46972057754862501 0.36630584452178799 0 0.47720201034463561 0.39055994944820821 0 0.5 0.37670548581833618 0 0.47720201034463561 0.39055994944820821 0 0.5 0.40420347785375749 0 0.47329291580914951 0.41490179660840648 0 0.4587292321942566 0.40377894109977869 0 0.47720201034463561 0.39055994944820821 0 0.47329291580914951 0.41490179660840648 0 0.47720201034463561 0.39055994944820821 0 0.5 0.40420347785375749 0 0.5 0.37670548581833618 0 0.48546521128148462 0.42572005307568972 0 0.49999999999999828 0.43170146988917901 0 0.48502495584706629 0.44181750450007778 0 0.49999999999999828 0.43170146988917901 0 0.48502495584706629 0.44181750450007778 0 0.5 0.40420347785375749 0 0.48546521128148462 0.42572005307568972 0 0.47329291580914951 0.41490179660840648 0 0.5 0.40420347785375749 0 0.48546521128148462 0.42572005307568972 0 0.49999999999999828 0.43170146988917901 0 0.48546521128148462 0.42572005307568972 0 0.47462076711180717 0.43403653248997731 0 0.48502495584706629 0.44181750450007778 0 0.47329291580914951 0.41490179660840648 0 0.47462076711180717 0.43403653248997731 0 0.45927084092720188 0.43580976915473651 0 0.48546521128148462 0.42572005307568972 0 0.47329291580914951 0.41490179660840648 0 0.47462076711180717 0.43403653248997731 0 0.45927084092720188 0.43580976915473651 0 0.44849177016026981 0.41968599919849731 0 0.47329291580914951 0.41490179660840648 0 0.45927084092720188 0.43580976915473651 0 0.44849177016026981 0.41968599919849731 0 0.45927084092720188 0.43580976915473651 0 0.44849177016026981 0.41968599919849731 0 0.45165089640657707 0.43611575462809582 0 0.4587292321942566 0.40377894109977869 0 0.47329291580914951 0.41490179660840648 0 0.44849177016026981 0.41968599919849731 0 0.4433226365022459 0.39280274251209668 0 0.44849177016026981 0.41968599919849731 0 0.439625884597032 0.40642404903869822 0 0.43655617137350622 0.42038510460191503 0 0.44849177016026981 0.41968599919849731 0 0.439625884597032 0.40642404903869822 0 0.44849177016026981 0.41968599919849731 0 0.439625884597032 0.40642404903869822 0 0.44849177016026981 0.41968599919849731 0 0.45165089640657707 0.43611575462809582 0 0.44386952542921521 0.4295111469185629 0 0.44849177016026981 0.41968599919849731 0 0.45165089640657707 0.43611575462809582 0 0.45165089640657707 0.43611575462809582 0 0.44386952542921521 0.4295111469185629 0 0.44519082659473158 0.43782150968735878 0 0.43655617137350622 0.42038510460191503 0 0.44849177016026981 0.41968599919849731 0 0.44386952542921521 0.4295111469185629 0 0.43681876433844857 0.43497208046478802 0 0.43655617137350622 0.42038510460191503 0 0.44386952542921521 0.4295111469185629 0 0.43681876433844857 0.43497208046478802 0 0.44386952542921521 0.4295111469185629 0 0.44519082659473158 0.43782150968735878 0 0.43681876433844857 0.43497208046478802 0 0.44519082659473158 0.43782150968735878 0 0.44362096681603608 0.44566090358066651 0 0.43681876433844857 0.43497208046478802 0 0.44362096681603608 0.44566090358066651 0 0.43343701099378978 0.44857281610427868 0 0.44362096681603608 0.44566090358066651 0 0.44110505044236059 0.45564825146568327 0 0.43343701099378978 0.44857281610427868 0 0.44362096681603608 0.44566090358066651 0 0.45255374853073171 0.45216262504332899 0 0.45221828903371142 0.44335246171580328 0 0.44362096681603608 0.44566090358066651 0 0.45255374853073171 0.45216262504332899 0 0.44110505044236059 0.45564825146568327 0 0.44519082659473158 0.43782150968735878 0 0.44362096681603608 0.44566090358066651 0 0.45221828903371142 0.44335246171580328 0 0.45165089640657707 0.43611575462809582 0 0.44519082659473158 0.43782150968735878 0 0.45221828903371142 0.44335246171580328 0 0.45255374853073171 0.45216262504332899 0 0.44518446721829791 0.46873079822848901 0 0.44110505044236059 0.45564825146568327 0 0.44518446721829791 0.46873079822848901 0 0.44110505044236059 0.45564825146568327 0 0.43072905865294731 0.46311411437165317 0 0.47284597636140308 0.45611600571247141 0 0.46302896313844299 0.47272331085799019 0 0.45255374853073171 0.45216262504332899 0 0.44518446721829791 0.46873079822848901 0 0.47004991169413368 0.45193353911097589 0 0.47004991169413368 0.45193353911097589 0 0.47284597636140308 0.45611600571247141 0 0.46302896313844299 0.47272331085799019 0 0.44518446721829791 0.46873079822848901 0 0.47004991169413368 0.45193353911097589 0 0.46302896313844299 0.47272331085799019 0 0.44518446721829791 0.46873079822848901 0 0.47004991169413368 0.45193353911097589 0 0.45927084092720188 0.43580976915473651 0 0.47004991169413368 0.45193353911097589 0 0.45927084092720188 0.43580976915473651 0 0.45930684530103161 0.44617181272829648 0 0.47004991169413368 0.45193353911097589 0 0.47462076711180717 0.43403653248997731 0 0.45927084092720188 0.43580976915473651 0 0.47004991169413368 0.45193353911097589 0 0.45255374853073171 0.45216262504332899 0 0.45930684530103161 0.44617181272829648 0 0.47004991169413368 0.45193353911097589 0 0.45927084092720188 0.43580976915473651 0 0.45221828903371142 0.44335246171580328 0 0.45930684530103161 0.44617181272829648 0 0.45927084092720188 0.43580976915473651 0 0.45165089640657707 0.43611575462809582 0 0.45221828903371142 0.44335246171580328 0 0.45255374853073171 0.45216262504332899 0 0.45221828903371142 0.44335246171580328 0 0.45930684530103161 0.44617181272829648 0 0.47462076711180717 0.43403653248997731 0 0.47004991169413368 0.45193353911097589 0 0.48502495584706629 0.44181750450007778 0 0.48189680466807888 0.45106209462173341 0 0.47450081081676521 0.45331654521044668 0 0.48502495584706629 0.44181750450007778 0 0.47004991169413368 0.45193353911097589 0 0.48502495584706629 0.44181750450007778 0 0.47004991169413368 0.45193353911097589 0 0.47450081081676521 0.45331654521044668 0 0.48502495584706629 0.44181750450007778 0 0.47284597636140308 0.45611600571247141 0 0.48050552008400071 0.46757346096286262 0 0.46302896313844299 0.47272331085799019 0 0.47004991169413368 0.45193353911097589 0 0.47284597636140308 0.45611600571247141 0 0.47004991169413368 0.45193353911097589 0 0.47450081081676521 0.45331654521044668 0 0.47284597636140308 0.45611600571247141 0 0.47450081081676521 0.45331654521044668 0 0.47284597636140308 0.45611600571247141 0 0.47951191807974908 0.45654698881850991 0 0.47450081081676521 0.45331654521044668 0 0.47284597636140308 0.45611600571247141 0 0.47284597636140308 0.45611600571247141 0 0.48050552008400071 0.46757346096286262 0 0.47284597636140308 0.45611600571247141 0 0.48050552008400071 0.46757346096286262 0 0.47951191807974908 0.45654698881850991 0 0.48189680466807888 0.45106209462173341 0 0.47951191807974908 0.45654698881850991 0 0.4878104784684959 0.4546668375850359 0 0.48050552008400071 0.46757346096286262 0 0.47951191807974908 0.45654698881850991 0 0.4878104784684959 0.4546668375850359 0 0.48189680466807888 0.45106209462173341 0 0.47450081081676521 0.45331654521044668 0 0.47951191807974908 0.45654698881850991 0 0.48050552008400071 0.46757346096286262 0 0.4878104784684959 0.4546668375850359 0 0.49999999999999928 0.46182898591187349 0 0.48050552008400071 0.46757346096286262 0 0.49999999999999928 0.46182898591187349 0 0.49999999999999828 0.43170146988917901 0 0.4878104784684959 0.4546668375850359 0 0.49999999999999928 0.46182898591187349 0 0.49999999999999828 0.43170146988917901 0 0.4878104784684959 0.4546668375850359 0 0.48502495584706629 0.44181750450007778 0 0.48189680466807888 0.45106209462173341 0 0.4878104784684959 0.4546668375850359 0 0.48502495584706629 0.44181750450007778 0 0.49999999999999928 0.46182898591187349 0 0.5 0.5 0 0.49753071700976492 0.4930404390193398 0 0.5 0.5 0 0.47501141284236448 0.48698608464618232 0 0.44690499747156931 0.4999999999999995 0 0.5 0.5 0 0.49753071700976492 0.4930404390193398 0 0.47501141284236448 0.48698608464618232 0 0.49753071700976492 0.4930404390193398 0 0.48901811854688337 0.4803069499911008 0 0.47501141284236448 0.48698608464618232 0 0.49753071700976492 0.4930404390193398 0 0.48901811854688337 0.4803069499911008 0 0.48050552008400071 0.46757346096286262 0 0.49999999999999928 0.46182898591187349 0 0.48901811854688337 0.4803069499911008 0 0.49999999999999928 0.46182898591187349 0 0.49753071700976492 0.4930404390193398 0 0.48901811854688337 0.4803069499911008 0 0.48050552008400071 0.46757346096286262 0 0.48901811854688337 0.4803069499911008 0 0.48050552008400071 0.46757346096286262 0 0.46302896313844299 0.47272331085799019 0 0.48901811854688337 0.4803069499911008 0 0.47689100365292297 0.47689745161453417 0 0.47501141284236448 0.48698608464618232 0 0.48050552008400071 0.46757346096286262 0 0.47689100365292297 0.47689745161453417 0 0.46302896313844299 0.47272331085799019 0 0.48050552008400071 0.46757346096286262 0 0.48901811854688337 0.4803069499911008 0 0.47689100365292297 0.47689745161453417 0 0.47689100365292297 0.47689745161453417 0 0.47501141284236448 0.48698608464618232 0 0.46302896313844299 0.47272331085799019 0 0.47501141284236448 0.48698608464618232 0 0.45496698030500621 0.48636165542899479 0 0.44690499747156931 0.4999999999999995 0 0.47501141284236448 0.48698608464618232 0 0.45496698030500621 0.48636165542899479 0 0.46302896313844299 0.47272331085799019 0 0.45496698030500621 0.48636165542899479 0 0.46302896313844299 0.47272331085799019 0 0.46302896313844299 0.47272331085799019 0 0.43620850627812668 0.48062654530969717 0 0.44518446721829791 0.46873079822848901 0 0.46302896313844299 0.47272331085799019 0 0.43620850627812668 0.48062654530969717 0 0.45496698030500621 0.48636165542899479 0 0.46302896313844299 0.47272331085799019 0 0.43620850627812668 0.48062654530969717 0 0.45496698030500621 0.48636165542899479 0 0.44690499747156931 0.4999999999999995 0 0.43620850627812668 0.48062654530969717 0 0.45496698030500621 0.48636165542899479 0 0.44690499747156931 0.4999999999999995 0 0.42031902274246069 0.48552805734600057 0 0.41743852268843429 0.5 0 0.43620850627812668 0.48062654530969717 0 0.44690499747156931 0.4999999999999995 0 0.41743852268843429 0.5 0 0.43620850627812668 0.48062654530969717 0 0.42031902274246069 0.48552805734600057 0 0.41743852268843429 0.5 0 0.40134209412993838 0.48520307466421098 0 0.42031902274246069 0.48552805734600057 0 0.40973563488985532 0.47579104778557152 0 0.40134209412993838 0.48520307466421098 0 0.42031902274246069 0.48552805734600057 0 0.40973563488985532 0.47579104778557152 0 0.41789473538963601 0.46705380048502582 0 0.44518446721829791 0.46873079822848901 0 0.42031902274246069 0.48552805734600057 0 0.43072905865294731 0.46311411437165317 0 0.44518446721829791 0.46873079822848901 0 0.42031902274246069 0.48552805734600057 0 0.43620850627812668 0.48062654530969717 0 0.44518446721829791 0.46873079822848901 0 0.42031902274246069 0.48552805734600057 0 0.42031902274246069 0.48552805734600057 0 0.43072905865294731 0.46311411437165317 0 0.41789473538963601 0.46705380048502582 0 0.44110505044236059 0.45564825146568327 0 0.43072905865294731 0.46311411437165317 0 0.43343701099378978 0.44857281610427868 0 0.43072905865294731 0.46311411437165317 0 0.43343701099378978 0.44857281610427868 0 0.42053980660522761 0.45341513910658388 0 0.43072905865294731 0.46311411437165317 0 0.41789473538963601 0.46705380048502582 0 0.42053980660522761 0.45341513910658388 0 0.43681876433844857 0.43497208046478802 0 0.43343701099378978 0.44857281610427868 0 0.42326813014219627 0.43909650749986368 0 0.43343701099378978 0.44857281610427868 0 0.42326813014219627 0.43909650749986368 0 0.42053980660522761 0.45341513910658388 0 0.41248490446316177 0.43293377153942381 0 0.42326813014219627 0.43909650749986368 0 0.41215324011006321 0.44426916471351768 0 0.42326813014219627 0.43909650749986368 0 0.41215324011006321 0.44426916471351768 0 0.42053980660522761 0.45341513910658388 0 0.41215324011006321 0.44426916471351768 0 0.42053980660522761 0.45341513910658388 0 0.40575666434273311 0.45838443146516472 0 0.41248490446316177 0.43293377153942381 0 0.41215324011006321 0.44426916471351768 0 0.39942544658573009 0.43872588670818857 0 0.40973563488985532 0.47579104778557152 0 0.41789473538963601 0.46705380048502582 0 0.40575666434273311 0.45838443146516472 0 0.41789473538963601 0.46705380048502582 0 0.42053980660522761 0.45341513910658388 0 0.40575666434273311 0.45838443146516472 0 0.40973563488985532 0.47579104778557152 0 0.40575666434273311 0.45838443146516472 0 0.39457326129307041 0.46924519202038539 0 0.40575666434273311 0.45838443146516472 0 0.38748492612950952 0.44892285829301931 0 0.39457326129307041 0.46924519202038539 0 0.40575666434273311 0.45838443146516472 0 0.39942544658573009 0.43872588670818857 0 0.38748492612950952 0.44892285829301931 0 0.3889231515195431 0.43141286456833011 0 0.39942544658573009 0.43872588670818857 0 0.38748492612950952 0.44892285829301931 0 0.41215324011006321 0.44426916471351768 0 0.40575666434273311 0.45838443146516472 0 0.39942544658573009 0.43872588670818857 0 0.36980735363827261 0.46050290225189661 0 0.36959298495063608 0.43610817863788948 0 0.38748492612950952 0.44892285829301931 0 0.36959298495063608 0.43610817863788948 0 0.3889231515195431 0.43141286456833011 0 0.38748492612950952 0.44892285829301931 0 0.36980735363827261 0.46050290225189661 0 0.38748492612950952 0.44892285829301931 0 0.39457326129307041 0.46924519202038539 0 0.36980735363827261 0.46050290225189661 0 0.37801407526051067 0.48065415083330842 0 0.39457326129307041 0.46924519202038539 0 0.37801407526051067 0.48065415083330842 0 0.38797204790529932 0.5 0 0.40134209412993838 0.48520307466421098 0 0.41743852268843429 0.5 0 0.38797204790529932 0.5 0 0.40134209412993838 0.48520307466421098 0 0.40973563488985532 0.47579104778557152 0 0.40134209412993838 0.48520307466421098 0 0.39457326129307041 0.46924519202038539 0 0.37801407526051067 0.48065415083330842 0 0.40134209412993838 0.48520307466421098 0 0.39457326129307041 0.46924519202038539 0 0.33471388977496319 0.083869725553476451 0 0.32003772732572838 0.080925826065863432 0 0.34163206045391592 0.099703108374672819 0 0.32003772732572838 0.080925826065863432 0 0.34163206045391592 0.099703108374672819 0 0.33471388977496319 0.083869725553476451 0 0.34163206045391592 0.099703108374672819 0 0.35085433501378249 0.086695181415402722 0 0.33471388977496319 0.083869725553476451 0 0.34209731100959018 0.06531632876058778 0 0.3490795063897344 0.076610282135673974 0 0.33471388977496319 0.083869725553476451 0 0.34209731100959018 0.06531632876058778 0 0.32721969837032222 0.069259436753723466 0 0.33471388977496319 0.083869725553476451 0 0.32721969837032222 0.069259436753723466 0 0.32003772732572838 0.080925826065863432 0 0.31518448171420999 0.065085558788002928 0 0.32721969837032222 0.069259436753723466 0 0.32003772732572838 0.080925826065863432 0 0.32003772732572838 0.080925826065863432 0 0.31657863646219547 0.093324099257994786 0 0.34163206045391592 0.099703108374672819 0 0.32003772732572838 0.080925826065863432 0 0.31657863646219547 0.093324099257994786 0 0.30227411453462139 0.089652133027170247 0 0.33471388977496319 0.083869725553476451 0 0.32003772732572838 0.080925826065863432 0 0.31657863646219547 0.093324099257994786 0 0.32025759602694659 0.1047776340902011 0 0.34163206045391592 0.099703108374672819 0 0.31657863646219547 0.093324099257994786 0 0.32025759602694659 0.1047776340902011 0 0.30640852481201453 0.1024735992044304 0 0.32025759602694659 0.1047776340902011 0 0.31114536757858358 0.11742006929579971 0 0.30640852481201453 0.1024735992044304 0 0.32606950933900308 0.1158177097477945 0 0.31114536757858358 0.11742006929579971 0 0.3195478300457561 0.1332621056988223 0 0.32025759602694659 0.1047776340902011 0 0.32606950933900308 0.1158177097477945 0 0.31114536757858358 0.11742006929579971 0 0.33761965874988609 0.1186889285033586 0 0.34163206045391592 0.099703108374672819 0 0.34956654336434939 0.1234914401014125 0 0.32606950933900308 0.1158177097477945 0 0.33761965874988609 0.1186889285033586 0 0.34163206045391592 0.099703108374672819 0 0.32606950933900308 0.1158177097477945 0 0.33761965874988609 0.1186889285033586 0 0.33436770153514289 0.13112975471366969 0 0.33761965874988609 0.1186889285033586 0 0.34956654336434939 0.1234914401014125 0 0.33436770153514289 0.13112975471366969 0 0.32025759602694659 0.1047776340902011 0 0.32606950933900308 0.1158177097477945 0 0.34163206045391592 0.099703108374672819 0 0.34163206045391592 0.099703108374672819 0 0.35755874922647762 0.098360434014750309 0 0.36322639358210312 0.11848039068348271 0 0.34163206045391592 0.099703108374672819 0 0.36322639358210312 0.11848039068348271 0 0.34163206045391592 0.099703108374672819 0 0.35755874922647762 0.098360434014750309 0 0.35085433501378249 0.086695181415402722 0 0.34163206045391592 0.099703108374672819 0 0.34956654336434939 0.1234914401014125 0 0.36322639358210312 0.11848039068348271 0 0.36322639358210312 0.11848039068348271 0 0.37045299287494049 0.09679375479102828 0 0.38005682511468147 0.12140739343396729 0 0.35755874922647762 0.098360434014750309 0 0.36322639358210312 0.11848039068348271 0 0.37045299287494049 0.09679375479102828 0 0.35755874922647762 0.098360434014750309 0 0.37045299287494049 0.09679375479102828 0 0.35979627253246887 0.087956112087811941 0 0.37045299287494049 0.09679375479102828 0 0.36986657419494789 0.075759843690150083 0 0.37682589963749002 0.081332762740894418 0 0.37045299287494049 0.09679375479102828 0 0.35979627253246887 0.087956112087811941 0 0.36084916063519962 0.072180116148089279 0 0.37045299287494049 0.09679375479102828 0 0.36084916063519962 0.072180116148089279 0 0.36986657419494789 0.075759843690150083 0 0.37045299287494049 0.09679375479102828 0 0.36084916063519962 0.072180116148089279 0 0.35755874922647762 0.098360434014750309 0 0.35979627253246887 0.087956112087811941 0 0.35085433501378249 0.086695181415402722 0 0.35979627253246887 0.087956112087811941 0 0.35560274156159061 0.081403828627082772 0 0.36084916063519962 0.072180116148089279 0 0.33471388977496319 0.083869725553476451 0 0.35085433501378249 0.086695181415402722 0 0.3490795063897344 0.076610282135673974 0 0.35979627253246887 0.087956112087811941 0 0.35560274156159061 0.081403828627082772 0 0.35085433501378249 0.086695181415402722 0 0.35560274156159061 0.081403828627082772 0 0.35085433501378249 0.086695181415402722 0 0.3490795063897344 0.076610282135673974 0 0.34209731100959018 0.06531632876058778 0 0.3490795063897344 0.076610282135673974 0 0.36084916063519962 0.072180116148089279 0 0.36448270712015302 0.068442951443566186 0 0.36084916063519962 0.072180116148089279 0 0.35124532839545858 0.047566477505150237 0 0.35560274156159061 0.081403828627082772 0 0.3490795063897344 0.076610282135673974 0 0.36084916063519962 0.072180116148089279 0 0.36448270712015302 0.068442951443566186 0 0.36084916063519962 0.072180116148089279 0 0.36986657419494789 0.075759843690150083 0 0.36986657419494789 0.075759843690150083 0 0.37596532967213542 0.069868995675824025 0 0.37682589963749002 0.081332762740894418 0 0.36448270712015302 0.068442951443566186 0 0.36986657419494789 0.075759843690150083 0 0.37084641292541748 0.06878424193773866 0 0.36986657419494789 0.075759843690150083 0 0.37084641292541748 0.06878424193773866 0 0.37596532967213542 0.069868995675824025 0 0.36448270712015302 0.068442951443566186 0 0.37084641292541748 0.06878424193773866 0 0.37307104071443398 0.061065176941414383 0 0.37084641292541748 0.06878424193773866 0 0.37307104071443398 0.061065176941414383 0 0.37596532967213542 0.069868995675824025 0 0.36448270712015302 0.068442951443566186 0 0.37307104071443398 0.061065176941414383 0 0.37146335928247548 0.04052602251159599 0 0.36448270712015302 0.068442951443566186 0 0.37146335928247548 0.04052602251159599 0 0.35124532839545858 0.047566477505150237 0 0.36448270712015302 0.068442951443566186 0 0.37146335928247548 0.04052602251159599 0 0.37146335928247548 0.04052602251159599 0 0.35572529983931911 0.032753521421585163 0 0.36312657459820519 0.022962182453169309 0 0.37146335928247548 0.04052602251159599 0 0.35572529983931911 0.032753521421585163 0 0.35124532839545858 0.047566477505150237 0 0.35572529983931911 0.032753521421585163 0 0.35124532839545858 0.047566477505150237 0 0.3321968515854315 0.028027004478648001 0 0.36084916063519962 0.072180116148089279 0 0.35124532839545858 0.047566477505150237 0 0.34209731100959018 0.06531632876058778 0 0.36084916063519962 0.072180116148089279 0 0.35124532839545858 0.047566477505150237 0 0.36312657459820519 0.022962182453169309 0 0.35936362748920009 0.0091271431172253586 0 0.37844401144479839 0.012609093579625891 0 0.35936362748920009 0.0091271431172253586 0 0.37844401144479839 0.012609093579625891 0 0.36665723294200347 -0.001883505129568449 0 0.35936362748920009 0.0091271431172253586 0 0.36665723294200347 -0.001883505129568449 0 0.35531676971978082 -0.0033532784323768001 0 0.37146335928247548 0.04052602251159599 0 0.36312657459820519 0.022962182453169309 0 0.37844401144479839 0.012609093579625891 0 0.37146335928247548 0.04052602251159599 0 0.37844401144479839 0.012609093579625891 0 0.35572529983931911 0.032753521421585163 0 0.35063657493523293 0.0197951316358141 0 0.3321968515854315 0.028027004478648001 0 0.35572529983931911 0.032753521421585163 0 0.36312657459820519 0.022962182453169309 0 0.35063657493523293 0.0197951316358141 0 0.36312657459820519 0.022962182453169309 0 0.35063657493523293 0.0197951316358141 0 0.35936362748920009 0.0091271431172253586 0 0.35936362748920009 0.0091271431172253586 0 0.33689267375143878 0.0039255003288513873 0 0.35531676971978082 -0.0033532784323768001 0 0.35063657493523293 0.0197951316358141 0 0.35936362748920009 0.0091271431172253586 0 0.33689267375143878 0.0039255003288513873 0 0.33689267375143878 0.0039255003288513873 0 0.3321968515854315 0.028027004478648001 0 0.30352242257352219 0.0039185454548519476 0 0.35063657493523293 0.0197951316358141 0 0.33689267375143878 0.0039255003288513873 0 0.3321968515854315 0.028027004478648001 0 0.3321968515854315 0.028027004478648001 0 0.32406508202711942 0.05109974460068676 0 0.30086563814790429 0.035038583275740692 0 0.34209731100959018 0.06531632876058778 0 0.32721969837032222 0.069259436753723466 0 0.32406508202711942 0.05109974460068676 0 0.34209731100959018 0.06531632876058778 0 0.35124532839545858 0.047566477505150237 0 0.32406508202711942 0.05109974460068676 0 0.35124532839545858 0.047566477505150237 0 0.3321968515854315 0.028027004478648001 0 0.32406508202711942 0.05109974460068676 0 0.31518448171420999 0.065085558788002928 0 0.32721969837032222 0.069259436753723466 0 0.32406508202711942 0.05109974460068676 0 0.31518448171420999 0.065085558788002928 0 0.32406508202711942 0.05109974460068676 0 0.29882370077581188 0.062479238108283437 0 0.32406508202711942 0.05109974460068676 0 0.29882370077581188 0.062479238108283437 0 0.30086563814790429 0.035038583275740692 0 0.32406508202711942 0.05109974460068676 0 0.30086563814790429 0.035038583275740692 0 0.30086563814790429 0.035038583275740692 0 0.28350496565293731 0.043820562147367653 0 0.27766619426868899 0.018977421950794569 0 0.29882370077581188 0.062479238108283437 0 0.30086563814790429 0.035038583275740692 0 0.28350496565293731 0.043820562147367653 0 0.29882370077581188 0.062479238108283437 0 0.28350496565293731 0.043820562147367653 0 0.28339325744793759 0.061338593161917712 0 0.3321968515854315 0.028027004478648001 0 0.30086563814790429 0.035038583275740692 0 0.30352242257352219 0.0039185454548519476 0 0.30086563814790429 0.035038583275740692 0 0.27766619426868899 0.018977421950794569 0 0.30086563814790429 0.035038583275740692 0 0.30352242257352219 0.0039185454548519476 0 0.27766619426868899 0.018977421950794569 0 0.30352242257352219 0.0039185454548519476 0 0.27766619426868899 0.018977421950794569 0 0.27708695819087842 -0.0025378708656911609 0 0.27766619426868899 0.018977421950794569 0 0.25446675038947358 0.0029162606258486688 0 0.27766619426868899 0.018977421950794569 0 0.26047117107291767 -0.0019720443344692288 0 0.27708695819087842 -0.0025378708656911609 0 0.27766619426868899 0.018977421950794569 0 0.2600935707136679 0.019574361616358959 0 0.26464981823601458 0.038183209123269009 0 0.2600935707136679 0.019574361616358959 0 0.26464981823601458 0.038183209123269009 0 0.25044211127373811 0.032849993626191502 0 0.27766619426868899 0.018977421950794569 0 0.2600935707136679 0.019574361616358959 0 0.25446675038947358 0.0029162606258486688 0 0.27766619426868899 0.018977421950794569 0 0.25446675038947358 0.0029162606258486688 0 0.26047117107291767 -0.0019720443344692288 0 0.25446675038947358 0.0029162606258486688 0 0.26047117107291767 -0.0019720443344692288 0 0.28339325744793759 0.061338593161917712 0 0.2699795556074106 0.054659435659755229 0 0.26514968559830832 0.069915803624621298 0 0.28350496565293731 0.043820562147367653 0 0.28339325744793759 0.061338593161917712 0 0.2699795556074106 0.054659435659755229 0 0.28350496565293731 0.043820562147367653 0 0.27766619426868899 0.018977421950794569 0 0.26464981823601458 0.038183209123269009 0 0.28350496565293731 0.043820562147367653 0 0.2699795556074106 0.054659435659755229 0 0.26464981823601458 0.038183209123269009 0 0.26464981823601458 0.038183209123269009 0 0.25174039047255609 0.044464402284776217 0 0.2585751734657834 0.052327775232976027 0 0.26464981823601458 0.038183209123269009 0 0.25044211127373811 0.032849993626191502 0 0.25174039047255609 0.044464402284776217 0 0.25174039047255609 0.044464402284776217 0 0.25102243244437311 0.053297338652025752 0 0.2585751734657834 0.052327775232976027 0 0.2699795556074106 0.054659435659755229 0 0.26464981823601458 0.038183209123269009 0 0.2585751734657834 0.052327775232976027 0 0.2699795556074106 0.054659435659755229 0 0.2585751734657834 0.052327775232976027 0 0.26000268679747079 0.061003988239662958 0 0.2699795556074106 0.054659435659755229 0 0.26000268679747079 0.061003988239662958 0 0.26514968559830832 0.069915803624621298 0 0.2585751734657834 0.052327775232976027 0 0.26000268679747079 0.061003988239662958 0 0.2530174900015254 0.0600809219264858 0 0.25102243244437311 0.053297338652025752 0 0.2585751734657834 0.052327775232976027 0 0.2530174900015254 0.0600809219264858 0 0.24751669685985911 0.059618880130872708 0 0.25102243244437311 0.053297338652025752 0 0.2530174900015254 0.0600809219264858 0 0.24853219730195361 0.063845178725116872 0 0.2530174900015254 0.0600809219264858 0 0.25274476311700622 0.067427493409812952 0 0.2530174900015254 0.0600809219264858 0 0.25274476311700622 0.067427493409812952 0 0.26000268679747079 0.061003988239662958 0 0.2530174900015254 0.0600809219264858 0 0.25274476311700622 0.067427493409812952 0 0.25274476311700622 0.067427493409812952 0 0.25243039498113262 0.075895774732197205 0 0.24842415088314279 0.069033451464499671 0 0.25274476311700622 0.067427493409812952 0 0.25243039498113262 0.075895774732197205 0 0.25274476311700622 0.067427493409812952 0 0.25243039498113262 0.075895774732197205 0 0.26514968559830832 0.069915803624621298 0 0.25243039498113262 0.075895774732197205 0 0.26514968559830832 0.069915803624621298 0 0.26417250328098718 0.085299079350852347 0 0.25243039498113262 0.075895774732197205 0 0.26514968559830832 0.069915803624621298 0 0.26000268679747079 0.061003988239662958 0 0.25274476311700622 0.067427493409812952 0 0.26514968559830832 0.069915803624621298 0 0.25274476311700622 0.067427493409812952 0 0.26514968559830832 0.069915803624621298 0 0.25243039498113262 0.075895774732197205 0 0.26417250328098718 0.085299079350852347 0 0.25158482098595109 0.098673396421397969 0 0.25243039498113262 0.075895774732197205 0 0.25158482098595109 0.098673396421397969 0 0.26417250328098718 0.085299079350852347 0 0.27563544099652842 0.091217529053328833 0 0.26597619666038957 0.098681263799979324 0 0.26417250328098718 0.085299079350852347 0 0.27658940398852799 0.081360569412953818 0 0.27563544099652842 0.091217529053328833 0 0.26514968559830832 0.069915803624621298 0 0.26417250328098718 0.085299079350852347 0 0.27658940398852799 0.081360569412953818 0 0.27658940398852799 0.081360569412953818 0 0.27563544099652842 0.091217529053328833 0 0.28742128170162778 0.087331448045782731 0 0.28339325744793759 0.061338593161917712 0 0.26514968559830832 0.069915803624621298 0 0.29259370646201821 0.075420814845242989 0 0.26514968559830832 0.069915803624621298 0 0.27658940398852799 0.081360569412953818 0 0.29259370646201821 0.075420814845242989 0 0.28339325744793759 0.061338593161917712 0 0.26514968559830832 0.069915803624621298 0 0.26514968559830832 0.069915803624621298 0 0.29259370646201821 0.075420814845242989 0 0.29882370077581188 0.062479238108283437 0 0.28339325744793759 0.061338593161917712 0 0.29259370646201821 0.075420814845242989 0 0.27658940398852799 0.081360569412953818 0 0.29259370646201821 0.075420814845242989 0 0.28742128170162778 0.087331448045782731 0 0.27563544099652842 0.091217529053328833 0 0.28742128170162778 0.087331448045782731 0 0.29001374252644291 0.099006193890217781 0 0.28742128170162778 0.087331448045782731 0 0.30227411453462139 0.089652133027170247 0 0.29001374252644291 0.099006193890217781 0 0.29259370646201821 0.075420814845242989 0 0.28742128170162778 0.087331448045782731 0 0.30227411453462139 0.089652133027170247 0 0.32003772732572838 0.080925826065863432 0 0.29259370646201821 0.075420814845242989 0 0.30227411453462139 0.089652133027170247 0 0.32003772732572838 0.080925826065863432 0 0.29259370646201821 0.075420814845242989 0 0.32003772732572838 0.080925826065863432 0 0.29882370077581188 0.062479238108283437 0 0.29259370646201821 0.075420814845242989 0 0.32003772732572838 0.080925826065863432 0 0.29882370077581188 0.062479238108283437 0 0.31518448171420999 0.065085558788002928 0 0.32003772732572838 0.080925826065863432 0 0.29882370077581188 0.062479238108283437 0 0.29818169174329712 0.11066146566519899 0 0.31114536757858358 0.11742006929579971 0 0.294250496481684 0.12267566802032639 0 0.31114536757858358 0.11742006929579971 0 0.294250496481684 0.12267566802032639 0 0.30313841955192899 0.13260249050964579 0 0.29818169174329712 0.11066146566519899 0 0.31114536757858358 0.11742006929579971 0 0.30640852481201453 0.1024735992044304 0 0.30227411453462139 0.089652133027170247 0 0.30640852481201453 0.1024735992044304 0 0.29001374252644291 0.099006193890217781 0 0.29818169174329712 0.11066146566519899 0 0.30640852481201453 0.1024735992044304 0 0.29001374252644291 0.099006193890217781 0 0.31657863646219547 0.093324099257994786 0 0.30227411453462139 0.089652133027170247 0 0.30640852481201453 0.1024735992044304 0 0.29818169174329712 0.11066146566519899 0 0.29001374252644291 0.099006193890217781 0 0.28729541733308872 0.1128284558108848 0 0.29001374252644291 0.099006193890217781 0 0.28729541733308872 0.1128284558108848 0 0.27577858748266387 0.1072301355245756 0 0.29818169174329712 0.11066146566519899 0 0.28729541733308872 0.1128284558108848 0 0.294250496481684 0.12267566802032639 0 0.28729541733308872 0.1128284558108848 0 0.294250496481684 0.12267566802032639 0 0.28067449336876182 0.1220521091494646 0 0.28067449336876182 0.1220521091494646 0 0.26956705708048567 0.1198361090660386 0 0.27577858748266387 0.1072301355245756 0 0.28729541733308872 0.1128284558108848 0 0.28067449336876182 0.1220521091494646 0 0.27577858748266387 0.1072301355245756 0 0.26956705708048567 0.1198361090660386 0 0.27577858748266387 0.1072301355245756 0 0.26270963055581759 0.11098617864974181 0 0.27563544099652842 0.091217529053328833 0 0.27577858748266387 0.1072301355245756 0 0.26597619666038957 0.098681263799979324 0 0.27563544099652842 0.091217529053328833 0 0.29001374252644291 0.099006193890217781 0 0.27577858748266387 0.1072301355245756 0 0.27577858748266387 0.1072301355245756 0 0.26597619666038957 0.098681263799979324 0 0.26270963055581759 0.11098617864974181 0 0.25158482098595109 0.098673396421397969 0 0.25094552198087999 0.11589449234768209 0 0.25158482098595109 0.098673396421397969 0 0.26270963055581759 0.11098617864974181 0 0.25094552198087999 0.11589449234768209 0 0.26417250328098718 0.085299079350852347 0 0.26597619666038957 0.098681263799979324 0 0.25158482098595109 0.098673396421397969 0 0.26597619666038957 0.098681263799979324 0 0.25158482098595109 0.098673396421397969 0 0.26270963055581759 0.11098617864974181 0 0.25158482098595109 0.098673396421397969 0 0.26270963055581759 0.11098617864974181 0 0.25094552198087999 0.11589449234768209 0 0.25030622297580962 0.13311558827396619 0 0.26022612795132161 0.12333036834530881 0 0.25094552198087999 0.11589449234768209 0 0.25030622297580962 0.13311558827396619 0 0.26956705708048567 0.1198361090660386 0 0.26022612795132161 0.12333036834530881 0 0.26270963055581759 0.11098617864974181 0 0.26022612795132161 0.12333036834530881 0 0.26270963055581759 0.11098617864974181 0 0.25094552198087999 0.11589449234768209 0 0.26956705708048567 0.1198361090660386 0 0.26022612795132161 0.12333036834530881 0 0.26675796828336718 0.1380571931171293 0 0.26022612795132161 0.12333036834530881 0 0.25030622297580962 0.13311558827396619 0 0.26675796828336718 0.1380571931171293 0 0.25030622297580962 0.13311558827396619 0 0.26675796828336718 0.1380571931171293 0 0.25030622297580962 0.13311558827396619 0 0.26675796828336718 0.1380571931171293 0 0.25638724149227848 0.14295410589973731 0 0.25004344172447263 0.14019424959050239 0 0.25030622297580962 0.13311558827396619 0 0.25638724149227848 0.14295410589973731 0 0.25004344172447263 0.14019424959050239 0 0.25030622297580962 0.13311558827396619 0 0.26675796828336718 0.1380571931171293 0 0.28320971359092417 0.1429987979602943 0 0.26675796828336718 0.1380571931171293 0 0.28666270206708028 0.1324408374186071 0 0.28320971359092417 0.1429987979602943 0 0.28067449336876182 0.1220521091494646 0 0.26956705708048567 0.1198361090660386 0 0.26675796828336718 0.1380571931171293 0 0.28067449336876182 0.1220521091494646 0 0.26675796828336718 0.1380571931171293 0 0.28666270206708028 0.1324408374186071 0 0.26675796828336718 0.1380571931171293 0 0.27436529468354132 0.15433220537778311 0 0.26010861073109098 0.15248373785575309 0 0.26675796828336718 0.1380571931171293 0 0.27436529468354132 0.15433220537778311 0 0.28320971359092417 0.1429987979602943 0 0.26675796828336718 0.1380571931171293 0 0.26010861073109098 0.15248373785575309 0 0.25638724149227848 0.14295410589973731 0 0.2496536413094039 0.15044712256699261 0 0.25004344172447263 0.14019424959050239 0 0.25638724149227848 0.14295410589973731 0 0.24653130607993951 0.16237692388552691 0 0.2496536413094039 0.15044712256699261 0 0.26010861073109098 0.15248373785575309 0 0.2496536413094039 0.15044712256699261 0 0.26010861073109098 0.15248373785575309 0 0.25638724149227848 0.14295410589973731 0 0.24653130607993951 0.16237692388552691 0 0.25292738168467233 0.17649485219682931 0 0.26638423851283249 0.16867758561061549 0 0.24653130607993951 0.16237692388552691 0 0.26010861073109098 0.15248373785575309 0 0.26638423851283249 0.16867758561061549 0 0.24528107816237801 0.1907036486386274 0 0.25292738168467233 0.17649485219682931 0 0.26633433714882182 0.18577592949096661 0 0.25292738168467233 0.17649485219682931 0 0.26633433714882182 0.18577592949096661 0 0.26638423851283249 0.16867758561061549 0 0.27723266788850742 0.181048228772968 0 0.26638423851283249 0.16867758561061549 0 0.28391425324491287 0.17071999404263091 0 0.26633433714882182 0.18577592949096661 0 0.27723266788850742 0.181048228772968 0 0.26638423851283249 0.16867758561061549 0 0.27436529468354132 0.15433220537778311 0 0.26010861073109098 0.15248373785575309 0 0.26638423851283249 0.16867758561061549 0 0.27436529468354132 0.15433220537778311 0 0.26638423851283249 0.16867758561061549 0 0.28391425324491287 0.17071999404263091 0 0.27436529468354132 0.15433220537778311 0 0.28391425324491287 0.17071999404263091 0 0.29097703849613438 0.15773848939083679 0 0.28391425324491287 0.17071999404263091 0 0.2931647794093819 0.16879209887591959 0 0.29097703849613438 0.15773848939083679 0 0.2931647794093819 0.16879209887591959 0 0.29097703849613438 0.15773848939083679 0 0.30040947706207388 0.16512632217721829 0 0.28391425324491287 0.17071999404263091 0 0.28743664533084129 0.187357279865842 0 0.29743995151898561 0.17866098634217961 0 0.27723266788850742 0.181048228772968 0 0.28391425324491287 0.17071999404263091 0 0.28743664533084129 0.187357279865842 0 0.28391425324491287 0.17071999404263091 0 0.2931647794093819 0.16879209887591959 0 0.29743995151898561 0.17866098634217961 0 0.28743664533084129 0.187357279865842 0 0.29743995151898561 0.17866098634217961 0 0.29971043857951379 0.19298806906372529 0 0.29743995151898561 0.17866098634217961 0 0.30929675685570829 0.1858318568065235 0 0.29971043857951379 0.19298806906372529 0 0.29743995151898561 0.17866098634217961 0 0.3101655001798202 0.17563615506282959 0 0.30040947706207388 0.16512632217721829 0 0.29743995151898561 0.17866098634217961 0 0.3101655001798202 0.17563615506282959 0 0.30929675685570829 0.1858318568065235 0 0.30040947706207388 0.16512632217721829 0 0.30453528129870422 0.15487579661148021 0 0.32848741365188411 0.1727716232507491 0 0.29097703849613438 0.15773848939083679 0 0.30040947706207388 0.16512632217721829 0 0.30453528129870422 0.15487579661148021 0 0.2931647794093819 0.16879209887591959 0 0.29743995151898561 0.17866098634217961 0 0.30040947706207388 0.16512632217721829 0 0.29097703849613438 0.15773848939083679 0 0.30453528129870422 0.15487579661148021 0 0.29618567382365713 0.14404403195872001 0 0.30453528129870422 0.15487579661148021 0 0.30873747279203018 0.14281046260302349 0 0.29618567382365713 0.14404403195872001 0 0.30453528129870422 0.15487579661148021 0 0.30873747279203018 0.14281046260302349 0 0.32007589174333823 0.14676000458717811 0 0.30873747279203018 0.14281046260302349 0 0.30313841955192899 0.13260249050964579 0 0.3195478300457561 0.1332621056988223 0 0.31114536757858358 0.11742006929579971 0 0.30313841955192899 0.13260249050964579 0 0.3195478300457561 0.1332621056988223 0 0.30873747279203018 0.14281046260302349 0 0.30313841955192899 0.13260249050964579 0 0.29618567382365713 0.14404403195872001 0 0.294250496481684 0.12267566802032639 0 0.30313841955192899 0.13260249050964579 0 0.28666270206708028 0.1324408374186071 0 0.30313841955192899 0.13260249050964579 0 0.28666270206708028 0.1324408374186071 0 0.29618567382365713 0.14404403195872001 0 0.294250496481684 0.12267566802032639 0 0.28067449336876182 0.1220521091494646 0 0.28666270206708028 0.1324408374186071 0 0.28666270206708028 0.1324408374186071 0 0.28320971359092417 0.1429987979602943 0 0.29618567382365713 0.14404403195872001 0 0.27436529468354132 0.15433220537778311 0 0.29097703849613438 0.15773848939083679 0 0.28320971359092417 0.1429987979602943 0 0.29097703849613438 0.15773848939083679 0 0.28320971359092417 0.1429987979602943 0 0.29618567382365713 0.14404403195872001 0 0.28119448123381058 0.25405304303149878 0 0.26221447651104962 0.2479993693513689 0 0.28440499104296979 0.23439140090611099 0 0.26221447651104962 0.2479993693513689 0 0.26853130556434218 0.23400660741274959 0 0.28440499104296979 0.23439140090611099 0 0.26221447651104962 0.2479993693513689 0 0.28440499104296979 0.23439140090611099 0 0.2457442494512444 0.24022391879071339 0 0.26221447651104962 0.2479993693513689 0 0.25511338863332461 0.22468137717712711 0 0.26221447651104962 0.2479993693513689 0 0.25511338863332461 0.22468137717712711 0 0.26853130556434218 0.23400660741274959 0 0.26221447651104962 0.2479993693513689 0 0.25511338863332461 0.22468137717712711 0 0.25511338863332461 0.22468137717712711 0 0.25242827713160498 0.21540237912569379 0 0.25511338863332461 0.22468137717712711 0 0.2794126892910288 0.21617120911671081 0 0.25511338863332461 0.22468137717712711 0 0.26853130556434218 0.23400660741274959 0 0.2794126892910288 0.21617120911671081 0 0.26853130556434218 0.23400660741274959 0 0.2794126892910288 0.21617120911671081 0 0.28440499104296979 0.23439140090611099 0 0.25511338863332461 0.22468137717712711 0 0.2794126892910288 0.21617120911671081 0 0.26644318031571418 0.20408753099865831 0 0.2794126892910288 0.21617120911671081 0 0.26644318031571418 0.20408753099865831 0 0.27722953884408802 0.19656269719262509 0 0.24528107816237801 0.1907036486386274 0 0.26644318031571418 0.20408753099865831 0 0.25242827713160498 0.21540237912569379 0 0.25511338863332461 0.22468137717712711 0 0.26644318031571418 0.20408753099865831 0 0.25242827713160498 0.21540237912569379 0 0.26644318031571418 0.20408753099865831 0 0.25242827713160498 0.21540237912569379 0 0.24528107816237801 0.1907036486386274 0 0.26633433714882182 0.18577592949096661 0 0.26644318031571418 0.20408753099865831 0 0.26633433714882182 0.18577592949096661 0 0.26644318031571418 0.20408753099865831 0 0.27722953884408802 0.19656269719262509 0 0.27723266788850742 0.181048228772968 0 0.28743664533084129 0.187357279865842 0 0.27722953884408802 0.19656269719262509 0 0.26633433714882182 0.18577592949096661 0 0.27723266788850742 0.181048228772968 0 0.27722953884408802 0.19656269719262509 0 0.28743664533084129 0.187357279865842 0 0.27722953884408802 0.19656269719262509 0 0.28939512316467059 0.2005252056429343 0 0.28743664533084129 0.187357279865842 0 0.28939512316467059 0.2005252056429343 0 0.29971043857951379 0.19298806906372529 0 0.30929675685570829 0.1858318568065235 0 0.29971043857951379 0.19298806906372529 0 0.31162694501442678 0.19735313208654229 0 0.29971043857951379 0.19298806906372529 0 0.31162694501442678 0.19735313208654229 0 0.30371198994873311 0.20766104105629449 0 0.28939512316467059 0.2005252056429343 0 0.29971043857951379 0.19298806906372529 0 0.30371198994873311 0.20766104105629449 0 0.2794126892910288 0.21617120911671081 0 0.30371198994873311 0.20766104105629449 0 0.2794126892910288 0.21617120911671081 0 0.30371198994873311 0.20766104105629449 0 0.30659550557489001 0.220783432460853 0 0.2794126892910288 0.21617120911671081 0 0.27722953884408802 0.19656269719262509 0 0.28939512316467059 0.2005252056429343 0 0.2794126892910288 0.21617120911671081 0 0.28939512316467059 0.2005252056429343 0 0.30371198994873311 0.20766104105629449 0 0.30659550557489001 0.220783432460853 0 0.28440499104296979 0.23439140090611099 0 0.2794126892910288 0.21617120911671081 0 0.30659550557489001 0.220783432460853 0 0.28440499104296979 0.23439140090611099 0 0.30659550557489001 0.220783432460853 0 0.30328699804120918 0.24394477185791469 0 0.28440499104296979 0.23439140090611099 0 0.30659550557489001 0.220783432460853 0 0.30328699804120918 0.24394477185791469 0 0.31607427666693672 0.2331905299380852 0 0.28119448123381058 0.25405304303149878 0 0.30328699804120918 0.24394477185791469 0 0.28440499104296979 0.23439140090611099 0 0.3433555784436142 0.25004320974280247 0 0.34183468199228573 0.23727684870966961 0 0.33092809789354199 0.24744869965648561 0 0.34183468199228573 0.23727684870966961 0 0.3288410404878227 0.2348757256337824 0 0.33092809789354199 0.24744869965648561 0 0.3288410404878227 0.2348757256337824 0 0.33092809789354199 0.24744869965648561 0 0.31845456220733243 0.24449663650262579 0 0.31879452400631653 0.25919465198291952 0 0.30328699804120918 0.24394477185791469 0 0.31845456220733243 0.24449663650262579 0 0.30328699804120918 0.24394477185791469 0 0.31845456220733243 0.24449663650262579 0 0.31607427666693672 0.2331905299380852 0 0.3288410404878227 0.2348757256337824 0 0.31845456220733243 0.24449663650262579 0 0.31607427666693672 0.2331905299380852 0 0.3288410404878227 0.2348757256337824 0 0.31607427666693672 0.2331905299380852 0 0.32372534117020862 0.22390137225637691 0 0.30659550557489001 0.220783432460853 0 0.31607427666693672 0.2331905299380852 0 0.32372534117020862 0.22390137225637691 0 0.3288410404878227 0.2348757256337824 0 0.32372534117020862 0.22390137225637691 0 0.33832986301458301 0.22348170923356889 0 0.34183468199228573 0.23727684870966961 0 0.3288410404878227 0.2348757256337824 0 0.33832986301458301 0.22348170923356889 0 0.32372534117020862 0.22390137225637691 0 0.33832986301458301 0.22348170923356889 0 0.32878602010681029 0.20717546401559489 0 0.33832986301458301 0.22348170923356889 0 0.32878602010681029 0.20717546401559489 0 0.35089693608391498 0.21212819010674691 0 0.32878602010681029 0.20717546401559489 0 0.35097653463873058 0.19356749557033681 0 0.35089693608391498 0.21212819010674691 0 0.30659550557489001 0.220783432460853 0 0.32372534117020862 0.22390137225637691 0 0.32878602010681029 0.20717546401559489 0 0.31162694501442678 0.19735313208654229 0 0.30371198994873311 0.20766104105629449 0 0.32878602010681029 0.20717546401559489 0 0.30371198994873311 0.20766104105629449 0 0.30659550557489001 0.220783432460853 0 0.32878602010681029 0.20717546401559489 0 0.30659550557489001 0.220783432460853 0 0.32878602010681029 0.20717546401559489 0 0.32878602010681029 0.20717546401559489 0 0.31972446529152482 0.19052244909679969 0 0.3336272658304279 0.18895925974375941 0 0.31162694501442678 0.19735313208654229 0 0.32878602010681029 0.20717546401559489 0 0.31972446529152482 0.19052244909679969 0 0.30929675685570829 0.1858318568065235 0 0.31162694501442678 0.19735313208654229 0 0.31972446529152482 0.19052244909679969 0 0.32878602010681029 0.20717546401559489 0 0.3336272658304279 0.18895925974375941 0 0.35097653463873058 0.19356749557033681 0 0.32878602010681029 0.20717546401559489 0 0.35097653463873058 0.19356749557033681 0 0.3336272658304279 0.18895925974375941 0 0.35097653463873058 0.19356749557033681 0 0.35656535024169428 0.1804169243242798 0 0.35097653463873058 0.19356749557033681 0 0.35896651107905142 0.20360726904620211 0 0.35089693608391498 0.21212819010674691 0 0.35097653463873058 0.19356749557033681 0 0.36405518175537521 0.19484170215684679 0 0.35896651107905142 0.20360726904620211 0 0.35097653463873058 0.19356749557033681 0 0.36405518175537521 0.19484170215684679 0 0.35656535024169428 0.1804169243242798 0 0.36405518175537521 0.19484170215684679 0 0.35656535024169428 0.1804169243242798 0 0.38464328683150451 0.18806222539781059 0 0.36405518175537521 0.19484170215684679 0 0.36923798170140371 0.20928007436804161 0 0.38464328683150451 0.18806222539781059 0 0.36405518175537521 0.19484170215684679 0 0.36923798170140371 0.20928007436804161 0 0.35896651107905142 0.20360726904620211 0 0.36923798170140371 0.20928007436804161 0 0.36132702422268731 0.21787493872225441 0 0.35896651107905142 0.20360726904620211 0 0.36923798170140371 0.20928007436804161 0 0.36132702422268731 0.21787493872225441 0 0.37292139258550783 0.22672254500020811 0 0.36132702422268731 0.21787493872225441 0 0.35896651107905142 0.20360726904620211 0 0.35089693608391498 0.21212819010674691 0 0.34183468199228573 0.23727684870966961 0 0.33832986301458301 0.22348170923356889 0 0.35524969613090918 0.22837961108452459 0 0.36132702422268731 0.21787493872225441 0 0.35089693608391498 0.21212819010674691 0 0.35524969613090918 0.22837961108452459 0 0.33832986301458301 0.22348170923356889 0 0.35089693608391498 0.21212819010674691 0 0.35524969613090918 0.22837961108452459 0 0.36132702422268731 0.21787493872225441 0 0.35524969613090918 0.22837961108452459 0 0.37292139258550783 0.22672254500020811 0 0.35524969613090918 0.22837961108452459 0 0.37292139258550783 0.22672254500020811 0 0.36587213359177301 0.2378375665458646 0 0.37292139258550783 0.22672254500020811 0 0.36587213359177301 0.2378375665458646 0 0.3757768555661396 0.240133652284411 0 0.36587213359177301 0.2378375665458646 0 0.37169426656027921 0.24972740256563611 0 0.3757768555661396 0.240133652284411 0 0.36587213359177301 0.2378375665458646 0 0.37169426656027921 0.24972740256563611 0 0.36205361842742478 0.24882498742118489 0 0.36587213359177301 0.2378375665458646 0 0.36205361842742478 0.24882498742118489 0 0.35356337405553911 0.24205426642971811 0 0.35175757775775729 0.2532797976346674 0 0.36205361842742478 0.24882498742118489 0 0.35356337405553911 0.24205426642971811 0 0.35524969613090918 0.22837961108452459 0 0.36587213359177301 0.2378375665458646 0 0.35356337405553911 0.24205426642971811 0 0.34183468199228573 0.23727684870966961 0 0.35524969613090918 0.22837961108452459 0 0.35356337405553911 0.24205426642971811 0 0.3433555784436142 0.25004320974280247 0 0.34183468199228573 0.23727684870966961 0 0.35356337405553911 0.24205426642971811 0 0.3433555784436142 0.25004320974280247 0 0.35175757775775729 0.2532797976346674 0 0.35356337405553911 0.24205426642971811 0 0.33379856680907583 0.1437068241164389 0 0.32007589174333823 0.14676000458717811 0 0.33365817402274128 0.15789089208148979 0 0.33379856680907583 0.1437068241164389 0 0.33365817402274128 0.15789089208148979 0 0.34780073530519279 0.14835628742565241 0 0.33379856680907583 0.1437068241164389 0 0.34780073530519279 0.14835628742565241 0 0.34586764947947463 0.1362539899128139 0 0.33379856680907583 0.1437068241164389 0 0.33436770153514289 0.13112975471366969 0 0.34586764947947463 0.1362539899128139 0 0.34956654336434939 0.1234914401014125 0 0.33436770153514289 0.13112975471366969 0 0.34586764947947463 0.1362539899128139 0 0.33379856680907583 0.1437068241164389 0 0.33436770153514289 0.13112975471366969 0 0.3195478300457561 0.1332621056988223 0 0.32606950933900308 0.1158177097477945 0 0.33436770153514289 0.13112975471366969 0 0.3195478300457561 0.1332621056988223 0 0.30873747279203018 0.14281046260302349 0 0.3195478300457561 0.1332621056988223 0 0.32007589174333823 0.14676000458717811 0 0.30453528129870422 0.15487579661148021 0 0.32007589174333823 0.14676000458717811 0 0.33365817402274128 0.15789089208148979 0 0.33379856680907583 0.1437068241164389 0 0.3195478300457561 0.1332621056988223 0 0.32007589174333823 0.14676000458717811 0 0.30453528129870422 0.15487579661148021 0 0.33365817402274128 0.15789089208148979 0 0.30453528129870422 0.15487579661148021 0 0.32848741365188411 0.1727716232507491 0 0.33365817402274128 0.15789089208148979 0 0.30040947706207388 0.16512632217721829 0 0.32848741365188411 0.1727716232507491 0 0.3101655001798202 0.17563615506282959 0 0.30040947706207388 0.16512632217721829 0 0.32848741365188411 0.1727716232507491 0 0.3101655001798202 0.17563615506282959 0 0.31983557186529732 0.18171103000860481 0 0.32848741365188411 0.1727716232507491 0 0.3336272658304279 0.18895925974375941 0 0.31983557186529732 0.18171103000860481 0 0.32848741365188411 0.1727716232507491 0 0.3101655001798202 0.17563615506282959 0 0.30929675685570829 0.1858318568065235 0 0.31983557186529732 0.18171103000860481 0 0.30929675685570829 0.1858318568065235 0 0.31972446529152482 0.19052244909679969 0 0.31983557186529732 0.18171103000860481 0 0.31972446529152482 0.19052244909679969 0 0.3336272658304279 0.18895925974375941 0 0.31983557186529732 0.18171103000860481 0 0.32848741365188411 0.1727716232507491 0 0.34507730906385942 0.16855187839241309 0 0.35656535024169428 0.1804169243242798 0 0.3336272658304279 0.18895925974375941 0 0.32848741365188411 0.1727716232507491 0 0.35656535024169428 0.1804169243242798 0 0.32848741365188411 0.1727716232507491 0 0.35656535024169428 0.1804169243242798 0 0.32848741365188411 0.1727716232507491 0 0.33365817402274128 0.15789089208148979 0 0.34507730906385942 0.16855187839241309 0 0.33365817402274128 0.15789089208148979 0 0.34507730906385942 0.16855187839241309 0 0.36278106674677829 0.1609059875514994 0 0.34507730906385942 0.16855187839241309 0 0.35656535024169428 0.1804169243242798 0 0.36278106674677829 0.1609059875514994 0 0.33365817402274128 0.15789089208148979 0 0.36278106674677829 0.1609059875514994 0 0.35656535024169428 0.1804169243242798 0 0.37356219856206202 0.1741215612114578 0 0.38464328683150451 0.18806222539781059 0 0.35656535024169428 0.1804169243242798 0 0.38464328683150451 0.18806222539781059 0 0.35656535024169428 0.1804169243242798 0 0.37356219856206202 0.1741215612114578 0 0.36278106674677829 0.1609059875514994 0 0.36278106674677829 0.1609059875514994 0 0.36531512046589693 0.1378839500987098 0 0.37680076681991098 0.15092733218095339 0 0.36278106674677829 0.1609059875514994 0 0.34780073530519279 0.14835628742565241 0 0.36531512046589693 0.1378839500987098 0 0.34780073530519279 0.14835628742565241 0 0.34586764947947463 0.1362539899128139 0 0.36531512046589693 0.1378839500987098 0 0.33365817402274128 0.15789089208148979 0 0.36278106674677829 0.1609059875514994 0 0.34780073530519279 0.14835628742565241 0 0.34956654336434939 0.1234914401014125 0 0.34586764947947463 0.1362539899128139 0 0.36531512046589693 0.1378839500987098 0 0.34956654336434939 0.1234914401014125 0 0.36322639358210312 0.11848039068348271 0 0.36531512046589693 0.1378839500987098 0 0.36322639358210312 0.11848039068348271 0 0.36531512046589693 0.1378839500987098 0 0.38482072671029011 0.13725767299229241 0 0.36322639358210312 0.11848039068348271 0 0.38482072671029011 0.13725767299229241 0 0.36322639358210312 0.11848039068348271 0 0.38482072671029011 0.13725767299229241 0 0.38005682511468147 0.12140739343396729 0 0.38482072671029011 0.13725767299229241 0 0.39398634319161102 0.12556361147638159 0 0.38005682511468147 0.12140739343396729 0 0.38482072671029011 0.13725767299229241 0 0.39398634319161102 0.12556361147638159 0 0.40386822996399702 0.1370092008917044 0 0.39398634319161102 0.12556361147638159 0 0.40386822996399702 0.1370092008917044 0 0.40630256149234217 0.12337914253670321 0 0.38482072671029011 0.13725767299229241 0 0.40641505983847698 0.15603495530110209 0 0.38482072671029011 0.13725767299229241 0 0.40386822996399702 0.1370092008917044 0 0.40641505983847698 0.15603495530110209 0 0.38482072671029011 0.13725767299229241 0 0.39190395947081519 0.16392108302150901 0 0.40641505983847698 0.15603495530110209 0 0.36531512046589693 0.1378839500987098 0 0.38482072671029011 0.13725767299229241 0 0.37680076681991098 0.15092733218095339 0 0.38482072671029011 0.13725767299229241 0 0.37680076681991098 0.15092733218095339 0 0.39190395947081519 0.16392108302150901 0 0.36278106674677829 0.1609059875514994 0 0.39190395947081519 0.16392108302150901 0 0.36278106674677829 0.1609059875514994 0 0.37680076681991098 0.15092733218095339 0 0.39190395947081519 0.16392108302150901 0 0.37356219856206202 0.1741215612114578 0 0.36278106674677829 0.1609059875514994 0 0.39190395947081519 0.16392108302150901 0 0.37356219856206202 0.1741215612114578 0 0.39190395947081519 0.16392108302150901 0 0.38464328683150451 0.18806222539781059 0 0.4059128807594603 0.17981630131623391 0 0.39190395947081519 0.16392108302150901 0 0.38464328683150451 0.18806222539781059 0 0.39190395947081519 0.16392108302150901 0 0.42102685219485209 0.16693617849151851 0 0.40641505983847698 0.15603495530110209 0 0.4059128807594603 0.17981630131623391 0 0.39190395947081519 0.16392108302150901 0 0.42102685219485209 0.16693617849151851 0 0.42102685219485209 0.16693617849151851 0 0.40641505983847698 0.15603495530110209 0 0.41490094777653419 0.14712571815411829 0 0.39190395947081519 0.16392108302150901 0 0.42102685219485209 0.16693617849151851 0 0.4059128807594603 0.17981630131623391 0 0.42102685219485209 0.16693617849151851 0 0.42759287120751482 0.1799189573059411 0 0.4059128807594603 0.17981630131623391 0 0.42759287120751482 0.1799189573059411 0 0.42045703890892938 0.19185412915784311 0 0.42102685219485209 0.16693617849151851 0 0.42759287120751482 0.1799189573059411 0 0.45014974491888898 0.16995127396152809 0 0.42759287120751482 0.1799189573059411 0 0.42045703890892938 0.19185412915784311 0 0.43799329450951457 0.1898848624547933 0 0.42102685219485209 0.16693617849151851 0 0.45014974491888898 0.16995127396152809 0 0.42102685219485209 0.16693617849151851 0 0.43641214087317609 0.15776157540708571 0 0.42820809332857229 0.14540676379554701 0 0.42102685219485209 0.16693617849151851 0 0.43641214087317609 0.15776157540708571 0 0.45014974491888898 0.16995127396152809 0 0.43641214087317609 0.15776157540708571 0 0.42820809332857229 0.14540676379554701 0 0.44305345270963392 0.14224085277467549 0 0.42820809332857229 0.14540676379554701 0 0.43267139290449452 0.12562392175117529 0 0.41815906511665779 0.13368892679480551 0 0.42820809332857229 0.14540676379554701 0 0.43267139290449452 0.12562392175117529 0 0.44305345270963392 0.14224085277467549 0 0.43267139290449452 0.12562392175117529 0 0.41815906511665779 0.13368892679480551 0 0.41840244549433692 0.1204435227777134 0 0.41815906511665779 0.13368892679480551 0 0.41840244549433692 0.1204435227777134 0 0.40630256149234217 0.12337914253670321 0 0.40386822996399702 0.1370092008917044 0 0.41815906511665779 0.13368892679480551 0 0.40630256149234217 0.12337914253670321 0 0.40386822996399702 0.1370092008917044 0 0.41815906511665779 0.13368892679480551 0 0.41490094777653419 0.14712571815411829 0 0.42102685219485209 0.16693617849151851 0 0.42820809332857229 0.14540676379554701 0 0.41490094777653419 0.14712571815411829 0 0.40386822996399702 0.1370092008917044 0 0.40641505983847698 0.15603495530110209 0 0.41490094777653419 0.14712571815411829 0 0.42820809332857229 0.14540676379554701 0 0.41815906511665779 0.13368892679480551 0 0.41490094777653419 0.14712571815411829 0 0.39196586341458151 0.242441409442547 0 0.40329821407583749 0.23025496453590971 0 0.40866327585672191 0.24600766979752939 0 0.38129994004966872 0.25577407136566988 0 0.39196586341458151 0.242441409442547 0 0.40866327585672191 0.24600766979752939 0 0.38129994004966872 0.25577407136566988 0 0.39196586341458151 0.242441409442547 0 0.38106847269238292 0.24536179082341181 0 0.37169426656027921 0.24972740256563611 0 0.38106847269238292 0.24536179082341181 0 0.3757768555661396 0.240133652284411 0 0.37292139258550783 0.22672254500020811 0 0.3757768555661396 0.240133652284411 0 0.38460543787124563 0.238732418458795 0 0.38106847269238292 0.24536179082341181 0 0.3757768555661396 0.240133652284411 0 0.38460543787124563 0.238732418458795 0 0.39196586341458151 0.242441409442547 0 0.38106847269238292 0.24536179082341181 0 0.38460543787124563 0.238732418458795 0 0.39196586341458151 0.242441409442547 0 0.38460543787124563 0.238732418458795 0 0.38844350160088592 0.2284985707660753 0 0.37292139258550783 0.22672254500020811 0 0.38460543787124563 0.238732418458795 0 0.38844350160088592 0.2284985707660753 0 0.37292139258550783 0.22672254500020811 0 0.38844350160088592 0.2284985707660753 0 0.38369130631537601 0.21297307403445409 0 0.38844350160088592 0.2284985707660753 0 0.39679964264504158 0.21937630878092959 0 0.38369130631537601 0.21297307403445409 0 0.38844350160088592 0.2284985707660753 0 0.39679964264504158 0.21937630878092959 0 0.40329821407583749 0.23025496453590971 0 0.39196586341458151 0.242441409442547 0 0.38844350160088592 0.2284985707660753 0 0.40329821407583749 0.23025496453590971 0 0.39679964264504158 0.21937630878092959 0 0.40329821407583749 0.23025496453590971 0 0.41066806580544729 0.2160617609406458 0 0.39598296716959969 0.20626700748070109 0 0.40513352984814438 0.19492560706685999 0 0.41066806580544729 0.2160617609406458 0 0.39679964264504158 0.21937630878092959 0 0.39598296716959969 0.20626700748070109 0 0.41066806580544729 0.2160617609406458 0 0.39679964264504158 0.21937630878092959 0 0.39598296716959969 0.20626700748070109 0 0.38369130631537601 0.21297307403445409 0 0.36923798170140371 0.20928007436804161 0 0.37292139258550783 0.22672254500020811 0 0.38369130631537601 0.21297307403445409 0 0.36923798170140371 0.20928007436804161 0 0.38369130631537601 0.21297307403445409 0 0.38464328683150451 0.18806222539781059 0 0.39598296716959969 0.20626700748070109 0 0.38369130631537601 0.21297307403445409 0 0.38464328683150451 0.18806222539781059 0 0.39598296716959969 0.20626700748070109 0 0.38464328683150451 0.18806222539781059 0 0.40513352984814438 0.19492560706685999 0 0.4059128807594603 0.17981630131623391 0 0.38464328683150451 0.18806222539781059 0 0.40513352984814438 0.19492560706685999 0 0.40513352984814438 0.19492560706685999 0 0.42045703890892938 0.19185412915784311 0 0.42444067869502011 0.20693424997503959 0 0.4059128807594603 0.17981630131623391 0 0.40513352984814438 0.19492560706685999 0 0.42045703890892938 0.19185412915784311 0 0.42045703890892938 0.19185412915784311 0 0.42444067869502011 0.20693424997503959 0 0.43799329450951457 0.1898848624547933 0 0.42444067869502011 0.20693424997503959 0 0.44184419378540352 0.2076794424592901 0 0.43799329450951457 0.1898848624547933 0 0.42444067869502011 0.20693424997503959 0 0.4302098735549707 0.2206458244329694 0 0.44184419378540352 0.2076794424592901 0 0.42444067869502011 0.20693424997503959 0 0.41066806580544729 0.2160617609406458 0 0.4302098735549707 0.2206458244329694 0 0.40513352984814438 0.19492560706685999 0 0.42444067869502011 0.20693424997503959 0 0.41066806580544729 0.2160617609406458 0 0.41066806580544729 0.2160617609406458 0 0.41777320819135039 0.22984229758728861 0 0.4302098735549707 0.2206458244329694 0 0.40329821407583749 0.23025496453590971 0 0.41066806580544729 0.2160617609406458 0 0.41777320819135039 0.22984229758728861 0 0.4302098735549707 0.2206458244329694 0 0.43602661166377499 0.2362412682293889 0 0.44584438813649652 0.2203436080528294 0 0.41777320819135039 0.22984229758728861 0 0.4302098735549707 0.2206458244329694 0 0.43602661166377499 0.2362412682293889 0 0.43602661166377499 0.2362412682293889 0 0.43076425121212841 0.2486853010718087 0 0.40866327585672191 0.24600766979752939 0 0.43602661166377499 0.2362412682293889 0 0.40866327585672191 0.24600766979752939 0 0.41777320819135039 0.22984229758728861 0 0.43602661166377499 0.2362412682293889 0 0.40866327585672191 0.24600766979752939 0 0.41664462513020523 0.25422696758609492 0 0.43076425121212841 0.2486853010718087 0 0.40866327585672191 0.24600766979752939 0 0.40329821407583749 0.23025496453590971 0 0.41777320819135039 0.22984229758728861 0 0.40866327585672191 0.24600766979752939 0 0.45166362976964691 0.25106894999712381 0 0.45384283414141641 0.23962742592169059 0 0.47583181488482379 0.2451422378191761 0 0.45166362976964691 0.25106894999712381 0 0.47583181488482379 0.2451422378191761 0 0.45384283414141641 0.23962742592169059 0 0.47692141707070451 0.23056955077157251 0 0.45166362976964691 0.25106894999712381 0 0.43076425121212841 0.2486853010718087 0 0.45384283414141641 0.23962742592169059 0 0.43602661166377499 0.2362412682293889 0 0.43076425121212841 0.2486853010718087 0 0.45384283414141641 0.23962742592169059 0 0.43076425121212841 0.2486853010718087 0 0.45384283414141641 0.23962742592169059 0 0.43602661166377499 0.2362412682293889 0 0.46338994747082818 0.22647486666124839 0 0.43602661166377499 0.2362412682293889 0 0.44584438813649652 0.2203436080528294 0 0.46338994747082818 0.22647486666124839 0 0.43602661166377499 0.2362412682293889 0 0.45384283414141641 0.23962742592169059 0 0.46338994747082818 0.22647486666124839 0 0.44584438813649652 0.2203436080528294 0 0.46338994747082818 0.22647486666124839 0 0.4574246187180494 0.20998202225832771 0 0.45384283414141641 0.23962742592169059 0 0.46338994747082818 0.22647486666124839 0 0.47692141707070451 0.23056955077157251 0 0.46338994747082818 0.22647486666124839 0 0.4574246187180494 0.20998202225832771 0 0.47311107537994651 0.21060674662752529 0 0.4574246187180494 0.20998202225832771 0 0.46861366351278472 0.19789432193598561 0 0.47311107537994651 0.21060674662752529 0 0.44584438813649652 0.2203436080528294 0 0.4574246187180494 0.20998202225832771 0 0.44184419378540352 0.2076794424592901 0 0.4302098735549707 0.2206458244329694 0 0.44584438813649652 0.2203436080528294 0 0.44184419378540352 0.2076794424592901 0 0.4574246187180494 0.20998202225832771 0 0.44184419378540352 0.2076794424592901 0 0.45120510308892831 0.19507838461398491 0 0.44184419378540352 0.2076794424592901 0 0.43799329450951457 0.1898848624547933 0 0.45120510308892831 0.19507838461398491 0 0.4574246187180494 0.20998202225832771 0 0.45120510308892831 0.19507838461398491 0 0.46861366351278472 0.19789432193598561 0 0.45120510308892831 0.19507838461398491 0 0.46861366351278472 0.19789432193598561 0 0.45014974491888898 0.16995127396152809 0 0.46861366351278472 0.19789432193598561 0 0.48377650321145821 0.20030440734603891 0 0.47890777313388699 0.17818810929941131 0 0.46861366351278472 0.19789432193598561 0 0.48377650321145821 0.20030440734603891 0 0.47311107537994651 0.21060674662752529 0 0.48377650321145821 0.20030440734603891 0 0.5 0.19442179120654851 0 0.47890777313388699 0.17818810929941131 0 0.48377650321145821 0.20030440734603891 0 0.5 0.19442179120654851 0 0.49075328327788142 0.2167084650931079 0 0.5 0.19442179120654851 0 0.49075328327788142 0.2167084650931079 0 0.49999999999999339 0.2215116756214566 0 0.48377650321145821 0.20030440734603891 0 0.49075328327788142 0.2167084650931079 0 0.47311107537994651 0.21060674662752529 0 0.46338994747082818 0.22647486666124839 0 0.49075328327788142 0.2167084650931079 0 0.47311107537994651 0.21060674662752529 0 0.46338994747082818 0.22647486666124839 0 0.49075328327788142 0.2167084650931079 0 0.46338994747082818 0.22647486666124839 0 0.49075328327788142 0.2167084650931079 0 0.47692141707070451 0.23056955077157251 0 0.47692141707070451 0.23056955077157251 0 0.49999999999999339 0.2215116756214566 0 0.50000000000000067 0.2392155256412283 0 0.49075328327788142 0.2167084650931079 0 0.47692141707070451 0.23056955077157251 0 0.49999999999999339 0.2215116756214566 0 0.47692141707070451 0.23056955077157251 0 0.49999999999999339 0.2215116756214566 0 0.50000000000000067 0.2392155256412283 0 0.47583181488482379 0.2451422378191761 0 0.48341195364679568 0.26002408893105827 0 0.50000000000000067 0.2392155256412283 0 0.47583181488482379 0.2451422378191761 0 0.47692141707070451 0.23056955077157251 0 0.50000000000000067 0.2392155256412283 0 0.47583181488482379 0.2451422378191761 0 0.45384283414141641 0.23962742592169059 0 0.47692141707070451 0.23056955077157251 0 0.47583181488482379 0.2451422378191761 0 0.46053260521531592 0.14091734283165991 0 0.45014974491888898 0.16995127396152809 0 0.47759274938693741 0.15337993901402261 0 0.46053260521531592 0.14091734283165991 0 0.47596637305353268 0.1236489788231635 0 0.45094723062946279 0.12208098845927939 0 0.46053260521531592 0.14091734283165991 0 0.44305345270963392 0.14224085277467549 0 0.45094723062946279 0.12208098845927939 0 0.43267139290449452 0.12562392175117529 0 0.44305345270963392 0.14224085277467549 0 0.45094723062946279 0.12208098845927939 0 0.46053260521531592 0.14091734283165991 0 0.44305345270963392 0.14224085277467549 0 0.45014974491888898 0.16995127396152809 0 0.43641214087317609 0.15776157540708571 0 0.44305345270963392 0.14224085277467549 0 0.45014974491888898 0.16995127396152809 0 0.42759287120751482 0.1799189573059411 0 0.43799329450951457 0.1898848624547933 0 0.45014974491888898 0.16995127396152809 0 0.43799329450951457 0.1898848624547933 0 0.45120510308892831 0.19507838461398491 0 0.45014974491888898 0.16995127396152809 0 0.46861366351278472 0.19789432193598561 0 0.45014974491888898 0.16995127396152809 0 0.47890777313388699 0.17818810929941131 0 0.45014974491888898 0.16995127396152809 0 0.47890777313388699 0.17818810929941131 0 0.47759274938693741 0.15337993901402261 0 0.5 0.19442179120654851 0 0.47890777313388699 0.17818810929941131 0 0.5 0.16733190679164031 0 0.47890777313388699 0.17818810929941131 0 0.5 0.16733190679164031 0 0.47759274938693741 0.15337993901402261 0 0.5 0.16733190679164031 0 0.47759274938693741 0.15337993901402261 0 0.5 0.14024202237673219 0 0.46053260521531592 0.14091734283165991 0 0.47759274938693741 0.15337993901402261 0 0.47596637305353268 0.1236489788231635 0 0.5 0.14024202237673219 0 0.5 0.11315213796182411 0 0.47596637305353268 0.1236489788231635 0 0.47759274938693741 0.15337993901402261 0 0.5 0.14024202237673219 0 0.47596637305353268 0.1236489788231635 0 0.5 0.11315213796182411 0 0.48146508414057748 0.097867616362435003 0 0.47596637305353268 0.1236489788231635 0 0.5 0.11315213796182411 0 0.48146508414057748 0.097867616362435003 0 0.5 0.08606225354691599 0 0.48146508414057748 0.097867616362435003 0 0.46684480345772023 0.083704774648097419 0 0.46085076100455152 0.1051260388446932 0 0.48146508414057748 0.097867616362435003 0 0.47596637305353268 0.1236489788231635 0 0.46085076100455152 0.1051260388446932 0 0.5 0.08606225354691599 0 0.48297411160829701 0.071419164250366693 0 0.5 0.058972369132007867 0 0.48146508414057748 0.097867616362435003 0 0.5 0.08606225354691599 0 0.48297411160829701 0.071419164250366693 0 0.48146508414057748 0.097867616362435003 0 0.48297411160829701 0.071419164250366693 0 0.46684480345772023 0.083704774648097419 0 0.48297411160829701 0.071419164250366693 0 0.46368779630991369 0.062884433647911922 0 0.46684480345772023 0.083704774648097419 0 0.46368779630991369 0.062884433647911922 0 0.4455316944648699 0.078385408113317706 0 0.46368779630991369 0.062884433647911922 0 0.46684480345772023 0.083704774648097419 0 0.4455316944648699 0.078385408113317706 0 0.46684480345772023 0.083704774648097419 0 0.4455316944648699 0.078385408113317706 0 0.46085076100455152 0.1051260388446932 0 0.4455316944648699 0.078385408113317706 0 0.46085076100455152 0.1051260388446932 0 0.43655847815144871 0.087567909291679069 0 0.4455316944648699 0.078385408113317706 0 0.43655847815144871 0.087567909291679069 0 0.43300293116684879 0.070359854062556224 0 0.4455316944648699 0.078385408113317706 0 0.43300293116684879 0.070359854062556224 0 0.44432728466234178 0.059795406129610977 0 0.46368779630991369 0.062884433647911922 0 0.4455316944648699 0.078385408113317706 0 0.44432728466234178 0.059795406129610977 0 0.47596637305353268 0.1236489788231635 0 0.46085076100455152 0.1051260388446932 0 0.45094723062946279 0.12208098845927939 0 0.46085076100455152 0.1051260388446932 0 0.43655847815144871 0.087567909291679069 0 0.46085076100455152 0.1051260388446932 0 0.43845481143497073 0.110031162788742 0 0.43302597451412722 0.09911942802672713 0 0.46085076100455152 0.1051260388446932 0 0.43302597451412722 0.09911942802672713 0 0.43655847815144871 0.087567909291679069 0 0.43267139290449452 0.12562392175117529 0 0.45094723062946279 0.12208098845927939 0 0.43845481143497073 0.110031162788742 0 0.46085076100455152 0.1051260388446932 0 0.45094723062946279 0.12208098845927939 0 0.43845481143497073 0.110031162788742 0 0.43267139290449452 0.12562392175117529 0 0.43845481143497073 0.110031162788742 0 0.42512360996164289 0.1101942667169049 0 0.43267139290449452 0.12562392175117529 0 0.42512360996164289 0.1101942667169049 0 0.41840244549433692 0.1204435227777134 0 0.42512360996164289 0.1101942667169049 0 0.41840244549433692 0.1204435227777134 0 0.41145911669595331 0.1096997076075869 0 0.41840244549433692 0.1204435227777134 0 0.41145911669595331 0.1096997076075869 0 0.40630256149234217 0.12337914253670321 0 0.41145911669595331 0.1096997076075869 0 0.41782870111656589 0.098086010242617663 0 0.40188519574572068 0.098349840232826835 0 0.41782870111656589 0.098086010242617663 0 0.41132824907511162 0.087668761689670915 0 0.40188519574572068 0.098349840232826835 0 0.42512360996164289 0.1101942667169049 0 0.41145911669595331 0.1096997076075869 0 0.41782870111656589 0.098086010242617663 0 0.41782870111656589 0.098086010242617663 0 0.43302597451412722 0.09911942802672713 0 0.42198136315300161 0.08812274721924529 0 0.42512360996164289 0.1101942667169049 0 0.41782870111656589 0.098086010242617663 0 0.43302597451412722 0.09911942802672713 0 0.43845481143497073 0.110031162788742 0 0.42512360996164289 0.1101942667169049 0 0.43302597451412722 0.09911942802672713 0 0.43655847815144871 0.087567909291679069 0 0.42198136315300161 0.08812274721924529 0 0.41226619529834591 0.070009779738664735 0 0.43655847815144871 0.087567909291679069 0 0.41226619529834591 0.070009779738664735 0 0.43302597451412722 0.09911942802672713 0 0.43655847815144871 0.087567909291679069 0 0.42198136315300161 0.08812274721924529 0 0.43300293116684879 0.070359854062556224 0 0.41226619529834591 0.070009779738664735 0 0.42739758089851382 0.054541393999090262 0 0.43655847815144871 0.087567909291679069 0 0.43300293116684879 0.070359854062556224 0 0.41226619529834591 0.070009779738664735 0 0.42198136315300161 0.08812274721924529 0 0.41226619529834591 0.070009779738664735 0 0.41132824907511162 0.087668761689670915 0 0.41226619529834591 0.070009779738664735 0 0.41132824907511162 0.087668761689670915 0 0.39992923875424519 0.082621500021195282 0 0.41782870111656589 0.098086010242617663 0 0.42198136315300161 0.08812274721924529 0 0.41132824907511162 0.087668761689670915 0 0.41132824907511162 0.087668761689670915 0 0.39992923875424519 0.082621500021195282 0 0.40188519574572068 0.098349840232826835 0 0.39992923875424519 0.082621500021195282 0 0.38759228221014619 0.095233220303727467 0 0.40188519574572068 0.098349840232826835 0 0.39992923875424519 0.082621500021195282 0 0.38759228221014619 0.095233220303727467 0 0.41226619529834591 0.070009779738664735 0 0.39707386889515511 0.070908779594843374 0 0.39683376059791597 0.058855427163935138 0 0.41226619529834591 0.070009779738664735 0 0.39683376059791597 0.058855427163935138 0 0.41226619529834591 0.070009779738664735 0 0.39992923875424519 0.082621500021195282 0 0.41226619529834591 0.070009779738664735 0 0.39992923875424519 0.082621500021195282 0 0.39707386889515511 0.070908779594843374 0 0.39992923875424519 0.082621500021195282 0 0.39707386889515511 0.070908779594843374 0 0.38583977896057609 0.075316135258006081 0 0.39707386889515511 0.070908779594843374 0 0.38282045226763678 0.060547433734587333 0 0.39683376059791597 0.058855427163935138 0 0.39707386889515511 0.070908779594843374 0 0.38583977896057609 0.075316135258006081 0 0.38282045226763678 0.060547433734587333 0 0.38583977896057609 0.075316135258006081 0 0.37596532967213542 0.069868995675824025 0 0.37682589963749002 0.081332762740894418 0 0.37307104071443398 0.061065176941414383 0 0.37596532967213542 0.069868995675824025 0 0.38282045226763678 0.060547433734587333 0 0.38583977896057609 0.075316135258006081 0 0.37596532967213542 0.069868995675824025 0 0.38282045226763678 0.060547433734587333 0 0.39992923875424519 0.082621500021195282 0 0.38412803848747967 0.086259474622970303 0 0.38759228221014619 0.095233220303727467 0 0.39992923875424519 0.082621500021195282 0 0.38583977896057609 0.075316135258006081 0 0.38412803848747967 0.086259474622970303 0 0.37045299287494049 0.09679375479102828 0 0.38412803848747967 0.086259474622970303 0 0.38759228221014619 0.095233220303727467 0 0.38583977896057609 0.075316135258006081 0 0.38412803848747967 0.086259474622970303 0 0.37682589963749002 0.081332762740894418 0 0.37045299287494049 0.09679375479102828 0 0.38412803848747967 0.086259474622970303 0 0.37682589963749002 0.081332762740894418 0 0.37045299287494049 0.09679375479102828 0 0.38005682511468147 0.12140739343396729 0 0.37045299287494049 0.09679375479102828 0 0.38759228221014619 0.095233220303727467 0 0.38890959528695412 0.1083938038889192 0 0.37045299287494049 0.09679375479102828 0 0.38890959528695412 0.1083938038889192 0 0.38005682511468147 0.12140739343396729 0 0.39398634319161102 0.12556361147638159 0 0.38890959528695412 0.1083938038889192 0 0.38005682511468147 0.12140739343396729 0 0.39398634319161102 0.12556361147638159 0 0.38890959528695412 0.1083938038889192 0 0.39948393258462489 0.11301500309558379 0 0.39398634319161102 0.12556361147638159 0 0.40630256149234217 0.12337914253670321 0 0.39948393258462489 0.11301500309558379 0 0.41145911669595331 0.1096997076075869 0 0.40630256149234217 0.12337914253670321 0 0.39948393258462489 0.11301500309558379 0 0.41145911669595331 0.1096997076075869 0 0.39948393258462489 0.11301500309558379 0 0.40188519574572068 0.098349840232826835 0 0.38759228221014619 0.095233220303727467 0 0.38890959528695412 0.1083938038889192 0 0.40188519574572068 0.098349840232826835 0 0.38890959528695412 0.1083938038889192 0 0.39948393258462489 0.11301500309558379 0 0.40188519574572068 0.098349840232826835 0 0.3912475249538237 0.025882868266216091 0 0.40325323122183843 0.024352223252143548 0 0.39536881189699241 0.01378873843063998 0 0.3912475249538237 0.025882868266216091 0 0.40325323122183843 0.024352223252143548 0 0.39805180056669343 0.032772735105760037 0 0.40325323122183843 0.024352223252143548 0 0.39805180056669343 0.032772735105760037 0 0.40655765028286611 0.035582104639029083 0 0.40325323122183843 0.024352223252143548 0 0.39536881189699241 0.01378873843063998 0 0.40720094273855439 0.01372602960598159 0 0.40060323373222451 0.0042547197705496897 0 0.39536881189699241 0.01378873843063998 0 0.40720094273855439 0.01372602960598159 0 0.40060323373222451 0.0042547197705496897 0 0.41081432206005303 0.0037114498956348132 0 0.4046584776842293 -0.0050702490882302163 0 0.40060323373222451 0.0042547197705496897 0 0.41081432206005303 0.0037114498956348132 0 0.40720094273855439 0.01372602960598159 0 0.40060323373222451 0.0042547197705496897 0 0.39025836247721268 0.0036292771787240202 0 0.39531848553630572 -0.0042569273994520467 0 0.40060323373222451 0.0042547197705496897 0 0.39536881189699241 0.01378873843063998 0 0.39025836247721268 0.0036292771787240202 0 0.37844401144479839 0.012609093579625891 0 0.38356146703633898 -0.0078565650350033434 0 0.37844401144479839 0.012609093579625891 0 0.39025836247721268 0.0036292771787240202 0 0.38356146703633898 -0.0078565650350033434 0 0.39536881189699241 0.01378873843063998 0 0.37844401144479839 0.012609093579625891 0 0.39025836247721268 0.0036292771787240202 0 0.3912475249538237 0.025882868266216091 0 0.37844401144479839 0.012609093579625891 0 0.38063223185621792 0.036578263657106522 0 0.37844401144479839 0.012609093579625891 0 0.38063223185621792 0.036578263657106522 0 0.37146335928247548 0.04052602251159599 0 0.37844401144479839 0.012609093579625891 0 0.38063223185621792 0.036578263657106522 0 0.3912475249538237 0.025882868266216091 0 0.39536881189699241 0.01378873843063998 0 0.37844401144479839 0.012609093579625891 0 0.37146335928247548 0.04052602251159599 0 0.38063223185621792 0.036578263657106522 0 0.38282045226763678 0.060547433734587333 0 0.3912475249538237 0.025882868266216091 0 0.38063223185621792 0.036578263657106522 0 0.3908528121234538 0.035995570554822158 0 0.38063223185621792 0.036578263657106522 0 0.38791705742610771 0.044539104287684539 0 0.3908528121234538 0.035995570554822158 0 0.38791705742610771 0.044539104287684539 0 0.38282045226763678 0.060547433734587333 0 0.39079668350586277 0.051215399393808793 0 0.37307104071443398 0.061065176941414383 0 0.37146335928247548 0.04052602251159599 0 0.38282045226763678 0.060547433734587333 0 0.38063223185621792 0.036578263657106522 0 0.38791705742610771 0.044539104287684539 0 0.38282045226763678 0.060547433734587333 0 0.38063223185621792 0.036578263657106522 0 0.38282045226763678 0.060547433734587333 0 0.38282045226763678 0.060547433734587333 0 0.39683376059791597 0.058855427163935138 0 0.39079668350586277 0.051215399393808793 0 0.41226619529834591 0.070009779738664735 0 0.39683376059791597 0.058855427163935138 0 0.40948896714378957 0.05055434744181983 0 0.39683376059791597 0.058855427163935138 0 0.39079668350586277 0.051215399393808793 0 0.39674782008621368 0.04348041067995833 0 0.39683376059791597 0.058855427163935138 0 0.39674782008621368 0.04348041067995833 0 0.40948896714378957 0.05055434744181983 0 0.3908528121234538 0.035995570554822158 0 0.39805180056669343 0.032772735105760037 0 0.39674782008621368 0.04348041067995833 0 0.3912475249538237 0.025882868266216091 0 0.3908528121234538 0.035995570554822158 0 0.39805180056669343 0.032772735105760037 0 0.38791705742610771 0.044539104287684539 0 0.3908528121234538 0.035995570554822158 0 0.39674782008621368 0.04348041067995833 0 0.38791705742610771 0.044539104287684539 0 0.39079668350586277 0.051215399393808793 0 0.39674782008621368 0.04348041067995833 0 0.39674782008621368 0.04348041067995833 0 0.40655765028286611 0.035582104639029083 0 0.40948896714378957 0.05055434744181983 0 0.39805180056669343 0.032772735105760037 0 0.39674782008621368 0.04348041067995833 0 0.40655765028286611 0.035582104639029083 0 0.40655765028286611 0.035582104639029083 0 0.41713079569888262 0.040856968430241461 0 0.41557099838193923 0.024039796491718179 0 0.41713079569888262 0.040856968430241461 0 0.42755741698364552 0.032815777208855347 0 0.41557099838193923 0.024039796491718179 0 0.40655765028286611 0.035582104639029083 0 0.41713079569888262 0.040856968430241461 0 0.40948896714378957 0.05055434744181983 0 0.41226619529834591 0.070009779738664735 0 0.40948896714378957 0.05055434744181983 0 0.42739758089851382 0.054541393999090262 0 0.41713079569888262 0.040856968430241461 0 0.40948896714378957 0.05055434744181983 0 0.42739758089851382 0.054541393999090262 0 0.41226619529834591 0.070009779738664735 0 0.42739758089851382 0.054541393999090262 0 0.43300293116684879 0.070359854062556224 0 0.42739758089851382 0.054541393999090262 0 0.44432728466234178 0.059795406129610977 0 0.41713079569888262 0.040856968430241461 0 0.42739758089851382 0.054541393999090262 0 0.42755741698364552 0.032815777208855347 0 0.42739758089851382 0.054541393999090262 0 0.42755741698364552 0.032815777208855347 0 0.44252896649868317 0.039073008259517338 0 0.42739758089851382 0.054541393999090262 0 0.44252896649868317 0.039073008259517338 0 0.42755741698364552 0.032815777208855347 0 0.4358194844604939 0.024219735287320941 0 0.44252896649868317 0.039073008259517338 0 0.42755741698364552 0.032815777208855347 0 0.41557099838193923 0.024039796491718179 0 0.4265644217351573 0.014684511896395219 0 0.4358194844604939 0.024219735287320941 0 0.4265644217351573 0.014684511896395219 0 0.44548351627008242 0.01642882659412407 0 0.42755741698364552 0.032815777208855347 0 0.4358194844604939 0.024219735287320941 0 0.4265644217351573 0.014684511896395219 0 0.41557099838193923 0.024039796491718179 0 0.4165272652869268 0.01155925859927168 0 0.4265644217351573 0.014684511896395219 0 0.41557099838193923 0.024039796491718179 0 0.40720094273855439 0.01372602960598159 0 0.4165272652869268 0.01155925859927168 0 0.40325323122183843 0.024352223252143548 0 0.41557099838193923 0.024039796491718179 0 0.40720094273855439 0.01372602960598159 0 0.40325323122183843 0.024352223252143548 0 0.40655765028286611 0.035582104639029083 0 0.41557099838193923 0.024039796491718179 0 0.41081432206005303 0.0037114498956348132 0 0.40720094273855439 0.01372602960598159 0 0.4165272652869268 0.01155925859927168 0 0.4165272652869268 0.01155925859927168 0 0.42248564151892998 0.0016345051066286029 0 0.4265644217351573 0.014684511896395219 0 0.41081432206005303 0.0037114498956348132 0 0.4165272652869268 0.01155925859927168 0 0.42248564151892998 0.0016345051066286029 0 0.42248564151892998 0.0016345051066286029 0 0.4265644217351573 0.014684511896395219 0 0.4382820622288856 -0.0014159552958160841 0 0.4265644217351573 0.014684511896395219 0 0.44548351627008242 0.01642882659412407 0 0.4382820622288856 -0.0014159552958160841 0 0.45100246047295739 0.0046664116742636159 0 0.44548351627008242 0.01642882659412407 0 0.4382820622288856 -0.0014159552958160841 0 0.45100246047295739 0.0046664116742636159 0 0.44548351627008242 0.01642882659412407 0 0.4580470330794123 0.0188547641718908 0 0.4358194844604939 0.024219735287320941 0 0.4514029071021442 0.02821869916314456 0 0.44548351627008242 0.01642882659412407 0 0.4358194844604939 0.024219735287320941 0 0.4514029071021442 0.02821869916314456 0 0.44252896649868317 0.039073008259517338 0 0.4514029071021442 0.02821869916314456 0 0.44548351627008242 0.01642882659412407 0 0.4580470330794123 0.0188547641718908 0 0.4514029071021442 0.02821869916314456 0 0.4580470330794123 0.0188547641718908 0 0.46553563141862692 0.027383902935855992 0 0.4580470330794123 0.0188547641718908 0 0.46553563141862692 0.027383902935855992 0 0.471035018561343 0.01684384088441979 0 0.4580470330794123 0.0188547641718908 0 0.4620271672997433 0.0081957990277541914 0 0.471035018561343 0.01684384088441979 0 0.4620271672997433 0.0081957990277541914 0 0.47207727543944228 0.0077163925679632076 0 0.45540766643685782 -0.0078732224449345398 0 0.4620271672997433 0.0081957990277541914 0 0.47207727543944228 0.0077163925679632076 0 0.471035018561343 0.01684384088441979 0 0.45100246047295739 0.0046664116742636159 0 0.4620271672997433 0.0081957990277541914 0 0.45540766643685782 -0.0078732224449345398 0 0.45100246047295739 0.0046664116742636159 0 0.4580470330794123 0.0188547641718908 0 0.4620271672997433 0.0081957990277541914 0 0.42739758089851382 0.054541393999090262 0 0.44432728466234178 0.059795406129610977 0 0.44252896649868317 0.039073008259517338 0 0.44432728466234178 0.059795406129610977 0 0.44252896649868317 0.039073008259517338 0 0.46100281088556699 0.043351957730158222 0 0.4514029071021442 0.02821869916314456 0 0.44252896649868317 0.039073008259517338 0 0.46100281088556699 0.043351957730158222 0 0.4514029071021442 0.02821869916314456 0 0.46553563141862692 0.027383902935855992 0 0.46100281088556699 0.043351957730158222 0 0.46553563141862692 0.027383902935855992 0 0.46100281088556699 0.043351957730158222 0 0.4764725540003833 0.035303178421407518 0 0.46368779630991369 0.062884433647911922 0 0.44432728466234178 0.059795406129610977 0 0.46100281088556699 0.043351957730158222 0 0.48297411160829701 0.071419164250366693 0 0.46368779630991369 0.062884433647911922 0 0.48184389815495748 0.047383459182506117 0 0.46368779630991369 0.062884433647911922 0 0.46100281088556699 0.043351957730158222 0 0.48184389815495748 0.047383459182506117 0 0.46368779630991369 0.062884433647911922 0 0.48184389815495748 0.047383459182506117 0 0.46100281088556699 0.043351957730158222 0 0.48184389815495748 0.047383459182506117 0 0.4764725540003833 0.035303178421407518 0 0.48184389815495748 0.047383459182506117 0 0.50000000000000089 0.031882484717099757 0 0.48184389815495748 0.047383459182506117 0 0.50000000000000089 0.031882484717099757 0 0.5 0.058972369132007867 0 0.48184389815495748 0.047383459182506117 0 0.4764725540003833 0.035303178421407518 0 0.50000000000000089 0.031882484717099757 0 0.48297411160829701 0.071419164250366693 0 0.48184389815495748 0.047383459182506117 0 0.5 0.058972369132007867 0 0.48173822001607031 0.002441982684480838 0 0.47207727543944228 0.0077163925679632076 0 0.45540766643685782 -0.0078732224449345398 0 0.48073089036299149 0.01447516008145705 0 0.48088876464914698 0.0066420825236524483 0 0.47207727543944228 0.0077163925679632076 0 0.48088876464914698 0.0066420825236524483 0 0.48173822001607031 0.002441982684480838 0 0.48944624590280772 0.014576472087587141 0 0.48073089036299149 0.01447516008145705 0 0.48088876464914698 0.0066420825236524483 0 0.48944624590280772 0.014576472087587141 0 0.48088876464914698 0.0066420825236524483 0 0.48173822001607031 0.002441982684480838 0 0.47207727543944228 0.0077163925679632076 0 0.48088876464914698 0.0066420825236524483 0 0.48173822001607031 0.002441982684480838 0 0.48073089036299149 0.01447516008145705 0 0.47207727543944228 0.0077163925679632076 0 0.471035018561343 0.01684384088441979 0 0.46553563141862692 0.027383902935855992 0 0.471035018561343 0.01684384088441979 0 0.48098968552297122 0.023479159592672289 0 0.46553563141862692 0.027383902935855992 0 0.4764725540003833 0.035303178421407518 0 0.48098968552297122 0.023479159592672289 0 0.48073089036299149 0.01447516008145705 0 0.471035018561343 0.01684384088441979 0 0.48098968552297122 0.023479159592672289 0 0.48073089036299149 0.01447516008145705 0 0.48098968552297122 0.023479159592672289 0 0.48944624590280772 0.014576472087587141 0 0.50000000000000089 0.031882484717099757 0 0.50000000000000044 0.0095961811708810997 0 0.48944624590280772 0.014576472087587141 0 0.4764725540003833 0.035303178421407518 0 0.50000000000000089 0.031882484717099757 0 0.48098968552297122 0.023479159592672289 0 0.50000000000000089 0.031882484717099757 0 0.48098968552297122 0.023479159592672289 0 0.48944624590280772 0.014576472087587141 0 0.48173822001607031 0.002441982684480838 0 0.50000000000000044 0.0095961811708810997 0 0.48944624590280772 0.014576472087587141 0 0.48173822001607031 0.002441982684480838 0 0.50000000000000044 0.0095961811708810997 0 0.48173822001607031 0.002441982684480838 0 0.50000000000000044 0.0095961811708810997 0 0.5 -0.01553848795347695 0 0.48173822001607031 0.002441982684480838 0 0.5 -0.01553848795347695 0 0.48723509010938909 -0.024737082977995831 0 0.48173822001607031 0.002441982684480838 0 0.48723509010938909 -0.024737082977995831 0 0.48173822001607031 0.002441982684480838 0 0.46944239540012012 -0.021901386132034111 0 0.45540766643685782 -0.0078732224449345398 0 0.48173822001607031 0.002441982684480838 0 0.46944239540012012 -0.021901386132034111 0 0.48723509010938909 -0.024737082977995831 0 0.46944239540012012 -0.021901386132034111 0 0.48723509010938909 -0.024737082977995831 0 0.47311684284700922 -0.039980301183512167 0 0.5 -0.01553848795347695 0 0.48723509010938909 -0.024737082977995831 0 0.5 -0.040673157077835087 0 0.48723509010938909 -0.024737082977995831 0 0.49273196020270971 -0.051916148640471983 0 0.48034048547664182 -0.050194577481915269 0 0.48723509010938909 -0.024737082977995831 0 0.49273196020270971 -0.051916148640471983 0 0.48723509010938909 -0.024737082977995831 0 0.5 -0.040673157077835087 0 0.49273196020270971 -0.051916148640471983 0 0.5 -0.040673157077835087 0 0.49273196020270971 -0.051916148640471983 0 0.5 -0.065807826202193331 0 0.49273196020270971 -0.051916148640471983 0 0.48384360039889979 -0.062204599920787272 0 0.48034048547664182 -0.050194577481915269 0 0.48034048547664182 -0.050194577481915269 0 0.47035120232490191 -0.060528185902064997 0 0.47311684284700922 -0.039980301183512167 0 0.47035120232490191 -0.060528185902064997 0 0.47311684284700922 -0.039980301183512167 0 0.48384360039889979 -0.062204599920787272 0 0.48034048547664182 -0.050194577481915269 0 0.47035120232490191 -0.060528185902064997 0 0.48723509010938909 -0.024737082977995831 0 0.48034048547664182 -0.050194577481915269 0 0.47311684284700922 -0.039980301183512167 0 0.46944239540012012 -0.021901386132034111 0 0.47311684284700922 -0.039980301183512167 0 0.44971415759127392 -0.039358306738208573 0 0.47035120232490191 -0.060528185902064997 0 0.47311684284700922 -0.039980301183512167 0 0.44971415759127392 -0.039358306738208573 0 0.47035120232490191 -0.060528185902064997 0 0.44971415759127392 -0.039358306738208573 0 0.47035120232490191 -0.060528185902064997 0 0.43963483674523918 -0.055334607978488382 0 0.44971415759127392 -0.039358306738208573 0 0.43963483674523918 -0.055334607978488382 0 0.44971415759127392 -0.039358306738208573 0 0.42419530264354072 -0.042652000491910397 0 0.46944239540012012 -0.021901386132034111 0 0.44971415759127392 -0.039358306738208573 0 0.45540766643685782 -0.0078732224449345398 0 0.44971415759127392 -0.039358306738208573 0 0.42907711285764621 -0.01818842757435184 0 0.44971415759127392 -0.039358306738208573 0 0.45540766643685782 -0.0078732224449345398 0 0.42907711285764621 -0.01818842757435184 0 0.45540766643685782 -0.0078732224449345398 0 0.42907711285764621 -0.01818842757435184 0 0.45100246047295739 0.0046664116742636159 0 0.4382820622288856 -0.0014159552958160841 0 0.45540766643685782 -0.0078732224449345398 0 0.4382820622288856 -0.0014159552958160841 0 0.45540766643685782 -0.0078732224449345398 0 0.42907711285764621 -0.01818842757435184 0 0.48173822001607031 0.002441982684480838 0 0.45540766643685782 -0.0078732224449345398 0 0.47129126618897188 -0.1223351355815797 0 0.47148248434309947 -0.114916285604633 0 0.48087269318342413 -0.1216818802472065 0 0.47148248434309947 -0.114916285604633 0 0.48087269318342413 -0.1216818802472065 0 0.47838814501791832 -0.1066654575105275 0 0.48087269318342413 -0.1216818802472065 0 0.48924328608656842 -0.1141618265083332 0 0.47838814501791832 -0.1066654575105275 0 0.5 -0.1122204549214597 0 0.48924328608656842 -0.1141618265083332 0 0.5 -0.13349841451636779 0 0.48087269318342413 -0.1216818802472065 0 0.48924328608656842 -0.1141618265083332 0 0.5 -0.13349841451636779 0 0.5 -0.1122204549214597 0 0.48924328608656842 -0.1141618265083332 0 0.48827073793524339 -0.097774102912636218 0 0.48924328608656842 -0.1141618265083332 0 0.48827073793524339 -0.097774102912636218 0 0.47838814501791832 -0.1066654575105275 0 0.5 -0.1122204549214597 0 0.48827073793524339 -0.097774102912636218 0 0.50000000000000266 -0.090942495326551576 0 0.47652975213937199 -0.091635549067057065 0 0.46683976751390588 -0.086617099886465918 0 0.46456669494636288 -0.10350535152343909 0 0.48827073793524339 -0.097774102912636218 0 0.47838814501791832 -0.1066654575105275 0 0.47652975213937199 -0.091635549067057065 0 0.47148248434309947 -0.114916285604633 0 0.47838814501791832 -0.1066654575105275 0 0.46456669494636288 -0.10350535152343909 0 0.47838814501791832 -0.1066654575105275 0 0.47652975213937199 -0.091635549067057065 0 0.46456669494636288 -0.10350535152343909 0 0.48827073793524339 -0.097774102912636218 0 0.47652975213937199 -0.091635549067057065 0 0.48517560116245317 -0.075735340614307423 0 0.47652975213937199 -0.091635549067057065 0 0.48517560116245317 -0.075735340614307423 0 0.46683976751390588 -0.086617099886465918 0 0.47652975213937199 -0.091635549067057065 0 0.46683976751390588 -0.086617099886465918 0 0.50000000000000266 -0.090942495326551576 0 0.49822883029603021 -0.079095214302948247 0 0.5 -0.065807826202193331 0 0.48827073793524339 -0.097774102912636218 0 0.50000000000000266 -0.090942495326551576 0 0.48517560116245317 -0.075735340614307423 0 0.50000000000000266 -0.090942495326551576 0 0.48517560116245317 -0.075735340614307423 0 0.50000000000000266 -0.090942495326551576 0 0.49822883029603021 -0.079095214302948247 0 0.48517560116245317 -0.075735340614307423 0 0.49273196020270971 -0.051916148640471983 0 0.49822883029603021 -0.079095214302948247 0 0.48384360039889979 -0.062204599920787272 0 0.49822883029603021 -0.079095214302948247 0 0.48517560116245317 -0.075735340614307423 0 0.49273196020270971 -0.051916148640471983 0 0.48384360039889979 -0.062204599920787272 0 0.49822883029603021 -0.079095214302948247 0 0.49273196020270971 -0.051916148640471983 0 0.49822883029603021 -0.079095214302948247 0 0.5 -0.065807826202193331 0 0.47035120232490191 -0.060528185902064997 0 0.48517560116245317 -0.075735340614307423 0 0.47035120232490191 -0.060528185902064997 0 0.48517560116245317 -0.075735340614307423 0 0.46683976751390588 -0.086617099886465918 0 0.48384360039889979 -0.062204599920787272 0 0.47035120232490191 -0.060528185902064997 0 0.48517560116245317 -0.075735340614307423 0 0.47035120232490191 -0.060528185902064997 0 0.46683976751390588 -0.086617099886465918 0 0.47035120232490191 -0.060528185902064997 0 0.44249197108241189 -0.074007360679063244 0 0.46683976751390588 -0.086617099886465918 0 0.47035120232490191 -0.060528185902064997 0 0.43963483674523918 -0.055334607978488382 0 0.44249197108241189 -0.074007360679063244 0 0.44249197108241189 -0.074007360679063244 0 0.46683976751390588 -0.086617099886465918 0 0.4490662803509099 -0.094083529251462475 0 0.44249197108241189 -0.074007360679063244 0 0.4490662803509099 -0.094083529251462475 0 0.42834270349958448 -0.099226311759436261 0 0.44249197108241189 -0.074007360679063244 0 0.46683976751390588 -0.086617099886465918 0 0.46683976751390588 -0.086617099886465918 0 0.46456669494636288 -0.10350535152343909 0 0.4490662803509099 -0.094083529251462475 0 0.46683976751390588 -0.086617099886465918 0 0.46456669494636288 -0.10350535152343909 0 0.46456669494636288 -0.10350535152343909 0 0.4490662803509099 -0.094083529251462475 0 0.44386094964032902 -0.11054798122052439 0 0.4490662803509099 -0.094083529251462475 0 0.44386094964032902 -0.11054798122052439 0 0.42834270349958448 -0.099226311759436261 0 0.44386094964032902 -0.11054798122052439 0 0.46257396642688631 -0.12529077885077469 0 0.45239247298790419 -0.125419693033265 0 0.44386094964032902 -0.11054798122052439 0 0.42916935431308728 -0.1205456085246996 0 0.4435038969132965 -0.12540022695152131 0 0.44386094964032902 -0.11054798122052439 0 0.45239247298790419 -0.125419693033265 0 0.4435038969132965 -0.12540022695152131 0 0.44386094964032902 -0.11054798122052439 0 0.46229362237882032 -0.1203936031604123 0 0.46257396642688631 -0.12529077885077469 0 0.46456669494636288 -0.10350535152343909 0 0.46229362237882032 -0.1203936031604123 0 0.46456669494636288 -0.10350535152343909 0 0.44386094964032902 -0.11054798122052439 0 0.46229362237882032 -0.1203936031604123 0 0.44386094964032902 -0.11054798122052439 0 0.46257396642688631 -0.12529077885077469 0 0.47148248434309947 -0.114916285604633 0 0.46456669494636288 -0.10350535152343909 0 0.46229362237882032 -0.1203936031604123 0 0.47129126618897188 -0.1223351355815797 0 0.46229362237882032 -0.1203936031604123 0 0.46257396642688631 -0.12529077885077469 0 0.47129126618897188 -0.1223351355815797 0 0.47148248434309947 -0.114916285604633 0 0.46229362237882032 -0.1203936031604123 0 0.44386094964032902 -0.11054798122052439 0 0.42916935431308728 -0.1205456085246996 0 0.42834270349958448 -0.099226311759436261 0 0.41143930547928681 -0.11934523636421419 0 0.42916935431308728 -0.1205456085246996 0 0.42834270349958448 -0.099226311759436261 0 0.41143930547928681 -0.11934523636421419 0 0.40555832972599831 -0.095826118330896617 0 0.41143930547928681 -0.11934523636421419 0 0.42834270349958448 -0.099226311759436261 0 0.40555832972599831 -0.095826118330896617 0 0.42834270349958448 -0.099226311759436261 0 0.41884290658632428 -0.080552882507727325 0 0.40555832972599831 -0.095826118330896617 0 0.41884290658632428 -0.080552882507727325 0 0.39967735397270959 -0.072307000297579083 0 0.40555832972599831 -0.095826118330896617 0 0.44249197108241189 -0.074007360679063244 0 0.42834270349958448 -0.099226311759436261 0 0.41884290658632428 -0.080552882507727325 0 0.44249197108241189 -0.074007360679063244 0 0.41814417465091752 -0.061397621471661459 0 0.43963483674523918 -0.055334607978488382 0 0.44249197108241189 -0.074007360679063244 0 0.41814417465091752 -0.061397621471661459 0 0.44249197108241189 -0.074007360679063244 0 0.41884290658632428 -0.080552882507727325 0 0.41814417465091752 -0.061397621471661459 0 0.41884290658632428 -0.080552882507727325 0 0.39967735397270959 -0.072307000297579083 0 0.41814417465091752 -0.061397621471661459 0 0.39967735397270959 -0.072307000297579083 0 0.38669795957132042 -0.057310603286660967 0 0.37240766699872252 -0.068318548019290964 0 0.39967735397270959 -0.072307000297579083 0 0.37781097748786241 -0.089314889372882261 0 0.37240766699872252 -0.068318548019290964 0 0.39967735397270959 -0.072307000297579083 0 0.37781097748786241 -0.089314889372882261 0 0.40555832972599831 -0.095826118330896617 0 0.39967735397270959 -0.072307000297579083 0 0.40555832972599831 -0.095826118330896617 0 0.40555832972599831 -0.095826118330896617 0 0.38953803654933628 -0.10754997095337659 0 0.39823574772599779 -0.11763079726210079 0 0.37781097748786241 -0.089314889372882261 0 0.40555832972599831 -0.095826118330896617 0 0.38953803654933628 -0.10754997095337659 0 0.37781097748786241 -0.089314889372882261 0 0.38953803654933628 -0.10754997095337659 0 0.37644505785585192 -0.1058120404938334 0 0.38953803654933628 -0.10754997095337659 0 0.37644505785585192 -0.1058120404938334 0 0.37720890243704291 -0.12310924361699779 0 0.38953803654933628 -0.10754997095337659 0 0.37720890243704291 -0.12310924361699779 0 0.38918813321375051 -0.12739880168557821 0 0.38953803654933628 -0.10754997095337659 0 0.39823574772599779 -0.11763079726210079 0 0.38918813321375051 -0.12739880168557821 0 0.41143930547928681 -0.11934523636421419 0 0.39823574772599779 -0.11763079726210079 0 0.40257569972698831 -0.13396225485532559 0 0.41143930547928681 -0.11934523636421419 0 0.40555832972599831 -0.095826118330896617 0 0.39823574772599779 -0.11763079726210079 0 0.42011428296152808 -0.02169968792975261 0 0.41401194260749391 -0.028450411104576211 0 0.41343304557213612 -0.018371446868227208 0 0.42011428296152808 -0.02169968792975261 0 0.41343304557213612 -0.018371446868227208 0 0.41928481904255338 -0.01548900553927589 0 0.42011428296152808 -0.02169968792975261 0 0.41928481904255338 -0.01548900553927589 0 0.42542521438275183 -0.0144422395697206 0 0.42011428296152808 -0.02169968792975261 0 0.41401194260749391 -0.028450411104576211 0 0.42742255973229643 -0.030069766767760062 0 0.41401194260749391 -0.028450411104576211 0 0.40522076275047969 -0.019933987949522329 0 0.40044964155059998 -0.029094842751199331 0 0.41401194260749391 -0.028450411104576211 0 0.41343304557213612 -0.018371446868227208 0 0.40522076275047969 -0.019933987949522329 0 0.41343304557213612 -0.018371446868227208 0 0.40806592415966281 -0.01253819616599721 0 0.40522076275047969 -0.019933987949522329 0 0.40806592415966281 -0.01253819616599721 0 0.4135204533098043 -0.0054466611181140526 0 0.41498054603746559 -0.011947546426581419 0 0.41343304557213612 -0.018371446868227208 0 0.40806592415966281 -0.01253819616599721 0 0.41498054603746559 -0.011947546426581419 0 0.41081432206005303 0.0037114498956348132 0 0.4135204533098043 -0.0054466611181140526 0 0.4046584776842293 -0.0050702490882302163 0 0.40806592415966281 -0.01253819616599721 0 0.4135204533098043 -0.0054466611181140526 0 0.4046584776842293 -0.0050702490882302163 0 0.41081432206005303 0.0037114498956348132 0 0.42248564151892998 0.0016345051066286029 0 0.4135204533098043 -0.0054466611181140526 0 0.42248564151892998 0.0016345051066286029 0 0.4135204533098043 -0.0054466611181140526 0 0.42119781252485211 -0.0083000839364812864 0 0.41343304557213612 -0.018371446868227208 0 0.41498054603746559 -0.011947546426581419 0 0.41928481904255338 -0.01548900553927589 0 0.4135204533098043 -0.0054466611181140526 0 0.41498054603746559 -0.011947546426581419 0 0.42119781252485211 -0.0083000839364812864 0 0.41498054603746559 -0.011947546426581419 0 0.42119781252485211 -0.0083000839364812864 0 0.41928481904255338 -0.01548900553927589 0 0.42542521438275183 -0.0144422395697206 0 0.42820760236351979 -0.0076976995852137747 0 0.42907711285764621 -0.01818842757435184 0 0.4382820622288856 -0.0014159552958160841 0 0.42820760236351979 -0.0076976995852137747 0 0.42907711285764621 -0.01818842757435184 0 0.42119781252485211 -0.0083000839364812864 0 0.41928481904255338 -0.01548900553927589 0 0.42542521438275183 -0.0144422395697206 0 0.42248564151892998 0.0016345051066286029 0 0.4382820622288856 -0.0014159552958160841 0 0.42820760236351979 -0.0076976995852137747 0 0.42119781252485211 -0.0083000839364812864 0 0.42542521438275183 -0.0144422395697206 0 0.42820760236351979 -0.0076976995852137747 0 0.42248564151892998 0.0016345051066286029 0 0.42119781252485211 -0.0083000839364812864 0 0.42820760236351979 -0.0076976995852137747 0 0.44971415759127392 -0.039358306738208573 0 0.42907711285764621 -0.01818842757435184 0 0.42742255973229643 -0.030069766767760062 0 0.42011428296152808 -0.02169968792975261 0 0.42907711285764621 -0.01818842757435184 0 0.42742255973229643 -0.030069766767760062 0 0.42011428296152808 -0.02169968792975261 0 0.42542521438275183 -0.0144422395697206 0 0.42907711285764621 -0.01818842757435184 0 0.42011428296152808 -0.02169968792975261 0 0.42907711285764621 -0.01818842757435184 0 0.42542521438275183 -0.0144422395697206 0 0.42907711285764621 -0.01818842757435184 0 0.44971415759127392 -0.039358306738208573 0 0.42742255973229643 -0.030069766767760062 0 0.42419530264354072 -0.042652000491910397 0 0.41401194260749391 -0.028450411104576211 0 0.42742255973229643 -0.030069766767760062 0 0.42419530264354072 -0.042652000491910397 0 0.43963483674523918 -0.055334607978488382 0 0.42419530264354072 -0.042652000491910397 0 0.41814417465091752 -0.061397621471661459 0 0.41814417465091752 -0.061397621471661459 0 0.41107184061272262 -0.047596707948501772 0 0.39379637821942232 -0.04878788226426127 0 0.42419530264354072 -0.042652000491910397 0 0.41814417465091752 -0.061397621471661459 0 0.41107184061272262 -0.047596707948501772 0 0.41401194260749391 -0.028450411104576211 0 0.42419530264354072 -0.042652000491910397 0 0.40815150693701141 -0.037549327566173699 0 0.42419530264354072 -0.042652000491910397 0 0.41107184061272262 -0.047596707948501772 0 0.40815150693701141 -0.037549327566173699 0 0.41401194260749391 -0.028450411104576211 0 0.40815150693701141 -0.037549327566173699 0 0.40044964155059998 -0.029094842751199331 0 0.41107184061272262 -0.047596707948501772 0 0.40815150693701141 -0.037549327566173699 0 0.39379637821942232 -0.04878788226426127 0 0.40815150693701141 -0.037549327566173699 0 0.39379637821942232 -0.04878788226426127 0 0.40044964155059998 -0.029094842751199331 0 0.39379637821942232 -0.04878788226426127 0 0.38867892262788012 -0.028322223649632432 0 0.39379637821942232 -0.04878788226426127 0 0.38867892262788012 -0.028322223649632432 0 0.40044964155059998 -0.029094842751199331 0 0.39967735397270959 -0.072307000297579083 0 0.39379637821942232 -0.04878788226426127 0 0.38669795957132042 -0.057310603286660967 0 0.41814417465091752 -0.061397621471661459 0 0.39379637821942232 -0.04878788226426127 0 0.39967735397270959 -0.072307000297579083 0 0.39379637821942232 -0.04878788226426127 0 0.39967735397270959 -0.072307000297579083 0 0.41814417465091752 -0.061397621471661459 0 0.39379637821942232 -0.04878788226426127 0 0.39379637821942232 -0.04878788226426127 0 0.38896036142985008 -0.046283306103098283 0 0.38669795957132042 -0.057310603286660967 0 0.37839056082150663 -0.050608978831784571 0 0.37240766699872252 -0.068318548019290964 0 0.38669795957132042 -0.057310603286660967 0 0.37839056082150663 -0.050608978831784571 0 0.38896036142985008 -0.046283306103098283 0 0.39379637821942232 -0.04878788226426127 0 0.38669795957132042 -0.057310603286660967 0 0.38896036142985008 -0.046283306103098283 0 0.39379637821942232 -0.04878788226426127 0 0.38896036142985008 -0.046283306103098283 0 0.38867892262788012 -0.028322223649632432 0 0.3834615598562825 -0.037386722635115492 0 0.38896036142985008 -0.046283306103098283 0 0.38867892262788012 -0.028322223649632432 0 0.37839056082150663 -0.050608978831784571 0 0.3834615598562825 -0.037386722635115492 0 0.38896036142985008 -0.046283306103098283 0 0.37839056082150663 -0.050608978831784571 0 0.3834615598562825 -0.037386722635115492 0 0.37356965880113402 -0.040783236975350308 0 0.38867892262788012 -0.028322223649632432 0 0.38356146703633898 -0.0078565650350033434 0 0.3834615598562825 -0.037386722635115492 0 0.37600683512296651 -0.014087071697862221 0 0.37356965880113402 -0.040783236975350308 0 0.3834615598562825 -0.037386722635115492 0 0.38867892262788012 -0.028322223649632432 0 0.37600683512296651 -0.014087071697862221 0 0.38867892262788012 -0.028322223649632432 0 0.37600683512296651 -0.014087071697862221 0 0.38356146703633898 -0.0078565650350033434 0 0.38867892262788012 -0.028322223649632432 0 0.39658225960386179 -0.014459285545308009 0 0.38356146703633898 -0.0078565650350033434 0 0.38867892262788012 -0.028322223649632432 0 0.40044964155059998 -0.029094842751199331 0 0.39658225960386179 -0.014459285545308009 0 0.40522076275047969 -0.019933987949522329 0 0.40044964155059998 -0.029094842751199331 0 0.39658225960386179 -0.014459285545308009 0 0.40806592415966281 -0.01253819616599721 0 0.40522076275047969 -0.019933987949522329 0 0.39658225960386179 -0.014459285545308009 0 0.40060323373222451 0.0042547197705496897 0 0.4046584776842293 -0.0050702490882302163 0 0.39531848553630572 -0.0042569273994520467 0 0.40806592415966281 -0.01253819616599721 0 0.4046584776842293 -0.0050702490882302163 0 0.39658225960386179 -0.014459285545308009 0 0.4046584776842293 -0.0050702490882302163 0 0.39658225960386179 -0.014459285545308009 0 0.39531848553630572 -0.0042569273994520467 0 0.39658225960386179 -0.014459285545308009 0 0.39531848553630572 -0.0042569273994520467 0 0.38356146703633898 -0.0078565650350033434 0 0.39025836247721268 0.0036292771787240202 0 0.39531848553630572 -0.0042569273994520467 0 0.38356146703633898 -0.0078565650350033434 0 0.37844401144479839 0.012609093579625891 0 0.37600683512296651 -0.014087071697862221 0 0.37844401144479839 0.012609093579625891 0 0.37600683512296651 -0.014087071697862221 0 0.38356146703633898 -0.0078565650350033434 0 0.37600683512296651 -0.014087071697862221 0 0.36665723294200347 -0.001883505129568449 0 0.35850646790810559 -0.01395473468271459 0 0.37844401144479839 0.012609093579625891 0 0.37600683512296651 -0.014087071697862221 0 0.36665723294200347 -0.001883505129568449 0 0.36665723294200347 -0.001883505129568449 0 0.35531676971978082 -0.0033532784323768001 0 0.35850646790810559 -0.01395473468271459 0 0.37600683512296651 -0.014087071697862221 0 0.37356965880113402 -0.040783236975350308 0 0.37600683512296651 -0.014087071697862221 0 0.36404947753274258 -0.026706798856440471 0 0.35850646790810559 -0.01395473468271459 0 0.37600683512296651 -0.014087071697862221 0 0.36404947753274258 -0.026706798856440471 0 0.37356965880113402 -0.040783236975350308 0 0.34748556133762742 -0.02738266599094942 0 0.35850646790810559 -0.01395473468271459 0 0.34370628527030811 -0.0115647124322744 0 0.36404947753274258 -0.026706798856440471 0 0.34748556133762742 -0.02738266599094942 0 0.35850646790810559 -0.01395473468271459 0 0.36404947753274258 -0.026706798856440471 0 0.34748556133762742 -0.02738266599094942 0 0.36012817770438982 -0.039413746555128387 0 0.33689267375143878 0.0039255003288513873 0 0.35531676971978082 -0.0033532784323768001 0 0.34370628527030811 -0.0115647124322744 0 0.35531676971978082 -0.0033532784323768001 0 0.35850646790810559 -0.01395473468271459 0 0.34370628527030811 -0.0115647124322744 0 0.33689267375143878 0.0039255003288513873 0 0.34370628527030811 -0.0115647124322744 0 0.32469666258817742 -0.019557632270551 0 0.33689267375143878 0.0039255003288513873 0 0.30352242257352219 0.0039185454548519476 0 0.32469666258817742 -0.019557632270551 0 0.34748556133762742 -0.02738266599094942 0 0.34370628527030811 -0.0115647124322744 0 0.32469666258817742 -0.019557632270551 0 0.34748556133762742 -0.02738266599094942 0 0.32469666258817742 -0.019557632270551 0 0.33457477032001748 -0.043965109755099818 0 0.31326255248553708 -0.043768501277314603 0 0.32924913997341337 -0.063603686862235317 0 0.31014365419524398 -0.06072536978512106 0 0.31326255248553708 -0.043768501277314603 0 0.32924913997341337 -0.063603686862235317 0 0.31326255248553708 -0.043768501277314603 0 0.33457477032001748 -0.043965109755099818 0 0.32924913997341337 -0.063603686862235317 0 0.32469666258817742 -0.019557632270551 0 0.31326255248553708 -0.043768501277314603 0 0.33457477032001748 -0.043965109755099818 0 0.33457477032001748 -0.043965109755099818 0 0.34313363496153881 -0.061193084728204693 0 0.35029003257871461 -0.048624574981710279 0 0.33457477032001748 -0.043965109755099818 0 0.34313363496153881 -0.061193084728204693 0 0.32924913997341337 -0.063603686862235317 0 0.35029003257871461 -0.048624574981710279 0 0.36524615827173029 -0.053571455971191423 0 0.35631850447425872 -0.066333179594821989 0 0.34313363496153881 -0.061193084728204693 0 0.35029003257871461 -0.048624574981710279 0 0.35631850447425872 -0.066333179594821989 0 0.35029003257871461 -0.048624574981710279 0 0.36012817770438982 -0.039413746555128387 0 0.36524615827173029 -0.053571455971191423 0 0.34748556133762742 -0.02738266599094942 0 0.33457477032001748 -0.043965109755099818 0 0.35029003257871461 -0.048624574981710279 0 0.34748556133762742 -0.02738266599094942 0 0.35029003257871461 -0.048624574981710279 0 0.36012817770438982 -0.039413746555128387 0 0.36404947753274258 -0.026706798856440471 0 0.36012817770438982 -0.039413746555128387 0 0.37356965880113402 -0.040783236975350308 0 0.36012817770438982 -0.039413746555128387 0 0.37356965880113402 -0.040783236975350308 0 0.36524615827173029 -0.053571455971191423 0 0.37839056082150663 -0.050608978831784571 0 0.36524615827173029 -0.053571455971191423 0 0.37240766699872252 -0.068318548019290964 0 0.37839056082150663 -0.050608978831784571 0 0.37356965880113402 -0.040783236975350308 0 0.36524615827173029 -0.053571455971191423 0 0.36524615827173029 -0.053571455971191423 0 0.37240766699872252 -0.068318548019290964 0 0.35631850447425872 -0.066333179594821989 0 0.37240766699872252 -0.068318548019290964 0 0.36259903827425999 -0.08213590949324566 0 0.35631850447425872 -0.066333179594821989 0 0.37781097748786241 -0.089314889372882261 0 0.37240766699872252 -0.068318548019290964 0 0.36259903827425999 -0.08213590949324566 0 0.37781097748786241 -0.089314889372882261 0 0.36259903827425999 -0.08213590949324566 0 0.3612223149491664 -0.1032740580320769 0 0.34523572746128989 -0.083438872447156087 0 0.3612223149491664 -0.1032740580320769 0 0.36259903827425999 -0.08213590949324566 0 0.34523572746128989 -0.083438872447156087 0 0.3612223149491664 -0.1032740580320769 0 0.34313363496153881 -0.061193084728204693 0 0.34523572746128989 -0.083438872447156087 0 0.35631850447425872 -0.066333179594821989 0 0.36259903827425999 -0.08213590949324566 0 0.34523572746128989 -0.083438872447156087 0 0.35631850447425872 -0.066333179594821989 0 0.37720890243704291 -0.12310924361699779 0 0.36253108037134668 -0.1248744885805331 0 0.3612223149491664 -0.1032740580320769 0 0.37644505785585192 -0.1058120404938334 0 0.37720890243704291 -0.12310924361699779 0 0.3612223149491664 -0.1032740580320769 0 0.37720890243704291 -0.12310924361699779 0 0.3612223149491664 -0.1032740580320769 0 0.37781097748786241 -0.089314889372882261 0 0.37644505785585192 -0.1058120404938334 0 0.3612223149491664 -0.1032740580320769 0 0.34523572746128989 -0.083438872447156087 0 0.3612223149491664 -0.1032740580320769 0 0.33932087337301742 -0.1007066993955318 0 0.3612223149491664 -0.1032740580320769 0 0.34941185211170689 -0.1127717253903176 0 0.33932087337301742 -0.1007066993955318 0 0.36253108037134668 -0.1248744885805331 0 0.33587402752894302 -0.122350175475488 0 0.36253108037134668 -0.1248744885805331 0 0.34941185211170689 -0.1127717253903176 0 0.33587402752894302 -0.122350175475488 0 0.36253108037134668 -0.1248744885805331 0 0.3612223149491664 -0.1032740580320769 0 0.34941185211170689 -0.1127717253903176 0 0.34941185211170689 -0.1127717253903176 0 0.33587402752894302 -0.122350175475488 0 0.33932087337301742 -0.1007066993955318 0 0.33587402752894302 -0.122350175475488 0 0.33932087337301742 -0.1007066993955318 0 0.31943204723016899 -0.10139701157958859 0 0.33932087337301742 -0.1007066993955318 0 0.31943204723016899 -0.10139701157958859 0 0.32474927095682959 -0.081008353448563344 0 0.33587402752894302 -0.122350175475488 0 0.31943204723016899 -0.10139701157958859 0 0.3092169746865393 -0.1198258623704429 0 0.33587402752894302 -0.122350175475488 0 0.3092169746865393 -0.1198258623704429 0 0.34523572746128989 -0.083438872447156087 0 0.32924913997341337 -0.063603686862235317 0 0.32474927095682959 -0.081008353448563344 0 0.34523572746128989 -0.083438872447156087 0 0.32924913997341337 -0.063603686862235317 0 0.34313363496153881 -0.061193084728204693 0 0.34523572746128989 -0.083438872447156087 0 0.32924913997341337 -0.063603686862235317 0 0.34523572746128989 -0.083438872447156087 0 0.33932087337301742 -0.1007066993955318 0 0.32474927095682959 -0.081008353448563344 0 0.31943204723016899 -0.10139701157958859 0 0.32474927095682959 -0.081008353448563344 0 0.31117343018006932 -0.08835554327446378 0 0.32474927095682959 -0.081008353448563344 0 0.30201438303726968 -0.075929904193525521 0 0.32474927095682959 -0.081008353448563344 0 0.30201438303726968 -0.075929904193525521 0 0.31117343018006932 -0.08835554327446378 0 0.32924913997341337 -0.063603686862235317 0 0.32474927095682959 -0.081008353448563344 0 0.31014365419524398 -0.06072536978512106 0 0.32474927095682959 -0.081008353448563344 0 0.30201438303726968 -0.075929904193525521 0 0.31014365419524398 -0.06072536978512106 0 0.30201438303726968 -0.075929904193525521 0 0.31014365419524398 -0.06072536978512106 0 0.29222542489931519 -0.060978945333093171 0 0.31117343018006932 -0.08835554327446378 0 0.29442961060618023 -0.089764156713605506 0 0.30306705175182019 -0.101009202806625 0 0.30201438303726968 -0.075929904193525521 0 0.31117343018006932 -0.08835554327446378 0 0.29442961060618023 -0.089764156713605506 0 0.29442961060618023 -0.089764156713605506 0 0.28691460331806928 -0.079185378374353493 0 0.27734124638624891 -0.089737863242296378 0 0.30201438303726968 -0.075929904193525521 0 0.29442961060618023 -0.089764156713605506 0 0.28691460331806928 -0.079185378374353493 0 0.30201438303726968 -0.075929904193525521 0 0.27927949511770961 -0.070851454938488739 0 0.29222542489931519 -0.060978945333093171 0 0.30201438303726968 -0.075929904193525521 0 0.27927949511770961 -0.070851454938488739 0 0.30201438303726968 -0.075929904193525521 0 0.28691460331806928 -0.079185378374353493 0 0.27927949511770961 -0.070851454938488739 0 0.28691460331806928 -0.079185378374353493 0 0.27927949511770961 -0.070851454938488739 0 0.27809334201771629 -0.079209584513290715 0 0.28691460331806928 -0.079185378374353493 0 0.27927949511770961 -0.070851454938488739 0 0.27927949511770961 -0.070851454938488739 0 0.27868582307562201 -0.055886184139343542 0 0.29222542489931519 -0.060978945333093171 0 0.31943204723016899 -0.10139701157958859 0 0.3092169746865393 -0.1198258623704429 0 0.30306705175182019 -0.101009202806625 0 0.3092169746865393 -0.1198258623704429 0 0.30306705175182019 -0.101009202806625 0 0.28879183359809052 -0.10393054527906551 0 0.31943204723016899 -0.10139701157958859 0 0.31117343018006932 -0.08835554327446378 0 0.30306705175182019 -0.101009202806625 0 0.28879183359809052 -0.10393054527906551 0 0.28255992184413548 -0.11730154926539781 0 0.27267591943638608 -0.1048970298088977 0 0.29442961060618023 -0.089764156713605506 0 0.28879183359809052 -0.10393054527906551 0 0.27734124638624891 -0.089737863242296378 0 0.29442961060618023 -0.089764156713605506 0 0.30306705175182019 -0.101009202806625 0 0.28879183359809052 -0.10393054527906551 0 0.3092169746865393 -0.1198258623704429 0 0.28255992184413548 -0.11730154926539781 0 0.3092169746865393 -0.1198258623704429 0 0.28879183359809052 -0.10393054527906551 0 0.28255992184413548 -0.11730154926539781 0 0.3092169746865393 -0.1198258623704429 0 0.28255992184413548 -0.11730154926539781 0 0.28721398294742878 -0.13035474923543569 0 0.28255992184413548 -0.11730154926539781 0 0.26776517015272971 -0.1222840496799191 0 0.28721398294742878 -0.13035474923543569 0 0.28255992184413548 -0.11730154926539781 0 0.26776517015272971 -0.1222840496799191 0 0.27267591943638608 -0.1048970298088977 0 0.26776517015272971 -0.1222840496799191 0 0.27267591943638608 -0.1048970298088977 0 0.26047800574605201 -0.11084537767631369 0 0.28879183359809052 -0.10393054527906551 0 0.27267591943638608 -0.1048970298088977 0 0.27734124638624891 -0.089737863242296378 0 0.27267591943638608 -0.1048970298088977 0 0.27734124638624891 -0.089737863242296378 0 0.26256105175446781 -0.092679464148907056 0 0.25771864553297669 -0.099620140202181948 0 0.26047800574605201 -0.11084537767631369 0 0.24375228786211539 -0.116580291014256 0 0.27267591943638608 -0.1048970298088977 0 0.25771864553297669 -0.099620140202181948 0 0.26256105175446781 -0.092679464148907056 0 0.25771864553297669 -0.099620140202181948 0 0.25304747237378489 -0.090741332181114118 0 0.24292322406264641 -0.096552741650977186 0 0.25771864553297669 -0.099620140202181948 0 0.26256105175446781 -0.092679464148907056 0 0.25304747237378489 -0.090741332181114118 0 0.27267591943638608 -0.1048970298088977 0 0.25771864553297669 -0.099620140202181948 0 0.26047800574605201 -0.11084537767631369 0 0.26776517015272971 -0.1222840496799191 0 0.26153006621115998 -0.13421007507225571 0 0.24375228786211539 -0.116580291014256 0 0.26776517015272971 -0.1222840496799191 0 0.24375228786211539 -0.116580291014256 0 0.26776517015272971 -0.1222840496799191 0 0.26047800574605201 -0.11084537767631369 0 0.24375228786211539 -0.116580291014256 0 0.27927949511770961 -0.070851454938488739 0 0.25811154610651499 -0.066123023671663908 0 0.26329678137076351 -0.053405898285071182 0 0.27927949511770961 -0.070851454938488739 0 0.25811154610651499 -0.066123023671663908 0 0.26883802324883782 -0.077063641498024305 0 0.27927949511770961 -0.070851454938488739 0 0.25811154610651499 -0.066123023671663908 0 0.26883802324883782 -0.077063641498024305 0 0.27927949511770961 -0.070851454938488739 0 0.27809334201771629 -0.079209584513290715 0 0.26883802324883782 -0.077063641498024305 0 0.27809334201771629 -0.079209584513290715 0 0.27734124638624891 -0.089737863242296378 0 0.26883802324883782 -0.077063641498024305 0 0.27734124638624891 -0.089737863242296378 0 0.25202197504294188 -0.078400955310045109 0 0.28691460331806928 -0.079185378374353493 0 0.27809334201771629 -0.079209584513290715 0 0.27734124638624891 -0.089737863242296378 0 0.27734124638624891 -0.089737863242296378 0 0.26256105175446781 -0.092679464148907056 0 0.25202197504294188 -0.078400955310045109 0 0.27734124638624891 -0.089737863242296378 0 0.25202197504294188 -0.078400955310045109 0 0.26256105175446781 -0.092679464148907056 0 0.25304747237378489 -0.090741332181114118 0 0.25202197504294188 -0.078400955310045109 0 0.25304747237378489 -0.090741332181114118 0 0.25202197504294188 -0.078400955310045109 0 0.24624903761231479 -0.086847438891893419 0 0.26883802324883782 -0.077063641498024305 0 0.25202197504294188 -0.078400955310045109 0 0.25811154610651499 -0.066123023671663908 0 0.25811154610651499 -0.066123023671663908 0 0.26329678137076351 -0.053405898285071182 0 0.24870160087168189 -0.052882304334001928 0 0.26329678137076351 -0.053405898285071182 0 0.24870160087168189 -0.052882304334001928 0 0.24731406762381819 -0.035960341631652723 0 0.27927949511770961 -0.070851454938488739 0 0.26329678137076351 -0.053405898285071182 0 0.27868582307562201 -0.055886184139343542 0 0.27927949511770961 -0.070851454938488739 0 0.26329678137076351 -0.053405898285071182 0 0.26329678137076351 -0.053405898285071182 0 0.27868582307562201 -0.055886184139343542 0 0.27337213238318842 -0.044040078526876879 0 0.27868582307562201 -0.055886184139343542 0 0.27337213238318842 -0.044040078526876879 0 0.28525528160713332 -0.050154543613187753 0 0.26329678137076351 -0.053405898285071182 0 0.27337213238318842 -0.044040078526876879 0 0.26311483972878968 -0.036713614733010089 0 0.27337213238318842 -0.044040078526876879 0 0.27217486102646721 -0.027861542379398439 0 0.28494473946257981 -0.034556038004921102 0 0.27337213238318842 -0.044040078526876879 0 0.26311483972878968 -0.036713614733010089 0 0.27217486102646721 -0.027861542379398439 0 0.27337213238318842 -0.044040078526876879 0 0.28525528160713332 -0.050154543613187753 0 0.28494473946257981 -0.034556038004921102 0 0.26311483972878968 -0.036713614733010089 0 0.25941635623971138 -0.02230021284205122 0 0.24731406762381819 -0.035960341631652723 0 0.26329678137076351 -0.053405898285071182 0 0.24731406762381819 -0.035960341631652723 0 0.26329678137076351 -0.053405898285071182 0 0.26311483972878968 -0.036713614733010089 0 0.24731406762381819 -0.035960341631652723 0 0.25941635623971138 -0.02230021284205122 0 0.24731406762381819 -0.035960341631652723 0 0.2482857443068576 -0.021714794414400052 0 0.25941635623971138 -0.02230021284205122 0 0.25508119948702751 -0.010083838205662381 0 0.2482857443068576 -0.021714794414400052 0 0.26311483972878968 -0.036713614733010089 0 0.25941635623971138 -0.02230021284205122 0 0.27217486102646721 -0.027861542379398439 0 0.2541426920980116 -0.0036136263454906951 0 0.25508119948702751 -0.010083838205662381 0 0.24138147174972829 -0.0061427828714447699 0 0.2541426920980116 -0.0036136263454906951 0 0.25508119948702751 -0.010083838205662381 0 0.26047117107291767 -0.0019720443344692288 0 0.25446675038947358 0.0029162606258486688 0 0.2541426920980116 -0.0036136263454906951 0 0.26047117107291767 -0.0019720443344692288 0 0.25941635623971138 -0.02230021284205122 0 0.25508119948702751 -0.010083838205662381 0 0.26474460583379889 -0.01023883548432745 0 0.25941635623971138 -0.02230021284205122 0 0.26474460583379889 -0.01023883548432745 0 0.27166734417845928 -0.01430021117376327 0 0.25508119948702751 -0.010083838205662381 0 0.26474460583379889 -0.01023883548432745 0 0.26047117107291767 -0.0019720443344692288 0 0.26474460583379889 -0.01023883548432745 0 0.26047117107291767 -0.0019720443344692288 0 0.27708695819087842 -0.0025378708656911609 0 0.26474460583379889 -0.01023883548432745 0 0.27166734417845928 -0.01430021117376327 0 0.27708695819087842 -0.0025378708656911609 0 0.27166734417845928 -0.01430021117376327 0 0.27708695819087842 -0.0025378708656911609 0 0.28469269166600031 -0.01545933141113482 0 0.27217486102646721 -0.027861542379398439 0 0.28469269166600031 -0.01545933141113482 0 0.28494473946257981 -0.034556038004921102 0 0.25941635623971138 -0.02230021284205122 0 0.27166734417845928 -0.01430021117376327 0 0.27217486102646721 -0.027861542379398439 0 0.27166734417845928 -0.01430021117376327 0 0.27217486102646721 -0.027861542379398439 0 0.28469269166600031 -0.01545933141113482 0 0.28469269166600031 -0.01545933141113482 0 0.29727596499766062 -0.023933315692393788 0 0.28494473946257981 -0.034556038004921102 0 0.30352242257352219 0.0039185454548519476 0 0.28469269166600031 -0.01545933141113482 0 0.29727596499766062 -0.023933315692393788 0 0.30352242257352219 0.0039185454548519476 0 0.27708695819087842 -0.0025378708656911609 0 0.28469269166600031 -0.01545933141113482 0 0.30352242257352219 0.0039185454548519476 0 0.32469666258817742 -0.019557632270551 0 0.29727596499766062 -0.023933315692393788 0 0.32469666258817742 -0.019557632270551 0 0.31326255248553708 -0.043768501277314603 0 0.29727596499766062 -0.023933315692393788 0 0.31326255248553708 -0.043768501277314603 0 0.29727596499766062 -0.023933315692393788 0 0.2968975050950291 -0.045887416406534938 0 0.31326255248553708 -0.043768501277314603 0 0.29727596499766062 -0.023933315692393788 0 0.31326255248553708 -0.043768501277314603 0 0.2968975050950291 -0.045887416406534938 0 0.31014365419524398 -0.06072536978512106 0 0.2968975050950291 -0.045887416406534938 0 0.31014365419524398 -0.06072536978512106 0 0.29222542489931519 -0.060978945333093171 0 0.2968975050950291 -0.045887416406534938 0 0.29222542489931519 -0.060978945333093171 0 0.28525528160713332 -0.050154543613187753 0 0.27868582307562201 -0.055886184139343542 0 0.29222542489931519 -0.060978945333093171 0 0.28525528160713332 -0.050154543613187753 0 0.2968975050950291 -0.045887416406534938 0 0.28525528160713332 -0.050154543613187753 0 0.28494473946257981 -0.034556038004921102 0 0.29727596499766062 -0.023933315692393788 0 0.2968975050950291 -0.045887416406534938 0 0.28494473946257981 -0.034556038004921102 0 0.29579617193404978 -0.19432558104056491 0 0.30588539897632072 -0.22256652654210629 0 0.2776594049058328 -0.2175861504380624 0 0.29579617193404978 -0.19432558104056491 0 0.2776594049058328 -0.2175861504380624 0 0.2764107852420567 -0.19644220614923899 0 0.29579617193404978 -0.19432558104056491 0 0.2764107852420567 -0.19644220614923899 0 0.2792899687438003 -0.18116405860585089 0 0.29579617193404978 -0.19432558104056491 0 0.31045946319455608 -0.20263901644370941 0 0.31057073564158039 -0.17760626025882659 0 0.29579617193404978 -0.19432558104056491 0 0.30588539897632072 -0.22256652654210629 0 0.31045946319455608 -0.20263901644370941 0 0.30588539897632072 -0.22256652654210629 0 0.32020032842118662 -0.2136972324735969 0 0.29579617193404978 -0.19432558104056491 0 0.31045946319455608 -0.20263901644370941 0 0.30588539897632072 -0.22256652654210629 0 0.29681701546221179 -0.23419681124085551 0 0.31597462601859122 -0.25080747204364812 0 0.30111904597271899 -0.2536098058489899 0 0.30588539897632072 -0.22256652654210629 0 0.29681701546221179 -0.23419681124085551 0 0.31597462601859122 -0.25080747204364812 0 0.30588539897632072 -0.22256652654210629 0 0.31597462601859122 -0.25080747204364812 0 0.29681701546221179 -0.23419681124085551 0 0.31597462601859122 -0.25080747204364812 0 0.29681701546221179 -0.23419681124085551 0 0.30111904597271899 -0.2536098058489899 0 0.28456511698073272 -0.25518130134833977 0 0.29681701546221179 -0.23419681124085551 0 0.27830026498091959 -0.23745462562099759 0 0.28456511698073272 -0.25518130134833977 0 0.30588539897632072 -0.22256652654210629 0 0.29681701546221179 -0.23419681124085551 0 0.2776594049058328 -0.2175861504380624 0 0.29681701546221179 -0.23419681124085551 0 0.27830026498091959 -0.23745462562099759 0 0.2776594049058328 -0.2175861504380624 0 0.29681701546221179 -0.23419681124085551 0 0.2776594049058328 -0.2175861504380624 0 0.26584409390649738 -0.23415831621220631 0 0.27830026498091959 -0.23745462562099759 0 0.2776594049058328 -0.2175861504380624 0 0.26584409390649738 -0.23415831621220631 0 0.25658827463044448 -0.2222138965281123 0 0.2776594049058328 -0.2175861504380624 0 0.27830026498091959 -0.23745462562099759 0 0.28456511698073272 -0.25518130134833977 0 0.26629969424128969 -0.25192769388052821 0 0.26584409390649738 -0.23415831621220631 0 0.27830026498091959 -0.23745462562099759 0 0.26629969424128969 -0.25192769388052821 0 0.26584409390649738 -0.23415831621220631 0 0.25037283077400019 -0.2416092145933311 0 0.26629969424128969 -0.25192769388052821 0 0.25037283077400019 -0.2416092145933311 0 0.25658827463044448 -0.2222138965281123 0 0.2446094219978813 -0.2276121794933563 0 0.26584409390649738 -0.23415831621220631 0 0.25037283077400019 -0.2416092145933311 0 0.25658827463044448 -0.2222138965281123 0 0.25658827463044448 -0.2222138965281123 0 0.2776594049058328 -0.2175861504380624 0 0.25850179434945381 -0.20097548963526929 0 0.25658827463044448 -0.2222138965281123 0 0.25850179434945381 -0.20097548963526929 0 0.23907695871134879 -0.21289681242661959 0 0.2776594049058328 -0.2175861504380624 0 0.25850179434945381 -0.20097548963526929 0 0.2776594049058328 -0.2175861504380624 0 0.2764107852420567 -0.19644220614923899 0 0.25850179434945381 -0.20097548963526929 0 0.2764107852420567 -0.19644220614923899 0 0.25850179434945381 -0.20097548963526929 0 0.26539786460737957 -0.18100391429238191 0 0.25850179434945381 -0.20097548963526929 0 0.26539786460737957 -0.18100391429238191 0 0.23934418379307471 -0.18436482883247621 0 0.26539786460737957 -0.18100391429238191 0 0.25449645062408999 -0.16331052089379791 0 0.23934418379307471 -0.18436482883247621 0 0.26539786460737957 -0.18100391429238191 0 0.25449645062408999 -0.16331052089379791 0 0.27043371620885309 -0.16438603764101259 0 0.25449645062408999 -0.16331052089379791 0 0.27043371620885309 -0.16438603764101259 0 0.2633734196266177 -0.15149826902969399 0 0.27043371620885309 -0.16438603764101259 0 0.2792899687438003 -0.18116405860585089 0 0.28570694489177878 -0.1660846355390232 0 0.27043371620885309 -0.16438603764101259 0 0.27930784456020519 -0.15183985913025491 0 0.28570694489177878 -0.1660846355390232 0 0.26539786460737957 -0.18100391429238191 0 0.27043371620885309 -0.16438603764101259 0 0.2792899687438003 -0.18116405860585089 0 0.2764107852420567 -0.19644220614923899 0 0.26539786460737957 -0.18100391429238191 0 0.2792899687438003 -0.18116405860585089 0 0.26153006621115998 -0.13421007507225571 0 0.24375228786211539 -0.116580291014256 0 0.24955680073527009 -0.143898101237383 0 0.26153006621115998 -0.13421007507225571 0 0.24375228786211539 -0.116580291014256 0 0.25449645062408999 -0.16331052089379791 0 0.2633734196266177 -0.15149826902969399 0 0.24955680073527009 -0.143898101237383 0 0.26153006621115998 -0.13421007507225571 0 0.2633734196266177 -0.15149826902969399 0 0.24955680073527009 -0.143898101237383 0 0.27043371620885309 -0.16438603764101259 0 0.2633734196266177 -0.15149826902969399 0 0.27930784456020519 -0.15183985913025491 0 0.27561771784950778 -0.13784369003748159 0 0.28570694489177878 -0.1660846355390232 0 0.26153006621115998 -0.13421007507225571 0 0.27930784456020519 -0.15183985913025491 0 0.27561771784950778 -0.13784369003748159 0 0.27930784456020519 -0.15183985913025491 0 0.27561771784950778 -0.13784369003748159 0 0.28570694489177878 -0.1660846355390232 0 0.26153006621115998 -0.13421007507225571 0 0.2633734196266177 -0.15149826902969399 0 0.27930784456020519 -0.15183985913025491 0 0.26153006621115998 -0.13421007507225571 0 0.27930784456020519 -0.15183985913025491 0 0.26776517015272971 -0.1222840496799191 0 0.27561771784950778 -0.13784369003748159 0 0.28721398294742878 -0.13035474923543569 0 0.26776517015272971 -0.1222840496799191 0 0.26153006621115998 -0.13421007507225571 0 0.27561771784950778 -0.13784369003748159 0 0.27561771784950778 -0.13784369003748159 0 0.28721398294742878 -0.13035474923543569 0 0.28891568690104508 -0.14625428249578579 0 0.28721398294742878 -0.13035474923543569 0 0.28891568690104508 -0.14625428249578579 0 0.29920842625061578 -0.1386190615635868 0 0.28891568690104508 -0.14625428249578579 0 0.29920842625061578 -0.1386190615635868 0 0.29789574789403661 -0.15876522012859751 0 0.27561771784950778 -0.13784369003748159 0 0.28891568690104508 -0.14625428249578579 0 0.28570694489177878 -0.1660846355390232 0 0.30985117626407932 -0.1486491484402036 0 0.29920842625061578 -0.1386190615635868 0 0.29789574789403661 -0.15876522012859751 0 0.30985117626407932 -0.1486491484402036 0 0.29789574789403661 -0.15876522012859751 0 0.3134799250960158 -0.16133035304856411 0 0.30985117626407932 -0.1486491484402036 0 0.29920842625061578 -0.1386190615635868 0 0.31980994510895661 -0.13408045692276491 0 0.3092169746865393 -0.1198258623704429 0 0.28721398294742878 -0.13035474923543569 0 0.29920842625061578 -0.1386190615635868 0 0.3092169746865393 -0.1198258623704429 0 0.29920842625061578 -0.1386190615635868 0 0.31980994510895661 -0.13408045692276491 0 0.29579617193404978 -0.19432558104056491 0 0.2792899687438003 -0.18116405860585089 0 0.28570694489177878 -0.1660846355390232 0 0.29579617193404978 -0.19432558104056491 0 0.28570694489177878 -0.1660846355390232 0 0.29579617193404978 -0.19432558104056491 0 0.28570694489177878 -0.1660846355390232 0 0.29784246694311001 -0.17248502473641619 0 0.28891568690104508 -0.14625428249578579 0 0.28570694489177878 -0.1660846355390232 0 0.29789574789403661 -0.15876522012859751 0 0.28570694489177878 -0.1660846355390232 0 0.29789574789403661 -0.15876522012859751 0 0.29784246694311001 -0.17248502473641619 0 0.29789574789403661 -0.15876522012859751 0 0.31057073564158039 -0.17760626025882659 0 0.3134799250960158 -0.16133035304856411 0 0.29789574789403661 -0.15876522012859751 0 0.31057073564158039 -0.17760626025882659 0 0.29784246694311001 -0.17248502473641619 0 0.29789574789403661 -0.15876522012859751 0 0.31057073564158039 -0.17760626025882659 0 0.29579617193404978 -0.19432558104056491 0 0.31057073564158039 -0.17760626025882659 0 0.29784246694311001 -0.17248502473641619 0 0.31057073564158039 -0.17760626025882659 0 0.33117051957001492 -0.16690810347740409 0 0.33960500058918919 -0.18923554211963439 0 0.31057073564158039 -0.17760626025882659 0 0.32324572338912438 -0.19644730038905581 0 0.3134799250960158 -0.16133035304856411 0 0.33117051957001492 -0.16690810347740409 0 0.32297156368297691 -0.15191279281852399 0 0.31057073564158039 -0.17760626025882659 0 0.3134799250960158 -0.16133035304856411 0 0.33117051957001492 -0.16690810347740409 0 0.33117051957001492 -0.16690810347740409 0 0.34312821131240068 -0.1490342399984359 0 0.35150112372442083 -0.17432517416681301 0 0.33117051957001492 -0.16690810347740409 0 0.35150112372442083 -0.17432517416681301 0 0.33960500058918919 -0.18923554211963439 0 0.33587402752894302 -0.122350175475488 0 0.3092169746865393 -0.1198258623704429 0 0.31980994510895661 -0.13408045692276491 0 0.30985117626407932 -0.1486491484402036 0 0.31980994510895661 -0.13408045692276491 0 0.32297156368297691 -0.15191279281852399 0 0.30985117626407932 -0.1486491484402036 0 0.3134799250960158 -0.16133035304856411 0 0.32297156368297691 -0.15191279281852399 0 0.33117051957001492 -0.16690810347740409 0 0.32297156368297691 -0.15191279281852399 0 0.34312821131240068 -0.1490342399984359 0 0.31980994510895661 -0.13408045692276491 0 0.32297156368297691 -0.15191279281852399 0 0.34312821131240068 -0.1490342399984359 0 0.33587402752894302 -0.122350175475488 0 0.31980994510895661 -0.13408045692276491 0 0.34312821131240068 -0.1490342399984359 0 0.36253108037134668 -0.1248744885805331 0 0.33587402752894302 -0.122350175475488 0 0.3555623608711499 -0.1359942506039106 0 0.33587402752894302 -0.122350175475488 0 0.34312821131240068 -0.1490342399984359 0 0.3555623608711499 -0.1359942506039106 0 0.34312821131240068 -0.1490342399984359 0 0.3555623608711499 -0.1359942506039106 0 0.36858459771950869 -0.15733985743645959 0 0.3555623608711499 -0.1359942506039106 0 0.36652086356581781 -0.12946943863695781 0 0.36858459771950869 -0.15733985743645959 0 0.36652086356581781 -0.12946943863695781 0 0.36858459771950869 -0.15733985743645959 0 0.36652086356581781 -0.12946943863695781 0 0.36858459771950869 -0.15733985743645959 0 0.3787995421462832 -0.1425544525875144 0 0.36652086356581781 -0.12946943863695781 0 0.37808333446084269 -0.1309391893982525 0 0.3787995421462832 -0.1425544525875144 0 0.36253108037134668 -0.1248744885805331 0 0.36652086356581781 -0.12946943863695781 0 0.37808333446084269 -0.1309391893982525 0 0.36253108037134668 -0.1248744885805331 0 0.3555623608711499 -0.1359942506039106 0 0.36652086356581781 -0.12946943863695781 0 0.35150112372442083 -0.17432517416681301 0 0.37064833187319962 -0.1852102762359614 0 0.35587008128221181 -0.19822302573298239 0 0.35150112372442083 -0.17432517416681301 0 0.35587008128221181 -0.19822302573298239 0 0.33960500058918919 -0.18923554211963439 0 0.34312821131240068 -0.1490342399984359 0 0.35150112372442083 -0.17432517416681301 0 0.36858459771950869 -0.15733985743645959 0 0.36858459771950869 -0.15733985743645959 0 0.37064833187319962 -0.1852102762359614 0 0.35150112372442083 -0.17432517416681301 0 0.36858459771950869 -0.15733985743645959 0 0.37064833187319962 -0.1852102762359614 0 0.36858459771950869 -0.15733985743645959 0 0.37064833187319962 -0.1852102762359614 0 0.3834788620725188 -0.17954848884060079 0 0.37064833187319962 -0.1852102762359614 0 0.37271206602689039 -0.21308069503546309 0 0.38139900114097952 -0.20469292352659629 0 0.37064833187319962 -0.1852102762359614 0 0.37271206602689039 -0.21308069503546309 0 0.37064833187319962 -0.1852102762359614 0 0.37271206602689039 -0.21308069503546309 0 0.35587008128221181 -0.19822302573298239 0 0.37271206602689039 -0.21308069503546309 0 0.35603419272415182 -0.2169366224123114 0 0.35587008128221181 -0.19822302573298239 0 0.35603419272415182 -0.2169366224123114 0 0.35587008128221181 -0.19822302573298239 0 0.33592071113666833 -0.21528834051928489 0 0.35587008128221181 -0.19822302573298239 0 0.33960500058918919 -0.18923554211963439 0 0.33592071113666833 -0.21528834051928489 0 0.33960500058918919 -0.18923554211963439 0 0.33592071113666833 -0.21528834051928489 0 0.32324572338912438 -0.19644730038905581 0 0.33592071113666833 -0.21528834051928489 0 0.32324572338912438 -0.19644730038905581 0 0.33592071113666833 -0.21528834051928489 0 0.32020032842118662 -0.2136972324735969 0 0.32324572338912438 -0.19644730038905581 0 0.31045946319455608 -0.20263901644370941 0 0.32020032842118662 -0.2136972324735969 0 0.32324572338912438 -0.19644730038905581 0 0.31057073564158039 -0.17760626025882659 0 0.33960500058918919 -0.18923554211963439 0 0.32324572338912438 -0.19644730038905581 0 0.31045946319455608 -0.20263901644370941 0 0.31057073564158039 -0.17760626025882659 0 0.32324572338912438 -0.19644730038905581 0 0.32549034540926353 -0.23154497847382799 0 0.33517615116993849 -0.24743488902137309 0 0.31597462601859122 -0.25080747204364812 0 0.30588539897632072 -0.22256652654210629 0 0.32549034540926353 -0.23154497847382799 0 0.31597462601859122 -0.25080747204364812 0 0.30588539897632072 -0.22256652654210629 0 0.32020032842118662 -0.2136972324735969 0 0.32549034540926353 -0.23154497847382799 0 0.33592071113666833 -0.21528834051928489 0 0.32020032842118662 -0.2136972324735969 0 0.32549034540926353 -0.23154497847382799 0 0.33592071113666833 -0.21528834051928489 0 0.32549034540926353 -0.23154497847382799 0 0.34859569888421221 -0.23412938064951411 0 0.33592071113666833 -0.21528834051928489 0 0.34859569888421221 -0.23412938064951411 0 0.32549034540926353 -0.23154497847382799 0 0.33517615116993849 -0.24743488902137309 0 0.34859569888421221 -0.23412938064951411 0 0.33517615116993849 -0.24743488902137309 0 0.34859569888421221 -0.23412938064951411 0 0.35185333732921159 -0.25428502110151557 0 0.34859569888421221 -0.23412938064951411 0 0.36075586336603621 -0.2426037127049111 0 0.35185333732921159 -0.25428502110151557 0 0.34859569888421221 -0.23412938064951411 0 0.36291464790978972 -0.22902601310760301 0 0.36075586336603621 -0.2426037127049111 0 0.35603419272415182 -0.2169366224123114 0 0.34859569888421221 -0.23412938064951411 0 0.36291464790978972 -0.22902601310760301 0 0.35603419272415182 -0.2169366224123114 0 0.33592071113666833 -0.21528834051928489 0 0.34859569888421221 -0.23412938064951411 0 0.37271206602689039 -0.21308069503546309 0 0.35603419272415182 -0.2169366224123114 0 0.36291464790978972 -0.22902601310760301 0 0.37271206602689039 -0.21308069503546309 0 0.37477580018058132 -0.24095111383496479 0 0.37555308153547928 -0.22286467051027881 0 0.37271206602689039 -0.21308069503546309 0 0.37477580018058132 -0.24095111383496479 0 0.37271206602689039 -0.21308069503546309 0 0.36291464790978972 -0.22902601310760301 0 0.37477580018058132 -0.24095111383496479 0 0.36075586336603621 -0.2426037127049111 0 0.37477580018058132 -0.24095111383496479 0 0.36563983252638571 -0.25462703483095822 0 0.36291464790978972 -0.22902601310760301 0 0.36075586336603621 -0.2426037127049111 0 0.37477580018058132 -0.24095111383496479 0 0.37477580018058132 -0.24095111383496479 0 0.39321551516580561 -0.23618023300957031 0 0.38725375881062551 -0.25185160038302579 0 0.39321551516580561 -0.23618023300957031 0 0.41087794879613182 -0.2494957955088617 0 0.40741230325918792 -0.23450562481703699 0 0.39321551516580561 -0.23618023300957031 0 0.41087794879613182 -0.2494957955088617 0 0.39321551516580561 -0.23618023300957031 0 0.38725375881062551 -0.25185160038302579 0 0.39640803358832022 -0.25154779433757402 0 0.39321551516580561 -0.23618023300957031 0 0.41087794879613182 -0.2494957955088617 0 0.39640803358832022 -0.25154779433757402 0 0.4055308246994358 -0.22407667781788709 0 0.39424069285124719 -0.22310079746779379 0 0.40434357831770951 -0.21487406561090469 0 0.4055308246994358 -0.22407667781788709 0 0.39424069285124719 -0.22310079746779379 0 0.40741230325918792 -0.23450562481703699 0 0.39321551516580561 -0.23618023300957031 0 0.39424069285124719 -0.22310079746779379 0 0.40741230325918792 -0.23450562481703699 0 0.37477580018058132 -0.24095111383496479 0 0.39321551516580561 -0.23618023300957031 0 0.37555308153547928 -0.22286467051027881 0 0.39424069285124719 -0.22310079746779379 0 0.37555308153547928 -0.22286467051027881 0 0.38300691860546521 -0.21527996176244341 0 0.39321551516580561 -0.23618023300957031 0 0.37555308153547928 -0.22286467051027881 0 0.39321551516580561 -0.23618023300957031 0 0.39424069285124719 -0.22310079746779379 0 0.37555308153547928 -0.22286467051027881 0 0.37271206602689039 -0.21308069503546309 0 0.37555308153547928 -0.22286467051027881 0 0.38300691860546521 -0.21527996176244341 0 0.37271206602689039 -0.21308069503546309 0 0.38139900114097952 -0.20469292352659629 0 0.38300691860546521 -0.21527996176244341 0 0.38139900114097952 -0.20469292352659629 0 0.39078770323730427 -0.19674260859680251 0 0.39112975147272949 -0.2126607222720846 0 0.38139900114097952 -0.20469292352659629 0 0.38300691860546521 -0.21527996176244341 0 0.39112975147272949 -0.2126607222720846 0 0.39424069285124719 -0.22310079746779379 0 0.38300691860546521 -0.21527996176244341 0 0.39112975147272949 -0.2126607222720846 0 0.37064833187319962 -0.1852102762359614 0 0.38139900114097952 -0.20469292352659629 0 0.39078770323730427 -0.19674260859680251 0 0.39078770323730427 -0.19674260859680251 0 0.40475141021500721 -0.1910589369573561 0 0.39510197637232292 -0.1839605883432579 0 0.39078770323730427 -0.19674260859680251 0 0.40426546228868082 -0.20108352786525729 0 0.397631623829106 -0.20634023108626229 0 0.39078770323730427 -0.19674260859680251 0 0.40426546228868082 -0.20108352786525729 0 0.40475141021500721 -0.1910589369573561 0 0.39078770323730427 -0.19674260859680251 0 0.39112975147272949 -0.2126607222720846 0 0.397631623829106 -0.20634023108626229 0 0.39112975147272949 -0.2126607222720846 0 0.397631623829106 -0.20634023108626229 0 0.40434357831770951 -0.21487406561090469 0 0.39424069285124719 -0.22310079746779379 0 0.39112975147272949 -0.2126607222720846 0 0.40434357831770951 -0.21487406561090469 0 0.40426546228868082 -0.20108352786525729 0 0.397631623829106 -0.20634023108626229 0 0.40434357831770951 -0.21487406561090469 0 0.40434357831770951 -0.21487406561090469 0 0.41713092845542321 -0.20900944133272009 0 0.41612672436959858 -0.22382622337581301 0 0.40426546228868082 -0.20108352786525729 0 0.40434357831770951 -0.21487406561090469 0 0.41713092845542321 -0.20900944133272009 0 0.41713092845542321 -0.20900944133272009 0 0.42330136258736267 -0.2174116668913772 0 0.41612672436959858 -0.22382622337581301 0 0.40475141021500721 -0.1910589369573561 0 0.41487892771890261 -0.19826025474908979 0 0.4146572714410397 -0.186958864794112 0 0.40426546228868082 -0.20108352786525729 0 0.41713092845542321 -0.20900944133272009 0 0.41487892771890261 -0.19826025474908979 0 0.40426546228868082 -0.20108352786525729 0 0.40475141021500721 -0.1910589369573561 0 0.41487892771890261 -0.19826025474908979 0 0.41713092845542321 -0.20900944133272009 0 0.41487892771890261 -0.19826025474908979 0 0.42701217502226602 -0.19751647228806199 0 0.41487892771890261 -0.19826025474908979 0 0.42053294087941678 -0.1923617771039739 0 0.42701217502226602 -0.19751647228806199 0 0.42053294087941678 -0.1923617771039739 0 0.4146572714410397 -0.186958864794112 0 0.42558338933545942 -0.1867115165846317 0 0.41487892771890261 -0.19826025474908979 0 0.42053294087941678 -0.1923617771039739 0 0.4146572714410397 -0.186958864794112 0 0.42701217502226602 -0.19751647228806199 0 0.43844209377108118 -0.18689286854296691 0 0.44355474576021348 -0.2050869029196882 0 0.42053294087941678 -0.1923617771039739 0 0.42701217502226602 -0.19751647228806199 0 0.42558338933545942 -0.1867115165846317 0 0.42701217502226602 -0.19751647228806199 0 0.42558338933545942 -0.1867115165846317 0 0.43844209377108118 -0.18689286854296691 0 0.42701217502226602 -0.19751647228806199 0 0.43006687167525981 -0.21185300334864521 0 0.44355474576021348 -0.2050869029196882 0 0.41713092845542321 -0.20900944133272009 0 0.42330136258736267 -0.2174116668913772 0 0.43006687167525981 -0.21185300334864521 0 0.42330136258736267 -0.2174116668913772 0 0.43006687167525981 -0.21185300334864521 0 0.42988092584916948 -0.2249579995083304 0 0.41713092845542321 -0.20900944133272009 0 0.42701217502226602 -0.19751647228806199 0 0.43006687167525981 -0.21185300334864521 0 0.43006687167525981 -0.21185300334864521 0 0.42988092584916948 -0.2249579995083304 0 0.44009267276725389 -0.2176624614444449 0 0.42330136258736267 -0.2174116668913772 0 0.42988092584916948 -0.2249579995083304 0 0.41612672436959858 -0.22382622337581301 0 0.42988092584916948 -0.2249579995083304 0 0.43458399188612801 -0.2397076170126072 0 0.42159465327244361 -0.23640953485310751 0 0.42988092584916948 -0.2249579995083304 0 0.42159465327244361 -0.23640953485310751 0 0.41612672436959858 -0.22382622337581301 0 0.42988092584916948 -0.2249579995083304 0 0.43458399188612801 -0.2397076170126072 0 0.44416109061426973 -0.22983272991065171 0 0.43458399188612801 -0.2397076170126072 0 0.42656562700980838 -0.24831468624349931 0 0.4372088962240912 -0.25169219704383999 0 0.43458399188612801 -0.2397076170126072 0 0.42656562700980838 -0.24831468624349931 0 0.42159465327244361 -0.23640953485310751 0 0.42656562700980838 -0.24831468624349931 0 0.42159465327244361 -0.23640953485310751 0 0.41087794879613182 -0.2494957955088617 0 0.42159465327244361 -0.23640953485310751 0 0.41087794879613182 -0.2494957955088617 0 0.40741230325918792 -0.23450562481703699 0 0.4055308246994358 -0.22407667781788709 0 0.40741230325918792 -0.23450562481703699 0 0.41612672436959858 -0.22382622337581301 0 0.4055308246994358 -0.22407667781788709 0 0.40434357831770951 -0.21487406561090469 0 0.41612672436959858 -0.22382622337581301 0 0.42159465327244361 -0.23640953485310751 0 0.40741230325918792 -0.23450562481703699 0 0.41612672436959858 -0.22382622337581301 0 0.39823574772599779 -0.11763079726210079 0 0.40257569972698831 -0.13396225485532559 0 0.38918813321375051 -0.12739880168557821 0 0.40257569972698831 -0.13396225485532559 0 0.38918813321375051 -0.12739880168557821 0 0.39017348084279901 -0.13955387731924049 0 0.38918813321375051 -0.12739880168557821 0 0.37808333446084269 -0.1309391893982525 0 0.39017348084279901 -0.13955387731924049 0 0.37720890243704291 -0.12310924361699779 0 0.36253108037134668 -0.1248744885805331 0 0.38918813321375051 -0.12739880168557821 0 0.36253108037134668 -0.1248744885805331 0 0.38918813321375051 -0.12739880168557821 0 0.37808333446084269 -0.1309391893982525 0 0.36253108037134668 -0.1248744885805331 0 0.38918813321375051 -0.12739880168557821 0 0.37808333446084269 -0.1309391893982525 0 0.39017348084279901 -0.13955387731924049 0 0.3787995421462832 -0.1425544525875144 0 0.36858459771950869 -0.15733985743645959 0 0.3787995421462832 -0.1425544525875144 0 0.38535727780346091 -0.1527557998392445 0 0.39017348084279901 -0.13955387731924049 0 0.3787995421462832 -0.1425544525875144 0 0.38535727780346091 -0.1527557998392445 0 0.40257569972698831 -0.13396225485532559 0 0.39822107621443897 -0.1501202070538992 0 0.41732028123257531 -0.14286435439753159 0 0.40257569972698831 -0.13396225485532559 0 0.39017348084279901 -0.13955387731924049 0 0.39822107621443897 -0.1501202070538992 0 0.39017348084279901 -0.13955387731924049 0 0.38535727780346091 -0.1527557998392445 0 0.39822107621443897 -0.1501202070538992 0 0.39822107621443897 -0.1501202070538992 0 0.39107178753907162 -0.16851380255406381 0 0.40713652226246821 -0.16744863749245631 0 0.39107178753907162 -0.16851380255406381 0 0.40713652226246821 -0.16744863749245631 0 0.38535727780346091 -0.1527557998392445 0 0.39822107621443897 -0.1501202070538992 0 0.39107178753907162 -0.16851380255406381 0 0.39107178753907162 -0.16851380255406381 0 0.40460499843718001 -0.17902112385493851 0 0.40713652226246821 -0.16744863749245631 0 0.36858459771950869 -0.15733985743645959 0 0.38535727780346091 -0.1527557998392445 0 0.39107178753907162 -0.16851380255406381 0 0.36858459771950869 -0.15733985743645959 0 0.39107178753907162 -0.16851380255406381 0 0.3834788620725188 -0.17954848884060079 0 0.39107178753907162 -0.16851380255406381 0 0.3834788620725188 -0.17954848884060079 0 0.39510197637232292 -0.1839605883432579 0 0.39078770323730427 -0.19674260859680251 0 0.3834788620725188 -0.17954848884060079 0 0.39510197637232292 -0.1839605883432579 0 0.37064833187319962 -0.1852102762359614 0 0.39078770323730427 -0.19674260859680251 0 0.3834788620725188 -0.17954848884060079 0 0.39107178753907162 -0.16851380255406381 0 0.39510197637232292 -0.1839605883432579 0 0.40460499843718001 -0.17902112385493851 0 0.40475141021500721 -0.1910589369573561 0 0.39510197637232292 -0.1839605883432579 0 0.40460499843718001 -0.17902112385493851 0 0.40475141021500721 -0.1910589369573561 0 0.40460499843718001 -0.17902112385493851 0 0.4146572714410397 -0.186958864794112 0 0.40460499843718001 -0.17902112385493851 0 0.41491102279317088 -0.17618591298838529 0 0.4146572714410397 -0.186958864794112 0 0.40460499843718001 -0.17902112385493851 0 0.41491102279317088 -0.17618591298838529 0 0.40713652226246821 -0.16744863749245631 0 0.41491102279317088 -0.17618591298838529 0 0.42527009306055918 -0.1746571334479238 0 0.4232012569858648 -0.16638347243084889 0 0.41491102279317088 -0.17618591298838529 0 0.42095079563492938 -0.18072636251124541 0 0.42527009306055918 -0.1746571334479238 0 0.41491102279317088 -0.17618591298838529 0 0.42095079563492938 -0.18072636251124541 0 0.4146572714410397 -0.186958864794112 0 0.42095079563492938 -0.18072636251124541 0 0.4146572714410397 -0.186958864794112 0 0.42558338933545942 -0.1867115165846317 0 0.43180268423531071 -0.1802632517690351 0 0.42527009306055918 -0.1746571334479238 0 0.44880083799057491 -0.164686103644653 0 0.42095079563492938 -0.18072636251124541 0 0.42558338933545942 -0.1867115165846317 0 0.43180268423531071 -0.1802632517690351 0 0.42558338933545942 -0.1867115165846317 0 0.43180268423531071 -0.1802632517690351 0 0.43844209377108118 -0.18689286854296691 0 0.42095079563492938 -0.18072636251124541 0 0.43180268423531071 -0.1802632517690351 0 0.42527009306055918 -0.1746571334479238 0 0.42527009306055918 -0.1746571334479238 0 0.4232012569858648 -0.16638347243084889 0 0.44880083799057491 -0.164686103644653 0 0.4232012569858648 -0.16638347243084889 0 0.43334283997313311 -0.15135273030925811 0 0.44880083799057491 -0.164686103644653 0 0.4232012569858648 -0.16638347243084889 0 0.44880083799057491 -0.164686103644653 0 0.42527009306055918 -0.1746571334479238 0 0.4232012569858648 -0.16638347243084889 0 0.4232012569858648 -0.16638347243084889 0 0.40713652226246821 -0.16744863749245631 0 0.41732028123257531 -0.14286435439753159 0 0.41491102279317088 -0.17618591298838529 0 0.4232012569858648 -0.16638347243084889 0 0.40713652226246821 -0.16744863749245631 0 0.4232012569858648 -0.16638347243084889 0 0.40713652226246821 -0.16744863749245631 0 0.4232012569858648 -0.16638347243084889 0 0.41732028123257531 -0.14286435439753159 0 0.39822107621443897 -0.1501202070538992 0 0.40713652226246821 -0.16744863749245631 0 0.41732028123257531 -0.14286435439753159 0 0.41732028123257531 -0.14286435439753159 0 0.43334283997313311 -0.15135273030925811 0 0.43763345530417341 -0.13584027725706749 0 0.4232012569858648 -0.16638347243084889 0 0.41732028123257531 -0.14286435439753159 0 0.43334283997313311 -0.15135273030925811 0 0.42916935431308728 -0.1205456085246996 0 0.41732028123257531 -0.14286435439753159 0 0.43763345530417341 -0.13584027725706749 0 0.42916935431308728 -0.1205456085246996 0 0.4435038969132965 -0.12540022695152131 0 0.43763345530417341 -0.13584027725706749 0 0.41143930547928681 -0.11934523636421419 0 0.42916935431308728 -0.1205456085246996 0 0.41732028123257531 -0.14286435439753159 0 0.41143930547928681 -0.11934523636421419 0 0.40257569972698831 -0.13396225485532559 0 0.41732028123257531 -0.14286435439753159 0 0.41143930547928681 -0.11934523636421419 0 0.41732028123257531 -0.14286435439753159 0 0.46257396642688631 -0.12529077885077469 0 0.46381730130484328 -0.1363472541609663 0 0.4585659370706795 -0.1308283620105129 0 0.46381730130484328 -0.1363472541609663 0 0.4585659370706795 -0.1308283620105129 0 0.45274550479158487 -0.1345999168850856 0 0.46381730130484328 -0.1363472541609663 0 0.45274550479158487 -0.1345999168850856 0 0.46138481906560302 -0.14686228775601681 0 0.46257396642688631 -0.12529077885077469 0 0.4585659370706795 -0.1308283620105129 0 0.45239247298790419 -0.125419693033265 0 0.4585659370706795 -0.1308283620105129 0 0.45239247298790419 -0.125419693033265 0 0.45274550479158487 -0.1345999168850856 0 0.45239247298790419 -0.125419693033265 0 0.4435038969132965 -0.12540022695152131 0 0.45274550479158487 -0.1345999168850856 0 0.4435038969132965 -0.12540022695152131 0 0.43763345530417341 -0.13584027725706749 0 0.45274550479158487 -0.1345999168850856 0 0.43763345530417341 -0.13584027725706749 0 0.45274550479158487 -0.1345999168850856 0 0.44678149142501389 -0.1466682631704162 0 0.43334283997313311 -0.15135273030925811 0 0.44678149142501389 -0.1466682631704162 0 0.44880083799057491 -0.164686103644653 0 0.44678149142501389 -0.1466682631704162 0 0.46138481906560302 -0.14686228775601681 0 0.44880083799057491 -0.164686103644653 0 0.43334283997313311 -0.15135273030925811 0 0.43763345530417341 -0.13584027725706749 0 0.44678149142501389 -0.1466682631704162 0 0.45274550479158487 -0.1345999168850856 0 0.44678149142501389 -0.1466682631704162 0 0.46138481906560302 -0.14686228775601681 0 0.46138481906560302 -0.14686228775601681 0 0.44880083799057491 -0.164686103644653 0 0.47440041899528501 -0.16298873485845719 0 0.44880083799057491 -0.164686103644653 0 0.46834799031954211 -0.17915452781490099 0 0.47440041899528501 -0.16298873485845719 0 0.44880083799057491 -0.164686103644653 0 0.47440041899528501 -0.16298873485845719 0 0.43180268423531071 -0.1802632517690351 0 0.44880083799057491 -0.164686103644653 0 0.43844209377108118 -0.18689286854296691 0 0.44880083799057491 -0.164686103644653 0 0.43844209377108118 -0.18689286854296691 0 0.45508032593701309 -0.1914137801830845 0 0.44880083799057491 -0.164686103644653 0 0.46834799031954211 -0.17915452781490099 0 0.45508032593701309 -0.1914137801830845 0 0.46834799031954211 -0.17915452781490099 0 0.48419704391512092 -0.17843144908975531 0 0.47440041899528501 -0.16298873485845719 0 0.46834799031954211 -0.17915452781490099 0 0.48419704391512092 -0.17843144908975531 0 0.47823681026078202 -0.19812675643970101 0 0.48419704391512092 -0.17843144908975531 0 0.49999999999999523 -0.16129136607226169 0 0.5 -0.1905958602634561 0 0.49999999999999523 -0.16129136607226169 0 0.47440041899528501 -0.16298873485845719 0 0.50000000000000067 -0.1547763741112759 0 0.48419704391512092 -0.17843144908975531 0 0.49999999999999523 -0.16129136607226169 0 0.47440041899528501 -0.16298873485845719 0 0.49999999999999523 -0.16129136607226169 0 0.47440041899528501 -0.16298873485845719 0 0.46138481906560302 -0.14686228775601681 0 0.47440041899528501 -0.16298873485845719 0 0.48128698321344371 -0.14003357648102521 0 0.46381730130484328 -0.1363472541609663 0 0.46138481906560302 -0.14686228775601681 0 0.48128698321344371 -0.14003357648102521 0 0.50000000000000067 -0.1547763741112759 0 0.48128698321344371 -0.14003357648102521 0 0.50000000000000067 -0.1547763741112759 0 0.5 -0.13349841451636779 0 0.48128698321344371 -0.14003357648102521 0 0.47440041899528501 -0.16298873485845719 0 0.50000000000000067 -0.1547763741112759 0 0.48128698321344371 -0.14003357648102521 0 0.48087269318342413 -0.1216818802472065 0 0.5 -0.13349841451636779 0 0.48128698321344371 -0.14003357648102521 0 0.46257396642688631 -0.12529077885077469 0 0.48128698321344371 -0.14003357648102521 0 0.46257396642688631 -0.12529077885077469 0 0.46381730130484328 -0.1363472541609663 0 0.48128698321344371 -0.14003357648102521 0 0.47129126618897188 -0.1223351355815797 0 0.48087269318342413 -0.1216818802472065 0 0.48128698321344371 -0.14003357648102521 0 0.47129126618897188 -0.1223351355815797 0 0.46257396642688631 -0.12529077885077469 0 0.48128698321344371 -0.14003357648102521 0 0.46029750420545162 -0.23134667767863379 0 0.45079963313025367 -0.219495204315066 0 0.46126535540865482 -0.21094244298034759 0 0.46029750420545162 -0.23134667767863379 0 0.46126535540865482 -0.21094244298034759 0 0.47937109712497578 -0.22608105856418539 0 0.46029750420545162 -0.23134667767863379 0 0.44856132313442931 -0.24393079079591279 0 0.47387431588802909 -0.25499376211151131 0 0.46029750420545162 -0.23134667767863379 0 0.44856132313442931 -0.24393079079591279 0 0.44416109061426973 -0.22983272991065171 0 0.43458399188612801 -0.2397076170126072 0 0.44856132313442931 -0.24393079079591279 0 0.4372088962240912 -0.25169219704383999 0 0.43458399188612801 -0.2397076170126072 0 0.44856132313442931 -0.24393079079591279 0 0.44416109061426973 -0.22983272991065171 0 0.46029750420545162 -0.23134667767863379 0 0.44416109061426973 -0.22983272991065171 0 0.45079963313025367 -0.219495204315066 0 0.44416109061426973 -0.22983272991065171 0 0.45079963313025367 -0.219495204315066 0 0.44009267276725389 -0.2176624614444449 0 0.42988092584916948 -0.2249579995083304 0 0.44416109061426973 -0.22983272991065171 0 0.44009267276725389 -0.2176624614444449 0 0.45079963313025367 -0.219495204315066 0 0.44355474576021348 -0.2050869029196882 0 0.46126535540865482 -0.21094244298034759 0 0.43006687167525981 -0.21185300334864521 0 0.44009267276725389 -0.2176624614444449 0 0.44355474576021348 -0.2050869029196882 0 0.45079963313025367 -0.219495204315066 0 0.44009267276725389 -0.2176624614444449 0 0.44355474576021348 -0.2050869029196882 0 0.43844209377108118 -0.18689286854296691 0 0.44355474576021348 -0.2050869029196882 0 0.45508032593701309 -0.1914137801830845 0 0.46834799031954211 -0.17915452781490099 0 0.45508032593701309 -0.1914137801830845 0 0.47823681026078202 -0.19812675643970101 0 0.44355474576021348 -0.2050869029196882 0 0.45508032593701309 -0.1914137801830845 0 0.46126535540865482 -0.21094244298034759 0 0.45508032593701309 -0.1914137801830845 0 0.46126535540865482 -0.21094244298034759 0 0.47823681026078202 -0.19812675643970101 0 0.46126535540865482 -0.21094244298034759 0 0.47823681026078202 -0.19812675643970101 0 0.47937109712497578 -0.22608105856418539 0 0.48419704391512092 -0.17843144908975531 0 0.47823681026078202 -0.19812675643970101 0 0.5 -0.1905958602634561 0 0.47823681026078202 -0.19812675643970101 0 0.5 -0.1905958602634561 0 0.5 -0.21990035445465039 0 0.47823681026078202 -0.19812675643970101 0 0.5 -0.21990035445465039 0 0.47937109712497578 -0.22608105856418539 0 0.5 -0.21990035445465039 0 0.47937109712497578 -0.22608105856418539 0 0.50000000000000444 -0.24920484864584491 0 0.46029750420545162 -0.23134667767863379 0 0.47937109712497578 -0.22608105856418539 0 0.47387431588802909 -0.25499376211151131 0 0.47937109712497578 -0.22608105856418539 0 0.50000000000000444 -0.24920484864584491 0 0.47387431588802909 -0.25499376211151131 0 0.50000000000000444 -0.24920484864584491 0 0.4915669900217115 -0.25615479242606781 0 0.5 -0.27170772691138367 0 0.50000000000000444 -0.24920484864584491 0 0.4915669900217115 -0.25615479242606781 0 0.47387431588802909 -0.25499376211151131 0 0.50000000000000444 -0.24920484864584491 0 0.47387431588802909 -0.25499376211151131 0 0.4915669900217115 -0.25615479242606781 0 0.48280749151585822 -0.27129304150170008 0 0.47954864786353962 -0.26301133191085868 0 0.4915669900217115 -0.25615479242606781 0 0.5 -0.27170772691138367 0 0.48280749151585822 -0.27129304150170008 0 0.5 -0.27170772691138367 0 0.48280749151585822 -0.27129304150170008 0 0.48951500520952212 -0.28458010338455908 0 0.48280749151585822 -0.27129304150170008 0 0.47474596181800061 -0.28621450290334632 0 0.48951500520952212 -0.28458010338455908 0 0.48280749151585822 -0.27129304150170008 0 0.47416229901770612 -0.26612875971404459 0 0.47954864786353962 -0.26301133191085868 0 0.48280749151585822 -0.27129304150170008 0 0.47416229901770612 -0.26612875971404459 0 0.47052118473631321 -0.27447720361836658 0 0.47416229901770612 -0.26612875971404459 0 0.47052118473631321 -0.27447720361836658 0 0.46319689217890331 -0.26835660325056299 0 0.48280749151585822 -0.27129304150170008 0 0.47052118473631321 -0.27447720361836658 0 0.47474596181800061 -0.28621450290334632 0 0.4915669900217115 -0.25615479242606781 0 0.46965781089888248 -0.25846873400162218 0 0.4915669900217115 -0.25615479242606781 0 0.47387431588802909 -0.25499376211151131 0 0.46965781089888248 -0.25846873400162218 0 0.4915669900217115 -0.25615479242606781 0 0.47954864786353962 -0.26301133191085868 0 0.46965781089888248 -0.25846873400162218 0 0.47416229901770612 -0.26612875971404459 0 0.47954864786353962 -0.26301133191085868 0 0.46965781089888248 -0.25846873400162218 0 0.47416229901770612 -0.26612875971404459 0 0.46965781089888248 -0.25846873400162218 0 0.46319689217890331 -0.26835660325056299 0 0.46965781089888248 -0.25846873400162218 0 0.46319689217890331 -0.26835660325056299 0 0.4477486317760534 -0.26078267557717671 0 0.44856132313442931 -0.24393079079591279 0 0.47387431588802909 -0.25499376211151131 0 0.4477486317760534 -0.26078267557717671 0 0.47387431588802909 -0.25499376211151131 0 0.4477486317760534 -0.26078267557717671 0 0.46965781089888248 -0.25846873400162218 0 0.4477486317760534 -0.26078267557717671 0 0.47387431588802909 -0.25499376211151131 0 0.46965781089888248 -0.25846873400162218 0 0.4477486317760534 -0.26078267557717671 0 0.47052118473631321 -0.27447720361836658 0 0.45389453446556111 -0.28192564334160541 0 0.47474596181800061 -0.28621450290334632 0 0.47052118473631321 -0.27447720361836658 0 0.46319689217890331 -0.26835660325056299 0 0.45389453446556111 -0.28192564334160541 0 0.46319689217890331 -0.26835660325056299 0 0.4477486317760534 -0.26078267557717671 0 0.45389453446556111 -0.28192564334160541 0 0.45389453446556111 -0.28192564334160541 0 0.430823863629894 -0.26453285558412298 0 0.45389453446556111 -0.28192564334160541 0 0.430823863629894 -0.26453285558412298 0 0.43570592202634773 -0.28205449164250063 0 0.4477486317760534 -0.26078267557717671 0 0.45389453446556111 -0.28192564334160541 0 0.430823863629894 -0.26453285558412298 0 0.4477486317760534 -0.26078267557717671 0 0.42854038242645709 -0.26281135800815408 0 0.44856132313442931 -0.24393079079591279 0 0.4477486317760534 -0.26078267557717671 0 0.4372088962240912 -0.25169219704383999 0 0.4477486317760534 -0.26078267557717671 0 0.42854038242645709 -0.26281135800815408 0 0.4372088962240912 -0.25169219704383999 0 0.4477486317760534 -0.26078267557717671 0 0.430823863629894 -0.26453285558412298 0 0.44815314542162782 -0.30273998798419938 0 0.44271266904340639 -0.31513600928105973 0 0.43092107089682352 -0.30573631325696571 0 0.44815314542162782 -0.30273998798419938 0 0.43874415768382158 -0.29310671547163403 0 0.43092107089682352 -0.30573631325696571 0 0.43874415768382158 -0.29310671547163403 0 0.45389453446556111 -0.28192564334160541 0 0.43570592202634773 -0.28205449164250063 0 0.44815314542162782 -0.30273998798419938 0 0.43874415768382158 -0.29310671547163403 0 0.45389453446556111 -0.28192564334160541 0 0.45389453446556111 -0.28192564334160541 0 0.46668010371271101 -0.29937682325086112 0 0.47474596181800061 -0.28621450290334632 0 0.44815314542162782 -0.30273998798419938 0 0.45389453446556111 -0.28192564334160541 0 0.46668010371271101 -0.29937682325086112 0 0.46668010371271101 -0.29937682325086112 0 0.45907432653114449 -0.32014896664993769 0 0.44815314542162782 -0.30273998798419938 0 0.46668010371271101 -0.29937682325086112 0 0.45907432653114449 -0.32014896664993769 0 0.46668010371271101 -0.29937682325086112 0 0.48375110351916628 -0.30725513966339157 0 0.45907432653114449 -0.32014896664993769 0 0.46668010371271101 -0.29937682325086112 0 0.48375110351916628 -0.30725513966339157 0 0.47474596181800061 -0.28621450290334632 0 0.48375110351916628 -0.30725513966339157 0 0.47474596181800061 -0.28621450290334632 0 0.48951500520952212 -0.28458010338455908 0 0.48375110351916628 -0.30725513966339157 0 0.5 -0.29421060517692271 0 0.48951500520952212 -0.28458010338455908 0 0.5 -0.27170772691138367 0 0.5 -0.29421060517692271 0 0.48951500520952212 -0.28458010338455908 0 0.48375110351916628 -0.30725513966339157 0 0.5 -0.29421060517692271 0 0.49999999999999972 -0.31671348344246159 0 0.48375110351916628 -0.30725513966339157 0 0.49999999999999972 -0.31671348344246159 0 0.48658745812515303 -0.32591538654610069 0 0.49999999999999972 -0.31671348344246159 0 0.49107839048707969 -0.33844651150006611 0 0.49999999999999972 -0.31671348344246159 0 0.48658745812515303 -0.32591538654610069 0 0.49107839048707969 -0.33844651150006611 0 0.49999999999999972 -0.31671348344246159 0 0.5 -0.34354646621870782 0 0.49107839048707969 -0.33844651150006611 0 0.48658745812515303 -0.32591538654610069 0 0.49107839048707969 -0.33844651150006611 0 0.48013111160135669 -0.33592777501669763 0 0.48658745812515303 -0.32591538654610069 0 0.48013111160135669 -0.33592777501669763 0 0.47588582758327369 -0.32632043512378739 0 0.48013111160135669 -0.33592777501669763 0 0.46883970942210401 -0.33989811375075968 0 0.47588582758327369 -0.32632043512378739 0 0.48375110351916628 -0.30725513966339157 0 0.48658745812515303 -0.32591538654610069 0 0.47588582758327369 -0.32632043512378739 0 0.48375110351916628 -0.30725513966339157 0 0.47588582758327369 -0.32632043512378739 0 0.45907432653114449 -0.32014896664993769 0 0.5 -0.37037944899495368 0 0.48466784746851571 -0.3739080713738358 0 0.48215678097416009 -0.36017953955767068 0 0.5 -0.34354646621870782 0 0.49107839048707969 -0.33844651150006611 0 0.48215678097416009 -0.36017953955767068 0 0.49107839048707969 -0.33844651150006611 0 0.48013111160135669 -0.33592777501669763 0 0.48215678097416009 -0.36017953955767068 0 0.5 -0.34354646621870782 0 0.5 -0.37037944899495368 0 0.48215678097416009 -0.36017953955767068 0 0.49107839048707969 -0.33844651150006611 0 0.48215678097416009 -0.36017953955767068 0 0.48013111160135669 -0.33592777501669763 0 0.46883970942210401 -0.33989811375075968 0 0.48215678097416009 -0.36017953955767068 0 0.46883970942210401 -0.33989811375075968 0 0.48215678097416009 -0.36017953955767068 0 0.46166172922915721 -0.35810144835948332 0 0.48215678097416009 -0.36017953955767068 0 0.47323517146124039 -0.38191256761527542 0 0.48215678097416009 -0.36017953955767068 0 0.4671179630262795 -0.37324494563770522 0 0.47323517146124039 -0.38191256761527542 0 0.48466784746851571 -0.3739080713738358 0 0.48215678097416009 -0.36017953955767068 0 0.47323517146124039 -0.38191256761527542 0 0.48215678097416009 -0.36017953955767068 0 0.4671179630262795 -0.37324494563770522 0 0.46166172922915721 -0.35810144835948332 0 0.45652460043480969 -0.37267172771365881 0 0.46166172922915721 -0.35810144835948332 0 0.44386277216801179 -0.36169325344809122 0 0.45652460043480969 -0.37267172771365881 0 0.4671179630262795 -0.37324494563770522 0 0.46166172922915721 -0.35810144835948332 0 0.46883970942210401 -0.33989811375075968 0 0.46166172922915721 -0.35810144835948332 0 0.45146854934957792 -0.34092111004901438 0 0.43963091224731599 -0.34751792105314822 0 0.44386277216801179 -0.36169325344809122 0 0.45146854934957792 -0.34092111004901438 0 0.44386277216801179 -0.36169325344809122 0 0.45146854934957792 -0.34092111004901438 0 0.46166172922915721 -0.35810144835948332 0 0.44386277216801179 -0.36169325344809122 0 0.45146854934957792 -0.34092111004901438 0 0.44386277216801179 -0.36169325344809122 0 0.43376943787959182 -0.36708850497004442 0 0.43808065797110041 -0.37748478958974491 0 0.45652460043480969 -0.37267172771365881 0 0.44386277216801179 -0.36169325344809122 0 0.44783900322824399 -0.38008781189722518 0 0.44386277216801179 -0.36169325344809122 0 0.43808065797110041 -0.37748478958974491 0 0.44386277216801179 -0.36169325344809122 0 0.43808065797110041 -0.37748478958974491 0 0.44783900322824399 -0.38008781189722518 0 0.45652460043480969 -0.37267172771365881 0 0.44386277216801179 -0.36169325344809122 0 0.46883970942210401 -0.33989811375075968 0 0.45907432653114449 -0.32014896664993769 0 0.45146854934957792 -0.34092111004901438 0 0.45907432653114449 -0.32014896664993769 0 0.45146854934957792 -0.34092111004901438 0 0.46883970942210401 -0.33989811375075968 0 0.47588582758327369 -0.32632043512378739 0 0.45907432653114449 -0.32014896664993769 0 0.43963091224731599 -0.34751792105314822 0 0.45146854934957792 -0.34092111004901438 0 0.43565299676263758 -0.3352386806192425 0 0.45146854934957792 -0.34092111004901438 0 0.44493724809618768 -0.32603283426431229 0 0.43565299676263758 -0.3352386806192425 0 0.45907432653114449 -0.32014896664993769 0 0.45146854934957792 -0.34092111004901438 0 0.44493724809618768 -0.32603283426431229 0 0.45907432653114449 -0.32014896664993769 0 0.44493724809618768 -0.32603283426431229 0 0.44271266904340639 -0.31513600928105973 0 0.44493724809618768 -0.32603283426431229 0 0.44271266904340639 -0.31513600928105973 0 0.43047755427124879 -0.32102194424988317 0 0.44815314542162782 -0.30273998798419938 0 0.45907432653114449 -0.32014896664993769 0 0.44271266904340639 -0.31513600928105973 0 0.44271266904340639 -0.31513600928105973 0 0.43047755427124879 -0.32102194424988317 0 0.43092107089682352 -0.30573631325696571 0 0.43047755427124879 -0.32102194424988317 0 0.41919911313656122 -0.31385112706466711 0 0.41739686236043672 -0.32199345155319897 0 0.43047755427124879 -0.32102194424988317 0 0.41919911313656122 -0.31385112706466711 0 0.43092107089682352 -0.30573631325696571 0 0.43047755427124879 -0.32102194424988317 0 0.42053718701310799 -0.32957674384091618 0 0.41739686236043672 -0.32199345155319897 0 0.44493724809618768 -0.32603283426431229 0 0.43047755427124879 -0.32102194424988317 0 0.43565299676263758 -0.3352386806192425 0 0.43565299676263758 -0.3352386806192425 0 0.42053718701310799 -0.32957674384091618 0 0.4250793590774925 -0.34540704162396091 0 0.43963091224731599 -0.34751792105314822 0 0.43565299676263758 -0.3352386806192425 0 0.4250793590774925 -0.34540704162396091 0 0.43047755427124879 -0.32102194424988317 0 0.43565299676263758 -0.3352386806192425 0 0.42053718701310799 -0.32957674384091618 0 0.4062959459869725 -0.32912082979983148 0 0.4250793590774925 -0.34540704162396091 0 0.41055923831377589 -0.34398547157316572 0 0.42053718701310799 -0.32957674384091618 0 0.4062959459869725 -0.32912082979983148 0 0.4250793590774925 -0.34540704162396091 0 0.4062959459869725 -0.32912082979983148 0 0.4250793590774925 -0.34540704162396091 0 0.42053718701310799 -0.32957674384091618 0 0.4062959459869725 -0.32912082979983148 0 0.40802480504278882 -0.32457497099322458 0 0.4062959459869725 -0.32912082979983148 0 0.40802480504278882 -0.32457497099322458 0 0.4062959459869725 -0.32912082979983148 0 0.40802480504278882 -0.32457497099322458 0 0.40572459905769331 -0.31910551143285631 0 0.40802480504278882 -0.32457497099322458 0 0.4119015194344513 -0.31818912214386269 0 0.41739686236043672 -0.32199345155319897 0 0.40802480504278882 -0.32457497099322458 0 0.4119015194344513 -0.31818912214386269 0 0.40572459905769331 -0.31910551143285631 0 0.4119015194344513 -0.31818912214386269 0 0.41919911313656122 -0.31385112706466711 0 0.40916221757477672 -0.31142054967536659 0 0.4119015194344513 -0.31818912214386269 0 0.40572459905769331 -0.31910551143285631 0 0.40916221757477672 -0.31142054967536659 0 0.4119015194344513 -0.31818912214386269 0 0.41919911313656122 -0.31385112706466711 0 0.41739686236043672 -0.32199345155319897 0 0.42053718701310799 -0.32957674384091618 0 0.40802480504278882 -0.32457497099322458 0 0.41739686236043672 -0.32199345155319897 0 0.44386277216801179 -0.36169325344809122 0 0.43376943787959182 -0.36708850497004442 0 0.42728564025893462 -0.35958684797927032 0 0.42489657602010461 -0.37065940299189432 0 0.43376943787959182 -0.36708850497004442 0 0.43808065797110041 -0.37748478958974491 0 0.42489657602010461 -0.37065940299189432 0 0.43376943787959182 -0.36708850497004442 0 0.42728564025893462 -0.35958684797927032 0 0.44386277216801179 -0.36169325344809122 0 0.4250793590774925 -0.34540704162396091 0 0.43963091224731599 -0.34751792105314822 0 0.44386277216801179 -0.36169325344809122 0 0.4250793590774925 -0.34540704162396091 0 0.44386277216801179 -0.36169325344809122 0 0.42728564025893462 -0.35958684797927032 0 0.4250793590774925 -0.34540704162396091 0 0.42728564025893462 -0.35958684797927032 0 0.4250793590774925 -0.34540704162396091 0 0.41069622259092692 -0.35617360609135817 0 0.4250793590774925 -0.34540704162396091 0 0.41055923831377589 -0.34398547157316572 0 0.41069622259092692 -0.35617360609135817 0 0.41055923831377589 -0.34398547157316572 0 0.41069622259092692 -0.35617360609135817 0 0.40016542559971202 -0.34524040877751239 0 0.42489657602010461 -0.37065940299189432 0 0.42728564025893462 -0.35958684797927032 0 0.41069622259092692 -0.35617360609135817 0 0.42489657602010461 -0.37065940299189432 0 0.41069622259092692 -0.35617360609135817 0 0.4070765621089808 -0.37107032214525337 0 0.42489657602010461 -0.37065940299189432 0 0.41069622259092692 -0.35617360609135817 0 0.39585190457779329 -0.37201308858561799 0 0.3940349052124521 -0.36135998775519362 0 0.38601585554704992 -0.38244526212700758 0 0.41069622259092692 -0.35617360609135817 0 0.4070765621089808 -0.37107032214525337 0 0.3940349052124521 -0.36135998775519362 0 0.4070765621089808 -0.37107032214525337 0 0.39585190457779329 -0.37201308858561799 0 0.3940349052124521 -0.36135998775519362 0 0.39585190457779329 -0.37201308858561799 0 0.3940349052124521 -0.36135998775519362 0 0.3940349052124521 -0.36135998775519362 0 0.40016542559971202 -0.34524040877751239 0 0.38974443050024338 -0.33620485529262373 0 0.3940349052124521 -0.36135998775519362 0 0.38974443050024338 -0.33620485529262373 0 0.3940349052124521 -0.36135998775519362 0 0.40016542559971202 -0.34524040877751239 0 0.41069622259092692 -0.35617360609135817 0 0.3940349052124521 -0.36135998775519362 0 0.40016542559971202 -0.34524040877751239 0 0.3940349052124521 -0.36135998775519362 0 0.38974443050024338 -0.33620485529262373 0 0.37368731816096312 -0.34897020548070451 0 0.3940349052124521 -0.36135998775519362 0 0.38601585554704992 -0.38244526212700758 0 0.3940349052124521 -0.36135998775519362 0 0.38601585554704992 -0.38244526212700758 0 0.3689120952668708 -0.37284951495870189 0 0.3940349052124521 -0.36135998775519362 0 0.3689120952668708 -0.37284951495870189 0 0.37368731816096312 -0.34897020548070451 0 0.4062959459869725 -0.32912082979983148 0 0.40572459905769331 -0.31910551143285631 0 0.39816778062817881 -0.31191488097197773 0 0.4062959459869725 -0.32912082979983148 0 0.38974443050024338 -0.33620485529262373 0 0.38545395578803499 -0.31104972283005378 0 0.4062959459869725 -0.32912082979983148 0 0.38545395578803499 -0.31104972283005378 0 0.4062959459869725 -0.32912082979983148 0 0.38545395578803499 -0.31104972283005378 0 0.39816778062817881 -0.31191488097197773 0 0.40572459905769331 -0.31910551143285631 0 0.39816778062817881 -0.31191488097197773 0 0.40916221757477672 -0.31142054967536659 0 0.4062959459869725 -0.32912082979983148 0 0.40016542559971202 -0.34524040877751239 0 0.38974443050024338 -0.33620485529262373 0 0.4062959459869725 -0.32912082979983148 0 0.40016542559971202 -0.34524040877751239 0 0.4062959459869725 -0.32912082979983148 0 0.41055923831377589 -0.34398547157316572 0 0.40016542559971202 -0.34524040877751239 0 0.38974443050024338 -0.33620485529262373 0 0.36945761595668469 -0.32738841673247931 0 0.37368731816096312 -0.34897020548070451 0 0.38974443050024338 -0.33620485529262373 0 0.38545395578803499 -0.31104972283005378 0 0.36945761595668469 -0.32738841673247931 0 0.38974443050024338 -0.33620485529262373 0 0.38545395578803499 -0.31104972283005378 0 0.38545395578803499 -0.31104972283005378 0 0.38245755150739558 -0.29348174920317632 0 0.37101427446782781 -0.29852975601036341 0 0.38545395578803499 -0.31104972283005378 0 0.38245755150739558 -0.29348174920317632 0 0.38545395578803499 -0.31104972283005378 0 0.37101427446782781 -0.29852975601036341 0 0.38545395578803499 -0.31104972283005378 0 0.39567659353887108 -0.29306988619604551 0 0.38245755150739558 -0.29348174920317632 0 0.39816778062817881 -0.31191488097197773 0 0.40563314249086863 -0.30155395497769039 0 0.39567659353887108 -0.29306988619604551 0 0.38545395578803499 -0.31104972283005378 0 0.39816778062817881 -0.31191488097197773 0 0.39567659353887108 -0.29306988619604551 0 0.39816778062817881 -0.31191488097197773 0 0.40563314249086863 -0.30155395497769039 0 0.40916221757477672 -0.31142054967536659 0 0.39567659353887108 -0.29306988619604551 0 0.40514250542832608 -0.27022331558021301 0 0.41160024963212011 -0.28933460066763711 0 0.40563314249086863 -0.30155395497769039 0 0.39567659353887108 -0.29306988619604551 0 0.41160024963212011 -0.28933460066763711 0 0.38245755150739558 -0.29348174920317632 0 0.37946114722675722 -0.27591377557629859 0 0.39567659353887108 -0.29306988619604551 0 0.38245755150739558 -0.29348174920317632 0 0.37946114722675722 -0.27591377557629859 0 0.38245755150739558 -0.29348174920317632 0 0.37795999762798671 -0.28395322059410122 0 0.37946114722675722 -0.27591377557629859 0 0.37519981906117678 -0.29055939022370142 0 0.38245755150739558 -0.29348174920317632 0 0.37101427446782781 -0.29852975601036341 0 0.37519981906117678 -0.29055939022370142 0 0.38245755150739558 -0.29348174920317632 0 0.37795999762798671 -0.28395322059410122 0 0.37795999762798671 -0.28395322059410122 0 0.37946114722675722 -0.27591377557629859 0 0.37739853904771847 -0.27637080706343392 0 0.37739853904771847 -0.27637080706343392 0 0.37683953433427181 -0.26882153263446662 0 0.37273728942595791 -0.27740364396778311 0 0.37795999762798671 -0.28395322059410122 0 0.37739853904771847 -0.27637080706343392 0 0.37273728942595791 -0.27740364396778311 0 0.37946114722675722 -0.27591377557629859 0 0.38774772661347989 -0.26664574742688191 0 0.3964002279028962 -0.26984905957103239 0 0.37946114722675722 -0.27591377557629859 0 0.3964002279028962 -0.26984905957103239 0 0.37795999762798671 -0.28395322059410122 0 0.37739853904771847 -0.27637080706343392 0 0.37739853904771847 -0.27637080706343392 0 0.37273728942595791 -0.27740364396778311 0 0.37946114722675722 -0.27591377557629859 0 0.37739853904771847 -0.27637080706343392 0 0.37683953433427181 -0.26882153263446662 0 0.37946114722675722 -0.27591377557629859 0 0.37739853904771847 -0.27637080706343392 0 0.37946114722675722 -0.27591377557629859 0 0.37843581040967561 -0.26746760801825881 0 0.38284686623937531 -0.26497045393317709 0 0.37946114722675722 -0.27591377557629859 0 0.37683953433427181 -0.26882153263446662 0 0.37843581040967561 -0.26746760801825881 0 0.37739853904771847 -0.27637080706343392 0 0.37683953433427181 -0.26882153263446662 0 0.37683953433427181 -0.26882153263446662 0 0.37843581040967561 -0.26746760801825881 0 0.37946114722675722 -0.27591377557629859 0 0.38774772661347989 -0.26664574742688191 0 0.38284686623937531 -0.26497045393317709 0 0.37477580018058132 -0.24095111383496479 0 0.37683953433427181 -0.26882153263446662 0 0.38107906364546162 -0.25934379353391329 0 0.37477580018058132 -0.24095111383496479 0 0.37683953433427181 -0.26882153263446662 0 0.37477580018058132 -0.24095111383496479 0 0.38107906364546162 -0.25934379353391329 0 0.38725375881062551 -0.25185160038302579 0 0.37843581040967561 -0.26746760801825881 0 0.38107906364546162 -0.25934379353391329 0 0.38284686623937531 -0.26497045393317709 0 0.37683953433427181 -0.26882153263446662 0 0.37843581040967561 -0.26746760801825881 0 0.38107906364546162 -0.25934379353391329 0 0.38107906364546162 -0.25934379353391329 0 0.38632261189823958 -0.26200045239958702 0 0.38284686623937531 -0.26497045393317709 0 0.38774772661347989 -0.26664574742688191 0 0.38632261189823958 -0.26200045239958702 0 0.38284686623937531 -0.26497045393317709 0 0.38774772661347989 -0.26664574742688191 0 0.38955528694719099 -0.2630172622662057 0 0.39295554709344072 -0.26445586107842978 0 0.38774772661347989 -0.26664574742688191 0 0.38632261189823958 -0.26200045239958702 0 0.38955528694719099 -0.2630172622662057 0 0.38632261189823958 -0.26200045239958702 0 0.38955528694719099 -0.2630172622662057 0 0.39119526218360401 -0.25896698815992442 0 0.38632261189823958 -0.26200045239958702 0 0.38725375881062551 -0.25185160038302579 0 0.39119526218360401 -0.25896698815992442 0 0.38107906364546162 -0.25934379353391329 0 0.38632261189823958 -0.26200045239958702 0 0.38725375881062551 -0.25185160038302579 0 0.40314688718896508 -0.2619981766022052 0 0.39707581272688741 -0.26613449373937459 0 0.41345304600685079 -0.26440480953867462 0 0.39707581272688741 -0.26613449373937459 0 0.41345304600685079 -0.26440480953867462 0 0.38725375881062551 -0.25185160038302579 0 0.39640803358832022 -0.25154779433757402 0 0.39119526218360401 -0.25896698815992442 0 0.39640803358832022 -0.25154779433757402 0 0.39702034872720737 -0.26014738253762237 0 0.39119526218360401 -0.25896698815992442 0 0.39702034872720737 -0.26014738253762237 0 0.39119526218360401 -0.25896698815992442 0 0.39295554709344072 -0.26445586107842978 0 0.38955528694719099 -0.2630172622662057 0 0.39119526218360401 -0.25896698815992442 0 0.39295554709344072 -0.26445586107842978 0 0.39702034872720737 -0.26014738253762237 0 0.39295554709344072 -0.26445586107842978 0 0.39707581272688741 -0.26613449373937459 0 0.39702034872720737 -0.26014738253762237 0 0.40314688718896508 -0.2619981766022052 0 0.39707581272688741 -0.26613449373937459 0 0.40314688718896508 -0.2619981766022052 0 0.40257909468765629 -0.25704117102420471 0 0.40998094690083942 -0.2590606397541646 0 0.39702034872720737 -0.26014738253762237 0 0.40314688718896508 -0.2619981766022052 0 0.40257909468765629 -0.25704117102420471 0 0.39640803358832022 -0.25154779433757402 0 0.39702034872720737 -0.26014738253762237 0 0.40257909468765629 -0.25704117102420471 0 0.41087794879613182 -0.2494957955088617 0 0.39640803358832022 -0.25154779433757402 0 0.40257909468765629 -0.25704117102420471 0 0.40514250542832608 -0.27022331558021301 0 0.3964002279028962 -0.26984905957103239 0 0.41345304600685079 -0.26440480953867462 0 0.37946114722675722 -0.27591377557629859 0 0.40514250542832608 -0.27022331558021301 0 0.3964002279028962 -0.26984905957103239 0 0.39707581272688741 -0.26613449373937459 0 0.3964002279028962 -0.26984905957103239 0 0.41345304600685079 -0.26440480953867462 0 0.37946114722675722 -0.27591377557629859 0 0.40514250542832608 -0.27022331558021301 0 0.3964002279028962 -0.26984905957103239 0 0.41345304600685079 -0.26440480953867462 0 0.39567659353887108 -0.29306988619604551 0 0.37946114722675722 -0.27591377557629859 0 0.40514250542832608 -0.27022331558021301 0 0.38774772661347989 -0.26664574742688191 0 0.39295554709344072 -0.26445586107842978 0 0.3964002279028962 -0.26984905957103239 0 0.39295554709344072 -0.26445586107842978 0 0.39707581272688741 -0.26613449373937459 0 0.3964002279028962 -0.26984905957103239 0 0.40514250542832608 -0.27022331558021301 0 0.41345304600685079 -0.26440480953867462 0 0.430823863629894 -0.26453285558412298 0 0.40514250542832608 -0.27022331558021301 0 0.430823863629894 -0.26453285558412298 0 0.40514250542832608 -0.27022331558021301 0 0.42166373126508722 -0.27984448092147479 0 0.41160024963212011 -0.28933460066763711 0 0.40514250542832608 -0.27022331558021301 0 0.42166373126508722 -0.27984448092147479 0 0.430823863629894 -0.26453285558412298 0 0.41087794879613182 -0.2494957955088617 0 0.41984775782459283 -0.2623632460968765 0 0.42854038242645709 -0.26281135800815408 0 0.41087794879613182 -0.2494957955088617 0 0.42854038242645709 -0.26281135800815408 0 0.41087794879613182 -0.2494957955088617 0 0.40257909468765629 -0.25704117102420471 0 0.40998094690083942 -0.2590606397541646 0 0.41087794879613182 -0.2494957955088617 0 0.40998094690083942 -0.2590606397541646 0 0.41984775782459283 -0.2623632460968765 0 0.40314688718896508 -0.2619981766022052 0 0.40998094690083942 -0.2590606397541646 0 0.41345304600685079 -0.26440480953867462 0 0.41345304600685079 -0.26440480953867462 0 0.41984775782459283 -0.2623632460968765 0 0.42854038242645709 -0.26281135800815408 0 0.40998094690083942 -0.2590606397541646 0 0.41345304600685079 -0.26440480953867462 0 0.41984775782459283 -0.2623632460968765 0 0.41345304600685079 -0.26440480953867462 0 0.42854038242645709 -0.26281135800815408 0 0.41345304600685079 -0.26440480953867462 0 0.41984775782459283 -0.2623632460968765 0 0.42656562700980838 -0.24831468624349931 0 0.41087794879613182 -0.2494957955088617 0 0.42854038242645709 -0.26281135800815408 0 0.4477486317760534 -0.26078267557717671 0 0.42854038242645709 -0.26281135800815408 0 0.430823863629894 -0.26453285558412298 0 0.41345304600685079 -0.26440480953867462 0 0.42854038242645709 -0.26281135800815408 0 0.430823863629894 -0.26453285558412298 0 0.42854038242645709 -0.26281135800815408 0 0.430823863629894 -0.26453285558412298 0 0.42656562700980838 -0.24831468624349931 0 0.42854038242645709 -0.26281135800815408 0 0.4372088962240912 -0.25169219704383999 0 0.42166373126508722 -0.27984448092147479 0 0.430823863629894 -0.26453285558412298 0 0.43570592202634773 -0.28205449164250063 0 0.42166373126508722 -0.27984448092147479 0 0.43570592202634773 -0.28205449164250063 0 0.42504611560874761 -0.29307714113289868 0 0.43874415768382158 -0.29310671547163403 0 0.43570592202634773 -0.28205449164250063 0 0.42504611560874761 -0.29307714113289868 0 0.43874415768382158 -0.29310671547163403 0 0.42504611560874761 -0.29307714113289868 0 0.43092107089682352 -0.30573631325696571 0 0.41919911313656122 -0.31385112706466711 0 0.43092107089682352 -0.30573631325696571 0 0.41692698488998292 -0.30249561446253759 0 0.42504611560874761 -0.29307714113289868 0 0.43092107089682352 -0.30573631325696571 0 0.41692698488998292 -0.30249561446253759 0 0.41919911313656122 -0.31385112706466711 0 0.41692698488998292 -0.30249561446253759 0 0.40916221757477672 -0.31142054967536659 0 0.40563314249086863 -0.30155395497769039 0 0.41692698488998292 -0.30249561446253759 0 0.40916221757477672 -0.31142054967536659 0 0.40563314249086863 -0.30155395497769039 0 0.41692698488998292 -0.30249561446253759 0 0.41160024963212011 -0.28933460066763711 0 0.42166373126508722 -0.27984448092147479 0 0.42504611560874761 -0.29307714113289868 0 0.41160024963212011 -0.28933460066763711 0 0.42504611560874761 -0.29307714113289868 0 0.41692698488998292 -0.30249561446253759 0 0.41160024963212011 -0.28933460066763711 0 0.5 -0.5 0 0.47532784176218862 -0.47257481327436679 0 0.43264288253940292 -0.48275234633568048 0 0.5 -0.5 0 0.41749257905485199 -0.50000000000000033 0 0.43264288253940292 -0.48275234633568048 0 0.47532784176218862 -0.47257481327436679 0 0.44779318602395363 -0.46550469267136052 0 0.43264288253940292 -0.48275234633568048 0 0.44779318602395363 -0.46550469267136052 0 0.43264288253940292 -0.48275234633568048 0 0.5 -0.5 0 0.47532784176218862 -0.47257481327436679 0 0.49999999999999828 -0.44642064777577001 0 0.47532784176218862 -0.47257481327436679 0 0.47918453573141367 -0.4495963838019249 0 0.46294348950850428 -0.44825703900704061 0 0.47532784176218862 -0.47257481327436679 0 0.49999999999999828 -0.44642064777577001 0 0.47918453573141367 -0.4495963838019249 0 0.49999999999999828 -0.44642064777577001 0 0.47846681165496419 -0.4311330351505217 0 0.49999999999999828 -0.44642064777577001 0 0.47918453573141367 -0.4495963838019249 0 0.47846681165496419 -0.4311330351505217 0 0.47918453573141367 -0.4495963838019249 0 0.46294348950850428 -0.44825703900704061 0 0.47846681165496419 -0.4311330351505217 0 0.46294348950850428 -0.44825703900704061 0 0.44442683605218691 -0.44583817528272968 0 0.45721208074107311 -0.43281318479414382 0 0.46294348950850428 -0.44825703900704061 0 0.44779318602395363 -0.46550469267136052 0 0.47532784176218862 -0.47257481327436679 0 0.46294348950850428 -0.44825703900704061 0 0.44779318602395363 -0.46550469267136052 0 0.44779318602395363 -0.46550469267136052 0 0.44442683605218691 -0.44583817528272968 0 0.43057418754349119 -0.46211781715143319 0 0.46294348950850428 -0.44825703900704061 0 0.44779318602395363 -0.46550469267136052 0 0.44442683605218691 -0.44583817528272968 0 0.44442683605218691 -0.44583817528272968 0 0.44324354583686831 -0.42153379012121539 0 0.45721208074107311 -0.43281318479414382 0 0.44442683605218691 -0.44583817528272968 0 0.44324354583686831 -0.42153379012121539 0 0.42653452723640378 -0.44279137365393179 0 0.44324354583686831 -0.42153379012121539 0 0.45693362330993059 -0.41584542252527262 0 0.45721208074107311 -0.43281318479414382 0 0.45693362330993059 -0.41584542252527262 0 0.4354004349648965 -0.40055780990002432 0 0.44324354583686831 -0.42153379012121539 0 0.45693362330993059 -0.41584542252527262 0 0.4354004349648965 -0.40055780990002432 0 0.45693362330993059 -0.41584542252527262 0 0.46461049463358839 -0.41117161714406408 0 0.47846681165496419 -0.4311330351505217 0 0.45693362330993059 -0.41584542252527262 0 0.46461049463358839 -0.41117161714406408 0 0.45329728287846061 -0.39963099679296588 0 0.46294348950850428 -0.44825703900704061 0 0.45721208074107311 -0.43281318479414382 0 0.47846681165496419 -0.4311330351505217 0 0.45693362330993059 -0.41584542252527262 0 0.45721208074107311 -0.43281318479414382 0 0.47846681165496419 -0.4311330351505217 0 0.45693362330993059 -0.41584542252527262 0 0.47846681165496419 -0.4311330351505217 0 0.49999999999999828 -0.44642064777577001 0 0.47846681165496419 -0.4311330351505217 0 0.5 -0.42181653977348488 0 0.5 -0.42181653977348488 0 0.48394518954555588 -0.41195106762427058 0 0.49999999999999789 -0.3972124317711998 0 0.47846681165496419 -0.4311330351505217 0 0.5 -0.42181653977348488 0 0.48394518954555588 -0.41195106762427058 0 0.46461049463358839 -0.41117161714406408 0 0.47846681165496419 -0.4311330351505217 0 0.48394518954555588 -0.41195106762427058 0 0.46461049463358839 -0.41117161714406408 0 0.48394518954555588 -0.41195106762427058 0 0.47664864143922919 -0.39842171428208217 0 0.47664864143922919 -0.39842171428208217 0 0.47975395238035062 -0.3854291032725421 0 0.46812846895096999 -0.38912968091376021 0 0.47664864143922919 -0.39842171428208217 0 0.49999999999999789 -0.3972124317711998 0 0.48779058149940679 -0.38751051868815611 0 0.48394518954555588 -0.41195106762427058 0 0.47664864143922919 -0.39842171428208217 0 0.49999999999999789 -0.3972124317711998 0 0.47664864143922919 -0.39842171428208217 0 0.49999999999999789 -0.3972124317711998 0 0.5 -0.37037944899495368 0 0.49999999999999789 -0.3972124317711998 0 0.48779058149940679 -0.38751051868815611 0 0.5 -0.37037944899495368 0 0.48466784746851571 -0.3739080713738358 0 0.48779058149940679 -0.38751051868815611 0 0.48466784746851571 -0.3739080713738358 0 0.47975395238035062 -0.3854291032725421 0 0.47323517146124039 -0.38191256761527542 0 0.48466784746851571 -0.3739080713738358 0 0.48779058149940679 -0.38751051868815611 0 0.47975395238035062 -0.3854291032725421 0 0.47664864143922919 -0.39842171428208217 0 0.48779058149940679 -0.38751051868815611 0 0.47975395238035062 -0.3854291032725421 0 0.47975395238035062 -0.3854291032725421 0 0.47323517146124039 -0.38191256761527542 0 0.46812846895096999 -0.38912968091376021 0 0.46918642870160698 -0.38365020197922722 0 0.47323517146124039 -0.38191256761527542 0 0.46812846895096999 -0.38912968091376021 0 0.4671179630262795 -0.37324494563770522 0 0.46918642870160698 -0.38365020197922722 0 0.47323517146124039 -0.38191256761527542 0 0.45652460043480969 -0.37267172771365881 0 0.4671179630262795 -0.37324494563770522 0 0.46918642870160698 -0.38365020197922722 0 0.45652460043480969 -0.37267172771365881 0 0.46918642870160698 -0.38365020197922722 0 0.45652460043480969 -0.37267172771365881 0 0.45606522570456098 -0.38599652494351028 0 0.44783900322824399 -0.38008781189722518 0 0.45652460043480969 -0.37267172771365881 0 0.46918642870160698 -0.38365020197922722 0 0.45606522570456098 -0.38599652494351028 0 0.46918642870160698 -0.38365020197922722 0 0.45606522570456098 -0.38599652494351028 0 0.46812846895096999 -0.38912968091376021 0 0.46461049463358839 -0.41117161714406408 0 0.47664864143922919 -0.39842171428208217 0 0.45329728287846061 -0.39963099679296588 0 0.47664864143922919 -0.39842171428208217 0 0.45329728287846061 -0.39963099679296588 0 0.47664864143922919 -0.39842171428208217 0 0.46812846895096999 -0.38912968091376021 0 0.45329728287846061 -0.39963099679296588 0 0.46461049463358839 -0.41117161714406408 0 0.45329728287846061 -0.39963099679296588 0 0.45606522570456098 -0.38599652494351028 0 0.46812846895096999 -0.38912968091376021 0 0.45329728287846061 -0.39963099679296588 0 0.45693362330993059 -0.41584542252527262 0 0.45329728287846061 -0.39963099679296588 0 0.4354004349648965 -0.40055780990002432 0 0.45329728287846061 -0.39963099679296588 0 0.4354004349648965 -0.40055780990002432 0 0.45329728287846061 -0.39963099679296588 0 0.4390969294492823 -0.3851451998924304 0 0.4354004349648965 -0.40055780990002432 0 0.45329728287846061 -0.39963099679296588 0 0.4390969294492823 -0.3851451998924304 0 0.45606522570456098 -0.38599652494351028 0 0.4390969294492823 -0.3851451998924304 0 0.44783900322824399 -0.38008781189722518 0 0.45606522570456098 -0.38599652494351028 0 0.45329728287846061 -0.39963099679296588 0 0.4390969294492823 -0.3851451998924304 0 0.4390969294492823 -0.3851451998924304 0 0.43808065797110041 -0.37748478958974491 0 0.44783900322824399 -0.38008781189722518 0 0.42782015831496062 -0.38505662608606978 0 0.4354004349648965 -0.40055780990002432 0 0.41188669282555868 -0.38386409155992901 0 0.42489657602010461 -0.37065940299189432 0 0.4390969294492823 -0.3851451998924304 0 0.42782015831496062 -0.38505662608606978 0 0.42489657602010461 -0.37065940299189432 0 0.4390969294492823 -0.3851451998924304 0 0.43808065797110041 -0.37748478958974491 0 0.42489657602010461 -0.37065940299189432 0 0.4390969294492823 -0.3851451998924304 0 0.4390969294492823 -0.3851451998924304 0 0.42782015831496062 -0.38505662608606978 0 0.4354004349648965 -0.40055780990002432 0 0.4354004349648965 -0.40055780990002432 0 0.41188669282555868 -0.38386409155992901 0 0.4354004349648965 -0.40055780990002432 0 0.40669862042327182 -0.40204417319942209 0 0.4354004349648965 -0.40055780990002432 0 0.40669862042327182 -0.40204417319942209 0 0.41188669282555868 -0.38386409155992901 0 0.42489657602010461 -0.37065940299189432 0 0.42782015831496062 -0.38505662608606978 0 0.41188669282555868 -0.38386409155992901 0 0.42489657602010461 -0.37065940299189432 0 0.4070765621089808 -0.37107032214525337 0 0.41188669282555868 -0.38386409155992901 0 0.4070765621089808 -0.37107032214525337 0 0.39585190457779329 -0.37201308858561799 0 0.39886607975096749 -0.38470810625682389 0 0.40669862042327182 -0.40204417319942209 0 0.41188669282555868 -0.38386409155992901 0 0.39886607975096749 -0.38470810625682389 0 0.4070765621089808 -0.37107032214525337 0 0.41188669282555868 -0.38386409155992901 0 0.39886607975096749 -0.38470810625682389 0 0.39585190457779329 -0.37201308858561799 0 0.39886607975096749 -0.38470810625682389 0 0.38601585554704992 -0.38244526212700758 0 0.39886607975096749 -0.38470810625682389 0 0.38601585554704992 -0.38244526212700758 0 0.37799680588164719 -0.40353053649882148 0 0.38601585554704992 -0.38244526212700758 0 0.37799680588164719 -0.40353053649882148 0 0.38601585554704992 -0.38244526212700758 0 0.37799680588164719 -0.40353053649882148 0 0.36816388811638329 -0.39545065246060412 0 0.37799680588164719 -0.40353053649882148 0 0.37635446215448021 -0.40784891206015261 0 0.37799680588164719 -0.40353053649882148 0 0.37505152225636262 -0.40368306209891941 0 0.37635446215448021 -0.40784891206015261 0 0.37799680588164719 -0.40353053649882148 0 0.37505152225636262 -0.40368306209891941 0 0.40669862042327182 -0.40204417319942209 0 0.39886607975096749 -0.38470810625682389 0 0.37799680588164719 -0.40353053649882148 0 0.40669862042327182 -0.40204417319942209 0 0.37799680588164719 -0.40353053649882148 0 0.40669862042327182 -0.40204417319942209 0 0.38553791301154328 -0.41840677215457472 0 0.40567792500840172 -0.4277251834563135 0 0.40669862042327182 -0.40204417319942209 0 0.37799680588164719 -0.40353053649882148 0 0.38553791301154328 -0.41840677215457472 0 0.38553791301154328 -0.41840677215457472 0 0.36905142820508552 -0.42917232846767789 0 0.37241381966677689 -0.417360225696081 0 0.38553791301154328 -0.41840677215457472 0 0.37635446215448021 -0.40784891206015261 0 0.37241381966677689 -0.417360225696081 0 0.37799680588164719 -0.40353053649882148 0 0.38553791301154328 -0.41840677215457472 0 0.37635446215448021 -0.40784891206015261 0 0.38553791301154328 -0.41840677215457472 0 0.38807715457860831 -0.4388905332329941 0 0.36905142820508552 -0.42917232846767789 0 0.38553791301154328 -0.41840677215457472 0 0.40567792500840172 -0.4277251834563135 0 0.38807715457860831 -0.4388905332329941 0 0.40567792500840172 -0.4277251834563135 0 0.42351101069396863 -0.41893046606618117 0 0.42653452723640378 -0.44279137365393179 0 0.4354004349648965 -0.40055780990002432 0 0.40669862042327182 -0.40204417319942209 0 0.42351101069396863 -0.41893046606618117 0 0.40669862042327182 -0.40204417319942209 0 0.40567792500840172 -0.4277251834563135 0 0.42351101069396863 -0.41893046606618117 0 0.44324354583686831 -0.42153379012121539 0 0.4354004349648965 -0.40055780990002432 0 0.42351101069396863 -0.41893046606618117 0 0.44324354583686831 -0.42153379012121539 0 0.42653452723640378 -0.44279137365393179 0 0.44324354583686831 -0.42153379012121539 0 0.42351101069396863 -0.41893046606618117 0 0.42653452723640378 -0.44279137365393179 0 0.44442683605218691 -0.44583817528272968 0 0.42653452723640378 -0.44279137365393179 0 0.43057418754349119 -0.46211781715143319 0 0.42653452723640378 -0.44279137365393179 0 0.43057418754349119 -0.46211781715143319 0 0.40982550863593931 -0.46404895718664829 0 0.42653452723640378 -0.44279137365393179 0 0.40982550863593931 -0.46404895718664829 0 0.42653452723640378 -0.44279137365393179 0 0.40982550863593931 -0.46404895718664829 0 0.4036378289262339 -0.44671034290208689 0 0.40567792500840172 -0.4277251834563135 0 0.42653452723640378 -0.44279137365393179 0 0.4036378289262339 -0.44671034290208689 0 0.40567792500840172 -0.4277251834563135 0 0.4036378289262339 -0.44671034290208689 0 0.38807715457860831 -0.4388905332329941 0 0.4036378289262339 -0.44671034290208689 0 0.38807715457860831 -0.4388905332329941 0 0.38807402917181633 -0.46009566698054732 0 0.38807715457860831 -0.4388905332329941 0 0.3733961412993268 -0.45022493016754961 0 0.36905142820508552 -0.42917232846767789 0 0.38807715457860831 -0.4388905332329941 0 0.38807402917181633 -0.46009566698054732 0 0.3733961412993268 -0.45022493016754961 0 0.38807402917181633 -0.46009566698054732 0 0.36593927904035028 -0.47432204071884282 0 0.3733961412993268 -0.45022493016754961 0 0.40982550863593931 -0.46404895718664829 0 0.4036378289262339 -0.44671034290208689 0 0.38807402917181633 -0.46009566698054732 0 0.40982550863593931 -0.46404895718664829 0 0.39311649003547477 -0.48530654071936469 0 0.40982550863593931 -0.46404895718664829 0 0.38807402917181633 -0.46009566698054732 0 0.39311649003547477 -0.48530654071936469 0 0.38807402917181633 -0.46009566698054732 0 0.39311649003547477 -0.48530654071936469 0 0.36593927904035028 -0.47432204071884282 0 0.37603974257992701 -0.49999999999999978 0 0.39311649003547477 -0.48530654071936469 0 0.36593927904035028 -0.47432204071884282 0 0.37603974257992701 -0.49999999999999978 0 0.39676616081738958 -0.5 0 0.39311649003547477 -0.48530654071936469 0 0.39676616081738958 -0.5 0 0.39311649003547477 -0.48530654071936469 0 0.41749257905485199 -0.50000000000000033 0 0.40982550863593931 -0.46404895718664829 0 0.41749257905485199 -0.50000000000000033 0 0.43264288253940292 -0.48275234633568048 0 0.40982550863593931 -0.46404895718664829 0 0.39311649003547477 -0.48530654071936469 0 0.41749257905485199 -0.50000000000000033 0 0.43057418754349119 -0.46211781715143319 0 0.40982550863593931 -0.46404895718664829 0 0.43264288253940292 -0.48275234633568048 0 0.44779318602395363 -0.46550469267136052 0 0.43057418754349119 -0.46211781715143319 0 0.43264288253940292 -0.48275234633568048 0 0.41749257905485199 -0.50000000000000033 0 0.43264288253940292 -0.48275234633568048 0 0.32215468257820618 -0.5 0 0.33760568703239408 -0.47417818032706111 0 0.31005432530219129 -0.48106067464861729 0 0.33760568703239408 -0.47417818032706111 0 0.3189449745883719 -0.46117016543644002 0 0.31005432530219129 -0.48106067464861729 0 0.32215468257820618 -0.5 0 0.33760568703239408 -0.47417818032706111 0 0.34909721257906662 -0.5 0 0.37603974257992701 -0.49999999999999978 0 0.34909721257906662 -0.5 0 0.36593927904035028 -0.47432204071884282 0 0.37603974257992701 -0.49999999999999978 0 0.36593927904035028 -0.47432204071884282 0 0.33760568703239408 -0.47417818032706111 0 0.34909721257906662 -0.5 0 0.36593927904035028 -0.47432204071884282 0 0.33760568703239408 -0.47417818032706111 0 0.36593927904035028 -0.47432204071884282 0 0.35583881550077368 -0.44864408143768569 0 0.36593927904035028 -0.47432204071884282 0 0.35583881550077368 -0.44864408143768569 0 0.36593927904035028 -0.47432204071884282 0 0.3733961412993268 -0.45022493016754961 0 0.35583881550077368 -0.44864408143768569 0 0.3733961412993268 -0.45022493016754961 0 0.35583881550077368 -0.44864408143768569 0 0.36905142820508552 -0.42917232846767789 0 0.35583881550077368 -0.44864408143768569 0 0.33540415989768779 -0.44905252560006492 0 0.34573835196119679 -0.42296612215652868 0 0.33760568703239408 -0.47417818032706111 0 0.35583881550077368 -0.44864408143768569 0 0.33540415989768779 -0.44905252560006492 0 0.33760568703239408 -0.47417818032706111 0 0.33540415989768779 -0.44905252560006492 0 0.3189449745883719 -0.46117016543644002 0 0.33540415989768779 -0.44905252560006492 0 0.3189449745883719 -0.46117016543644002 0 0.32126124445813709 -0.43429719032362252 0 0.3189449745883719 -0.46117016543644002 0 0.32126124445813709 -0.43429719032362252 0 0.30480654487456732 -0.44641521679941309 0 0.32126124445813709 -0.43429719032362252 0 0.3193156137706864 -0.40941365839269389 0 0.29937418247959258 -0.41817563384508599 0 0.3193156137706864 -0.40941365839269389 0 0.34573835196119679 -0.42296612215652868 0 0.33563788842162012 -0.39728816287537172 0 0.34573835196119679 -0.42296612215652868 0 0.33563788842162012 -0.39728816287537172 0 0.33540415989768779 -0.44905252560006492 0 0.32126124445813709 -0.43429719032362252 0 0.34573835196119679 -0.42296612215652868 0 0.32126124445813709 -0.43429719032362252 0 0.3193156137706864 -0.40941365839269389 0 0.34573835196119679 -0.42296612215652868 0 0.35583881550077368 -0.44864408143768569 0 0.34573835196119679 -0.42296612215652868 0 0.36905142820508552 -0.42917232846767789 0 0.35583881550077368 -0.44864408143768569 0 0.34573835196119679 -0.42296612215652868 0 0.36905142820508552 -0.42917232846767789 0 0.37241381966677689 -0.417360225696081 0 0.36195200988480669 -0.41065981681110758 0 0.36990343230398692 -0.40830781576793279 0 0.37241381966677689 -0.417360225696081 0 0.36195200988480669 -0.41065981681110758 0 0.37635446215448021 -0.40784891206015261 0 0.36990343230398692 -0.40830781576793279 0 0.37241381966677689 -0.417360225696081 0 0.37505152225636262 -0.40368306209891941 0 0.37635446215448021 -0.40784891206015261 0 0.36990343230398692 -0.40830781576793279 0 0.36990343230398692 -0.40830781576793279 0 0.36195200988480669 -0.41065981681110758 0 0.36876771314038492 -0.40452533678464098 0 0.34573835196119679 -0.42296612215652868 0 0.36195200988480669 -0.41065981681110758 0 0.35211107663302149 -0.40015425695529971 0 0.34573835196119679 -0.42296612215652868 0 0.36905142820508552 -0.42917232846767789 0 0.36195200988480669 -0.41065981681110758 0 0.34573835196119679 -0.42296612215652868 0 0.35211107663302149 -0.40015425695529971 0 0.33563788842162012 -0.39728816287537172 0 0.35211107663302149 -0.40015425695529971 0 0.35352794608594401 -0.38791341326287138 0 0.33563788842162012 -0.39728816287537172 0 0.35211107663302149 -0.40015425695529971 0 0.36816388811638329 -0.39545065246060412 0 0.35352794608594401 -0.38791341326287138 0 0.36195200988480669 -0.41065981681110758 0 0.36816388811638329 -0.39545065246060412 0 0.36876771314038492 -0.40452533678464098 0 0.36195200988480669 -0.41065981681110758 0 0.35211107663302149 -0.40015425695529971 0 0.36816388811638329 -0.39545065246060412 0 0.37505152225636262 -0.40368306209891941 0 0.36816388811638329 -0.39545065246060412 0 0.36876771314038492 -0.40452533678464098 0 0.37799680588164719 -0.40353053649882148 0 0.37505152225636262 -0.40368306209891941 0 0.36816388811638329 -0.39545065246060412 0 0.37505152225636262 -0.40368306209891941 0 0.36990343230398692 -0.40830781576793279 0 0.36876771314038492 -0.40452533678464098 0 0.38601585554704992 -0.38244526212700758 0 0.36816388811638329 -0.39545065246060412 0 0.3689120952668708 -0.37284951495870189 0 0.36816388811638329 -0.39545065246060412 0 0.35352794608594401 -0.38791341326287138 0 0.3689120952668708 -0.37284951495870189 0 0.35352794608594401 -0.38791341326287138 0 0.33563788842162012 -0.39728816287537172 0 0.34467783115022588 -0.37252705130409253 0 0.35352794608594401 -0.38791341326287138 0 0.3689120952668708 -0.37284951495870189 0 0.34467783115022588 -0.37252705130409253 0 0.33563788842162012 -0.39728816287537172 0 0.3255374248820434 -0.37161020359421471 0 0.33563788842162012 -0.39728816287537172 0 0.34467783115022588 -0.37252705130409253 0 0.3255374248820434 -0.37161020359421471 0 0.3193156137706864 -0.40941365839269389 0 0.33563788842162012 -0.39728816287537172 0 0.30534853388527528 -0.38930881101125692 0 0.33563788842162012 -0.39728816287537172 0 0.30534853388527528 -0.38930881101125692 0 0.3255374248820434 -0.37161020359421471 0 0.30534853388527528 -0.38930881101125692 0 0.3255374248820434 -0.37161020359421471 0 0.30525369772634148 -0.37164386163485291 0 0.30534853388527528 -0.38930881101125692 0 0.28783989868818821 -0.37644057584389279 0 0.30525369772634148 -0.37164386163485291 0 0.3193156137706864 -0.40941365839269389 0 0.30534853388527528 -0.38930881101125692 0 0.29937418247959258 -0.41817563384508599 0 0.30534853388527528 -0.38930881101125692 0 0.28922044672054198 -0.39637746652331562 0 0.29937418247959258 -0.41817563384508599 0 0.28922044672054198 -0.39637746652331562 0 0.27510086349567708 -0.39798721671617321 0 0.28320928432356041 -0.41012407252970262 0 0.28922044672054198 -0.39637746652331562 0 0.28783989868818821 -0.37644057584389279 0 0.27924907625512951 -0.38731579260330862 0 0.30534853388527528 -0.38930881101125692 0 0.28922044672054198 -0.39637746652331562 0 0.28783989868818821 -0.37644057584389279 0 0.30534853388527528 -0.38930881101125692 0 0.28783989868818821 -0.37644057584389279 0 0.28783989868818821 -0.37644057584389279 0 0.27447250226623809 -0.37821124143188289 0 0.27924907625512951 -0.38731579260330862 0 0.27447250226623809 -0.37821124143188289 0 0.27924907625512951 -0.38731579260330862 0 0.26961167010500181 -0.38756246250127813 0 0.27447250226623809 -0.37821124143188289 0 0.26961167010500181 -0.38756246250127813 0 0.26423397132697279 -0.37890457124200982 0 0.26961167010500181 -0.38756246250127813 0 0.26423397132697279 -0.37890457124200982 0 0.25687819372407023 -0.38903915957053298 0 0.26423397132697279 -0.37890457124200982 0 0.25687819372407023 -0.38903915957053298 0 0.24987622704845311 -0.37613765202982719 0 0.25108303853213881 -0.40002667887407228 0 0.26390234922262928 -0.39930308446362528 0 0.256136481120742 -0.41447562176841068 0 0.25687819372407023 -0.38903915957053298 0 0.25108303853213881 -0.40002667887407228 0 0.24309899287842279 -0.39271330151873202 0 0.25687819372407023 -0.38903915957053298 0 0.25108303853213881 -0.40002667887407228 0 0.26390234922262928 -0.39930308446362528 0 0.26961167010500181 -0.38756246250127813 0 0.25687819372407023 -0.38903915957053298 0 0.26390234922262928 -0.39930308446362528 0 0.26390234922262928 -0.39930308446362528 0 0.27510086349567708 -0.39798721671617321 0 0.2708804648698091 -0.41009655218672442 0 0.26961167010500181 -0.38756246250127813 0 0.26390234922262928 -0.39930308446362528 0 0.27510086349567708 -0.39798721671617321 0 0.28922044672054198 -0.39637746652331562 0 0.27924907625512951 -0.38731579260330862 0 0.27510086349567708 -0.39798721671617321 0 0.27924907625512951 -0.38731579260330862 0 0.26961167010500181 -0.38756246250127813 0 0.27510086349567708 -0.39798721671617321 0 0.27510086349567708 -0.39798721671617321 0 0.2708804648698091 -0.41009655218672442 0 0.28320928432356041 -0.41012407252970262 0 0.2708804648698091 -0.41009655218672442 0 0.256136481120742 -0.41447562176841068 0 0.27433621812851161 -0.42550461519375637 0 0.2708804648698091 -0.41009655218672442 0 0.27433621812851161 -0.42550461519375637 0 0.28320928432356041 -0.41012407252970262 0 0.26390234922262928 -0.39930308446362528 0 0.2708804648698091 -0.41009655218672442 0 0.256136481120742 -0.41447562176841068 0 0.25108303853213881 -0.40002667887407228 0 0.256136481120742 -0.41447562176841068 0 0.24629253832767661 -0.41022035877505542 0 0.256136481120742 -0.41447562176841068 0 0.25513396950241118 -0.43290986753561628 0 0.2453827316299185 -0.42192330194190181 0 0.256136481120742 -0.41447562176841068 0 0.25513396950241118 -0.43290986753561628 0 0.27433621812851161 -0.42550461519375637 0 0.25513396950241118 -0.43290986753561628 0 0.27433621812851161 -0.42550461519375637 0 0.26752346795397081 -0.44788636482661331 0 0.27433621812851161 -0.42550461519375637 0 0.29937418247959258 -0.41817563384508599 0 0.28546596250580908 -0.44246723239800262 0 0.29937418247959258 -0.41817563384508599 0 0.30480654487456732 -0.44641521679941309 0 0.28546596250580908 -0.44246723239800262 0 0.28922044672054198 -0.39637746652331562 0 0.28320928432356041 -0.41012407252970262 0 0.29937418247959258 -0.41817563384508599 0 0.27433621812851161 -0.42550461519375637 0 0.28320928432356041 -0.41012407252970262 0 0.29937418247959258 -0.41817563384508599 0 0.32126124445813709 -0.43429719032362252 0 0.29937418247959258 -0.41817563384508599 0 0.30480654487456732 -0.44641521679941309 0 0.3189449745883719 -0.46117016543644002 0 0.30480654487456732 -0.44641521679941309 0 0.28880919487484108 -0.4658549053918814 0 0.30480654487456732 -0.44641521679941309 0 0.28880919487484108 -0.4658549053918814 0 0.28546596250580908 -0.44246723239800262 0 0.27433621812851161 -0.42550461519375637 0 0.28546596250580908 -0.44246723239800262 0 0.26752346795397081 -0.44788636482661331 0 0.28880919487484108 -0.4658549053918814 0 0.28546596250580908 -0.44246723239800262 0 0.26752346795397081 -0.44788636482661331 0 0.25513396950241118 -0.43290986753561628 0 0.26752346795397081 -0.44788636482661331 0 0.24480843210435321 -0.45079661158300749 0 0.26752346795397081 -0.44788636482661331 0 0.2588368117714554 -0.46700690363883102 0 0.24480843210435321 -0.45079661158300749 0 0.28880919487484108 -0.4658549053918814 0 0.26752346795397081 -0.44788636482661331 0 0.2588368117714554 -0.46700690363883102 0 0.28880919487484108 -0.4658549053918814 0 0.2588368117714554 -0.46700690363883102 0 0.27227655507569209 -0.48076744006000099 0 0.2588368117714554 -0.46700690363883102 0 0.27227655507569209 -0.48076744006000099 0 0.25270961841775552 -0.48460016746525392 0 0.2588368117714554 -0.46700690363883102 0 0.25270961841775552 -0.48460016746525392 0 0.23949561189523169 -0.47426551941090739 0 0.25270961841775552 -0.48460016746525392 0 0.26826962257648529 -0.5 0 0.2413270925756249 -0.5 0 0.27227655507569209 -0.48076744006000099 0 0.25270961841775552 -0.48460016746525392 0 0.26826962257648529 -0.5 0 0.27227655507569209 -0.48076744006000099 0 0.26826962257648529 -0.5 0 0.29521215257734579 -0.5 0 0.28880919487484108 -0.4658549053918814 0 0.27227655507569209 -0.48076744006000099 0 0.29521215257734579 -0.5 0 0.28880919487484108 -0.4658549053918814 0 0.29521215257734579 -0.5 0 0.31005432530219129 -0.48106067464861729 0 0.3189449745883719 -0.46117016543644002 0 0.28880919487484108 -0.4658549053918814 0 0.31005432530219129 -0.48106067464861729 0 0.32215468257820618 -0.5 0 0.29521215257734579 -0.5 0 0.31005432530219129 -0.48106067464861729 0 0.33463237856908817 -0.28956894479377399 0 0.33485830675890288 -0.30442904333306592 0 0.35657459314761941 -0.2860097891906741 0 0.33463237856908817 -0.28956894479377399 0 0.32894302133540282 -0.28710755170783531 0 0.35195887039823659 -0.28200771363307098 0 0.32894302133540282 -0.28710755170783531 0 0.35195887039823659 -0.28200771363307098 0 0.32894302133540282 -0.28710755170783531 0 0.33255663915089151 -0.29722249741805129 0 0.33463237856908817 -0.28956894479377399 0 0.32894302133540282 -0.28710755170783531 0 0.33255663915089151 -0.29722249741805129 0 0.32894302133540282 -0.28710755170783531 0 0.33255663915089151 -0.29722249741805129 0 0.32301709761150521 -0.2972128627914089 0 0.33485830675890288 -0.30442904333306592 0 0.34824447571033601 -0.30253517369681238 0 0.34533870308018377 -0.31598934501886372 0 0.33485830675890288 -0.30442904333306592 0 0.33255663915089151 -0.29722249741805129 0 0.32434770264142349 -0.30499280498860082 0 0.33463237856908817 -0.28956894479377399 0 0.33485830675890288 -0.30442904333306592 0 0.33255663915089151 -0.29722249741805129 0 0.32301709761150521 -0.2972128627914089 0 0.32434770264142349 -0.30499280498860082 0 0.3171485971304504 -0.30589952111326829 0 0.32434770264142349 -0.30499280498860082 0 0.3171485971304504 -0.30589952111326829 0 0.31314202037018413 -0.32284829747545468 0 0.33485830675890288 -0.30442904333306592 0 0.32434770264142349 -0.30499280498860082 0 0.31314202037018413 -0.32284829747545468 0 0.33255663915089151 -0.29722249741805129 0 0.32301709761150521 -0.2972128627914089 0 0.32434770264142349 -0.30499280498860082 0 0.3171485971304504 -0.30589952111326829 0 0.31208952779935789 -0.2908419387292881 0 0.30833746379913463 -0.30503745501229762 0 0.32301709761150521 -0.2972128627914089 0 0.3171485971304504 -0.30589952111326829 0 0.31208952779935789 -0.2908419387292881 0 0.32894302133540282 -0.28710755170783531 0 0.31611371382327402 -0.28007222207304999 0 0.31208952779935789 -0.2908419387292881 0 0.32894302133540282 -0.28710755170783531 0 0.32301709761150521 -0.2972128627914089 0 0.31208952779935789 -0.2908419387292881 0 0.32894302133540282 -0.28710755170783531 0 0.31208952779935789 -0.2908419387292881 0 0.32894302133540282 -0.28710755170783531 0 0.32245882367699719 -0.26895751187574157 0 0.32894302133540282 -0.28710755170783531 0 0.31611371382327402 -0.28007222207304999 0 0.32245882367699719 -0.26895751187574157 0 0.31611371382327402 -0.28007222207304999 0 0.32245882367699719 -0.26895751187574157 0 0.30706455279928557 -0.27339796693147528 0 0.32245882367699719 -0.26895751187574157 0 0.30981211567343969 -0.26250129009931661 0 0.30706455279928557 -0.27339796693147528 0 0.32245882367699719 -0.26895751187574157 0 0.31597462601859122 -0.25080747204364812 0 0.32245882367699719 -0.26895751187574157 0 0.31597462601859122 -0.25080747204364812 0 0.30981211567343969 -0.26250129009931661 0 0.32245882367699719 -0.26895751187574157 0 0.31597462601859122 -0.25080747204364812 0 0.33396674820841349 -0.26640759283836002 0 0.31597462601859122 -0.25080747204364812 0 0.33396674820841349 -0.26640759283836002 0 0.33517615116993849 -0.24743488902137309 0 0.33396674820841349 -0.26640759283836002 0 0.35185333732921159 -0.25428502110151557 0 0.33517615116993849 -0.24743488902137309 0 0.31597462601859122 -0.25080747204364812 0 0.33396674820841349 -0.26640759283836002 0 0.32894302133540282 -0.28710755170783531 0 0.32245882367699719 -0.26895751187574157 0 0.33396674820841349 -0.26640759283836002 0 0.33396674820841349 -0.26640759283836002 0 0.35195887039823659 -0.28200771363307098 0 0.32894302133540282 -0.28710755170783531 0 0.33396674820841349 -0.26640759283836002 0 0.35195887039823659 -0.28200771363307098 0 0.33396674820841349 -0.26640759283836002 0 0.35159414215374007 -0.26901089914998932 0 0.35195887039823659 -0.28200771363307098 0 0.35159414215374007 -0.26901089914998932 0 0.36459381448795669 -0.2792080702757721 0 0.35195887039823659 -0.28200771363307098 0 0.36459381448795669 -0.2792080702757721 0 0.35195887039823659 -0.28200771363307098 0 0.33396674820841349 -0.26640759283836002 0 0.35159414215374007 -0.26901089914998932 0 0.35185333732921159 -0.25428502110151557 0 0.35159414215374007 -0.26901089914998932 0 0.35185333732921159 -0.25428502110151557 0 0.36435388824524378 -0.26651308148643732 0 0.37477580018058132 -0.24095111383496479 0 0.37683953433427181 -0.26882153263446662 0 0.36563983252638571 -0.25462703483095822 0 0.36075586336603621 -0.2426037127049111 0 0.35185333732921159 -0.25428502110151557 0 0.36563983252638571 -0.25462703483095822 0 0.35185333732921159 -0.25428502110151557 0 0.36563983252638571 -0.25462703483095822 0 0.36435388824524378 -0.26651308148643732 0 0.37683953433427181 -0.26882153263446662 0 0.36563983252638571 -0.25462703483095822 0 0.36435388824524378 -0.26651308148643732 0 0.36459381448795669 -0.2792080702757721 0 0.36308990924476459 -0.28048364807874221 0 0.35195887039823659 -0.28200771363307098 0 0.36459381448795669 -0.2792080702757721 0 0.36308990924476459 -0.28048364807874221 0 0.37273728942595791 -0.27740364396778311 0 0.36459381448795669 -0.2792080702757721 0 0.36308990924476459 -0.28048364807874221 0 0.35159414215374007 -0.26901089914998932 0 0.36459381448795669 -0.2792080702757721 0 0.36435388824524378 -0.26651308148643732 0 0.37683953433427181 -0.26882153263446662 0 0.36459381448795669 -0.2792080702757721 0 0.36435388824524378 -0.26651308148643732 0 0.36459381448795669 -0.2792080702757721 0 0.37273728942595791 -0.27740364396778311 0 0.37683953433427181 -0.26882153263446662 0 0.36459381448795669 -0.2792080702757721 0 0.37273728942595791 -0.27740364396778311 0 0.37683953433427181 -0.26882153263446662 0 0.36459381448795669 -0.2792080702757721 0 0.36308990924476459 -0.28048364807874221 0 0.37273728942595791 -0.27740364396778311 0 0.37795999762798671 -0.28395322059410122 0 0.37273728942595791 -0.27740364396778311 0 0.36936745264149701 -0.28627283508716472 0 0.35657459314761941 -0.2860097891906741 0 0.35620629985463748 -0.30371251724464648 0 0.37101427446782781 -0.29852975601036341 0 0.36308990924476459 -0.28048364807874221 0 0.37273728942595791 -0.27740364396778311 0 0.36936745264149701 -0.28627283508716472 0 0.37519981906117678 -0.29055939022370142 0 0.37795999762798671 -0.28395322059410122 0 0.36936745264149701 -0.28627283508716472 0 0.37519981906117678 -0.29055939022370142 0 0.36936745264149701 -0.28627283508716472 0 0.37101427446782781 -0.29852975601036341 0 0.36936745264149701 -0.28627283508716472 0 0.35657459314761941 -0.2860097891906741 0 0.37101427446782781 -0.29852975601036341 0 0.35657459314761941 -0.2860097891906741 0 0.37101427446782781 -0.29852975601036341 0 0.36308990924476459 -0.28048364807874221 0 0.36936745264149701 -0.28627283508716472 0 0.35657459314761941 -0.2860097891906741 0 0.36308990924476459 -0.28048364807874221 0 0.35657459314761941 -0.2860097891906741 0 0.36308990924476459 -0.28048364807874221 0 0.35366972758071469 -0.28349111722646431 0 0.33463237856908817 -0.28956894479377399 0 0.35366972758071469 -0.28349111722646431 0 0.33463237856908817 -0.28956894479377399 0 0.35366972758071469 -0.28349111722646431 0 0.35195887039823659 -0.28200771363307098 0 0.36308990924476459 -0.28048364807874221 0 0.35366972758071469 -0.28349111722646431 0 0.35195887039823659 -0.28200771363307098 0 0.33485830675890288 -0.30442904333306592 0 0.35657459314761941 -0.2860097891906741 0 0.36308990924476459 -0.28048364807874221 0 0.35366972758071469 -0.28349111722646431 0 0.35657459314761941 -0.2860097891906741 0 0.33463237856908817 -0.28956894479377399 0 0.35366972758071469 -0.28349111722646431 0 0.35657459314761941 -0.2860097891906741 0 0.35366972758071469 -0.28349111722646431 0 0.35657459314761941 -0.2860097891906741 0 0.35366972758071469 -0.28349111722646431 0 0.35195887039823659 -0.28200771363307098 0 0.35620629985463748 -0.30371251724464648 0 0.36380134767337091 -0.31365371592763602 0 0.34533870308018377 -0.31598934501886372 0 0.35657459314761941 -0.2860097891906741 0 0.34824447571033601 -0.30253517369681238 0 0.35620629985463748 -0.30371251724464648 0 0.33485830675890288 -0.30442904333306592 0 0.35657459314761941 -0.2860097891906741 0 0.34824447571033601 -0.30253517369681238 0 0.34824447571033601 -0.30253517369681238 0 0.35620629985463748 -0.30371251724464648 0 0.34533870308018377 -0.31598934501886372 0 0.38545395578803499 -0.31104972283005378 0 0.37101427446782781 -0.29852975601036341 0 0.36380134767337091 -0.31365371592763602 0 0.35620629985463748 -0.30371251724464648 0 0.37101427446782781 -0.29852975601036341 0 0.36380134767337091 -0.31365371592763602 0 0.38545395578803499 -0.31104972283005378 0 0.36380134767337091 -0.31365371592763602 0 0.36945761595668469 -0.32738841673247931 0 0.36380134767337091 -0.31365371592763602 0 0.36945761595668469 -0.32738841673247931 0 0.35533723689285712 -0.32525253772940937 0 0.36945761595668469 -0.32738841673247931 0 0.35618710249729552 -0.34088690244721892 0 0.35533723689285712 -0.32525253772940937 0 0.36945761595668469 -0.32738841673247931 0 0.35618710249729552 -0.34088690244721892 0 0.37368731816096312 -0.34897020548070451 0 0.35618710249729552 -0.34088690244721892 0 0.33810128782584858 -0.35072533414536311 0 0.34064131712366241 -0.33181983138849169 0 0.35618710249729552 -0.34088690244721892 0 0.35533723689285712 -0.32525253772940937 0 0.34064131712366241 -0.33181983138849169 0 0.34533870308018377 -0.31598934501886372 0 0.35533723689285712 -0.32525253772940937 0 0.34064131712366241 -0.33181983138849169 0 0.36380134767337091 -0.31365371592763602 0 0.34533870308018377 -0.31598934501886372 0 0.35533723689285712 -0.32525253772940937 0 0.3689120952668708 -0.37284951495870189 0 0.37368731816096312 -0.34897020548070451 0 0.35738528973841999 -0.35772904562383351 0 0.35618710249729552 -0.34088690244721892 0 0.37368731816096312 -0.34897020548070451 0 0.35738528973841999 -0.35772904562383351 0 0.35618710249729552 -0.34088690244721892 0 0.35738528973841999 -0.35772904562383351 0 0.33810128782584858 -0.35072533414536311 0 0.35738528973841999 -0.35772904562383351 0 0.34467783115022588 -0.37252705130409253 0 0.33810128782584858 -0.35072533414536311 0 0.3689120952668708 -0.37284951495870189 0 0.35738528973841999 -0.35772904562383351 0 0.34467783115022588 -0.37252705130409253 0 0.34467783115022588 -0.37252705130409253 0 0.33810128782584858 -0.35072533414536311 0 0.3255374248820434 -0.37161020359421471 0 0.31543696134246668 -0.34593224431305769 0 0.3255374248820434 -0.37161020359421471 0 0.30900602422585888 -0.35865430802761772 0 0.31543696134246668 -0.34593224431305769 0 0.3255374248820434 -0.37161020359421471 0 0.33810128782584858 -0.35072533414536311 0 0.31543696134246668 -0.34593224431305769 0 0.3255374248820434 -0.37161020359421471 0 0.3255374248820434 -0.37161020359421471 0 0.30525369772634148 -0.37164386163485291 0 0.30900602422585888 -0.35865430802761772 0 0.34533870308018377 -0.31598934501886372 0 0.33130220335757699 -0.32186248444176119 0 0.34064131712366241 -0.33181983138849169 0 0.33485830675890288 -0.30442904333306592 0 0.34533870308018377 -0.31598934501886372 0 0.33130220335757699 -0.32186248444176119 0 0.33810128782584858 -0.35072533414536311 0 0.34064131712366241 -0.33181983138849169 0 0.3268430880468266 -0.33457206034663262 0 0.33130220335757699 -0.32186248444176119 0 0.34064131712366241 -0.33181983138849169 0 0.3268430880468266 -0.33457206034663262 0 0.31543696134246668 -0.34593224431305769 0 0.3268430880468266 -0.33457206034663262 0 0.31314202037018413 -0.32284829747545468 0 0.33810128782584858 -0.35072533414536311 0 0.31543696134246668 -0.34593224431305769 0 0.3268430880468266 -0.33457206034663262 0 0.33130220335757699 -0.32186248444176119 0 0.3268430880468266 -0.33457206034663262 0 0.31314202037018413 -0.32284829747545468 0 0.33485830675890288 -0.30442904333306592 0 0.31314202037018413 -0.32284829747545468 0 0.3171485971304504 -0.30589952111326829 0 0.31314202037018413 -0.32284829747545468 0 0.3109911447756647 -0.31350988965823029 0 0.33485830675890288 -0.30442904333306592 0 0.33130220335757699 -0.32186248444176119 0 0.31314202037018413 -0.32284829747545468 0 0.31314202037018413 -0.32284829747545468 0 0.30533649780288991 -0.32025428503190068 0 0.3109911447756647 -0.31350988965823029 0 0.30533649780288991 -0.32025428503190068 0 0.3109911447756647 -0.31350988965823029 0 0.30833746379913463 -0.30503745501229762 0 0.31543696134246668 -0.34593224431305769 0 0.30533649780288991 -0.32025428503190068 0 0.30314188851555429 -0.3464145030398364 0 0.30533649780288991 -0.32025428503190068 0 0.29792146783109758 -0.32077626486014349 0 0.30314188851555429 -0.3464145030398364 0 0.31543696134246668 -0.34593224431305769 0 0.31314202037018413 -0.32284829747545468 0 0.30533649780288991 -0.32025428503190068 0 0.29792146783109758 -0.32077626486014349 0 0.30314188851555429 -0.3464145030398364 0 0.31543696134246668 -0.34593224431305769 0 0.30533649780288991 -0.32025428503190068 0 0.29792146783109758 -0.32077626486014349 0 0.29422135484035322 -0.33366994296298719 0 0.30314188851555429 -0.3464145030398364 0 0.29422135484035322 -0.33366994296298719 0 0.29546103181119637 -0.34185893253319311 0 0.30314188851555429 -0.3464145030398364 0 0.29422135484035322 -0.33366994296298719 0 0.29546103181119637 -0.34185893253319311 0 0.28827175492889229 -0.34275780055790278 0 0.29546103181119637 -0.34185893253319311 0 0.28827175492889229 -0.34275780055790278 0 0.29811044553331972 -0.34650788457159087 0 0.29422135484035322 -0.33366994296298719 0 0.28827175492889229 -0.34275780055790278 0 0.27955848846152698 -0.33666113426449551 0 0.29422135484035322 -0.33366994296298719 0 0.28744860979629389 -0.32474860906702402 0 0.27955848846152698 -0.33666113426449551 0 0.28744860979629389 -0.32474860906702402 0 0.29019889155513462 -0.31620785207956748 0 0.28097437988070417 -0.31138482246715898 0 0.29792146783109758 -0.32077626486014349 0 0.29019889155513462 -0.31620785207956748 0 0.29244758100571983 -0.32385066724243061 0 0.29422135484035322 -0.33366994296298719 0 0.28744860979629389 -0.32474860906702402 0 0.29244758100571983 -0.32385066724243061 0 0.29792146783109758 -0.32077626486014349 0 0.29422135484035322 -0.33366994296298719 0 0.29244758100571983 -0.32385066724243061 0 0.28744860979629389 -0.32474860906702402 0 0.29019889155513462 -0.31620785207956748 0 0.29244758100571983 -0.32385066724243061 0 0.30525369772634148 -0.37164386163485291 0 0.30031449930387721 -0.36082981960256849 0 0.30900602422585888 -0.35865430802761772 0 0.30525369772634148 -0.37164386163485291 0 0.30031449930387721 -0.36082981960256849 0 0.29483415024835152 -0.36747827247447862 0 0.30080593951138668 -0.35381036279877531 0 0.30900602422585888 -0.35865430802761772 0 0.30314188851555429 -0.3464145030398364 0 0.30080593951138668 -0.35381036279877531 0 0.29811044553331972 -0.34650788457159087 0 0.29345683997832372 -0.35664529875226292 0 0.30031449930387721 -0.36082981960256849 0 0.30080593951138668 -0.35381036279877531 0 0.30900602422585888 -0.35865430802761772 0 0.30031449930387721 -0.36082981960256849 0 0.30080593951138668 -0.35381036279877531 0 0.29345683997832372 -0.35664529875226292 0 0.31543696134246668 -0.34593224431305769 0 0.30900602422585888 -0.35865430802761772 0 0.30314188851555429 -0.3464145030398364 0 0.30080593951138668 -0.35381036279877531 0 0.30314188851555429 -0.3464145030398364 0 0.29811044553331972 -0.34650788457159087 0 0.29546103181119637 -0.34185893253319311 0 0.30314188851555429 -0.3464145030398364 0 0.29811044553331972 -0.34650788457159087 0 0.29811044553331972 -0.34650788457159087 0 0.29345683997832372 -0.35664529875226292 0 0.28122462644821988 -0.35688066365974619 0 0.28827175492889229 -0.34275780055790278 0 0.29811044553331972 -0.34650788457159087 0 0.28122462644821988 -0.35688066365974619 0 0.28827175492889229 -0.34275780055790278 0 0.28122462644821988 -0.35688066365974619 0 0.27955848846152698 -0.33666113426449551 0 0.29811044553331972 -0.34650788457159087 0 0.28122462644821988 -0.35688066365974619 0 0.29345683997832372 -0.35664529875226292 0 0.28676543400443838 -0.36101512068260139 0 0.28122462644821988 -0.35688066365974619 0 0.28676543400443838 -0.36101512068260139 0 0.28122462644821988 -0.35688066365974619 0 0.28783989868818821 -0.37644057584389279 0 0.30525369772634148 -0.37164386163485291 0 0.29483415024835152 -0.36747827247447862 0 0.28783989868818821 -0.37644057584389279 0 0.28676543400443838 -0.36101512068260139 0 0.27033126349110148 -0.36357234067652822 0 0.29357505063040601 -0.36145191270551408 0 0.28676543400443838 -0.36101512068260139 0 0.29483415024835152 -0.36747827247447862 0 0.30031449930387721 -0.36082981960256849 0 0.29357505063040601 -0.36145191270551408 0 0.29483415024835152 -0.36747827247447862 0 0.30031449930387721 -0.36082981960256849 0 0.29345683997832372 -0.35664529875226292 0 0.29357505063040601 -0.36145191270551408 0 0.29345683997832372 -0.35664529875226292 0 0.29357505063040601 -0.36145191270551408 0 0.28676543400443838 -0.36101512068260139 0 0.28783989868818821 -0.37644057584389279 0 0.28676543400443838 -0.36101512068260139 0 0.29483415024835152 -0.36747827247447862 0 0.28783989868818821 -0.37644057584389279 0 0.27033126349110148 -0.36357234067652822 0 0.28783989868818821 -0.37644057584389279 0 0.27447250226623809 -0.37821124143188289 0 0.27033126349110148 -0.36357234067652822 0 0.28676543400443838 -0.36101512068260139 0 0.27033126349110148 -0.36357234067652822 0 0.28122462644821988 -0.35688066365974619 0 0.27447250226623809 -0.37821124143188289 0 0.26423397132697279 -0.37890457124200982 0 0.27033126349110148 -0.36357234067652822 0 0.27033126349110148 -0.36357234067652822 0 0.28122462644821988 -0.35688066365974619 0 0.28122462644821988 -0.35688066365974619 0 0.26082083375001269 -0.34165569813656432 0 0.27033126349110148 -0.36357234067652822 0 0.28122462644821988 -0.35688066365974619 0 0.26082083375001269 -0.34165569813656432 0 0.28122462644821988 -0.35688066365974619 0 0.27955848846152698 -0.33666113426449551 0 0.26082083375001269 -0.34165569813656432 0 0.27033126349110148 -0.36357234067652822 0 0.25099839141978419 -0.34936335514031408 0 0.27033126349110148 -0.36357234067652822 0 0.25099839141978419 -0.34936335514031408 0 0.26082083375001269 -0.34165569813656432 0 0.27033126349110148 -0.36357234067652822 0 0.25099839141978419 -0.34936335514031408 0 0.24534349961555019 -0.36253701182870851 0 0.26423397132697279 -0.37890457124200982 0 0.27033126349110148 -0.36357234067652822 0 0.24987622704845311 -0.37613765202982719 0 0.27033126349110148 -0.36357234067652822 0 0.24534349961555019 -0.36253701182870851 0 0.24987622704845311 -0.37613765202982719 0 0.27033126349110148 -0.36357234067652822 0 0.24987622704845311 -0.37613765202982719 0 0.28744860979629389 -0.32474860906702402 0 0.26598899428458778 -0.32103793389256657 0 0.27955848846152698 -0.33666113426449551 0 0.28744860979629389 -0.32474860906702402 0 0.26598899428458778 -0.32103793389256657 0 0.28097437988070417 -0.31138482246715898 0 0.26598899428458778 -0.32103793389256657 0 0.27955848846152698 -0.33666113426449551 0 0.26082083375001269 -0.34165569813656432 0 0.26082083375001269 -0.34165569813656432 0 0.2404170410518052 -0.32643073261338312 0 0.26598899428458778 -0.32103793389256657 0 0.26082083375001269 -0.34165569813656432 0 0.2404170410518052 -0.32643073261338312 0 0.25099839141978419 -0.34936335514031408 0 0.26082083375001269 -0.34165569813656432 0 0.2404170410518052 -0.32643073261338312 0 0.26598899428458778 -0.32103793389256657 0 0.24423538898563429 -0.30587701823941071 0 0.2404170410518052 -0.32643073261338312 0 0.26846821806613752 -0.30050752245993012 0 0.24423538898563429 -0.30587701823941071 0 0.25301376652256202 -0.2892367573709661 0 0.26846821806613752 -0.30050752245993012 0 0.24423538898563429 -0.30587701823941071 0 0.26598899428458778 -0.32103793389256657 0 0.26846821806613752 -0.30050752245993012 0 0.24423538898563429 -0.30587701823941071 0 0.25301376652256202 -0.2892367573709661 0 0.26500420865911251 -0.28331687632378699 0 0.26846821806613752 -0.30050752245993012 0 0.25301376652256202 -0.2892367573709661 0 0.26500420865911251 -0.28331687632378699 0 0.2507153324002197 -0.27704953531328702 0 0.26500420865911251 -0.28331687632378699 0 0.27805302037335089 -0.28584974436810762 0 0.26846821806613752 -0.30050752245993012 0 0.27805302037335089 -0.28584974436810762 0 0.26846821806613752 -0.30050752245993012 0 0.29270104714664102 -0.29513802668045069 0 0.26500420865911251 -0.28331687632378699 0 0.27805302037335089 -0.28584974436810762 0 0.27342558025451552 -0.27498979272208851 0 0.26598899428458778 -0.32103793389256657 0 0.26846821806613752 -0.30050752245993012 0 0.28097437988070417 -0.31138482246715898 0 0.26846821806613752 -0.30050752245993012 0 0.28097437988070417 -0.31138482246715898 0 0.29270104714664102 -0.29513802668045069 0 0.26846821806613752 -0.30050752245993012 0 0.29270104714664102 -0.29513802668045069 0 0.29792146783109758 -0.32077626486014349 0 0.29270104714664102 -0.29513802668045069 0 0.29019889155513462 -0.31620785207956748 0 0.28097437988070417 -0.31138482246715898 0 0.29270104714664102 -0.29513802668045069 0 0.29792146783109758 -0.32077626486014349 0 0.29019889155513462 -0.31620785207956748 0 0.29270104714664102 -0.29513802668045069 0 0.29792146783109758 -0.32077626486014349 0 0.29270104714664102 -0.29513802668045069 0 0.29523603426331357 -0.29457632575074338 0 0.27805302037335089 -0.28584974436810762 0 0.29026987947112831 -0.28319821192468808 0 0.29270104714664102 -0.29513802668045069 0 0.27805302037335089 -0.28584974436810762 0 0.29026987947112831 -0.28319821192468808 0 0.28863308206368682 -0.27515966401439529 0 0.29026987947112831 -0.28319821192468808 0 0.29523603426331357 -0.29457632575074338 0 0.29026987947112831 -0.28319821192468808 0 0.29523603426331357 -0.29457632575074338 0 0.30320790951940702 -0.28313078900162059 0 0.29026987947112831 -0.28319821192468808 0 0.29270104714664102 -0.29513802668045069 0 0.29523603426331357 -0.29457632575074338 0 0.29026987947112831 -0.28319821192468808 0 0.29270104714664102 -0.29513802668045069 0 0.29270104714664102 -0.29513802668045069 0 0.29523603426331357 -0.29457632575074338 0 0.29523603426331357 -0.29457632575074338 0 0.31208952779935789 -0.2908419387292881 0 0.29523603426331357 -0.29457632575074338 0 0.30320790951940702 -0.28313078900162059 0 0.31208952779935789 -0.2908419387292881 0 0.29523603426331357 -0.29457632575074338 0 0.31208952779935789 -0.2908419387292881 0 0.30833746379913463 -0.30503745501229762 0 0.31611371382327402 -0.28007222207304999 0 0.30320790951940702 -0.28313078900162059 0 0.31208952779935789 -0.2908419387292881 0 0.30533649780288991 -0.32025428503190068 0 0.29523603426331357 -0.29457632575074338 0 0.30833746379913463 -0.30503745501229762 0 0.30533649780288991 -0.32025428503190068 0 0.29792146783109758 -0.32077626486014349 0 0.29523603426331357 -0.29457632575074338 0 0.30533649780288991 -0.32025428503190068 0 0.29523603426331357 -0.29457632575074338 0 0.3171485971304504 -0.30589952111326829 0 0.3109911447756647 -0.31350988965823029 0 0.30833746379913463 -0.30503745501229762 0 0.29812220868357159 -0.26533402464574418 0 0.30111904597271899 -0.2536098058489899 0 0.30981211567343969 -0.26250129009931661 0 0.31597462601859122 -0.25080747204364812 0 0.30111904597271899 -0.2536098058489899 0 0.30981211567343969 -0.26250129009931661 0 0.29812220868357159 -0.26533402464574418 0 0.30981211567343969 -0.26250129009931661 0 0.30706455279928557 -0.27339796693147528 0 0.31611371382327402 -0.28007222207304999 0 0.30320790951940702 -0.28313078900162059 0 0.30706455279928557 -0.27339796693147528 0 0.29026987947112831 -0.28319821192468808 0 0.30320790951940702 -0.28313078900162059 0 0.29755036247591721 -0.27602563541609298 0 0.30320790951940702 -0.28313078900162059 0 0.30706455279928557 -0.27339796693147528 0 0.29755036247591721 -0.27602563541609298 0 0.29812220868357159 -0.26533402464574418 0 0.30706455279928557 -0.27339796693147528 0 0.29755036247591721 -0.27602563541609298 0 0.29812220868357159 -0.26533402464574418 0 0.29755036247591721 -0.27602563541609298 0 0.28863308206368682 -0.27515966401439529 0 0.29026987947112831 -0.28319821192468808 0 0.28863308206368682 -0.27515966401439529 0 0.29026987947112831 -0.28319821192468808 0 0.29755036247591721 -0.27602563541609298 0 0.28863308206368682 -0.27515966401439529 0 0.28863308206368682 -0.27515966401439529 0 0.28456511698073272 -0.25518130134833977 0 0.29812220868357159 -0.26533402464574418 0 0.28863308206368682 -0.27515966401439529 0 0.28456511698073272 -0.25518130134833977 0 0.29812220868357159 -0.26533402464574418 0 0.30111904597271899 -0.2536098058489899 0 0.28456511698073272 -0.25518130134833977 0 0.28863308206368682 -0.27515966401439529 0 0.28456511698073272 -0.25518130134833977 0 0.27223885194073971 -0.26265851400849172 0 0.28456511698073272 -0.25518130134833977 0 0.27223885194073971 -0.26265851400849172 0 0.26629969424128969 -0.25192769388052821 0 0.27223885194073971 -0.26265851400849172 0 0.26629969424128969 -0.25192769388052821 0 0.2629172406837702 -0.26740365320709081 0 0.26500420865911251 -0.28331687632378699 0 0.27342558025451552 -0.27498979272208851 0 0.2629172406837702 -0.26740365320709081 0 0.28863308206368682 -0.27515966401439529 0 0.27223885194073971 -0.26265851400849172 0 0.27342558025451552 -0.27498979272208851 0 0.27805302037335089 -0.28584974436810762 0 0.28863308206368682 -0.27515966401439529 0 0.27342558025451552 -0.27498979272208851 0 0.27223885194073971 -0.26265851400849172 0 0.27342558025451552 -0.27498979272208851 0 0.2629172406837702 -0.26740365320709081 0 0.26500420865911251 -0.28331687632378699 0 0.2629172406837702 -0.26740365320709081 0 0.2507153324002197 -0.27704953531328702 0 0.2629172406837702 -0.26740365320709081 0 0.2507153324002197 -0.27704953531328702 0 0.2466218950091964 -0.26012473444713258 0 0.25037283077400019 -0.2416092145933311 0 0.26629969424128969 -0.25192769388052821 0 0.2466218950091964 -0.26012473444713258 0 0.26629969424128969 -0.25192769388052821 0 0.2629172406837702 -0.26740365320709081 0 0.2466218950091964 -0.26012473444713258 0 0.25037283077400019 -0.2416092145933311 0 0.2466218950091964 -0.26012473444713258 0 0.2339549802858914 -0.24933471903745599 0 0.2466218950091964 -0.26012473444713258 0 0.22717476572977791 -0.26325637954660608 0 0.2339549802858914 -0.24933471903745599 0 0.2466218950091964 -0.26012473444713258 0 0.23628574795648369 -0.27498419313581679 0 0.22717476572977791 -0.26325637954660608 0 0.2507153324002197 -0.27704953531328702 0 0.2466218950091964 -0.26012473444713258 0 0.23628574795648369 -0.27498419313581679 0 0.2507153324002197 -0.27704953531328702 0 0.23628574795648369 -0.27498419313581679 0 0.24044913557019401 -0.28723099739492908 0 0.2247339410531527 -0.27667652802353632 0 0.21554844428562811 -0.26491471108287651 0 0.21653111649902579 -0.28712771180040292 0 0.23628574795648369 -0.27498419313581679 0 0.2247339410531527 -0.27667652802353632 0 0.22717476572977791 -0.26325637954660608 0 0.2247339410531527 -0.27667652802353632 0 0.22717476572977791 -0.26325637954660608 0 0.21554844428562811 -0.26491471108287651 0 0.22717476572977791 -0.26325637954660608 0 0.22331750647786899 -0.25281133177650322 0 0.2339549802858914 -0.24933471903745599 0 0.22717476572977791 -0.26325637954660608 0 0.22331750647786899 -0.25281133177650322 0 0.21554844428562811 -0.26491471108287651 0 0.2084475354763706 -0.25511513831035743 0 0.21554844428562811 -0.26491471108287651 0 0.1982966667633215 -0.26354120971092698 0 0.21554844428562811 -0.26491471108287651 0 0.21456577207223029 -0.24270171036535029 0 0.22331750647786899 -0.25281133177650322 0 0.21554844428562811 -0.26491471108287651 0 0.21456577207223029 -0.24270171036535029 0 0.2084475354763706 -0.25511513831035743 0 0.21554844428562811 -0.26491471108287651 0 0.21336353465090491 -0.24693864317134839 0 0.21554844428562811 -0.26491471108287651 0 0.21336353465090491 -0.24693864317134839 0 0.21456577207223029 -0.24270171036535029 0 0.2084475354763706 -0.25511513831035743 0 0.1982966667633215 -0.26354120971092698 0 0.2080714594183444 -0.2424179483002232 0 0.1982966667633215 -0.26354120971092698 0 0.2080714594183444 -0.2424179483002232 0 0.21554844428562811 -0.26491471108287651 0 0.21653111649902579 -0.28712771180040292 0 0.21554844428562811 -0.26491471108287651 0 0.20859607852913339 -0.28093905456482821 0 0.21653111649902579 -0.28712771180040292 0 0.21554844428562811 -0.26491471108287651 0 0.20859607852913339 -0.28093905456482821 0 0.2011380539128553 -0.27767933622792518 0 0.21554844428562811 -0.26491471108287651 0 0.2011380539128553 -0.27767933622792518 0 0.1982966667633215 -0.26354120971092698 0 0.1982966667633215 -0.26354120971092698 0 0.18852187410829821 -0.28466447112163068 0 0.1982966667633215 -0.26354120971092698 0 0.18852187410829821 -0.28466447112163068 0 0.1845366839674035 -0.26640487959885623 0 0.2011380539128553 -0.27767933622792518 0 0.1982966667633215 -0.26354120971092698 0 0.18852187410829821 -0.28466447112163068 0 0.1982966667633215 -0.26354120971092698 0 0.2080714594183444 -0.2424179483002232 0 0.19254414318066221 -0.24961624770678509 0 0.1982966667633215 -0.26354120971092698 0 0.18706352147094041 -0.25756661524031438 0 0.1845366839674035 -0.26640487959885623 0 0.1982966667633215 -0.26354120971092698 0 0.18706352147094041 -0.25756661524031438 0 0.19254414318066221 -0.24961624770678509 0 0.18706352147094041 -0.25756661524031438 0 0.19254414318066221 -0.24961624770678509 0 0.18399505531774341 -0.24981832115951039 0 0.20249447748908611 -0.29813355613580778 0 0.1976485991634879 -0.30796138879627621 0 0.19462594870140809 -0.30164723750547567 0 0.20249447748908611 -0.29813355613580778 0 0.19462594870140809 -0.30164723750547567 0 0.19392418081794471 -0.29575522021664652 0 0.20249447748908611 -0.29813355613580778 0 0.1976485991634879 -0.30796138879627621 0 0.20782414549410869 -0.30817847155873718 0 0.1976485991634879 -0.30796138879627621 0 0.20782414549410869 -0.30817847155873718 0 0.20282381327660201 -0.31505297042611552 0 0.1976485991634879 -0.30796138879627621 0 0.19009702279388629 -0.3064242775921906 0 0.18802618722583669 -0.31833181955932999 0 0.1976485991634879 -0.30796138879627621 0 0.19009702279388629 -0.3064242775921906 0 0.19462594870140809 -0.30164723750547567 0 0.19009702279388629 -0.3064242775921906 0 0.19462594870140809 -0.30164723750547567 0 0.1880606218677118 -0.30022154946313712 0 0.19462594870140809 -0.30164723750547567 0 0.19110113081553529 -0.29631368747161629 0 0.19392418081794471 -0.29575522021664652 0 0.1880606218677118 -0.30022154946313712 0 0.19110113081553529 -0.29631368747161629 0 0.18734834214976739 -0.29514628785519947 0 0.19462594870140809 -0.30164723750547567 0 0.1880606218677118 -0.30022154946313712 0 0.19110113081553529 -0.29631368747161629 0 0.20249447748908611 -0.29813355613580778 0 0.18747516626574931 -0.28692639975368628 0 0.20249447748908611 -0.29813355613580778 0 0.19392418081794471 -0.29575522021664652 0 0.18747516626574931 -0.28692639975368628 0 0.19110113081553529 -0.29631368747161629 0 0.19392418081794471 -0.29575522021664652 0 0.18747516626574931 -0.28692639975368628 0 0.19110113081553529 -0.29631368747161629 0 0.18747516626574931 -0.28692639975368628 0 0.18734834214976739 -0.29514628785519947 0 0.18852187410829821 -0.28466447112163068 0 0.19787122383615691 -0.29172525818392958 0 0.18852187410829821 -0.28466447112163068 0 0.19731262536099689 -0.28481999283041842 0 0.19787122383615691 -0.29172525818392958 0 0.18852187410829821 -0.28466447112163068 0 0.19787122383615691 -0.29172525818392958 0 0.18747516626574931 -0.28692639975368628 0 0.18852187410829821 -0.28466447112163068 0 0.18747516626574931 -0.28692639975368628 0 0.2011380539128553 -0.27767933622792518 0 0.18852187410829821 -0.28466447112163068 0 0.19731262536099689 -0.28481999283041842 0 0.201719349586677 -0.2852109057881882 0 0.19787122383615691 -0.29172525818392958 0 0.206049533411369 -0.28982701925762389 0 0.19731262536099689 -0.28481999283041842 0 0.201719349586677 -0.2852109057881882 0 0.19787122383615691 -0.29172525818392958 0 0.2011380539128553 -0.27767933622792518 0 0.19731262536099689 -0.28481999283041842 0 0.201719349586677 -0.2852109057881882 0 0.20249447748908611 -0.29813355613580778 0 0.19787122383615691 -0.29172525818392958 0 0.18747516626574931 -0.28692639975368628 0 0.20249447748908611 -0.29813355613580778 0 0.19787122383615691 -0.29172525818392958 0 0.206049533411369 -0.28982701925762389 0 0.20249447748908611 -0.29813355613580778 0 0.206049533411369 -0.28982701925762389 0 0.20903552332543929 -0.29406903275804652 0 0.206049533411369 -0.28982701925762389 0 0.20903552332543929 -0.29406903275804652 0 0.21653111649902579 -0.28712771180040292 0 0.20249447748908611 -0.29813355613580778 0 0.20903552332543929 -0.29406903275804652 0 0.2123558614978226 -0.29827812898856709 0 0.20859607852913339 -0.28093905456482821 0 0.206049533411369 -0.28982701925762389 0 0.21653111649902579 -0.28712771180040292 0 0.20859607852913339 -0.28093905456482821 0 0.201719349586677 -0.2852109057881882 0 0.206049533411369 -0.28982701925762389 0 0.20859607852913339 -0.28093905456482821 0 0.2011380539128553 -0.27767933622792518 0 0.201719349586677 -0.2852109057881882 0 0.20903552332543929 -0.29406903275804652 0 0.21653111649902579 -0.28712771180040292 0 0.2123558614978226 -0.29827812898856709 0 0.21653111649902579 -0.28712771180040292 0 0.2175137887124228 -0.30934071251792922 0 0.21653111649902579 -0.28712771180040292 0 0.2123558614978226 -0.29827812898856709 0 0.2175137887124228 -0.30934071251792922 0 0.20249447748908611 -0.29813355613580778 0 0.2123558614978226 -0.29827812898856709 0 0.2175137887124228 -0.30934071251792922 0 0.20249447748908611 -0.29813355613580778 0 0.2175137887124228 -0.30934071251792922 0 0.20782414549410869 -0.30817847155873718 0 0.2176214393273678 -0.31177412129290383 0 0.20282381327660201 -0.31505297042611552 0 0.20249447748908611 -0.29813355613580778 0 0.20782414549410869 -0.30817847155873718 0 0.2175137887124228 -0.30934071251792922 0 0.20782414549410869 -0.30817847155873718 0 0.2175137887124228 -0.30934071251792922 0 0.2176214393273678 -0.31177412129290383 0 0.2175137887124228 -0.30934071251792922 0 0.2176214393273678 -0.31177412129290383 0 0.2175137887124228 -0.30934071251792922 0 0.2176214393273678 -0.31177412129290383 0 0.21999804566891551 -0.31122614102315033 0 0.21999804566891551 -0.31122614102315033 0 0.24423538898563429 -0.30587701823941071 0 0.2175137887124228 -0.30934071251792922 0 0.21999804566891551 -0.31122614102315033 0 0.22812963079484819 -0.29309964455197901 0 0.21999804566891551 -0.31122614102315033 0 0.22812963079484819 -0.29309964455197901 0 0.21999804566891551 -0.31122614102315033 0 0.22812963079484819 -0.29309964455197901 0 0.24423538898563429 -0.30587701823941071 0 0.2176214393273678 -0.31177412129290383 0 0.21999804566891551 -0.31122614102315033 0 0.2175137887124228 -0.30934071251792922 0 0.21999804566891551 -0.31122614102315033 0 0.23628574795648369 -0.27498419313581679 0 0.22812963079484819 -0.29309964455197901 0 0.2247339410531527 -0.27667652802353632 0 0.21653111649902579 -0.28712771180040292 0 0.22812963079484819 -0.29309964455197901 0 0.23628574795648369 -0.27498419313581679 0 0.2247339410531527 -0.27667652802353632 0 0.22812963079484819 -0.29309964455197901 0 0.21653111649902579 -0.28712771180040292 0 0.2175137887124228 -0.30934071251792922 0 0.22812963079484819 -0.29309964455197901 0 0.23628574795648369 -0.27498419313581679 0 0.22812963079484819 -0.29309964455197901 0 0.24044913557019401 -0.28723099739492908 0 0.25301376652256202 -0.2892367573709661 0 0.24044913557019401 -0.28723099739492908 0 0.24423538898563429 -0.30587701823941071 0 0.22812963079484819 -0.29309964455197901 0 0.24044913557019401 -0.28723099739492908 0 0.24423538898563429 -0.30587701823941071 0 0.25301376652256202 -0.2892367573709661 0 0.2507153324002197 -0.27704953531328702 0 0.24044913557019401 -0.28723099739492908 0 0.21999804566891551 -0.31122614102315033 0 0.24423538898563429 -0.30587701823941071 0 0.2404170410518052 -0.32643073261338312 0 0.25099839141978419 -0.34936335514031408 0 0.2316655193484673 -0.33515436960409939 0 0.25099839141978419 -0.34936335514031408 0 0.2404170410518052 -0.32643073261338312 0 0.2316655193484673 -0.33515436960409939 0 0.2404170410518052 -0.32643073261338312 0 0.2316655193484673 -0.33515436960409939 0 0.2247705650129608 -0.32491873692320528 0 0.2316655193484673 -0.33515436960409939 0 0.22208049410379579 -0.34309390150507102 0 0.22867514261462599 -0.34782526071452929 0 0.2316655193484673 -0.33515436960409939 0 0.22208049410379579 -0.34309390150507102 0 0.220555537226792 -0.33578323097752499 0 0.22208049410379579 -0.34309390150507102 0 0.220555537226792 -0.33578323097752499 0 0.21451162402718699 -0.34512658597487872 0 0.220555537226792 -0.33578323097752499 0 0.2247705650129608 -0.32491873692320528 0 0.21820242441149371 -0.32490710899175251 0 0.2316655193484673 -0.33515436960409939 0 0.220555537226792 -0.33578323097752499 0 0.2247705650129608 -0.32491873692320528 0 0.21999804566891551 -0.31122614102315033 0 0.2404170410518052 -0.32643073261338312 0 0.2247705650129608 -0.32491873692320528 0 0.21999804566891551 -0.31122614102315033 0 0.2404170410518052 -0.32643073261338312 0 0.2247705650129608 -0.32491873692320528 0 0.21780935440599439 -0.31602188338433101 0 0.21820242441149371 -0.32490710899175251 0 0.21999804566891551 -0.31122614102315033 0 0.2247705650129608 -0.32491873692320528 0 0.21780935440599439 -0.31602188338433101 0 0.21999804566891551 -0.31122614102315033 0 0.21780935440599439 -0.31602188338433101 0 0.23679608458568241 -0.3713456781615978 0 0.24534349961555019 -0.36253701182870851 0 0.24987622704845311 -0.37613765202982719 0 0.23679608458568241 -0.3713456781615978 0 0.24534349961555019 -0.36253701182870851 0 0.23133102347449649 -0.35950822589080189 0 0.25099839141978419 -0.34936335514031408 0 0.2316655193484673 -0.33515436960409939 0 0.23760271529458479 -0.35087764463569071 0 0.24534349961555019 -0.36253701182870851 0 0.23760271529458479 -0.35087764463569071 0 0.23133102347449649 -0.35950822589080189 0 0.25099839141978419 -0.34936335514031408 0 0.24534349961555019 -0.36253701182870851 0 0.23760271529458479 -0.35087764463569071 0 0.2316655193484673 -0.33515436960409939 0 0.23760271529458479 -0.35087764463569071 0 0.22867514261462599 -0.34782526071452929 0 0.22208049410379579 -0.34309390150507102 0 0.22076837523631451 -0.35267920974236072 0 0.21451162402718699 -0.34512658597487872 0 0.22208049410379579 -0.34309390150507102 0 0.22867514261462599 -0.34782526071452929 0 0.22076837523631451 -0.35267920974236072 0 0.22076837523631451 -0.35267920974236072 0 0.22341137818785181 -0.36337688942730773 0 0.21609027172906259 -0.36087537471117581 0 0.22076837523631451 -0.35267920974236072 0 0.23133102347449649 -0.35950822589080189 0 0.22341137818785181 -0.36337688942730773 0 0.22867514261462599 -0.34782526071452929 0 0.22076837523631451 -0.35267920974236072 0 0.23133102347449649 -0.35950822589080189 0 0.23760271529458479 -0.35087764463569071 0 0.22867514261462599 -0.34782526071452929 0 0.23133102347449649 -0.35950822589080189 0 0.23133102347449649 -0.35950822589080189 0 0.22341137818785181 -0.36337688942730773 0 0.22699371624108439 -0.37103399677892651 0 0.22341137818785181 -0.36337688942730773 0 0.22699371624108439 -0.37103399677892651 0 0.21663927632257499 -0.37152038636996992 0 0.22699371624108439 -0.37103399677892651 0 0.21663927632257499 -0.37152038636996992 0 0.22189277223980711 -0.38054577212349588 0 0.23679608458568241 -0.3713456781615978 0 0.22699371624108439 -0.37103399677892651 0 0.23010576568282681 -0.37607478874810818 0 0.23679608458568241 -0.3713456781615978 0 0.23133102347449649 -0.35950822589080189 0 0.22699371624108439 -0.37103399677892651 0 0.21663927632257499 -0.37152038636996992 0 0.20683644217058031 -0.36558797855932218 0 0.20576161095015591 -0.37595213443190167 0 0.22341137818785181 -0.36337688942730773 0 0.21663927632257499 -0.37152038636996992 0 0.21609027172906259 -0.36087537471117581 0 0.21609027172906259 -0.36087537471117581 0 0.20683644217058031 -0.36558797855932218 0 0.21089823393406021 -0.35324530101306001 0 0.21663927632257499 -0.37152038636996992 0 0.21609027172906259 -0.36087537471117581 0 0.20683644217058031 -0.36558797855932218 0 0.19940837682496099 -0.35689206815154528 0 0.20777431361625601 -0.33831058893907762 0 0.21089823393406021 -0.35324530101306001 0 0.19940837682496099 -0.35689206815154528 0 0.20777431361625601 -0.33831058893907762 0 0.20683644217058031 -0.36558797855932218 0 0.21089823393406021 -0.35324530101306001 0 0.19940837682496099 -0.35689206815154528 0 0.22076837523631451 -0.35267920974236072 0 0.21609027172906259 -0.36087537471117581 0 0.21089823393406021 -0.35324530101306001 0 0.21089823393406021 -0.35324530101306001 0 0.21451162402718699 -0.34512658597487872 0 0.20777431361625601 -0.33831058893907762 0 0.22076837523631451 -0.35267920974236072 0 0.21089823393406021 -0.35324530101306001 0 0.21451162402718699 -0.34512658597487872 0 0.1971616983813648 -0.34495631128618592 0 0.19940837682496099 -0.35689206815154528 0 0.20777431361625601 -0.33831058893907762 0 0.1971616983813648 -0.34495631128618592 0 0.18787137947787569 -0.35180034780069419 0 0.18864170350563411 -0.33720407153827198 0 0.1971616983813648 -0.34495631128618592 0 0.18787137947787569 -0.35180034780069419 0 0.19940837682496099 -0.35689206815154528 0 0.20683644217058031 -0.36558797855932218 0 0.20576161095015591 -0.37595213443190167 0 0.1910424400336663 -0.37547354736401328 0 0.18787137947787569 -0.35180034780069419 0 0.19940837682496099 -0.35689206815154528 0 0.1910424400336663 -0.37547354736401328 0 0.19940837682496099 -0.35689206815154528 0 0.1910424400336663 -0.37547354736401328 0 0.20683644217058031 -0.36558797855932218 0 0.19940837682496099 -0.35689206815154528 0 0.1910424400336663 -0.37547354736401328 0 0.21780935440599439 -0.31602188338433101 0 0.20777431361625601 -0.33831058893907762 0 0.21780935440599439 -0.31602188338433101 0 0.20777431361625601 -0.33831058893907762 0 0.20282381327660201 -0.31505297042611552 0 0.21780935440599439 -0.31602188338433101 0 0.21820242441149371 -0.32490710899175251 0 0.20777431361625601 -0.33831058893907762 0 0.2176214393273678 -0.31177412129290383 0 0.20282381327660201 -0.31505297042611552 0 0.2176214393273678 -0.31177412129290383 0 0.21780935440599439 -0.31602188338433101 0 0.20282381327660201 -0.31505297042611552 0 0.2176214393273678 -0.31177412129290383 0 0.21780935440599439 -0.31602188338433101 0 0.2176214393273678 -0.31177412129290383 0 0.21999804566891551 -0.31122614102315033 0 0.21780935440599439 -0.31602188338433101 0 0.21780935440599439 -0.31602188338433101 0 0.21820242441149371 -0.32490710899175251 0 0.220555537226792 -0.33578323097752499 0 0.21820242441149371 -0.32490710899175251 0 0.20777431361625601 -0.33831058893907762 0 0.220555537226792 -0.33578323097752499 0 0.21451162402718699 -0.34512658597487872 0 0.20777431361625601 -0.33831058893907762 0 0.21451162402718699 -0.34512658597487872 0 0.20777431361625601 -0.33831058893907762 0 0.1971616983813648 -0.34495631128618592 0 0.20777431361625601 -0.33831058893907762 0 0.18864170350563411 -0.33720407153827198 0 0.20777431361625601 -0.33831058893907762 0 0.18802618722583669 -0.31833181955932999 0 0.20777431361625601 -0.33831058893907762 0 0.18864170350563411 -0.33720407153827198 0 0.18802618722583669 -0.31833181955932999 0 0.20777431361625601 -0.33831058893907762 0 0.20282381327660201 -0.31505297042611552 0 0.18802618722583669 -0.31833181955932999 0 0.20282381327660201 -0.31505297042611552 0 0.18802618722583669 -0.31833181955932999 0 0.1976485991634879 -0.30796138879627621 0 0.20282381327660201 -0.31505297042611552 0 0.18802618722583669 -0.31833181955932999 0 0.18802618722583669 -0.31833181955932999 0 0.1791507244663583 -0.32983729973660558 0 0.16791254130802971 -0.3227885891963716 0 0.18802618722583669 -0.31833181955932999 0 0.17151825735526699 -0.31325416760549368 0 0.16791254130802971 -0.3227885891963716 0 0.18802618722583669 -0.31833181955932999 0 0.16791254130802971 -0.3227885891963716 0 0.18864170350563411 -0.33720407153827198 0 0.18802618722583669 -0.31833181955932999 0 0.1791507244663583 -0.32983729973660558 0 0.17202246582593331 -0.34102471865244838 0 0.1791507244663583 -0.32983729973660558 0 0.16791254130802971 -0.3227885891963716 0 0.18787137947787569 -0.35180034780069419 0 0.18864170350563411 -0.33720407153827198 0 0.17202246582593331 -0.34102471865244838 0 0.18864170350563411 -0.33720407153827198 0 0.17202246582593331 -0.34102471865244838 0 0.1791507244663583 -0.32983729973660558 0 0.17202246582593331 -0.34102471865244838 0 0.1546435437787094 -0.34381338892778002 0 0.1557586906108582 -0.32786840018592928 0 0.17202246582593331 -0.34102471865244838 0 0.16791254130802971 -0.3227885891963716 0 0.1557586906108582 -0.32786840018592928 0 0.16791254130802971 -0.3227885891963716 0 0.1557586906108582 -0.32786840018592928 0 0.1602411687519314 -0.31190927739118429 0 0.17151825735526699 -0.31325416760549368 0 0.16791254130802971 -0.3227885891963716 0 0.1602411687519314 -0.31190927739118429 0 0.18787137947787569 -0.35180034780069419 0 0.17662324672053431 -0.35795823269279659 0 0.1910424400336663 -0.37547354736401328 0 0.17662324672053431 -0.35795823269279659 0 0.17035242753357599 -0.36877211446365682 0 0.1910424400336663 -0.37547354736401328 0 0.17035242753357599 -0.36877211446365682 0 0.1910424400336663 -0.37547354736401328 0 0.1737051017910701 -0.38004230502140057 0 0.18787137947787569 -0.35180034780069419 0 0.17202246582593331 -0.34102471865244838 0 0.17662324672053431 -0.35795823269279659 0 0.17202246582593331 -0.34102471865244838 0 0.17662324672053431 -0.35795823269279659 0 0.16265844046108829 -0.35526087104265458 0 0.17202246582593331 -0.34102471865244838 0 0.16265844046108829 -0.35526087104265458 0 0.1546435437787094 -0.34381338892778002 0 0.17662324672053431 -0.35795823269279659 0 0.16265844046108829 -0.35526087104265458 0 0.17035242753357599 -0.36877211446365682 0 0.16265844046108829 -0.35526087104265458 0 0.1569593121701936 -0.36832063090657668 0 0.17035242753357599 -0.36877211446365682 0 0.1569593121701936 -0.36832063090657668 0 0.17035242753357599 -0.36877211446365682 0 0.16307541855137739 -0.37743582412871929 0 0.14536400873927011 -0.3681220756701501 0 0.1426630499740982 -0.35652090160864008 0 0.13524945632583441 -0.37311377610700652 0 0.16265844046108829 -0.35526087104265458 0 0.1569593121701936 -0.36832063090657668 0 0.1426630499740982 -0.35652090160864008 0 0.14536400873927011 -0.3681220756701501 0 0.13524945632583441 -0.37311377610700652 0 0.14973869037300869 -0.38096853745143089 0 0.1569593121701936 -0.36832063090657668 0 0.14536400873927011 -0.3681220756701501 0 0.14973869037300869 -0.38096853745143089 0 0.1569593121701936 -0.36832063090657668 0 0.14536400873927011 -0.3681220756701501 0 0.1426630499740982 -0.35652090160864008 0 0.1546435437787094 -0.34381338892778002 0 0.1426630499740982 -0.35652090160864008 0 0.1424354920479888 -0.33775294740649747 0 0.16265844046108829 -0.35526087104265458 0 0.1546435437787094 -0.34381338892778002 0 0.1426630499740982 -0.35652090160864008 0 0.13449730155472761 -0.34743155680512378 0 0.12784456261830821 -0.36308533366748658 0 0.123981461538115 -0.35128285539313481 0 0.1426630499740982 -0.35652090160864008 0 0.13449730155472761 -0.34743155680512378 0 0.1424354920479888 -0.33775294740649747 0 0.1426630499740982 -0.35652090160864008 0 0.13449730155472761 -0.34743155680512378 0 0.12784456261830821 -0.36308533366748658 0 0.13449730155472761 -0.34743155680512378 0 0.13051916655351839 -0.33696304048325831 0 0.123981461538115 -0.35128285539313481 0 0.1426630499740982 -0.35652090160864008 0 0.12784456261830821 -0.36308533366748658 0 0.13524945632583441 -0.37311377610700652 0 0.12784456261830821 -0.36308533366748658 0 0.13524945632583441 -0.37311377610700652 0 0.12609635470998201 -0.38402791619100712 0 0.14855409589738661 -0.31441038212804873 0 0.1557586906108582 -0.32786840018592928 0 0.1602411687519314 -0.31190927739118429 0 0.1445015266660287 -0.32337949759917511 0 0.14855409589738661 -0.31441038212804873 0 0.13871327718005111 -0.31332369293528212 0 0.1445015266660287 -0.32337949759917511 0 0.14855409589738661 -0.31441038212804873 0 0.1557586906108582 -0.32786840018592928 0 0.1546435437787094 -0.34381338892778002 0 0.1557586906108582 -0.32786840018592928 0 0.1424354920479888 -0.33775294740649747 0 0.1445015266660287 -0.32337949759917511 0 0.1557586906108582 -0.32786840018592928 0 0.1424354920479888 -0.33775294740649747 0 0.1445015266660287 -0.32337949759917511 0 0.1424354920479888 -0.33775294740649747 0 0.13219802669416811 -0.32498852212276208 0 0.1424354920479888 -0.33775294740649747 0 0.13051916655351839 -0.33696304048325831 0 0.13219802669416811 -0.32498852212276208 0 0.13449730155472761 -0.34743155680512378 0 0.1424354920479888 -0.33775294740649747 0 0.13051916655351839 -0.33696304048325831 0 0.13051916655351839 -0.33696304048325831 0 0.13219802669416811 -0.32498852212276208 0 0.12260601330919629 -0.33072698382653798 0 0.1445015266660287 -0.32337949759917511 0 0.13219802669416811 -0.32498852212276208 0 0.13871327718005111 -0.31332369293528212 0 0.13219802669416811 -0.32498852212276208 0 0.1265219532001009 -0.3124330460259736 0 0.1192961391526948 -0.32261879728377291 0 0.13219802669416811 -0.32498852212276208 0 0.13871327718005111 -0.31332369293528212 0 0.1265219532001009 -0.3124330460259736 0 0.1265219532001009 -0.3124330460259736 0 0.1332586495603032 -0.30031372317270688 0 0.1198701537204314 -0.30089140532399938 0 0.1332586495603032 -0.30031372317270688 0 0.1242383748246253 -0.29131174999725179 0 0.1198701537204314 -0.30089140532399938 0 0.13871327718005111 -0.31332369293528212 0 0.1265219532001009 -0.3124330460259736 0 0.1332586495603032 -0.30031372317270688 0 0.13871327718005111 -0.31332369293528212 0 0.1332586495603032 -0.30031372317270688 0 0.147245411062319 -0.30441698656302629 0 0.14855409589738661 -0.31441038212804873 0 0.13871327718005111 -0.31332369293528212 0 0.147245411062319 -0.30441698656302629 0 0.147245411062319 -0.30441698656302629 0 0.15432967412725099 -0.29846298066074151 0 0.14327492933615671 -0.29425024746867751 0 0.1332586495603032 -0.30031372317270688 0 0.147245411062319 -0.30441698656302629 0 0.14327492933615671 -0.29425024746867751 0 0.147245411062319 -0.30441698656302629 0 0.15432967412725099 -0.29846298066074151 0 0.1602411687519314 -0.31190927739118429 0 0.14855409589738661 -0.31441038212804873 0 0.147245411062319 -0.30441698656302629 0 0.1602411687519314 -0.31190927739118429 0 0.15432967412725099 -0.29846298066074151 0 0.1517600770447052 -0.28164214899084639 0 0.14327492933615671 -0.29425024746867751 0 0.1517600770447052 -0.28164214899084639 0 0.14327492933615671 -0.29425024746867751 0 0.13646338677899769 -0.28546266283427663 0 0.1332586495603032 -0.30031372317270688 0 0.14327492933615671 -0.29425024746867751 0 0.13646338677899769 -0.28546266283427663 0 0.1332586495603032 -0.30031372317270688 0 0.13646338677899769 -0.28546266283427663 0 0.1242383748246253 -0.29131174999725179 0 0.13646338677899769 -0.28546266283427663 0 0.1233023238440631 -0.28097148456094378 0 0.1242383748246253 -0.29131174999725179 0 0.1517600770447052 -0.28164214899084639 0 0.13646338677899769 -0.28546266283427663 0 0.1311170075682456 -0.27142576198599933 0 0.1517600770447052 -0.28164214899084639 0 0.1311170075682456 -0.27142576198599933 0 0.1364827709165429 -0.26618641562940759 0 0.13646338677899769 -0.28546266283427663 0 0.1311170075682456 -0.27142576198599933 0 0.1233023238440631 -0.28097148456094378 0 0.1311170075682456 -0.27142576198599933 0 0.1364827709165429 -0.26618641562940759 0 0.1212054647883809 -0.25073068226796852 0 0.1364827709165429 -0.26618641562940759 0 0.13217397618885759 -0.25462043987800831 0 0.1212054647883809 -0.25073068226796852 0 0.1364827709165429 -0.26618641562940759 0 0.1212054647883809 -0.25073068226796852 0 0.1364827709165429 -0.26618641562940759 0 0.13217397618885759 -0.25462043987800831 0 0.14275904560399111 -0.25945725309375861 0 0.13217397618885759 -0.25462043987800831 0 0.1429630926125974 -0.2502577086919005 0 0.14275904560399111 -0.25945725309375861 0 0.1429630926125974 -0.2502577086919005 0 0.16574248336044761 -0.26746108990676593 0 0.1429630926125974 -0.2502577086919005 0 0.15128247879849499 -0.26292486595599002 0 0.16574248336044761 -0.26746108990676593 0 0.1429630926125974 -0.2502577086919005 0 0.16574248336044761 -0.26746108990676593 0 0.16001236861667459 -0.2513654190734112 0 0.1429630926125974 -0.2502577086919005 0 0.14275904560399111 -0.25945725309375861 0 0.15128247879849499 -0.26292486595599002 0 0.1364827709165429 -0.26618641562940759 0 0.14275904560399111 -0.25945725309375861 0 0.15128247879849499 -0.26292486595599002 0 0.1517600770447052 -0.28164214899084639 0 0.1364827709165429 -0.26618641562940759 0 0.15128247879849499 -0.26292486595599002 0 0.1517600770447052 -0.28164214899084639 0 0.15128247879849499 -0.26292486595599002 0 0.15776774232478771 -0.26956647822523339 0 0.1517600770447052 -0.28164214899084639 0 0.1311170075682456 -0.27142576198599933 0 0.1517600770447052 -0.28164214899084639 0 0.1364827709165429 -0.26618641562940759 0 0.1517600770447052 -0.28164214899084639 0 0.16209364730358741 -0.27452888323759039 0 0.16594555478614451 -0.28284233368471318 0 0.1517600770447052 -0.28164214899084639 0 0.16209364730358741 -0.27452888323759039 0 0.15776774232478771 -0.26956647822523339 0 0.16209364730358741 -0.27452888323759039 0 0.15776774232478771 -0.26956647822523339 0 0.16574248336044761 -0.26746108990676593 0 0.15128247879849499 -0.26292486595599002 0 0.15776774232478771 -0.26956647822523339 0 0.16574248336044761 -0.26746108990676593 0 0.16209364730358741 -0.27452888323759039 0 0.16574248336044761 -0.26746108990676593 0 0.16920230535812411 -0.27329149954452342 0 0.16209364730358741 -0.27452888323759039 0 0.16920230535812411 -0.27329149954452342 0 0.16594555478614451 -0.28284233368471318 0 0.16920230535812411 -0.27329149954452342 0 0.1710222018321049 -0.28124575318360368 0 0.16594555478614451 -0.28284233368471318 0 0.16574248336044761 -0.26746108990676593 0 0.16001236861667459 -0.2513654190734112 0 0.16988601458932601 -0.2589500224365659 0 0.16574248336044761 -0.26746108990676593 0 0.16988601458932601 -0.2589500224365659 0 0.17628584543496439 -0.26683535894776161 0 0.16001236861667459 -0.2513654190734112 0 0.16988601458932601 -0.2589500224365659 0 0.16978669848249819 -0.25098739912941831 0 0.1767458594742066 -0.25730285456071711 0 0.17619278994504239 -0.24587918172992959 0 0.18399505531774341 -0.24981832115951039 0 0.16978669848249819 -0.25098739912941831 0 0.1767458594742066 -0.25730285456071711 0 0.17619278994504239 -0.24587918172992959 0 0.16988601458932601 -0.2589500224365659 0 0.16978669848249819 -0.25098739912941831 0 0.1767458594742066 -0.25730285456071711 0 0.16988601458932601 -0.2589500224365659 0 0.1767458594742066 -0.25730285456071711 0 0.17628584543496439 -0.26683535894776161 0 0.1767458594742066 -0.25730285456071711 0 0.17628584543496439 -0.26683535894776161 0 0.1845366839674035 -0.26640487959885623 0 0.1767458594742066 -0.25730285456071711 0 0.18706352147094041 -0.25756661524031438 0 0.1845366839674035 -0.26640487959885623 0 0.1767458594742066 -0.25730285456071711 0 0.18706352147094041 -0.25756661524031438 0 0.18399505531774341 -0.24981832115951039 0 0.18852187410829821 -0.28466447112163068 0 0.17628584543496439 -0.26683535894776161 0 0.1845366839674035 -0.26640487959885623 0 0.18852187410829821 -0.28466447112163068 0 0.16574248336044761 -0.26746108990676593 0 0.18852187410829821 -0.28466447112163068 0 0.16574248336044761 -0.26746108990676593 0 0.17628584543496439 -0.26683535894776161 0 0.16920230535812411 -0.27329149954452342 0 0.18747516626574931 -0.28692639975368628 0 0.17602993407772211 -0.2832030986568283 0 0.18852187410829821 -0.28466447112163068 0 0.16574248336044761 -0.26746108990676593 0 0.16920230535812411 -0.27329149954452342 0 0.16920230535812411 -0.27329149954452342 0 0.18747516626574931 -0.28692639975368628 0 0.16920230535812411 -0.27329149954452342 0 0.1710222018321049 -0.28124575318360368 0 0.17602993407772211 -0.2832030986568283 0 0.18747516626574931 -0.28692639975368628 0 0.1806905449634813 -0.28832929748571318 0 0.17602993407772211 -0.2832030986568283 0 0.18852187410829821 -0.28466447112163068 0 0.16920230535812411 -0.27329149954452342 0 0.18747516626574931 -0.28692639975368628 0 0.18747516626574931 -0.28692639975368628 0 0.1806905449634813 -0.28832929748571318 0 0.18301660310609241 -0.29114958545392738 0 0.17291101310642881 -0.28564608084835003 0 0.17864991096044419 -0.29495009963706692 0 0.16594555478614451 -0.28284233368471318 0 0.1806905449634813 -0.28832929748571318 0 0.17602993407772211 -0.2832030986568283 0 0.17673138357400531 -0.28840876668861409 0 0.17602993407772211 -0.2832030986568283 0 0.17673138357400531 -0.28840876668861409 0 0.17291101310642881 -0.28564608084835003 0 0.1710222018321049 -0.28124575318360368 0 0.17602993407772211 -0.2832030986568283 0 0.17291101310642881 -0.28564608084835003 0 0.17673138357400531 -0.28840876668861409 0 0.17291101310642881 -0.28564608084835003 0 0.17864991096044419 -0.29495009963706692 0 0.17673138357400531 -0.28840876668861409 0 0.17909088347012619 -0.29088019083727579 0 0.17864991096044419 -0.29495009963706692 0 0.1806905449634813 -0.28832929748571318 0 0.17673138357400531 -0.28840876668861409 0 0.17909088347012619 -0.29088019083727579 0 0.17909088347012619 -0.29088019083727579 0 0.17864991096044419 -0.29495009963706692 0 0.18114425154506539 -0.29221912984395187 0 0.18747516626574931 -0.28692639975368628 0 0.18734834214976739 -0.29514628785519947 0 0.1827564496500734 -0.29712351473235832 0 0.18747516626574931 -0.28692639975368628 0 0.18301660310609241 -0.29114958545392738 0 0.1827564496500734 -0.29712351473235832 0 0.18114425154506539 -0.29221912984395187 0 0.18301660310609241 -0.29114958545392738 0 0.1827564496500734 -0.29712351473235832 0 0.17864991096044419 -0.29495009963706692 0 0.18114425154506539 -0.29221912984395187 0 0.1827564496500734 -0.29712351473235832 0 0.18747516626574931 -0.28692639975368628 0 0.1827564496500734 -0.29712351473235832 0 0.1806905449634813 -0.28832929748571318 0 0.18114425154506539 -0.29221912984395187 0 0.18301660310609241 -0.29114958545392738 0 0.1806905449634813 -0.28832929748571318 0 0.17909088347012619 -0.29088019083727579 0 0.18114425154506539 -0.29221912984395187 0 0.18802618722583669 -0.31833181955932999 0 0.18221347423979239 -0.30458962683289892 0 0.1698931321352706 -0.29998698427508858 0 0.1880606218677118 -0.30022154946313712 0 0.18734834214976739 -0.29514628785519947 0 0.1827564496500734 -0.29712351473235832 0 0.19009702279388629 -0.3064242775921906 0 0.1880606218677118 -0.30022154946313712 0 0.18221347423979239 -0.30458962683289892 0 0.18802618722583669 -0.31833181955932999 0 0.17151825735526699 -0.31325416760549368 0 0.1698931321352706 -0.29998698427508858 0 0.1880606218677118 -0.30022154946313712 0 0.18221347423979239 -0.30458962683289892 0 0.1827564496500734 -0.29712351473235832 0 0.18802618722583669 -0.31833181955932999 0 0.1698931321352706 -0.29998698427508858 0 0.17864991096044419 -0.29495009963706692 0 0.1827564496500734 -0.29712351473235832 0 0.17837824174639511 -0.29916255636935318 0 0.18221347423979239 -0.30458962683289892 0 0.1827564496500734 -0.29712351473235832 0 0.17837824174639511 -0.29916255636935318 0 0.19009702279388629 -0.3064242775921906 0 0.18802618722583669 -0.31833181955932999 0 0.18221347423979239 -0.30458962683289892 0 0.18221347423979239 -0.30458962683289892 0 0.17837824174639511 -0.29916255636935318 0 0.1698931321352706 -0.29998698427508858 0 0.17864991096044419 -0.29495009963706692 0 0.17837824174639511 -0.29916255636935318 0 0.1698931321352706 -0.29998698427508858 0 0.17151825735526699 -0.31325416760549368 0 0.1698931321352706 -0.29998698427508858 0 0.1602411687519314 -0.31190927739118429 0 0.15432967412725099 -0.29846298066074151 0 0.1698931321352706 -0.29998698427508858 0 0.1602411687519314 -0.31190927739118429 0 0.1517600770447052 -0.28164214899084639 0 0.17864991096044419 -0.29495009963706692 0 0.1698931321352706 -0.29998698427508858 0 0.1517600770447052 -0.28164214899084639 0 0.1698931321352706 -0.29998698427508858 0 0.15432967412725099 -0.29846298066074151 0 0.1517600770447052 -0.28164214899084639 0 0.1698931321352706 -0.29998698427508858 0 0.1517600770447052 -0.28164214899084639 0 0.17864991096044419 -0.29495009963706692 0 0.1517600770447052 -0.28164214899084639 0 0.17864991096044419 -0.29495009963706692 0 0.16594555478614451 -0.28284233368471318 0 0.1710222018321049 -0.28124575318360368 0 0.17291101310642881 -0.28564608084835003 0 0.16594555478614451 -0.28284233368471318 0 0.21438456257476449 -0.5 0 0.2048745361024723 -0.48472171768082351 0 0.18744203257390391 -0.5 0 0.19122796324104871 -0.48466606029959602 0 0.2048745361024723 -0.48472171768082351 0 0.18744203257390391 -0.5 0 0.19122796324104871 -0.48466606029959602 0 0.20365346230900849 -0.47086657296764728 0 0.1938641377332887 -0.4633108835168005 0 0.19122796324104871 -0.48466606029959602 0 0.20365346230900849 -0.47086657296764728 0 0.2048745361024723 -0.48472171768082351 0 0.21766866328091511 -0.47157360957620892 0 0.2048745361024723 -0.48472171768082351 0 0.22288060450936709 -0.48400008360299168 0 0.20365346230900849 -0.47086657296764728 0 0.21766866328091511 -0.47157360957620892 0 0.2048745361024723 -0.48472171768082351 0 0.21438456257476449 -0.5 0 0.2048745361024723 -0.48472171768082351 0 0.22288060450936709 -0.48400008360299168 0 0.21438456257476449 -0.5 0 0.23633351028628971 -0.48712361601618398 0 0.2413270925756249 -0.5 0 0.21438456257476449 -0.5 0 0.23633351028628971 -0.48712361601618398 0 0.22288060450936709 -0.48400008360299168 0 0.25270961841775552 -0.48460016746525392 0 0.23633351028628971 -0.48712361601618398 0 0.2413270925756249 -0.5 0 0.25270961841775552 -0.48460016746525392 0 0.23633351028628971 -0.48712361601618398 0 0.23949561189523169 -0.47426551941090739 0 0.23949561189523169 -0.47426551941090739 0 0.22288060450936709 -0.48400008360299168 0 0.22545312399173489 -0.46028769725088831 0 0.21766866328091511 -0.47157360957620892 0 0.22288060450936709 -0.48400008360299168 0 0.22545312399173489 -0.46028769725088831 0 0.23633351028628971 -0.48712361601618398 0 0.23949561189523169 -0.47426551941090739 0 0.22288060450936709 -0.48400008360299168 0 0.22288060450936709 -0.48400008360299168 0 0.22545312399173489 -0.46028769725088831 0 0.21766866328091511 -0.47157360957620892 0 0.22545312399173489 -0.46028769725088831 0 0.2186728293425339 -0.44755637628226819 0 0.2588368117714554 -0.46700690363883102 0 0.23949561189523169 -0.47426551941090739 0 0.2409729068143365 -0.46262444708906358 0 0.22545312399173489 -0.46028769725088831 0 0.2409729068143365 -0.46262444708906358 0 0.24480843210435321 -0.45079661158300749 0 0.2588368117714554 -0.46700690363883102 0 0.2409729068143365 -0.46262444708906358 0 0.24480843210435321 -0.45079661158300749 0 0.23949561189523169 -0.47426551941090739 0 0.22545312399173489 -0.46028769725088831 0 0.2409729068143365 -0.46262444708906358 0 0.24480843210435321 -0.45079661158300749 0 0.22802564347410281 -0.43657531089878487 0 0.2418992233321238 -0.43333026798624508 0 0.25513396950241118 -0.43290986753561628 0 0.24480843210435321 -0.45079661158300749 0 0.2418992233321238 -0.43333026798624508 0 0.22545312399173489 -0.46028769725088831 0 0.22802564347410281 -0.43657531089878487 0 0.2186728293425339 -0.44755637628226819 0 0.21246462128442831 -0.43168381348743168 0 0.22802564347410281 -0.43657531089878487 0 0.22545312399173489 -0.46028769725088831 0 0.2186728293425339 -0.44755637628226819 0 0.22802564347410281 -0.43657531089878487 0 0.22545312399173489 -0.46028769725088831 0 0.24480843210435321 -0.45079661158300749 0 0.22802564347410281 -0.43657531089878487 0 0.20442019459899149 -0.44533796874460208 0 0.2186728293425339 -0.44755637628226819 0 0.21246462128442831 -0.43168381348743168 0 0.21766866328091511 -0.47157360957620892 0 0.20442019459899149 -0.44533796874460208 0 0.21766866328091511 -0.47157360957620892 0 0.20442019459899149 -0.44533796874460208 0 0.2186728293425339 -0.44755637628226819 0 0.20365346230900849 -0.47086657296764728 0 0.21766866328091511 -0.47157360957620892 0 0.20442019459899149 -0.44533796874460208 0 0.20365346230900849 -0.47086657296764728 0 0.20442019459899149 -0.44533796874460208 0 0.1938641377332887 -0.4633108835168005 0 0.20442019459899149 -0.44533796874460208 0 0.18484232774876749 -0.43033534366960768 0 0.18590039067086719 -0.44115637567916172 0 0.20442019459899149 -0.44533796874460208 0 0.18923595964957429 -0.45067509688328122 0 0.18590039067086719 -0.44115637567916172 0 0.20442019459899149 -0.44533796874460208 0 0.1938641377332887 -0.4633108835168005 0 0.18923595964957429 -0.45067509688328122 0 0.20442019459899149 -0.44533796874460208 0 0.1911717259170673 -0.41910232791299562 0 0.20473537155931409 -0.42802668409371708 0 0.20442019459899149 -0.44533796874460208 0 0.1911717259170673 -0.41910232791299562 0 0.20442019459899149 -0.44533796874460208 0 0.1911717259170673 -0.41910232791299562 0 0.18484232774876749 -0.43033534366960768 0 0.1911717259170673 -0.41910232791299562 0 0.21088494443676881 -0.41598262622983972 0 0.20473537155931409 -0.42802668409371708 0 0.18851111772050869 -0.41383358608972459 0 0.208966154163157 -0.40126827473642579 0 0.1911717259170673 -0.41910232791299562 0 0.21088494443676881 -0.41598262622983972 0 0.1911717259170673 -0.41910232791299562 0 0.18851111772050869 -0.41383358608972459 0 0.21088494443676881 -0.41598262622983972 0 0.18851111772050869 -0.41383358608972459 0 0.21088494443676881 -0.41598262622983972 0 0.208966154163157 -0.40126827473642579 0 0.1911717259170673 -0.41910232791299562 0 0.18851111772050869 -0.41383358608972459 0 0.21088494443676881 -0.41598262622983972 0 0.22155668588658281 -0.40529615173032069 0 0.208966154163157 -0.40126827473642579 0 0.21088494443676881 -0.41598262622983972 0 0.20473537155931409 -0.42802668409371708 0 0.21246462128442831 -0.43168381348743168 0 0.21088494443676881 -0.41598262622983972 0 0.21246462128442831 -0.43168381348743168 0 0.21959695705502991 -0.42408781639437282 0 0.20442019459899149 -0.44533796874460208 0 0.20473537155931409 -0.42802668409371708 0 0.21246462128442831 -0.43168381348743168 0 0.21246462128442831 -0.43168381348743168 0 0.21959695705502991 -0.42408781639437282 0 0.22802564347410281 -0.43657531089878487 0 0.22802564347410281 -0.43657531089878487 0 0.23614533994983331 -0.4244462479719151 0 0.23059816295646979 -0.4128629245466815 0 0.22802564347410281 -0.43657531089878487 0 0.23059816295646979 -0.4128629245466815 0 0.21959695705502991 -0.42408781639437282 0 0.22802564347410281 -0.43657531089878487 0 0.23059816295646979 -0.4128629245466815 0 0.22802564347410281 -0.43657531089878487 0 0.2418992233321238 -0.43333026798624508 0 0.23614533994983331 -0.4244462479719151 0 0.2418992233321238 -0.43333026798624508 0 0.23614533994983331 -0.4244462479719151 0 0.2453827316299185 -0.42192330194190181 0 0.25513396950241118 -0.43290986753561628 0 0.2418992233321238 -0.43333026798624508 0 0.2453827316299185 -0.42192330194190181 0 0.256136481120742 -0.41447562176841068 0 0.2453827316299185 -0.42192330194190181 0 0.24629253832767661 -0.41022035877505542 0 0.2453827316299185 -0.42192330194190181 0 0.24629253832767661 -0.41022035877505542 0 0.2366098857920339 -0.41191154353144788 0 0.23614533994983331 -0.4244462479719151 0 0.2366098857920339 -0.41191154353144788 0 0.23059816295646979 -0.4128629245466815 0 0.23614533994983331 -0.4244462479719151 0 0.2453827316299185 -0.42192330194190181 0 0.2366098857920339 -0.41191154353144788 0 0.24629253832767661 -0.41022035877505542 0 0.2366098857920339 -0.41191154353144788 0 0.2422505545635501 -0.40276464775944387 0 0.21088494443676881 -0.41598262622983972 0 0.23059816295646979 -0.4128629245466815 0 0.2366098857920339 -0.41191154353144788 0 0.23059816295646979 -0.4128629245466815 0 0.23156745731421779 -0.4039283829592023 0 0.23059816295646979 -0.4128629245466815 0 0.22155668588658281 -0.40529615173032069 0 0.23156745731421779 -0.4039283829592023 0 0.23059816295646979 -0.4128629245466815 0 0.23156745731421779 -0.4039283829592023 0 0.21088494443676881 -0.41598262622983972 0 0.23059816295646979 -0.4128629245466815 0 0.22155668588658281 -0.40529615173032069 0 0.21088494443676881 -0.41598262622983972 0 0.21959695705502991 -0.42408781639437282 0 0.23059816295646979 -0.4128629245466815 0 0.2366098857920339 -0.41191154353144788 0 0.23059816295646979 -0.4128629245466815 0 0.22155668588658281 -0.40529615173032069 0 0.22942119060580499 -0.38870296338312649 0 0.208966154163157 -0.40126827473642579 0 0.22155668588658281 -0.40529615173032069 0 0.23156745731421779 -0.4039283829592023 0 0.22942119060580499 -0.38870296338312649 0 0.22942119060580499 -0.38870296338312649 0 0.208966154163157 -0.40126827473642579 0 0.23156745731421779 -0.4039283829592023 0 0.24309899287842279 -0.39271330151873202 0 0.2422505545635501 -0.40276464775944387 0 0.2366098857920339 -0.41191154353144788 0 0.23156745731421779 -0.4039283829592023 0 0.2422505545635501 -0.40276464775944387 0 0.23156745731421779 -0.4039283829592023 0 0.24309899287842279 -0.39271330151873202 0 0.22942119060580499 -0.38870296338312649 0 0.25108303853213881 -0.40002667887407228 0 0.24629253832767661 -0.41022035877505542 0 0.2422505545635501 -0.40276464775944387 0 0.25108303853213881 -0.40002667887407228 0 0.24309899287842279 -0.39271330151873202 0 0.2422505545635501 -0.40276464775944387 0 0.24987622704845311 -0.37613765202982719 0 0.22942119060580499 -0.38870296338312649 0 0.24309899287842279 -0.39271330151873202 0 0.24987622704845311 -0.37613765202982719 0 0.22942119060580499 -0.38870296338312649 0 0.24987622704845311 -0.37613765202982719 0 0.23474048966473349 -0.38137370792841258 0 0.22942119060580499 -0.38870296338312649 0 0.25687819372407023 -0.38903915957053298 0 0.24309899287842279 -0.39271330151873202 0 0.24987622704845311 -0.37613765202982719 0 0.23679608458568241 -0.3713456781615978 0 0.24987622704845311 -0.37613765202982719 0 0.23474048966473349 -0.38137370792841258 0 0.23474048966473349 -0.38137370792841258 0 0.23010576568282681 -0.37607478874810818 0 0.22189277223980711 -0.38054577212349588 0 0.23474048966473349 -0.38137370792841258 0 0.22189277223980711 -0.38054577212349588 0 0.20961824525516401 -0.3936281247522696 0 0.23474048966473349 -0.38137370792841258 0 0.22942119060580499 -0.38870296338312649 0 0.20961824525516401 -0.3936281247522696 0 0.23679608458568241 -0.3713456781615978 0 0.23474048966473349 -0.38137370792841258 0 0.23010576568282681 -0.37607478874810818 0 0.23474048966473349 -0.38137370792841258 0 0.20961824525516401 -0.3936281247522696 0 0.22699371624108439 -0.37103399677892651 0 0.23010576568282681 -0.37607478874810818 0 0.22189277223980711 -0.38054577212349588 0 0.21663927632257499 -0.37152038636996992 0 0.22189277223980711 -0.38054577212349588 0 0.21119602619295649 -0.38157571206759561 0 0.21663927632257499 -0.37152038636996992 0 0.21119602619295649 -0.38157571206759561 0 0.20576161095015591 -0.37595213443190167 0 0.21119602619295649 -0.38157571206759561 0 0.20576161095015591 -0.37595213443190167 0 0.20229958674085519 -0.38616776423662919 0 0.21119602619295649 -0.38157571206759561 0 0.20961824525516401 -0.3936281247522696 0 0.20229958674085519 -0.38616776423662919 0 0.22189277223980711 -0.38054577212349588 0 0.21119602619295649 -0.38157571206759561 0 0.20961824525516401 -0.3936281247522696 0 0.22942119060580499 -0.38870296338312649 0 0.208966154163157 -0.40126827473642579 0 0.20961824525516401 -0.3936281247522696 0 0.20961824525516401 -0.3936281247522696 0 0.18449600084559339 -0.40588254157612419 0 0.20961824525516401 -0.3936281247522696 0 0.19262774622386039 -0.39991289132556063 0 0.20229958674085519 -0.38616776423662919 0 0.18851111772050869 -0.41383358608972459 0 0.20961824525516401 -0.3936281247522696 0 0.18449600084559339 -0.40588254157612419 0 0.19262774622386039 -0.39991289132556063 0 0.193172237845981 -0.38760648281860499 0 0.20229958674085519 -0.38616776423662919 0 0.20961824525516401 -0.3936281247522696 0 0.19262774622386039 -0.39991289132556063 0 0.18449600084559339 -0.40588254157612419 0 0.18851111772050869 -0.41383358608972459 0 0.208966154163157 -0.40126827473642579 0 0.20961824525516401 -0.3936281247522696 0 0.19262774622386039 -0.39991289132556063 0 0.18963514604776821 -0.39361523539988952 0 0.193172237845981 -0.38760648281860499 0 0.19262774622386039 -0.39991289132556063 0 0.18963514604776821 -0.39361523539988952 0 0.18221634088723479 -0.40136818287387582 0 0.18963514604776821 -0.39361523539988952 0 0.193172237845981 -0.38760648281860499 0 0.18267650324237161 -0.39405502657648112 0 0.193172237845981 -0.38760648281860499 0 0.1910424400336663 -0.37547354736401328 0 0.18267650324237161 -0.39405502657648112 0 0.20576161095015591 -0.37595213443190167 0 0.1910424400336663 -0.37547354736401328 0 0.20229958674085519 -0.38616776423662919 0 0.193172237845981 -0.38760648281860499 0 0.1910424400336663 -0.37547354736401328 0 0.20229958674085519 -0.38616776423662919 0 0.1910424400336663 -0.37547354736401328 0 0.17822948803450961 -0.38676940160015832 0 0.1737051017910701 -0.38004230502140057 0 0.1910424400336663 -0.37547354736401328 0 0.18267650324237161 -0.39405502657648112 0 0.1910424400336663 -0.37547354736401328 0 0.17822948803450961 -0.38676940160015832 0 0.18267650324237161 -0.39405502657648112 0 0.17822948803450961 -0.38676940160015832 0 0.17910183421640119 -0.39520059623836468 0 0.1646215608890387 -0.38907553280053181 0 0.17822948803450961 -0.38676940160015832 0 0.1737051017910701 -0.38004230502140057 0 0.1646215608890387 -0.38907553280053181 0 0.17822948803450961 -0.38676940160015832 0 0.18267650324237161 -0.39405502657648112 0 0.17910183421640119 -0.39520059623836468 0 0.18221634088723479 -0.40136818287387582 0 0.17910183421640119 -0.39520059623836468 0 0.15805845094365739 -0.40474493864538458 0 0.18963514604776821 -0.39361523539988952 0 0.18267650324237161 -0.39405502657648112 0 0.18221634088723479 -0.40136818287387582 0 0.18267650324237161 -0.39405502657648112 0 0.18221634088723479 -0.40136818287387582 0 0.17910183421640119 -0.39520059623836468 0 0.18221634088723479 -0.40136818287387582 0 0.17910183421640119 -0.39520059623836468 0 0.19262774622386039 -0.39991289132556063 0 0.18221634088723479 -0.40136818287387582 0 0.19262774622386039 -0.39991289132556063 0 0.18449600084559339 -0.40588254157612419 0 0.18221634088723479 -0.40136818287387582 0 0.18449600084559339 -0.40588254157612419 0 0.18221634088723479 -0.40136818287387582 0 0.17910183421640119 -0.39520059623836468 0 0.15805845094365739 -0.40474493864538458 0 0.1646215608890387 -0.38907553280053181 0 0.18221634088723479 -0.40136818287387582 0 0.15805845094365739 -0.40474493864538458 0 0.15805845094365739 -0.40474493864538458 0 0.1646215608890387 -0.38907553280053181 0 0.14706277844018539 -0.39464292458295508 0 0.1737051017910701 -0.38004230502140057 0 0.1646215608890387 -0.38907553280053181 0 0.16307541855137739 -0.37743582412871929 0 0.17035242753357599 -0.36877211446365682 0 0.1737051017910701 -0.38004230502140057 0 0.16307541855137739 -0.37743582412871929 0 0.1569593121701936 -0.36832063090657668 0 0.16307541855137739 -0.37743582412871929 0 0.14973869037300869 -0.38096853745143089 0 0.1646215608890387 -0.38907553280053181 0 0.16307541855137739 -0.37743582412871929 0 0.14973869037300869 -0.38096853745143089 0 0.1646215608890387 -0.38907553280053181 0 0.14973869037300869 -0.38096853745143089 0 0.14706277844018539 -0.39464292458295508 0 0.14973869037300869 -0.38096853745143089 0 0.1375772795987745 -0.38493757303029391 0 0.14706277844018539 -0.39464292458295508 0 0.13524945632583441 -0.37311377610700652 0 0.14973869037300869 -0.38096853745143089 0 0.1375772795987745 -0.38493757303029391 0 0.13524945632583441 -0.37311377610700652 0 0.1375772795987745 -0.38493757303029391 0 0.12609635470998201 -0.38402791619100712 0 0.1375772795987745 -0.38493757303029391 0 0.12609635470998201 -0.38402791619100712 0 0.13569313113510631 -0.39589912548093298 0 0.12645644117523869 -0.39722706905544619 0 0.13569313113510631 -0.39589912548093298 0 0.1339005610000801 -0.40812169441689322 0 0.12645644117523869 -0.39722706905544619 0 0.1339005610000801 -0.40812169441689322 0 0.1250254850364893 -0.40936224001308058 0 0.12609635470998201 -0.38402791619100712 0 0.12645644117523869 -0.39722706905544619 0 0.13569313113510631 -0.39589912548093298 0 0.1375772795987745 -0.38493757303029391 0 0.13569313113510631 -0.39589912548093298 0 0.14706277844018539 -0.39464292458295508 0 0.13569313113510631 -0.39589912548093298 0 0.14706277844018539 -0.39464292458295508 0 0.1339005610000801 -0.40812169441689322 0 0.13569313113510631 -0.39589912548093298 0 0.1339005610000801 -0.40812169441689322 0 0.15805845094365739 -0.40474493864538458 0 0.14706277844018539 -0.39464292458295508 0 0.1339005610000801 -0.40812169441689322 0 0.15805845094365739 -0.40474493864538458 0 0.1339005610000801 -0.40812169441689322 0 0.15805845094365739 -0.40474493864538458 0 0.15398562739609989 -0.414436145328195 0 0.14500783119440661 -0.41410657591589572 0 0.15805845094365739 -0.40474493864538458 0 0.14500783119440661 -0.41410657591589572 0 0.1339005610000801 -0.40812169441689322 0 0.15398562739609989 -0.414436145328195 0 0.15088002640467921 -0.42009116626417142 0 0.14500783119440661 -0.41410657591589572 0 0.15088002640467921 -0.42009116626417142 0 0.15979138776423191 -0.42406840149736191 0 0.15636365466176849 -0.41960526040447821 0 0.15398562739609989 -0.414436145328195 0 0.15088002640467921 -0.42009116626417142 0 0.15636365466176849 -0.41960526040447821 0 0.15088002640467921 -0.42009116626417142 0 0.14500783119440661 -0.41410657591589572 0 0.14354831806896931 -0.42663893719234869 0 0.14500783119440661 -0.41410657591589572 0 0.1339005610000801 -0.40812169441689322 0 0.13212255532719441 -0.42024495614079282 0 0.14500783119440661 -0.41410657591589572 0 0.13212255532719441 -0.42024495614079282 0 0.14354831806896931 -0.42663893719234869 0 0.1339005610000801 -0.40812169441689322 0 0.13212255532719441 -0.42024495614079282 0 0.13212255532719441 -0.42024495614079282 0 0.1250254850364893 -0.40936224001308058 0 0.117866085899093 -0.41583132647739651 0 0.13212255532719441 -0.42024495614079282 0 0.1250254850364893 -0.40936224001308058 0 0.1339005610000801 -0.40812169441689322 0 0.13212255532719441 -0.42024495614079282 0 0.1250254850364893 -0.40936224001308058 0 0.1339005610000801 -0.40812169441689322 0 0.1250254850364893 -0.40936224001308058 0 0.13212255532719441 -0.42024495614079282 0 0.14354831806896931 -0.42663893719234869 0 0.1460535583969573 -0.44160689079445481 0 0.13212255532719441 -0.42024495614079282 0 0.128223579302082 -0.44682997076052833 0 0.13212255532719441 -0.42024495614079282 0 0.128223579302082 -0.44682997076052833 0 0.1159996351348133 -0.43474120747525058 0 0.13212255532719441 -0.42024495614079282 0 0.1460535583969573 -0.44160689079445481 0 0.13212255532719441 -0.42024495614079282 0 0.1460535583969573 -0.44160689079445481 0 0.128223579302082 -0.44682997076052833 0 0.15088002640467921 -0.42009116626417142 0 0.14354831806896931 -0.42663893719234869 0 0.15979138776423191 -0.42406840149736191 0 0.14354831806896931 -0.42663893719234869 0 0.15979138776423191 -0.42406840149736191 0 0.14354831806896931 -0.42663893719234869 0 0.15423293294423909 -0.43386412417913311 0 0.1460535583969573 -0.44160689079445481 0 0.14354831806896931 -0.42663893719234869 0 0.15423293294423909 -0.43386412417913311 0 0.15979138776423191 -0.42406840149736191 0 0.15423293294423909 -0.43386412417913311 0 0.16088991666547389 -0.43196094602310392 0 0.16557730454712019 -0.44172028084172121 0 0.1713980071398 -0.42434598792645378 0 0.15979138776423191 -0.42406840149736191 0 0.1760344574594947 -0.42149786580237669 0 0.15423293294423909 -0.43386412417913311 0 0.16088991666547389 -0.43196094602310392 0 0.15979138776423191 -0.42406840149736191 0 0.15979138776423191 -0.42406840149736191 0 0.1760344574594947 -0.42149786580237669 0 0.16626302434537371 -0.43076979168845952 0 0.17509911994716071 -0.43336510097506958 0 0.16557730454712019 -0.44172028084172121 0 0.16088991666547389 -0.43196094602310392 0 0.16626302434537371 -0.43076979168845952 0 0.16557730454712019 -0.44172028084172121 0 0.16626302434537371 -0.43076979168845952 0 0.1713980071398 -0.42434598792645378 0 0.17509911994716071 -0.43336510097506958 0 0.16626302434537371 -0.43076979168845952 0 0.1713980071398 -0.42434598792645378 0 0.15979138776423191 -0.42406840149736191 0 0.16088991666547389 -0.43196094602310392 0 0.16626302434537371 -0.43076979168845952 0 0.15979138776423191 -0.42406840149736191 0 0.15636365466176849 -0.41960526040447821 0 0.16176651730702801 -0.41283252991975622 0 0.17042982775368151 -0.41274390099030239 0 0.18221634088723479 -0.40136818287387582 0 0.15805845094365739 -0.40474493864538458 0 0.17042982775368151 -0.41274390099030239 0 0.15979138776423191 -0.42406840149736191 0 0.15636365466176849 -0.41960526040447821 0 0.17042982775368151 -0.41274390099030239 0 0.15636365466176849 -0.41960526040447821 0 0.17042982775368151 -0.41274390099030239 0 0.15979138776423191 -0.42406840149736191 0 0.17042982775368151 -0.41274390099030239 0 0.1760344574594947 -0.42149786580237669 0 0.15398562739609989 -0.414436145328195 0 0.15636365466176849 -0.41960526040447821 0 0.16176651730702801 -0.41283252991975622 0 0.15805845094365739 -0.40474493864538458 0 0.15398562739609989 -0.414436145328195 0 0.16176651730702801 -0.41283252991975622 0 0.15805845094365739 -0.40474493864538458 0 0.16176651730702801 -0.41283252991975622 0 0.17042982775368151 -0.41274390099030239 0 0.17042982775368151 -0.41274390099030239 0 0.1760344574594947 -0.42149786580237669 0 0.17986785094481991 -0.4134894736146324 0 0.18449600084559339 -0.40588254157612419 0 0.17042982775368151 -0.41274390099030239 0 0.18449600084559339 -0.40588254157612419 0 0.18221634088723479 -0.40136818287387582 0 0.17042982775368151 -0.41274390099030239 0 0.18449600084559339 -0.40588254157612419 0 0.17042982775368151 -0.41274390099030239 0 0.17986785094481991 -0.4134894736146324 0 0.18851111772050869 -0.41383358608972459 0 0.18449600084559339 -0.40588254157612419 0 0.18851111772050869 -0.41383358608972459 0 0.18449600084559339 -0.40588254157612419 0 0.17986785094481991 -0.4134894736146324 0 0.18851111772050869 -0.41383358608972459 0 0.1760344574594947 -0.42149786580237669 0 0.1911717259170673 -0.41910232791299562 0 0.1760344574594947 -0.42149786580237669 0 0.18851111772050869 -0.41383358608972459 0 0.1760344574594947 -0.42149786580237669 0 0.17986785094481991 -0.4134894736146324 0 0.1911717259170673 -0.41910232791299562 0 0.18851111772050869 -0.41383358608972459 0 0.1760344574594947 -0.42149786580237669 0 0.1911717259170673 -0.41910232791299562 0 0.1760344574594947 -0.42149786580237669 0 0.18484232774876749 -0.43033534366960768 0 0.18484232774876749 -0.43033534366960768 0 0.17509911994716071 -0.43336510097506958 0 0.18590039067086719 -0.44115637567916172 0 0.18484232774876749 -0.43033534366960768 0 0.17509911994716071 -0.43336510097506958 0 0.17653319474121221 -0.42750765242104072 0 0.1713980071398 -0.42434598792645378 0 0.17509911994716071 -0.43336510097506958 0 0.17653319474121221 -0.42750765242104072 0 0.1760344574594947 -0.42149786580237669 0 0.18484232774876749 -0.43033534366960768 0 0.17653319474121221 -0.42750765242104072 0 0.1713980071398 -0.42434598792645378 0 0.1760344574594947 -0.42149786580237669 0 0.17653319474121221 -0.42750765242104072 0 0.1713980071398 -0.42434598792645378 0 0.1760344574594947 -0.42149786580237669 0 0.17791556380287959 -0.4455361086535346 0 0.17376504419967539 -0.46076368888843938 0 0.16557730454712019 -0.44172028084172121 0 0.17509911994716071 -0.43336510097506958 0 0.17791556380287959 -0.4455361086535346 0 0.18590039067086719 -0.44115637567916172 0 0.17509911994716071 -0.43336510097506958 0 0.17791556380287959 -0.4455361086535346 0 0.16557730454712019 -0.44172028084172121 0 0.18923595964957429 -0.45067509688328122 0 0.17791556380287959 -0.4455361086535346 0 0.18590039067086719 -0.44115637567916172 0 0.18923595964957429 -0.45067509688328122 0 0.17791556380287959 -0.4455361086535346 0 0.17376504419967539 -0.46076368888843938 0 0.1938641377332887 -0.4633108835168005 0 0.18923595964957429 -0.45067509688328122 0 0.17376504419967539 -0.46076368888843938 0 0.1938641377332887 -0.4633108835168005 0 0.17376504419967539 -0.46076368888843938 0 0.17718182015316611 -0.48165544175840053 0 0.17376504419967539 -0.46076368888843938 0 0.15550290350416551 -0.45157236434768988 0 0.1539044029471725 -0.46809795184702829 0 0.17376504419967539 -0.46076368888843938 0 0.16557730454712019 -0.44172028084172121 0 0.15550290350416551 -0.45157236434768988 0 0.15423293294423909 -0.43386412417913311 0 0.16557730454712019 -0.44172028084172121 0 0.15550290350416551 -0.45157236434768988 0 0.15423293294423909 -0.43386412417913311 0 0.15550290350416551 -0.45157236434768988 0 0.1460535583969573 -0.44160689079445481 0 0.15550290350416551 -0.45157236434768988 0 0.1460535583969573 -0.44160689079445481 0 0.14153074802588431 -0.45654190970348868 0 0.1460535583969573 -0.44160689079445481 0 0.128223579302082 -0.44682997076052833 0 0.14153074802588431 -0.45654190970348868 0 0.128223579302082 -0.44682997076052833 0 0.12432460327697011 -0.47341498538026422 0 0.128223579302082 -0.44682997076052833 0 0.14153074802588431 -0.45654190970348868 0 0.12432460327697011 -0.47341498538026422 0 0.1539044029471725 -0.46809795184702829 0 0.14153074802588431 -0.45654190970348868 0 0.12432460327697011 -0.47341498538026422 0 0.15550290350416551 -0.45157236434768988 0 0.1539044029471725 -0.46809795184702829 0 0.14153074802588431 -0.45654190970348868 0 0.1539044029471725 -0.46809795184702829 0 0.15048103374274721 -0.48484579871078243 0 0.12432460327697011 -0.47341498538026422 0 0.1404625649124509 -0.5 0 0.15048103374274721 -0.48484579871078243 0 0.12432460327697011 -0.47341498538026422 0 0.1404625649124509 -0.5 0 0.12042562725185831 -0.49999999999999989 0 0.12432460327697011 -0.47341498538026422 0 0.1404625649124509 -0.5 0 0.15048103374274721 -0.48484579871078243 0 0.16049950257304349 -0.50000000000000033 0 0.16049950257304349 -0.50000000000000033 0 0.17718182015316611 -0.48165544175840053 0 0.15048103374274721 -0.48484579871078243 0 0.16049950257304349 -0.50000000000000033 0 0.17718182015316611 -0.48165544175840053 0 0.17376504419967539 -0.46076368888843938 0 0.1539044029471725 -0.46809795184702829 0 0.17718182015316611 -0.48165544175840053 0 0.1539044029471725 -0.46809795184702829 0 0.15048103374274721 -0.48484579871078243 0 0.17718182015316611 -0.48165544175840053 0 0.1938641377332887 -0.4633108835168005 0 0.17718182015316611 -0.48165544175840053 0 0.19122796324104871 -0.48466606029959602 0 0.1938641377332887 -0.4633108835168005 0 0.17718182015316611 -0.48165544175840053 0 0.16049950257304349 -0.50000000000000033 0 0.17718182015316611 -0.48165544175840053 0 0.18744203257390391 -0.5 0 0.19122796324104871 -0.48466606029959602 0 0.17718182015316611 -0.48165544175840053 0 0.18744203257390391 -0.5 0 0.072018957471098571 -0.48629524479662273 0 0.069142552082564368 -0.5 0 0.082735946582200875 -0.4892045976485363 0 0.072018957471098571 -0.48629524479662273 0 0.079568506083734697 -0.4785915255016745 0 0.082735946582200875 -0.4892045976485363 0 0.072018957471098571 -0.48629524479662273 0 0.062670741706174135 -0.48944359682069549 0 0.064881374578912687 -0.4815757870058418 0 0.072018957471098571 -0.48629524479662273 0 0.069142552082564368 -0.5 0 0.062670741706174135 -0.48944359682069549 0 0.073180054077148754 -0.46968413697177741 0 0.079568506083734697 -0.4785915255016745 0 0.081395248040860374 -0.46160025678040811 0 0.067447632246636219 -0.45716428258124142 0 0.05849497948899289 -0.47642287528831911 0 0.061758178687080389 -0.47580514524370598 0 0.072018957471098571 -0.48629524479662273 0 0.064881374578912687 -0.4815757870058418 0 0.070673492561877091 -0.4782128222507579 0 0.064881374578912687 -0.4815757870058418 0 0.066280053791524171 -0.47680462027284459 0 0.061758178687080389 -0.47580514524370598 0 0.064881374578912687 -0.4815757870058418 0 0.066280053791524171 -0.47680462027284459 0 0.070673492561877091 -0.4782128222507579 0 0.066280053791524171 -0.47680462027284459 0 0.067807169338226503 -0.47162472659107291 0 0.061758178687080389 -0.47580514524370598 0 0.066280053791524171 -0.47680462027284459 0 0.067807169338226503 -0.47162472659107291 0 0.070673492561877091 -0.4782128222507579 0 0.067807169338226503 -0.47162472659107291 0 0.073180054077148754 -0.46968413697177741 0 0.070673492561877091 -0.4782128222507579 0 0.073180054077148754 -0.46968413697177741 0 0.070673492561877091 -0.4782128222507579 0 0.079568506083734697 -0.4785915255016745 0 0.072018957471098571 -0.48629524479662273 0 0.070673492561877091 -0.4782128222507579 0 0.079568506083734697 -0.4785915255016745 0 0.096876661376123455 -0.48080012839020431 0 0.081395248040860374 -0.46160025678040811 0 0.096876661376123455 -0.48080012839020431 0 0.095349939854524335 -0.46404107218864848 0 0.081395248040860374 -0.46160025678040811 0 0.079568506083734697 -0.4785915255016745 0 0.082735946582200875 -0.4892045976485363 0 0.096876661376123455 -0.48080012839020431 0 0.079568506083734697 -0.4785915255016745 0 0.096876661376123455 -0.48080012839020431 0 0.081395248040860374 -0.46160025678040811 0 0.090750313396975479 -0.5 0 0.082735946582200875 -0.4892045976485363 0 0.096876661376123455 -0.48080012839020431 0 0.069142552082564368 -0.5 0 0.090750313396975479 -0.5 0 0.082735946582200875 -0.4892045976485363 0 0.1123580747113867 -0.50000000000000033 0 0.1124728586670535 -0.48406595427175642 0 0.096876661376123455 -0.48080012839020431 0 0.090750313396975479 -0.5 0 0.1123580747113867 -0.50000000000000033 0 0.096876661376123455 -0.48080012839020431 0 0.1123580747113867 -0.50000000000000033 0 0.096876661376123455 -0.48080012839020431 0 0.1123580747113867 -0.50000000000000033 0 0.12042562725185831 -0.49999999999999989 0 0.1124728586670535 -0.48406595427175642 0 0.12042562725185831 -0.49999999999999989 0 0.1124728586670535 -0.48406595427175642 0 0.12432460327697011 -0.47341498538026422 0 0.12042562725185831 -0.49999999999999989 0 0.12432460327697011 -0.47341498538026422 0 0.1124728586670535 -0.48406595427175642 0 0.12432460327697011 -0.47341498538026422 0 0.1082250197838846 -0.46311527911574241 0 0.096876661376123455 -0.48080012839020431 0 0.095349939854524335 -0.46404107218864848 0 0.1082250197838846 -0.46311527911574241 0 0.1124728586670535 -0.48406595427175642 0 0.096876661376123455 -0.48080012839020431 0 0.1082250197838846 -0.46311527911574241 0 0.095349939854524335 -0.46404107218864848 0 0.1082250197838846 -0.46311527911574241 0 0.094902830217228867 -0.45064862446823939 0 0.128223579302082 -0.44682997076052833 0 0.12432460327697011 -0.47341498538026422 0 0.1082250197838846 -0.46311527911574241 0 0.128223579302082 -0.44682997076052833 0 0.1069391861142964 -0.44299064961396012 0 0.1159996351348133 -0.43474120747525058 0 0.128223579302082 -0.44682997076052833 0 0.1082250197838846 -0.46311527911574241 0 0.1069391861142964 -0.44299064961396012 0 0.1082250197838846 -0.46311527911574241 0 0.1069391861142964 -0.44299064961396012 0 0.094902830217228867 -0.45064862446823939 0 0.1069391861142964 -0.44299064961396012 0 0.091812697424993442 -0.4386357446441016 0 0.098414951810672224 -0.43233268446502993 0 0.1069391861142964 -0.44299064961396012 0 0.094902830217228867 -0.45064862446823939 0 0.091812697424993442 -0.4386357446441016 0 0.094902830217228867 -0.45064862446823939 0 0.091812697424993442 -0.4386357446441016 0 0.082434724511159588 -0.44537142502386151 0 0.094902830217228867 -0.45064862446823939 0 0.082434724511159588 -0.44537142502386151 0 0.081395248040860374 -0.46160025678040811 0 0.091812697424993442 -0.4386357446441016 0 0.082434724511159588 -0.44537142502386151 0 0.078149012167117934 -0.43357211405594609 0 0.095349939854524335 -0.46404107218864848 0 0.094902830217228867 -0.45064862446823939 0 0.081395248040860374 -0.46160025678040811 0 0.067447632246636219 -0.45716428258124142 0 0.065913834705597293 -0.44240038517061198 0 0.057068655694905858 -0.46015288389510001 0 0.067447632246636219 -0.45716428258124142 0 0.05849497948899289 -0.47642287528831911 0 0.067807169338226503 -0.47162472659107291 0 0.067447632246636219 -0.45716428258124142 0 0.061758178687080389 -0.47580514524370598 0 0.081395248040860374 -0.46160025678040811 0 0.067447632246636219 -0.45716428258124142 0 0.065913834705597293 -0.44240038517061198 0 0.073180054077148754 -0.46968413697177741 0 0.081395248040860374 -0.46160025678040811 0 0.067447632246636219 -0.45716428258124142 0 0.067807169338226503 -0.47162472659107291 0 0.073180054077148754 -0.46968413697177741 0 0.067447632246636219 -0.45716428258124142 0 0.081395248040860374 -0.46160025678040811 0 0.065913834705597293 -0.44240038517061198 0 0.082434724511159588 -0.44537142502386151 0 0.081395248040860374 -0.46160025678040811 0 0.065913834705597293 -0.44240038517061198 0 0.082434724511159588 -0.44537142502386151 0 0.065913834705597293 -0.44240038517061198 0 0.078149012167117934 -0.43357211405594609 0 0.065921365320016911 -0.4273577277455588 0 0.073982485551444349 -0.42005290588181732 0 0.078149012167117934 -0.43357211405594609 0 0.065913834705597293 -0.44240038517061198 0 0.065921365320016911 -0.4273577277455588 0 0.078149012167117934 -0.43357211405594609 0 0.073982485551444349 -0.42005290588181732 0 0.069775570718114244 -0.40426700169235308 0 0.060774245729122177 -0.41691050055794487 0 0.065921365320016911 -0.4273577277455588 0 0.073982485551444349 -0.42005290588181732 0 0.060774245729122177 -0.41691050055794487 0 0.073982485551444349 -0.42005290588181732 0 0.086447448161059384 -0.41120764722282821 0 0.069775570718114244 -0.40426700169235308 0 0.073982485551444349 -0.42005290588181732 0 0.086447448161059384 -0.41120764722282821 0 0.088692331433278357 -0.42535053834926723 0 0.086447448161059384 -0.41120764722282821 0 0.093827427438274241 -0.41775801958915132 0 0.099702730965631758 -0.41290181884877419 0 0.086447448161059384 -0.41120764722282821 0 0.088692331433278357 -0.42535053834926723 0 0.093827427438274241 -0.41775801958915132 0 0.088692331433278357 -0.42535053834926723 0 0.097645949564215143 -0.42435504664253748 0 0.093827427438274241 -0.41775801958915132 0 0.073982485551444349 -0.42005290588181732 0 0.088692331433278357 -0.42535053834926723 0 0.078149012167117934 -0.43357211405594609 0 0.091812697424993442 -0.4386357446441016 0 0.088692331433278357 -0.42535053834926723 0 0.078149012167117934 -0.43357211405594609 0 0.091812697424993442 -0.4386357446441016 0 0.088692331433278357 -0.42535053834926723 0 0.098414951810672224 -0.43233268446502993 0 0.098414951810672224 -0.43233268446502993 0 0.097645949564215143 -0.42435504664253748 0 0.1061961683754654 -0.43004895598907111 0 0.088692331433278357 -0.42535053834926723 0 0.098414951810672224 -0.43233268446502993 0 0.097645949564215143 -0.42435504664253748 0 0.1061961683754654 -0.43004895598907111 0 0.11152958735588871 -0.42539382439527612 0 0.1045809803654715 -0.42051706085107571 0 0.097645949564215143 -0.42435504664253748 0 0.1061961683754654 -0.43004895598907111 0 0.1045809803654715 -0.42051706085107571 0 0.1069391861142964 -0.44299064961396012 0 0.098414951810672224 -0.43233268446502993 0 0.1061961683754654 -0.43004895598907111 0 0.1061961683754654 -0.43004895598907111 0 0.1159996351348133 -0.43474120747525058 0 0.11152958735588871 -0.42539382439527612 0 0.13212255532719441 -0.42024495614079282 0 0.1159996351348133 -0.43474120747525058 0 0.11851153239627241 -0.42275952171654291 0 0.1069391861142964 -0.44299064961396012 0 0.1061961683754654 -0.43004895598907111 0 0.1159996351348133 -0.43474120747525058 0 0.1159996351348133 -0.43474120747525058 0 0.11152958735588871 -0.42539382439527612 0 0.11851153239627241 -0.42275952171654291 0 0.11152958735588871 -0.42539382439527612 0 0.11851153239627241 -0.42275952171654291 0 0.1123596205074209 -0.41890237594444008 0 0.1250254850364893 -0.40936224001308058 0 0.117866085899093 -0.41583132647739651 0 0.1096180349996463 -0.41151587164058129 0 0.1250254850364893 -0.40936224001308058 0 0.1096180349996463 -0.41151587164058129 0 0.13212255532719441 -0.42024495614079282 0 0.11851153239627241 -0.42275952171654291 0 0.117866085899093 -0.41583132647739651 0 0.117866085899093 -0.41583132647739651 0 0.1123596205074209 -0.41890237594444008 0 0.1096180349996463 -0.41151587164058129 0 0.11851153239627241 -0.42275952171654291 0 0.117866085899093 -0.41583132647739651 0 0.1123596205074209 -0.41890237594444008 0 0.11152958735588871 -0.42539382439527612 0 0.1123596205074209 -0.41890237594444008 0 0.1045809803654715 -0.42051706085107571 0 0.1123596205074209 -0.41890237594444008 0 0.1096180349996463 -0.41151587164058129 0 0.1065506547415149 -0.41613106226330793 0 0.1096180349996463 -0.41151587164058129 0 0.1065506547415149 -0.41613106226330793 0 0.099702730965631758 -0.41290181884877419 0 0.1096180349996463 -0.41151587164058129 0 0.099702730965631758 -0.41290181884877419 0 0.1096180349996463 -0.41151587164058129 0 0.099702730965631758 -0.41290181884877419 0 0.1041447551606165 -0.40305668800175581 0 0.1123596205074209 -0.41890237594444008 0 0.1065506547415149 -0.41613106226330793 0 0.1045809803654715 -0.42051706085107571 0 0.1065506547415149 -0.41613106226330793 0 0.1045809803654715 -0.42051706085107571 0 0.099702730965631758 -0.41290181884877419 0 0.1045809803654715 -0.42051706085107571 0 0.093827427438274241 -0.41775801958915132 0 0.099702730965631758 -0.41290181884877419 0 0.097645949564215143 -0.42435504664253748 0 0.1045809803654715 -0.42051706085107571 0 0.093827427438274241 -0.41775801958915132 0 0.086447448161059384 -0.41120764722282821 0 0.099702730965631758 -0.41290181884877419 0 0.095691580682652475 -0.39908469234235189 0 0.095691580682652475 -0.39908469234235189 0 0.1041447551606165 -0.40305668800175581 0 0.1115666739945345 -0.38872436917531578 0 0.099702730965631758 -0.41290181884877419 0 0.095691580682652475 -0.39908469234235189 0 0.1041447551606165 -0.40305668800175581 0 0.1096180349996463 -0.41151587164058129 0 0.1041447551606165 -0.40305668800175581 0 0.1115666739945345 -0.38872436917531578 0 0.1250254850364893 -0.40936224001308058 0 0.1115666739945345 -0.38872436917531578 0 0.1096180349996463 -0.41151587164058129 0 0.1115666739945345 -0.38872436917531578 0 0.1250254850364893 -0.40936224001308058 0 0.1096180349996463 -0.41151587164058129 0 0.1115666739945345 -0.38872436917531578 0 0.12645644117523869 -0.39722706905544619 0 0.1250254850364893 -0.40936224001308058 0 0.1115666739945345 -0.38872436917531578 0 0.12609635470998201 -0.38402791619100712 0 0.1115666739945345 -0.38872436917531578 0 0.113745377556003 -0.36324200547299851 0 0.1115666739945345 -0.38872436917531578 0 0.113745377556003 -0.36324200547299851 0 0.12609635470998201 -0.38402791619100712 0 0.12645644117523869 -0.39722706905544619 0 0.1115666739945345 -0.38872436917531578 0 0.1115666739945345 -0.38872436917531578 0 0.096372132326470572 -0.36542491223168638 0 0.1115666739945345 -0.38872436917531578 0 0.089853218628298884 -0.38394717958202601 0 0.096372132326470572 -0.36542491223168638 0 0.095691580682652475 -0.39908469234235189 0 0.1115666739945345 -0.38872436917531578 0 0.089853218628298884 -0.38394717958202601 0 0.089853218628298884 -0.38394717958202601 0 0.082924844884061683 -0.39714926844771359 0 0.072939106935086151 -0.38728773006234168 0 0.089853218628298884 -0.38394717958202601 0 0.072939106935086151 -0.38728773006234168 0 0.07582030708563034 -0.37256671738353597 0 0.095691580682652475 -0.39908469234235189 0 0.089853218628298884 -0.38394717958202601 0 0.082924844884061683 -0.39714926844771359 0 0.086447448161059384 -0.41120764722282821 0 0.082924844884061683 -0.39714926844771359 0 0.069775570718114244 -0.40426700169235308 0 0.086447448161059384 -0.41120764722282821 0 0.095691580682652475 -0.39908469234235189 0 0.082924844884061683 -0.39714926844771359 0 0.069775570718114244 -0.40426700169235308 0 0.072939106935086151 -0.38728773006234168 0 0.058313699768321348 -0.39007371912844929 0 0.082924844884061683 -0.39714926844771359 0 0.069775570718114244 -0.40426700169235308 0 0.072939106935086151 -0.38728773006234168 0 0.072939106935086151 -0.38728773006234168 0 0.05933500968155693 -0.37671477575793533 0 0.058313699768321348 -0.39007371912844929 0 0.072939106935086151 -0.38728773006234168 0 0.05933500968155693 -0.37671477575793533 0 0.07582030708563034 -0.37256671738353597 0 0.05933500968155693 -0.37671477575793533 0 0.043300396670470892 -0.38581293046691678 0 0.039079294002052851 -0.37065651216905859 0 0.05933500968155693 -0.37671477575793533 0 0.058313699768321348 -0.39007371912844929 0 0.043300396670470892 -0.38581293046691678 0 0.058313699768321348 -0.39007371912844929 0 0.0466875803122518 -0.39705513158652528 0 0.054373060569327003 -0.40663711634463268 0 0.069775570718114244 -0.40426700169235308 0 0.058313699768321348 -0.39007371912844929 0 0.054373060569327003 -0.40663711634463268 0 0.058313699768321348 -0.39007371912844929 0 0.054373060569327003 -0.40663711634463268 0 0.0466875803122518 -0.39705513158652528 0 0.042121557959679479 -0.40689397827368962 0 0.054373060569327003 -0.40663711634463268 0 0.058313699768321348 -0.39007371912844929 0 0.0466875803122518 -0.39705513158652528 0 0.043300396670470892 -0.38581293046691678 0 0.0466875803122518 -0.39705513158652528 0 0.032645317368698572 -0.39721328630736241 0 0.043300396670470892 -0.38581293046691678 0 0.0466875803122518 -0.39705513158652528 0 0.032645317368698572 -0.39721328630736241 0 0.042121557959679479 -0.40689397827368962 0 0.032645317368698572 -0.39721328630736241 0 0.043300396670470892 -0.38581293046691678 0 0.025542853711361019 -0.38384675294920401 0 0.043300396670470892 -0.38581293046691678 0 0.025542853711361019 -0.38384675294920401 0 0.039079294002052851 -0.37065651216905859 0 0.025542853711361019 -0.38384675294920401 0 0.009690974369139977 -0.39295199195252922 0 0.016784443680880379 -0.36713146693108112 0 -0.0064694903547723136 -0.38059021958606692 0 0.009690974369139977 -0.39295199195252922 0 0.016784443680880379 -0.36713146693108112 0 0.032645317368698572 -0.39721328630736241 0 0.009690974369139977 -0.39295199195252922 0 0.030062121183744069 -0.41560348860952728 0 0.032645317368698572 -0.39721328630736241 0 0.025542853711361019 -0.38384675294920401 0 0.009690974369139977 -0.39295199195252922 0 0.009690974369139977 -0.39295199195252922 0 0.030062121183744069 -0.41560348860952728 0 0.01224976062295041 -0.42183763890738629 0 -0.0080625817845775948 -0.40608726553411861 0 0.009690974369139977 -0.39295199195252922 0 0.01224976062295041 -0.42183763890738629 0 0.009690974369139977 -0.39295199195252922 0 0.01224976062295041 -0.42183763890738629 0 0.01224976062295041 -0.42183763890738629 0 0.01480854687676085 -0.45072328586224342 0 0.030062121183744069 -0.41560348860952728 0 0.01224976062295041 -0.42183763890738629 0 0.028535899264767479 -0.43733174884408438 0 0.01224976062295041 -0.42183763890738629 0 0.028535899264767479 -0.43733174884408438 0 0.01480854687676085 -0.45072328586224342 0 0.030062121183744069 -0.41560348860952728 0 0.028535899264767479 -0.43733174884408438 0 0.039909128579099777 -0.42893709763038412 0 0.039909128579099777 -0.42893709763038412 0 0.050432421370333713 -0.42320051356081623 0 0.04400553312424714 -0.45021417746364167 0 0.039909128579099777 -0.42893709763038412 0 0.046509667952406512 -0.41833555967385072 0 0.050432421370333713 -0.42320051356081623 0 0.032645317368698572 -0.39721328630736241 0 0.030062121183744069 -0.41560348860952728 0 0.042121557959679479 -0.40689397827368962 0 0.030062121183744069 -0.41560348860952728 0 0.039909128579099777 -0.42893709763038412 0 0.046509667952406512 -0.41833555967385072 0 0.030062121183744069 -0.41560348860952728 0 0.042121557959679479 -0.40689397827368962 0 0.046509667952406512 -0.41833555967385072 0 0.054373060569327003 -0.40663711634463268 0 0.050432421370333713 -0.42320051356081623 0 0.046509667952406512 -0.41833555967385072 0 0.054373060569327003 -0.40663711634463268 0 0.050432421370333713 -0.42320051356081623 0 0.054373060569327003 -0.40663711634463268 0 0.060774245729122177 -0.41691050055794487 0 0.050432421370333713 -0.42320051356081623 0 0.046509667952406512 -0.41833555967385072 0 0.050432421370333713 -0.42320051356081623 0 0.042121557959679479 -0.40689397827368962 0 0.046509667952406512 -0.41833555967385072 0 0.054373060569327003 -0.40663711634463268 0 0.069775570718114244 -0.40426700169235308 0 0.054373060569327003 -0.40663711634463268 0 0.060774245729122177 -0.41691050055794487 0 0.050432421370333713 -0.42320051356081623 0 0.04400553312424714 -0.45021417746364167 0 0.065913834705597293 -0.44240038517061198 0 0.050432421370333713 -0.42320051356081623 0 0.065913834705597293 -0.44240038517061198 0 0.065921365320016911 -0.4273577277455588 0 0.050432421370333713 -0.42320051356081623 0 0.065921365320016911 -0.4273577277455588 0 0.060774245729122177 -0.41691050055794487 0 0.050432421370333713 -0.42320051356081623 0 0.065913834705597293 -0.44240038517061198 0 0.050432421370333713 -0.42320051356081623 0 0.04400553312424714 -0.45021417746364167 0 0.065913834705597293 -0.44240038517061198 0 0.057068655694905858 -0.46015288389510001 0 0.04400553312424714 -0.45021417746364167 0 0.057068655694905858 -0.46015288389510001 0 0.048043393468649283 -0.46676160836513853 0 0.04400553312424714 -0.45021417746364167 0 0.067447632246636219 -0.45716428258124142 0 0.057068655694905858 -0.46015288389510001 0 0.05849497948899289 -0.47642287528831911 0 0.057068655694905858 -0.46015288389510001 0 0.048043393468649283 -0.46676160836513853 0 0.052635520687858477 -0.47072247146996382 0 0.04400553312424714 -0.45021417746364167 0 0.037578644878161642 -0.47722784136646751 0 0.048043393468649283 -0.46676160836513853 0 0.04400553312424714 -0.45021417746364167 0 0.037578644878161642 -0.47722784136646751 0 0.04400553312424714 -0.45021417746364167 0 0.030366658319331299 -0.45781827645911538 0 0.037578644878161642 -0.47722784136646751 0 0.028535899264767479 -0.43733174884408438 0 0.039909128579099777 -0.42893709763038412 0 0.04400553312424714 -0.45021417746364167 0 0.028535899264767479 -0.43733174884408438 0 0.04400553312424714 -0.45021417746364167 0 0.030366658319331299 -0.45781827645911538 0 0.028535899264767479 -0.43733174884408438 0 0.01480854687676085 -0.45072328586224342 0 0.030366658319331299 -0.45781827645911538 0 -0.008216644178786571 -0.4466179140804285 0 0.01224976062295041 -0.42183763890738629 0 0.01480854687676085 -0.45072328586224342 0 0.01480854687676085 -0.45072328586224342 0 0.017367333130571299 -0.47960893281710049 0 0.0084119176919832291 -0.471974008478943 0 -0.0021957942935651631 -0.46571035637089769 0 0.01480854687676085 -0.45072328586224342 0 0.0084119176919832291 -0.471974008478943 0 -0.008216644178786571 -0.4466179140804285 0 -0.0021957942935651631 -0.46571035637089769 0 0.01480854687676085 -0.45072328586224342 0 0.01480854687676085 -0.45072328586224342 0 0.017367333130571299 -0.47960893281710049 0 0.01480854687676085 -0.45072328586224342 0 0.030366658319331299 -0.45781827645911538 0 0.0269046674527194 -0.47359432875914009 0 0.01480854687676085 -0.45072328586224342 0 0.0269046674527194 -0.47359432875914009 0 0.017367333130571299 -0.47960893281710049 0 0.017367333130571299 -0.47960893281710049 0 0.012735562036971701 -0.48508522326900949 0 0.035615270762982369 -0.48075404927866472 0 0.012735562036971701 -0.48508522326900949 0 0.035615270762982369 -0.48075404927866472 0 0.0269046674527194 -0.47359432875914009 0 0.017367333130571299 -0.47960893281710049 0 0.035615270762982369 -0.48075404927866472 0 0.017367333130571299 -0.47960893281710049 0 0.0084119176919832291 -0.471974008478943 0 0.012735562036971701 -0.48508522326900949 0 -0.00065605929082254884 -0.47874224407546379 0 0.0084119176919832291 -0.471974008478943 0 0.012735562036971701 -0.48508522326900949 0 -0.0021957942935651631 -0.46571035637089769 0 -0.00065605929082254884 -0.47874224407546379 0 0.0084119176919832291 -0.471974008478943 0 -0.010144146689038991 -0.48941639725935437 0 -0.00065605929082254884 -0.47874224407546379 0 0.012735562036971701 -0.48508522326900949 0 -0.010144146689038991 -0.48941639725935437 0 0.012735562036971701 -0.48508522326900949 0 -0.011489863113854141 -0.5 0 0.012735562036971701 -0.48508522326900949 0 0.01802246382714956 -0.5 0 0.01802246382714956 -0.5 0 0.025329369399590369 -0.48901546815995378 0 0.047534790768153173 -0.50000000000000044 0 0.012735562036971701 -0.48508522326900949 0 0.025329369399590369 -0.48901546815995378 0 0.035615270762982369 -0.48075404927866472 0 0.012735562036971701 -0.48508522326900949 0 0.01802246382714956 -0.5 0 0.025329369399590369 -0.48901546815995378 0 0.025329369399590369 -0.48901546815995378 0 0.035615270762982369 -0.48075404927866472 0 0.047534790768153173 -0.50000000000000044 0 0.030366658319331299 -0.45781827645911538 0 0.0269046674527194 -0.47359432875914009 0 0.037578644878161642 -0.47722784136646751 0 0.0269046674527194 -0.47359432875914009 0 0.037578644878161642 -0.47722784136646751 0 0.035615270762982369 -0.48075404927866472 0 0.048043393468649283 -0.46676160836513853 0 0.037578644878161642 -0.47722784136646751 0 0.046296380844488463 -0.47463440362945558 0 0.035615270762982369 -0.48075404927866472 0 0.046296380844488463 -0.47463440362945558 0 0.049693011087844949 -0.4756354888466594 0 0.037578644878161642 -0.47722784136646751 0 0.035615270762982369 -0.48075404927866472 0 0.046296380844488463 -0.47463440362945558 0 0.057068655694905858 -0.46015288389510001 0 0.052635520687858477 -0.47072247146996382 0 0.05849497948899289 -0.47642287528831911 0 0.035615270762982369 -0.48075404927866472 0 0.049693011087844949 -0.4756354888466594 0 0.05849497948899289 -0.47642287528831911 0 0.035615270762982369 -0.48075404927866472 0 0.05849497948899289 -0.47642287528831911 0 0.048043393468649283 -0.46676160836513853 0 0.046296380844488463 -0.47463440362945558 0 0.052635520687858477 -0.47072247146996382 0 0.049693011087844949 -0.4756354888466594 0 0.052635520687858477 -0.47072247146996382 0 0.05849497948899289 -0.47642287528831911 0 0.046296380844488463 -0.47463440362945558 0 0.049693011087844949 -0.4756354888466594 0 0.052635520687858477 -0.47072247146996382 0 0.05849497948899289 -0.47642287528831911 0 0.061758178687080389 -0.47580514524370598 0 0.062670741706174135 -0.48944359682069549 0 0.064881374578912687 -0.4815757870058418 0 0.05849497948899289 -0.47642287528831911 0 0.064881374578912687 -0.4815757870058418 0 0.05849497948899289 -0.47642287528831911 0 0.061758178687080389 -0.47580514524370598 0 0.069142552082564368 -0.5 0 0.062670741706174135 -0.48944359682069549 0 0.047534790768153173 -0.50000000000000044 0 0.05849497948899289 -0.47642287528831911 0 0.047534790768153173 -0.50000000000000044 0 0.035615270762982369 -0.48075404927866472 0 0.05849497948899289 -0.47642287528831911 0 0.047534790768153173 -0.50000000000000044 0 0.062670741706174135 -0.48944359682069549 0 0.05849497948899289 -0.47642287528831911 0 0.047534790768153173 -0.50000000000000044 0 0.089727975817252392 -0.29646224842349211 0 0.069967983226982527 -0.30495776272600778 0 0.075483032258224086 -0.28815868119130272 0 0.089727975817252392 -0.29646224842349211 0 0.088503230311337153 -0.27716835087377989 0 0.101883582619993 -0.28460947857741209 0 0.089727975817252392 -0.29646224842349211 0 0.075483032258224086 -0.28815868119130272 0 0.088503230311337153 -0.27716835087377989 0 0.089727975817252392 -0.29646224842349211 0 0.086214248119208581 -0.31193359067875348 0 0.069967983226982527 -0.30495776272600778 0 0.089727975817252392 -0.29646224842349211 0 0.086214248119208581 -0.31193359067875348 0 0.10049372866807189 -0.31082656242210721 0 0.069967983226982527 -0.30495776272600778 0 0.075483032258224086 -0.28815868119130272 0 0.059449054433483903 -0.28956707473318272 0 0.075483032258224086 -0.28815868119130272 0 0.0646939085167762 -0.2722383315448984 0 0.059449054433483903 -0.28956707473318272 0 0.0646939085167762 -0.2722383315448984 0 0.077350866508299074 -0.27549126298099152 0 0.080723294946858856 -0.26439968831398508 0 0.075483032258224086 -0.28815868119130272 0 0.0646939085167762 -0.2722383315448984 0 0.077350866508299074 -0.27549126298099152 0 0.0646939085167762 -0.2722383315448984 0 0.070005134957367529 -0.25889031236374099 0 0.080723294946858856 -0.26439968831398508 0 0.070005134957367529 -0.25889031236374099 0 0.061490933840310687 -0.25382890142296882 0 0.070069103552599196 -0.24823964670048029 0 0.0646939085167762 -0.2722383315448984 0 0.070005134957367529 -0.25889031236374099 0 0.060614126731859473 -0.2624009925450973 0 0.070005134957367529 -0.25889031236374099 0 0.061490933840310687 -0.25382890142296882 0 0.060614126731859473 -0.2624009925450973 0 0.070005134957367529 -0.25889031236374099 0 0.080071368274292315 -0.25145738896057979 0 0.080723294946858856 -0.26439968831398508 0 0.070005134957367529 -0.25889031236374099 0 0.080071368274292315 -0.25145738896057979 0 0.070069103552599196 -0.24823964670048029 0 0.080071368274292315 -0.25145738896057979 0 0.080723294946858856 -0.26439968831398508 0 0.090706365013478091 -0.25245448435890872 0 0.080723294946858856 -0.26439968831398508 0 0.090706365013478091 -0.25245448435890872 0 0.095060577752172304 -0.26241188567384149 0 0.075483032258224086 -0.28815868119130272 0 0.077350866508299074 -0.27549126298099152 0 0.088503230311337153 -0.27716835087377989 0 0.077350866508299074 -0.27549126298099152 0 0.080723294946858856 -0.26439968831398508 0 0.088503230311337153 -0.27716835087377989 0 0.080723294946858856 -0.26439968831398508 0 0.088503230311337153 -0.27716835087377989 0 0.095060577752172304 -0.26241188567384149 0 0.088503230311337153 -0.27716835087377989 0 0.1016952336099234 -0.27235330725820578 0 0.101883582619993 -0.28460947857741209 0 0.088503230311337153 -0.27716835087377989 0 0.1016952336099234 -0.27235330725820578 0 0.095060577752172304 -0.26241188567384149 0 0.1016952336099234 -0.27235330725820578 0 0.1104739380917857 -0.2612093749811526 0 0.1125548392743288 -0.27636744618484282 0 0.1016952336099234 -0.27235330725820578 0 0.1125548392743288 -0.27636744618484282 0 0.101883582619993 -0.28460947857741209 0 0.090706365013478091 -0.25245448435890872 0 0.099550463170151926 -0.25262580003909579 0 0.095060577752172304 -0.26241188567384149 0 0.1016952336099234 -0.27235330725820578 0 0.095060577752172304 -0.26241188567384149 0 0.1104739380917857 -0.2612093749811526 0 0.099550463170151926 -0.25262580003909579 0 0.095060577752172304 -0.26241188567384149 0 0.1104739380917857 -0.2612093749811526 0 0.099550463170151926 -0.25262580003909579 0 0.1104739380917857 -0.2612093749811526 0 0.1078238037173969 -0.24832262031645649 0 0.1311170075682456 -0.27142576198599933 0 0.1104739380917857 -0.2612093749811526 0 0.1212054647883809 -0.25073068226796852 0 0.1104739380917857 -0.2612093749811526 0 0.1212054647883809 -0.25073068226796852 0 0.1078238037173969 -0.24832262031645649 0 0.1311170075682456 -0.27142576198599933 0 0.1104739380917857 -0.2612093749811526 0 0.1311170075682456 -0.27142576198599933 0 0.1104739380917857 -0.2612093749811526 0 0.1193620271946058 -0.27249351692823448 0 0.1104739380917857 -0.2612093749811526 0 0.1125548392743288 -0.27636744618484282 0 0.1193620271946058 -0.27249351692823448 0 0.1125548392743288 -0.27636744618484282 0 0.1193620271946058 -0.27249351692823448 0 0.1233023238440631 -0.28097148456094378 0 0.1311170075682456 -0.27142576198599933 0 0.1193620271946058 -0.27249351692823448 0 0.1233023238440631 -0.28097148456094378 0 0.1233023238440631 -0.28097148456094378 0 0.1242383748246253 -0.29131174999725179 0 0.1141297936923768 -0.28878453930630188 0 0.1242383748246253 -0.29131174999725179 0 0.1141297936923768 -0.28878453930630188 0 0.1198701537204314 -0.30089140532399938 0 0.1141297936923768 -0.28878453930630188 0 0.10622170970645189 -0.29895353846799488 0 0.1198701537204314 -0.30089140532399938 0 0.1125548392743288 -0.27636744618484282 0 0.1233023238440631 -0.28097148456094378 0 0.1141297936923768 -0.28878453930630188 0 0.1125548392743288 -0.27636744618484282 0 0.1141297936923768 -0.28878453930630188 0 0.101883582619993 -0.28460947857741209 0 0.089727975817252392 -0.29646224842349211 0 0.101883582619993 -0.28460947857741209 0 0.10622170970645189 -0.29895353846799488 0 0.1141297936923768 -0.28878453930630188 0 0.101883582619993 -0.28460947857741209 0 0.10622170970645189 -0.29895353846799488 0 0.089727975817252392 -0.29646224842349211 0 0.10049372866807189 -0.31082656242210721 0 0.10622170970645189 -0.29895353846799488 0 0.10049372866807189 -0.31082656242210721 0 0.10622170970645189 -0.29895353846799488 0 0.1134387524627216 -0.31086840579325631 0 0.10622170970645189 -0.29895353846799488 0 0.1134387524627216 -0.31086840579325631 0 0.1198701537204314 -0.30089140532399938 0 0.1265219532001009 -0.3124330460259736 0 0.1134387524627216 -0.31086840579325631 0 0.1198701537204314 -0.30089140532399938 0 0.1265219532001009 -0.3124330460259736 0 0.1134387524627216 -0.31086840579325631 0 0.1192961391526948 -0.32261879728377291 0 0.1134387524627216 -0.31086840579325631 0 0.1192961391526948 -0.32261879728377291 0 0.1082288303285789 -0.31948708523568958 0 0.1192961391526948 -0.32261879728377291 0 0.1093748658769356 -0.32997486192450581 0 0.1082288303285789 -0.31948708523568958 0 0.1192961391526948 -0.32261879728377291 0 0.1168506625355451 -0.3296807312869221 0 0.1093748658769356 -0.32997486192450581 0 0.1192961391526948 -0.32261879728377291 0 0.12260601330919629 -0.33072698382653798 0 0.1168506625355451 -0.3296807312869221 0 0.13219802669416811 -0.32498852212276208 0 0.1192961391526948 -0.32261879728377291 0 0.12260601330919629 -0.33072698382653798 0 0.13051916655351839 -0.33696304048325831 0 0.12260601330919629 -0.33072698382653798 0 0.1159240811174677 -0.33775964177068091 0 0.12260601330919629 -0.33072698382653798 0 0.1159240811174677 -0.33775964177068091 0 0.1161256318033537 -0.33540228211287182 0 0.12260601330919629 -0.33072698382653798 0 0.1168506625355451 -0.3296807312869221 0 0.1161256318033537 -0.33540228211287182 0 0.13051916655351839 -0.33696304048325831 0 0.1159240811174677 -0.33775964177068091 0 0.13051916655351839 -0.33696304048325831 0 0.1159240811174677 -0.33775964177068091 0 0.123981461538115 -0.35128285539313481 0 0.1159240811174677 -0.33775964177068091 0 0.1161256318033537 -0.33540228211287182 0 0.1168506625355451 -0.3296807312869221 0 0.1161256318033537 -0.33540228211287182 0 0.1093748658769356 -0.32997486192450581 0 0.1159240811174677 -0.33775964177068091 0 0.1161256318033537 -0.33540228211287182 0 0.1093748658769356 -0.32997486192450581 0 0.1159240811174677 -0.33775964177068091 0 0.092335912071574502 -0.33904708650077298 0 0.1159240811174677 -0.33775964177068091 0 0.1093748658769356 -0.32997486192450581 0 0.092335912071574502 -0.33904708650077298 0 0.1093748658769356 -0.32997486192450581 0 0.096347407600029022 -0.32440529872184809 0 0.092335912071574502 -0.33904708650077298 0 0.1159240811174677 -0.33775964177068091 0 0.10211321446004019 -0.35101158716873732 0 0.092335912071574502 -0.33904708650077298 0 0.086214248119208581 -0.31193359067875348 0 0.10049372866807189 -0.31082656242210721 0 0.096347407600029022 -0.32440529872184809 0 0.10049372866807189 -0.31082656242210721 0 0.1134387524627216 -0.31086840579325631 0 0.1082288303285789 -0.31948708523568958 0 0.10049372866807189 -0.31082656242210721 0 0.096347407600029022 -0.32440529872184809 0 0.1082288303285789 -0.31948708523568958 0 0.1093748658769356 -0.32997486192450581 0 0.096347407600029022 -0.32440529872184809 0 0.1082288303285789 -0.31948708523568958 0 0.12784456261830821 -0.36308533366748658 0 0.12609635470998201 -0.38402791619100712 0 0.113745377556003 -0.36324200547299851 0 0.1159240811174677 -0.33775964177068091 0 0.113745377556003 -0.36324200547299851 0 0.123981461538115 -0.35128285539313481 0 0.1159240811174677 -0.33775964177068091 0 0.113745377556003 -0.36324200547299851 0 0.1159240811174677 -0.33775964177068091 0 0.113745377556003 -0.36324200547299851 0 0.10211321446004019 -0.35101158716873732 0 0.12784456261830821 -0.36308533366748658 0 0.113745377556003 -0.36324200547299851 0 0.123981461538115 -0.35128285539313481 0 0.1115666739945345 -0.38872436917531578 0 0.113745377556003 -0.36324200547299851 0 0.096372132326470572 -0.36542491223168638 0 0.113745377556003 -0.36324200547299851 0 0.10211321446004019 -0.35101158716873732 0 0.096372132326470572 -0.36542491223168638 0 0.089853218628298884 -0.38394717958202601 0 0.096372132326470572 -0.36542491223168638 0 0.07582030708563034 -0.37256671738353597 0 0.096372132326470572 -0.36542491223168638 0 0.082110249222110576 -0.35466523699539548 0 0.07582030708563034 -0.37256671738353597 0 0.10211321446004019 -0.35101158716873732 0 0.096372132326470572 -0.36542491223168638 0 0.082110249222110576 -0.35466523699539548 0 0.082110249222110576 -0.35466523699539548 0 0.092335912071574502 -0.33904708650077298 0 0.068747743025681235 -0.34033453123086538 0 0.10211321446004019 -0.35101158716873732 0 0.082110249222110576 -0.35466523699539548 0 0.092335912071574502 -0.33904708650077298 0 0.082110249222110576 -0.35466523699539548 0 0.068747743025681235 -0.34033453123086538 0 0.057272186363266697 -0.35960658745677498 0 0.082110249222110576 -0.35466523699539548 0 0.07582030708563034 -0.37256671738353597 0 0.057272186363266697 -0.35960658745677498 0 0.05933500968155693 -0.37671477575793533 0 0.07582030708563034 -0.37256671738353597 0 0.057272186363266697 -0.35960658745677498 0 0.086214248119208581 -0.31193359067875348 0 0.096347407600029022 -0.32440529872184809 0 0.078030795921920637 -0.32434601069550512 0 0.092335912071574502 -0.33904708650077298 0 0.068747743025681235 -0.34033453123086538 0 0.078030795921920637 -0.32434601069550512 0 0.092335912071574502 -0.33904708650077298 0 0.068747743025681235 -0.34033453123086538 0 0.096347407600029022 -0.32440529872184809 0 0.092335912071574502 -0.33904708650077298 0 0.078030795921920637 -0.32434601069550512 0 0.068747743025681235 -0.34033453123086538 0 0.078030795921920637 -0.32434601069550512 0 0.053863538987460123 -0.3232816795844588 0 0.069967983226982527 -0.30495776272600778 0 0.078030795921920637 -0.32434601069550512 0 0.053863538987460123 -0.3232816795844588 0 0.086214248119208581 -0.31193359067875348 0 0.069967983226982527 -0.30495776272600778 0 0.078030795921920637 -0.32434601069550512 0 0.068747743025681235 -0.34033453123086538 0 0.045159573979787898 -0.34162197596095778 0 0.068747743025681235 -0.34033453123086538 0 0.053863538987460123 -0.3232816795844588 0 0.045159573979787898 -0.34162197596095778 0 0.053863538987460123 -0.3232816795844588 0 0.034832013842728909 -0.33032259781876938 0 0.045159573979787898 -0.34162197596095778 0 0.034832013842728909 -0.33032259781876938 0 0.045159573979787898 -0.34162197596095778 0 0.02157140493389462 -0.34290942069105018 0 0.045159573979787898 -0.34162197596095778 0 0.02157140493389462 -0.34290942069105018 0 0.053863538987460123 -0.3232816795844588 0 0.034832013842728909 -0.33032259781876938 0 0.03621734991660093 -0.31670946998547028 0 0.053863538987460123 -0.3232816795844588 0 0.03621734991660093 -0.31670946998547028 0 0.048768037075517537 -0.30442990221103089 0 0.05933500968155693 -0.37671477575793533 0 0.057272186363266697 -0.35960658745677498 0 0.039079294002052851 -0.37065651216905859 0 0.068747743025681235 -0.34033453123086538 0 0.045159573979787898 -0.34162197596095778 0 0.057272186363266697 -0.35960658745677498 0 0.045159573979787898 -0.34162197596095778 0 0.034512899630155462 -0.3545258348651717 0 0.02157140493389462 -0.34290942069105018 0 0.045159573979787898 -0.34162197596095778 0 0.057272186363266697 -0.35960658745677498 0 0.034512899630155462 -0.3545258348651717 0 0.057272186363266697 -0.35960658745677498 0 0.034512899630155462 -0.3545258348651717 0 0.039079294002052851 -0.37065651216905859 0 0.025542853711361019 -0.38384675294920401 0 0.039079294002052851 -0.37065651216905859 0 0.016784443680880379 -0.36713146693108112 0 0.034512899630155462 -0.3545258348651717 0 0.039079294002052851 -0.37065651216905859 0 0.016784443680880379 -0.36713146693108112 0 0.034512899630155462 -0.3545258348651717 0 0.016784443680880379 -0.36713146693108112 0 0.02157140493389462 -0.34290942069105018 0 -0.0043130761299947744 -0.35643483176966217 0 0.016784443680880379 -0.36713146693108112 0 0.02157140493389462 -0.34290942069105018 0 -0.0038616663111063101 -0.33241552487502413 0 -0.0043130761299947744 -0.35643483176966217 0 0.02157140493389462 -0.34290942069105018 0 -0.0043130761299947744 -0.35643483176966217 0 -0.0064694903547723136 -0.38059021958606692 0 0.016784443680880379 -0.36713146693108112 0 0.03621734991660093 -0.31670946998547028 0 0.020048637459846991 -0.32439583124448262 0 0.029165048793799431 -0.30349547286963757 0 0.034832013842728909 -0.33032259781876938 0 0.03621734991660093 -0.31670946998547028 0 0.020048637459846991 -0.32439583124448262 0 0.020048637459846991 -0.32439583124448262 0 0.0094652366165251054 -0.31053241408104548 0 0.029165048793799431 -0.30349547286963757 0 0.034832013842728909 -0.33032259781876938 0 0.020048637459846991 -0.32439583124448262 0 0.02157140493389462 -0.34290942069105018 0 -0.0038616663111063101 -0.33241552487502413 0 0.020048637459846991 -0.32439583124448262 0 0.02157140493389462 -0.34290942069105018 0 -0.0038616663111063101 -0.33241552487502413 0 0.020048637459846991 -0.32439583124448262 0 0.0094652366165251054 -0.31053241408104548 0 -0.01007927323019326 -0.3103345258507364 0 0.0094652366165251054 -0.31053241408104548 0 0.0017563221397047381 -0.2997067901486577 0 0.0094652366165251054 -0.31053241408104548 0 0.0017563221397047381 -0.2997067901486577 0 0.017453688627786131 -0.29322190620108468 0 0.0017563221397047381 -0.2997067901486577 0 0.0066437179820165657 -0.2861171845936395 0 0.017453688627786131 -0.29322190620108468 0 -0.0080748459131490501 -0.2914060437848453 0 0.0017563221397047381 -0.2997067901486577 0 0.0066437179820165657 -0.2861171845936395 0 0.0066437179820165657 -0.2861171845936395 0 0.017453688627786131 -0.29322190620108468 0 0.01908241754038794 -0.28073467218482329 0 0.017453688627786131 -0.29322190620108468 0 0.029398966714908509 -0.28692964748338379 0 0.029165048793799431 -0.30349547286963757 0 0.017453688627786131 -0.29322190620108468 0 0.029398966714908509 -0.28692964748338379 0 0.01908241754038794 -0.28073467218482329 0 0.0094652366165251054 -0.31053241408104548 0 0.017453688627786131 -0.29322190620108468 0 0.029165048793799431 -0.30349547286963757 0 0.03621734991660093 -0.31670946998547028 0 0.029165048793799431 -0.30349547286963757 0 0.048768037075517537 -0.30442990221103089 0 0.029165048793799431 -0.30349547286963757 0 0.043029943860180789 -0.28970337243015992 0 0.048768037075517537 -0.30442990221103089 0 0.029398966714908509 -0.28692964748338379 0 0.029165048793799431 -0.30349547286963757 0 0.043029943860180789 -0.28970337243015992 0 0.029398966714908509 -0.28692964748338379 0 0.043029943860180789 -0.28970337243015992 0 0.038396769586432553 -0.27977596087564799 0 0.043029943860180789 -0.28970337243015992 0 0.051749435803858171 -0.27840569125857739 0 0.038396769586432553 -0.27977596087564799 0 0.043029943860180789 -0.28970337243015992 0 0.059449054433483903 -0.28956707473318272 0 0.051749435803858171 -0.27840569125857739 0 0.043029943860180789 -0.28970337243015992 0 0.059449054433483903 -0.28956707473318272 0 0.048768037075517537 -0.30442990221103089 0 0.069967983226982527 -0.30495776272600778 0 0.059449054433483903 -0.28956707473318272 0 0.048768037075517537 -0.30442990221103089 0 0.069967983226982527 -0.30495776272600778 0 0.053863538987460123 -0.3232816795844588 0 0.048768037075517537 -0.30442990221103089 0 0.053380735395516472 -0.25867595766617779 0 0.04428054005230446 -0.26275141268032309 0 0.045372505498807933 -0.25408090721008542 0 0.053380735395516472 -0.25867595766617779 0 0.053158010572478251 -0.26777612517812432 0 0.04428054005230446 -0.26275141268032309 0 0.053380735395516472 -0.25867595766617779 0 0.045372505498807933 -0.25408090721008542 0 0.05268811686830014 -0.24901610311096159 0 0.053380735395516472 -0.25867595766617779 0 0.061490933840310687 -0.25382890142296882 0 0.05268811686830014 -0.24901610311096159 0 0.053380735395516472 -0.25867595766617779 0 0.060614126731859473 -0.2624009925450973 0 0.053158010572478251 -0.26777612517812432 0 0.053380735395516472 -0.25867595766617779 0 0.061490933840310687 -0.25382890142296882 0 0.060614126731859473 -0.2624009925450973 0 0.0646939085167762 -0.2722383315448984 0 0.060614126731859473 -0.2624009925450973 0 0.053158010572478251 -0.26777612517812432 0 0.0646939085167762 -0.2722383315448984 0 0.059449054433483903 -0.28956707473318272 0 0.051749435803858171 -0.27840569125857739 0 0.0646939085167762 -0.2722383315448984 0 0.051749435803858171 -0.27840569125857739 0 0.053158010572478251 -0.26777612517812432 0 0.053158010572478251 -0.26777612517812432 0 0.044229316934554799 -0.27218436537367241 0 0.04428054005230446 -0.26275141268032309 0 0.051749435803858171 -0.27840569125857739 0 0.053158010572478251 -0.26777612517812432 0 0.044229316934554799 -0.27218436537367241 0 0.044229316934554799 -0.27218436537367241 0 0.031885251388666561 -0.26470215361104171 0 0.04428054005230446 -0.26275141268032309 0 0.051749435803858171 -0.27840569125857739 0 0.044229316934554799 -0.27218436537367241 0 0.038396769586432553 -0.27977596087564799 0 0.044229316934554799 -0.27218436537367241 0 0.038396769586432553 -0.27977596087564799 0 0.029696712261103771 -0.27487286106778819 0 0.029398966714908509 -0.28692964748338379 0 0.038396769586432553 -0.27977596087564799 0 0.029696712261103771 -0.27487286106778819 0 0.044229316934554799 -0.27218436537367241 0 0.031885251388666561 -0.26470215361104171 0 0.029696712261103771 -0.27487286106778819 0 0.037315510146954597 -0.25849363249326118 0 0.031885251388666561 -0.26470215361104171 0 0.04428054005230446 -0.26275141268032309 0 0.037315510146954597 -0.25849363249326118 0 0.031885251388666561 -0.26470215361104171 0 0.03069464768829987 -0.25176037071845259 0 0.037315510146954597 -0.25849363249326118 0 0.04428054005230446 -0.26275141268032309 0 0.045372505498807933 -0.25408090721008542 0 0.045372505498807933 -0.25408090721008542 0 0.03069464768829987 -0.25176037071845259 0 0.042588116356466379 -0.2448823624008481 0 0.037315510146954597 -0.25849363249326118 0 0.045372505498807933 -0.25408090721008542 0 0.03069464768829987 -0.25176037071845259 0 0.031885251388666561 -0.26470215361104171 0 0.021199614426200629 -0.26114166245967918 0 0.019908913466960752 -0.27058631964059482 0 0.031885251388666561 -0.26470215361104171 0 0.03069464768829987 -0.25176037071845259 0 0.021199614426200629 -0.26114166245967918 0 0.03069464768829987 -0.25176037071845259 0 0.021199614426200629 -0.26114166245967918 0 0.016145176335298529 -0.25210595968411048 0 0.029398966714908509 -0.28692964748338379 0 0.029696712261103771 -0.27487286106778819 0 0.01908241754038794 -0.28073467218482329 0 0.031885251388666561 -0.26470215361104171 0 0.029696712261103771 -0.27487286106778819 0 0.019908913466960752 -0.27058631964059482 0 0.019908913466960752 -0.27058631964059482 0 0.01908241754038794 -0.28073467218482329 0 0.01128192931255503 -0.27464126756021451 0 0.029696712261103771 -0.27487286106778819 0 0.019908913466960752 -0.27058631964059482 0 0.01908241754038794 -0.28073467218482329 0 -0.01145854626600548 -0.26602311564559261 0 0.01128192931255503 -0.27464126756021451 0 0.0057158633005241696 -0.26337829885565528 0 0.0066437179820165657 -0.2861171845936395 0 0.01908241754038794 -0.28073467218482329 0 0.01128192931255503 -0.27464126756021451 0 0.019908913466960752 -0.27058631964059482 0 0.01128192931255503 -0.27464126756021451 0 0.0057158633005241696 -0.26337829885565528 0 -0.002848760243290064 -0.27761611820401882 0 0.0066437179820165657 -0.2861171845936395 0 0.01128192931255503 -0.27464126756021451 0 0.016145176335298529 -0.25210595968411048 0 0.0057158633005241696 -0.26337829885565528 0 0.0054759062840018038 -0.25064707341720888 0 0.021199614426200629 -0.26114166245967918 0 0.019908913466960752 -0.27058631964059482 0 0.0057158633005241696 -0.26337829885565528 0 0.021199614426200629 -0.26114166245967918 0 0.016145176335298529 -0.25210595968411048 0 0.0057158633005241696 -0.26337829885565528 0 -0.0009620894167222515 -0.25496392916579452 0 0.0057158633005241696 -0.26337829885565528 0 0.0054759062840018038 -0.25064707341720888 0 -0.0009620894167222515 -0.25496392916579452 0 -0.0029313858115674811 -0.24854412401401971 0 0.0054759062840018038 -0.25064707341720888 0 0.0054759062840018038 -0.25064707341720888 0 0.0026199421412959989 -0.2430643023623929 0 0.011589873569895199 -0.24127835128668559 0 -0.0029313858115674811 -0.24854412401401971 0 0.0054759062840018038 -0.25064707341720888 0 0.0026199421412959989 -0.2430643023623929 0 0.016145176335298529 -0.25210595968411048 0 0.0054759062840018038 -0.25064707341720888 0 0.011589873569895199 -0.24127835128668559 0 0.011589873569895199 -0.24127835128668559 0 0.010668172172219499 -0.2272828987723072 0 0.020574075722817331 -0.2351284197632682 0 0.0026199421412959989 -0.2430643023623929 0 0.011589873569895199 -0.24127835128668559 0 0.0017465435191736189 -0.23378549097037141 0 -0.00080535468136348092 -0.21995366459000901 0 0.010668172172219499 -0.2272828987723072 0 0.01016515501406726 -0.20926501301563591 0 -0.00080535468136348092 -0.21995366459000901 0 0.0017465435191736189 -0.23378549097037141 0 0.010668172172219499 -0.2272828987723072 0 0.010668172172219499 -0.2272828987723072 0 0.02170661161633574 -0.22145314359659171 0 0.01016515501406726 -0.20926501301563591 0 0.011589873569895199 -0.24127835128668559 0 0.0017465435191736189 -0.23378549097037141 0 0.010668172172219499 -0.2272828987723072 0 0.010668172172219499 -0.2272828987723072 0 0.02170661161633574 -0.22145314359659171 0 0.020574075722817331 -0.2351284197632682 0 0.02170661161633574 -0.22145314359659171 0 0.02866695829179056 -0.22960637228307629 0 0.036392787169896093 -0.22322562645731159 0 0.02170661161633574 -0.22145314359659171 0 0.02866695829179056 -0.22960637228307629 0 0.020574075722817331 -0.2351284197632682 0 0.02866695829179056 -0.22960637228307629 0 0.020574075722817331 -0.2351284197632682 0 0.032071787069821417 -0.24054619649286721 0 0.022195152742869501 -0.2444300013669817 0 0.020574075722817331 -0.2351284197632682 0 0.032071787069821417 -0.24054619649286721 0 0.03069464768829987 -0.25176037071845259 0 0.022195152742869501 -0.2444300013669817 0 0.032071787069821417 -0.24054619649286721 0 0.03069464768829987 -0.25176037071845259 0 0.016145176335298529 -0.25210595968411048 0 0.022195152742869501 -0.2444300013669817 0 0.016145176335298529 -0.25210595968411048 0 0.011589873569895199 -0.24127835128668559 0 0.022195152742869501 -0.2444300013669817 0 0.011589873569895199 -0.24127835128668559 0 0.022195152742869501 -0.2444300013669817 0 0.020574075722817331 -0.2351284197632682 0 -0.003739977245034012 -0.19168309442994089 0 0.010514116253606281 -0.1925853606064957 0 0.01016515501406726 -0.20926501301563591 0 0.010514116253606281 -0.1925853606064957 0 0.01016515501406726 -0.20926501301563591 0 0.018596641755985681 -0.20049862993462389 0 0.02170661161633574 -0.22145314359659171 0 0.01016515501406726 -0.20926501301563591 0 0.028304225500431591 -0.20785134554231141 0 0.01016515501406726 -0.20926501301563591 0 0.028304225500431591 -0.20785134554231141 0 0.018596641755985681 -0.20049862993462389 0 0.02170661161633574 -0.22145314359659171 0 0.028304225500431591 -0.20785134554231141 0 0.036392787169896093 -0.22322562645731159 0 0.028304225500431591 -0.20785134554231141 0 0.018596641755985681 -0.20049862993462389 0 0.02540307025583758 -0.19229280057405279 0 0.010514116253606281 -0.1925853606064957 0 0.018596641755985681 -0.20049862993462389 0 0.02540307025583758 -0.19229280057405279 0 0.010514116253606281 -0.1925853606064957 0 0.02540307025583758 -0.19229280057405279 0 0.015764016274472759 -0.1812646672695073 0 0.02540307025583758 -0.19229280057405279 0 0.041440672425083092 -0.19607701236864419 0 0.030421272951226121 -0.1778391783376792 0 0.028304225500431591 -0.20785134554231141 0 0.02540307025583758 -0.19229280057405279 0 0.041440672425083092 -0.19607701236864419 0 0.041440672425083092 -0.19607701236864419 0 0.042310424588804782 -0.2140630995529598 0 0.055497750511994078 -0.2086068857692274 0 0.028304225500431591 -0.20785134554231141 0 0.041440672425083092 -0.19607701236864419 0 0.042310424588804782 -0.2140630995529598 0 0.028304225500431591 -0.20785134554231141 0 0.042310424588804782 -0.2140630995529598 0 0.036392787169896093 -0.22322562645731159 0 0.042310424588804782 -0.2140630995529598 0 0.055497750511994078 -0.2086068857692274 0 0.052955454276687589 -0.2198291654371925 0 0.062338921595789062 -0.21792006704763969 0 0.055497750511994078 -0.2086068857692274 0 0.052955454276687589 -0.2198291654371925 0 0.062338921595789062 -0.21792006704763969 0 0.055497750511994078 -0.2086068857692274 0 0.067863046951983474 -0.20503048868511209 0 0.055497750511994078 -0.2086068857692274 0 0.056257937900538298 -0.19577788601322099 0 0.067863046951983474 -0.20503048868511209 0 0.041440672425083092 -0.19607701236864419 0 0.056257937900538298 -0.19577788601322099 0 0.051449240160577621 -0.1762857105508405 0 0.041440672425083092 -0.19607701236864419 0 0.055497750511994078 -0.2086068857692274 0 0.056257937900538298 -0.19577788601322099 0 0.040491861427302538 -0.2355872617630255 0 0.042588116356466379 -0.2448823624008481 0 0.052307832003780613 -0.23884346229351339 0 0.040491861427302538 -0.2355872617630255 0 0.045866106706223042 -0.22907627795895011 0 0.052307832003780613 -0.23884346229351339 0 0.03069464768829987 -0.25176037071845259 0 0.042588116356466379 -0.2448823624008481 0 0.032071787069821417 -0.24054619649286721 0 0.040491861427302538 -0.2355872617630255 0 0.042588116356466379 -0.2448823624008481 0 0.032071787069821417 -0.24054619649286721 0 0.02866695829179056 -0.22960637228307629 0 0.040491861427302538 -0.2355872617630255 0 0.032071787069821417 -0.24054619649286721 0 0.02866695829179056 -0.22960637228307629 0 0.040491861427302538 -0.2355872617630255 0 0.036392787169896093 -0.22322562645731159 0 0.042310424588804782 -0.2140630995529598 0 0.036392787169896093 -0.22322562645731159 0 0.045866106706223042 -0.22907627795895011 0 0.040491861427302538 -0.2355872617630255 0 0.036392787169896093 -0.22322562645731159 0 0.045866106706223042 -0.22907627795895011 0 0.045866106706223042 -0.22907627795895011 0 0.058764067980626958 -0.22947949685718549 0 0.052307832003780613 -0.23884346229351339 0 0.045866106706223042 -0.22907627795895011 0 0.052955454276687589 -0.2198291654371925 0 0.058764067980626958 -0.22947949685718549 0 0.042310424588804782 -0.2140630995529598 0 0.045866106706223042 -0.22907627795895011 0 0.052955454276687589 -0.2198291654371925 0 0.062338921595789062 -0.21792006704763969 0 0.058764067980626958 -0.22947949685718549 0 0.065719467571416057 -0.22489822263154319 0 0.062338921595789062 -0.21792006704763969 0 0.052955454276687589 -0.2198291654371925 0 0.058764067980626958 -0.22947949685718549 0 0.058764067980626958 -0.22947949685718549 0 0.062159259289524899 -0.2368834247622158 0 0.052307832003780613 -0.23884346229351339 0 0.062159259289524899 -0.2368834247622158 0 0.052307832003780613 -0.23884346229351339 0 0.061229972926465738 -0.2445427902389527 0 0.045372505498807933 -0.25408090721008542 0 0.042588116356466379 -0.2448823624008481 0 0.05268811686830014 -0.24901610311096159 0 0.042588116356466379 -0.2448823624008481 0 0.052307832003780613 -0.23884346229351339 0 0.05268811686830014 -0.24901610311096159 0 0.061490933840310687 -0.25382890142296882 0 0.05268811686830014 -0.24901610311096159 0 0.061229972926465738 -0.2445427902389527 0 0.052307832003780613 -0.23884346229351339 0 0.05268811686830014 -0.24901610311096159 0 0.061229972926465738 -0.2445427902389527 0 0.061490933840310687 -0.25382890142296882 0 0.061229972926465738 -0.2445427902389527 0 0.070069103552599196 -0.24823964670048029 0 0.061229972926465738 -0.2445427902389527 0 0.070069103552599196 -0.24823964670048029 0 0.069856411684105391 -0.23913895996007839 0 0.062159259289524899 -0.2368834247622158 0 0.061229972926465738 -0.2445427902389527 0 0.069856411684105391 -0.23913895996007839 0 0.062159259289524899 -0.2368834247622158 0 0.069856411684105391 -0.23913895996007839 0 0.067142239376285745 -0.23139328163069281 0 0.069856411684105391 -0.23913895996007839 0 0.077788170153509889 -0.24196191377257101 0 0.076767606518392539 -0.23187249677345001 0 0.080071368274292315 -0.25145738896057979 0 0.070069103552599196 -0.24823964670048029 0 0.077788170153509889 -0.24196191377257101 0 0.070069103552599196 -0.24823964670048029 0 0.069856411684105391 -0.23913895996007839 0 0.077788170153509889 -0.24196191377257101 0 0.080071368274292315 -0.25145738896057979 0 0.090706365013478091 -0.25245448435890872 0 0.085906732882507178 -0.24385162082211831 0 0.080071368274292315 -0.25145738896057979 0 0.077788170153509889 -0.24196191377257101 0 0.085906732882507178 -0.24385162082211831 0 0.077788170153509889 -0.24196191377257101 0 0.085906732882507178 -0.24385162082211831 0 0.083256636250354649 -0.23616880796388259 0 0.077788170153509889 -0.24196191377257101 0 0.083256636250354649 -0.23616880796388259 0 0.076767606518392539 -0.23187249677345001 0 0.085906732882507178 -0.24385162082211831 0 0.089657973372422345 -0.23730775202069579 0 0.094006026236525903 -0.2441335510050745 0 0.085906732882507178 -0.24385162082211831 0 0.083256636250354649 -0.23616880796388259 0 0.089657973372422345 -0.23730775202069579 0 0.083256636250354649 -0.23616880796388259 0 0.089657973372422345 -0.23730775202069579 0 0.089763789457938253 -0.2306791647953326 0 0.089657973372422345 -0.23730775202069579 0 0.089763789457938253 -0.2306791647953326 0 0.096012267649498176 -0.23702186761809721 0 0.089657973372422345 -0.23730775202069579 0 0.094006026236525903 -0.2441335510050745 0 0.096012267649498176 -0.23702186761809721 0 0.090706365013478091 -0.25245448435890872 0 0.085906732882507178 -0.24385162082211831 0 0.094006026236525903 -0.2441335510050745 0 0.086446736705125371 -0.22420087797706609 0 0.091303359373345411 -0.22339335178318359 0 0.089763789457938253 -0.2306791647953326 0 0.086446736705125371 -0.22420087797706609 0 0.091303359373345411 -0.22339335178318359 0 0.086853981468707001 -0.2185547472363609 0 0.091303359373345411 -0.22339335178318359 0 0.086853981468707001 -0.2185547472363609 0 0.09077468002378962 -0.21857675351640271 0 0.091303359373345411 -0.22339335178318359 0 0.09077468002378962 -0.21857675351640271 0 0.094530837428433365 -0.22086489816084981 0 0.091303359373345411 -0.22339335178318359 0 0.089763789457938253 -0.2306791647953326 0 0.098670227838192195 -0.22970514568366851 0 0.086446736705125371 -0.22420087797706609 0 0.089763789457938253 -0.2306791647953326 0 0.083020570332336119 -0.22791650227557511 0 0.083256636250354649 -0.23616880796388259 0 0.083020570332336119 -0.22791650227557511 0 0.076767606518392539 -0.23187249677345001 0 0.083256636250354649 -0.23616880796388259 0 0.089763789457938253 -0.2306791647953326 0 0.083020570332336119 -0.22791650227557511 0 0.083020570332336119 -0.22791650227557511 0 0.077930889523722374 -0.22519622511208121 0 0.076767606518392539 -0.23187249677345001 0 0.083020570332336119 -0.22791650227557511 0 0.081291982893300085 -0.22046062379487821 0 0.077930889523722374 -0.22519622511208121 0 0.086446736705125371 -0.22420087797706609 0 0.083020570332336119 -0.22791650227557511 0 0.081291982893300085 -0.22046062379487821 0 0.086446736705125371 -0.22420087797706609 0 0.081291982893300085 -0.22046062379487821 0 0.086853981468707001 -0.2185547472363609 0 0.081291982893300085 -0.22046062379487821 0 0.077930889523722374 -0.22519622511208121 0 0.073706539318973169 -0.21796036257100029 0 0.072234091795087663 -0.22574485878751241 0 0.065719467571416057 -0.22489822263154319 0 0.073706539318973169 -0.21796036257100029 0 0.077930889523722374 -0.22519622511208121 0 0.072234091795087663 -0.22574485878751241 0 0.073706539318973169 -0.21796036257100029 0 0.069856411684105391 -0.23913895996007839 0 0.076767606518392539 -0.23187249677345001 0 0.067142239376285745 -0.23139328163069281 0 0.072234091795087663 -0.22574485878751241 0 0.076767606518392539 -0.23187249677345001 0 0.067142239376285745 -0.23139328163069281 0 0.077930889523722374 -0.22519622511208121 0 0.072234091795087663 -0.22574485878751241 0 0.076767606518392539 -0.23187249677345001 0 0.058764067980626958 -0.22947949685718549 0 0.062159259289524899 -0.2368834247622158 0 0.067142239376285745 -0.23139328163069281 0 0.058764067980626958 -0.22947949685718549 0 0.067142239376285745 -0.23139328163069281 0 0.065719467571416057 -0.22489822263154319 0 0.072234091795087663 -0.22574485878751241 0 0.067142239376285745 -0.23139328163069281 0 0.065719467571416057 -0.22489822263154319 0 0.062338921595789062 -0.21792006704763969 0 0.065719467571416057 -0.22489822263154319 0 0.073706539318973169 -0.21796036257100029 0 0.062338921595789062 -0.21792006704763969 0 0.067863046951983474 -0.20503048868511209 0 0.073706539318973169 -0.21796036257100029 0 0.067863046951983474 -0.20503048868511209 0 0.073706539318973169 -0.21796036257100029 0 0.079094442607528917 -0.20913243433380641 0 0.067863046951983474 -0.20503048868511209 0 0.081482512553192915 -0.1953056794767786 0 0.079094442607528917 -0.20913243433380641 0 0.056257937900538298 -0.19577788601322099 0 0.067863046951983474 -0.20503048868511209 0 0.066040058368007956 -0.18964665730407451 0 0.067863046951983474 -0.20503048868511209 0 0.066040058368007956 -0.18964665730407451 0 0.081482512553192915 -0.1953056794767786 0 0.081482512553192915 -0.1953056794767786 0 0.095454742848087734 -0.19451486061966669 0 0.093505174579280592 -0.1731787749771625 0 0.081482512553192915 -0.1953056794767786 0 0.08833530696517819 -0.21036332105093219 0 0.095454742848087734 -0.19451486061966669 0 0.08833530696517819 -0.21036332105093219 0 0.097404311116896569 -0.21585094626217091 0 0.095454742848087734 -0.19451486061966669 0 0.081291982893300085 -0.22046062379487821 0 0.073706539318973169 -0.21796036257100029 0 0.082946926161669862 -0.2149195339015407 0 0.082946926161669862 -0.2149195339015407 0 0.079094442607528917 -0.20913243433380641 0 0.08833530696517819 -0.21036332105093219 0 0.073706539318973169 -0.21796036257100029 0 0.082946926161669862 -0.2149195339015407 0 0.079094442607528917 -0.20913243433380641 0 0.081291982893300085 -0.22046062379487821 0 0.082946926161669862 -0.2149195339015407 0 0.086853981468707001 -0.2185547472363609 0 0.081482512553192915 -0.1953056794767786 0 0.079094442607528917 -0.20913243433380641 0 0.08833530696517819 -0.21036332105093219 0 0.082946926161669862 -0.2149195339015407 0 0.08833530696517819 -0.21036332105093219 0 0.086853981468707001 -0.2185547472363609 0 0.08833530696517819 -0.21036332105093219 0 0.086853981468707001 -0.2185547472363609 0 0.09077468002378962 -0.21857675351640271 0 0.08833530696517819 -0.21036332105093219 0 0.09077468002378962 -0.21857675351640271 0 0.092213447725184278 -0.21529843562297729 0 0.08833530696517819 -0.21036332105093219 0 0.092213447725184278 -0.21529843562297729 0 0.097404311116896569 -0.21585094626217091 0 0.09077468002378962 -0.21857675351640271 0 0.094501608789943028 -0.21679829355882299 0 0.094530837428433365 -0.22086489816084981 0 0.09077468002378962 -0.21857675351640271 0 0.092213447725184278 -0.21529843562297729 0 0.094501608789943028 -0.21679829355882299 0 0.094501608789943028 -0.21679829355882299 0 0.097404311116896569 -0.21585094626217091 0 0.094530837428433365 -0.22086489816084981 0 0.092213447725184278 -0.21529843562297729 0 0.094501608789943028 -0.21679829355882299 0 0.097404311116896569 -0.21585094626217091 0 0.097404311116896569 -0.21585094626217091 0 0.095454742848087734 -0.19451486061966669 0 0.097404311116896569 -0.21585094626217091 0 0.1059898830346106 -0.20430933332548051 0 0.095454742848087734 -0.19451486061966669 0 0.097404311116896569 -0.21585094626217091 0 0.1089347031997706 -0.21297733173581901 0 0.1146171121197104 -0.21980430615730401 0 0.097404311116896569 -0.21585094626217091 0 0.1059898830346106 -0.20430933332548051 0 0.1089347031997706 -0.21297733173581901 0 0.095454742848087734 -0.19451486061966669 0 0.1128143282819509 -0.19216489626002589 0 0.10772522460311169 -0.17968171223372481 0 0.1059898830346106 -0.20430933332548051 0 0.095454742848087734 -0.19451486061966669 0 0.1128143282819509 -0.19216489626002589 0 0.1128143282819509 -0.19216489626002589 0 0.1237689835273371 -0.19605207676116951 0 0.1178461100078927 -0.20838697738218431 0 0.1059898830346106 -0.20430933332548051 0 0.1128143282819509 -0.19216489626002589 0 0.1178461100078927 -0.20838697738218431 0 0.1128143282819509 -0.19216489626002589 0 0.1237689835273371 -0.19605207676116951 0 0.1232013989280239 -0.1819146573535104 0 0.1089347031997706 -0.21297733173581901 0 0.1178461100078927 -0.20838697738218431 0 0.1146171121197104 -0.21980430615730401 0 0.1059898830346106 -0.20430933332548051 0 0.1089347031997706 -0.21297733173581901 0 0.1178461100078927 -0.20838697738218431 0 0.1178461100078927 -0.20838697738218431 0 0.1146171121197104 -0.21980430615730401 0 0.12895394136930069 -0.22163642029703709 0 0.1146171121197104 -0.21980430615730401 0 0.12018370186474731 -0.23305432747703519 0 0.12895394136930069 -0.22163642029703709 0 0.097404311116896569 -0.21585094626217091 0 0.1146171121197104 -0.21980430615730401 0 0.12018370186474731 -0.23305432747703519 0 0.1212054647883809 -0.25073068226796852 0 0.12018370186474731 -0.23305432747703519 0 0.1059281586602189 -0.23527494890652931 0 0.13217397618885759 -0.25462043987800831 0 0.1212054647883809 -0.25073068226796852 0 0.12018370186474731 -0.23305432747703519 0 0.1212054647883809 -0.25073068226796852 0 0.1059281586602189 -0.23527494890652931 0 0.1078238037173969 -0.24832262031645649 0 0.1212054647883809 -0.25073068226796852 0 0.1059281586602189 -0.23527494890652931 0 0.099550463170151926 -0.25262580003909579 0 0.1078238037173969 -0.24832262031645649 0 0.10103467245524091 -0.24298905409433241 0 0.1059281586602189 -0.23527494890652931 0 0.1078238037173969 -0.24832262031645649 0 0.10103467245524091 -0.24298905409433241 0 0.099550463170151926 -0.25262580003909579 0 0.10103467245524091 -0.24298905409433241 0 0.094006026236525903 -0.2441335510050745 0 0.090706365013478091 -0.25245448435890872 0 0.099550463170151926 -0.25262580003909579 0 0.094006026236525903 -0.2441335510050745 0 0.1059281586602189 -0.23527494890652931 0 0.10103467245524091 -0.24298905409433241 0 0.096012267649498176 -0.23702186761809721 0 0.10103467245524091 -0.24298905409433241 0 0.094006026236525903 -0.2441335510050745 0 0.096012267649498176 -0.23702186761809721 0 0.1059281586602189 -0.23527494890652931 0 0.096012267649498176 -0.23702186761809721 0 0.098670227838192195 -0.22970514568366851 0 0.089763789457938253 -0.2306791647953326 0 0.096012267649498176 -0.23702186761809721 0 0.098670227838192195 -0.22970514568366851 0 0.097404311116896569 -0.21585094626217091 0 0.12018370186474731 -0.23305432747703519 0 0.097404311116896569 -0.21585094626217091 0 0.12018370186474731 -0.23305432747703519 0 0.1059281586602189 -0.23527494890652931 0 0.097404311116896569 -0.21585094626217091 0 0.1059281586602189 -0.23527494890652931 0 0.098670227838192195 -0.22970514568366851 0 0.091303359373345411 -0.22339335178318359 0 0.098670227838192195 -0.22970514568366851 0 0.094530837428433365 -0.22086489816084981 0 0.097404311116896569 -0.21585094626217091 0 0.098670227838192195 -0.22970514568366851 0 0.094530837428433365 -0.22086489816084981 0 0.097404311116896569 -0.21585094626217091 0 0.098670227838192195 -0.22970514568366851 0 0.1071373084330472 -0.14482826815459701 0 0.1035248479174861 -0.15311019857333261 0 0.098760878024456711 -0.14050656481393209 0 0.1071373084330472 -0.14482826815459701 0 0.1035248479174861 -0.15311019857333261 0 0.1121477659277255 -0.1503271840913511 0 0.1035248479174861 -0.15311019857333261 0 0.098760878024456711 -0.14050656481393209 0 0.091560400862706559 -0.15189516094014111 0 0.098760878024456711 -0.14050656481393209 0 0.099399694252258627 -0.1328638184600745 0 0.089615627146132512 -0.13061154690311971 0 0.099399694252258627 -0.1328638184600745 0 0.099525338641528904 -0.12611341339503321 0 0.089615627146132512 -0.13061154690311971 0 0.099525338641528904 -0.12611341339503321 0 0.1096969331969164 -0.13422374872821319 0 0.1121708616464093 -0.1216807098986791 0 0.099399694252258627 -0.1328638184600745 0 0.099525338641528904 -0.12611341339503321 0 0.1096969331969164 -0.13422374872821319 0 0.098760878024456711 -0.14050656481393209 0 0.099399694252258627 -0.1328638184600745 0 0.1096969331969164 -0.13422374872821319 0 0.1071373084330472 -0.14482826815459701 0 0.098760878024456711 -0.14050656481393209 0 0.1096969331969164 -0.13422374872821319 0 0.1096969331969164 -0.13422374872821319 0 0.1155243526086871 -0.14484298486410191 0 0.12532898621889721 -0.13663811256420449 0 0.1096969331969164 -0.13422374872821319 0 0.11997683785091839 -0.1276371159963853 0 0.12532898621889721 -0.13663811256420449 0 0.1096969331969164 -0.13422374872821319 0 0.11997683785091839 -0.1276371159963853 0 0.1121708616464093 -0.1216807098986791 0 0.1217036921304827 -0.1482443959076799 0 0.1155243526086871 -0.14484298486410191 0 0.12532898621889721 -0.13663811256420449 0 0.1217036921304827 -0.1482443959076799 0 0.1155243526086871 -0.14484298486410191 0 0.1179114041550178 -0.15136128022523329 0 0.1071373084330472 -0.14482826815459701 0 0.1155243526086871 -0.14484298486410191 0 0.1121477659277255 -0.1503271840913511 0 0.1071373084330472 -0.14482826815459701 0 0.1096969331969164 -0.13422374872821319 0 0.1155243526086871 -0.14484298486410191 0 0.1035248479174861 -0.15311019857333261 0 0.1121477659277255 -0.1503271840913511 0 0.1169082366172023 -0.15609331882735419 0 0.1155243526086871 -0.14484298486410191 0 0.1121477659277255 -0.1503271840913511 0 0.1179114041550178 -0.15136128022523329 0 0.1121477659277255 -0.1503271840913511 0 0.1169082366172023 -0.15609331882735419 0 0.1179114041550178 -0.15136128022523329 0 0.1169082366172023 -0.15609331882735419 0 0.1179114041550178 -0.15136128022523329 0 0.12324902196630889 -0.15465793599018671 0 0.1217036921304827 -0.1482443959076799 0 0.1179114041550178 -0.15136128022523329 0 0.12324902196630889 -0.15465793599018671 0 0.1217036921304827 -0.1482443959076799 0 0.12324902196630889 -0.15465793599018671 0 0.12831016946945831 -0.1492440347933528 0 0.1035248479174861 -0.15311019857333261 0 0.12443417021765769 -0.1709717485187108 0 0.1227471198665283 -0.15880086614903269 0 0.12098675462827781 -0.16200852072179159 0 0.1290045142054978 -0.1612372837293575 0 0.1035248479174861 -0.15311019857333261 0 0.12443417021765769 -0.1709717485187108 0 0.12083528946942131 -0.1711597280255607 0 0.1035248479174861 -0.15311019857333261 0 0.12098675462827781 -0.16200852072179159 0 0.12443417021765769 -0.1709717485187108 0 0.1035248479174861 -0.15311019857333261 0 0.1169082366172023 -0.15609331882735419 0 0.12098675462827781 -0.16200852072179159 0 0.1169082366172023 -0.15609331882735419 0 0.1227471198665283 -0.15880086614903269 0 0.12098675462827781 -0.16200852072179159 0 0.1169082366172023 -0.15609331882735419 0 0.12324902196630889 -0.15465793599018671 0 0.1227471198665283 -0.15880086614903269 0 0.12098675462827781 -0.16200852072179159 0 0.12443417021765769 -0.1709717485187108 0 0.12715697753007521 -0.16591248018761531 0 0.1128143282819509 -0.19216489626002589 0 0.1232013989280239 -0.1819146573535104 0 0.1157139550245927 -0.18029465614444529 0 0.12083528946942131 -0.1711597280255607 0 0.1232013989280239 -0.1819146573535104 0 0.1157139550245927 -0.18029465614444529 0 0.12443417021765769 -0.1709717485187108 0 0.12083528946942131 -0.1711597280255607 0 0.1232013989280239 -0.1819146573535104 0 0.12083528946942131 -0.1711597280255607 0 0.1157139550245927 -0.18029465614444529 0 0.10772522460311169 -0.17968171223372481 0 0.1128143282819509 -0.19216489626002589 0 0.1157139550245927 -0.18029465614444529 0 0.10772522460311169 -0.17968171223372481 0 0.095454742848087734 -0.19451486061966669 0 0.10772522460311169 -0.17968171223372481 0 0.093505174579280592 -0.1731787749771625 0 0.12083528946942131 -0.1711597280255607 0 0.093505174579280592 -0.1731787749771625 0 0.095454742848087734 -0.19451486061966669 0 0.093505174579280592 -0.1731787749771625 0 0.12083528946942131 -0.1711597280255607 0 0.10772522460311169 -0.17968171223372481 0 0.093505174579280592 -0.1731787749771625 0 0.1035248479174861 -0.15311019857333261 0 0.093505174579280592 -0.1731787749771625 0 0.091560400862706559 -0.15189516094014111 0 0.1035248479174861 -0.15311019857333261 0 0.12083528946942131 -0.1711597280255607 0 0.093505174579280592 -0.1731787749771625 0 0.078133883947979807 -0.15717501910519549 0 0.093505174579280592 -0.1731787749771625 0 0.091560400862706559 -0.15189516094014111 0 0.078133883947979807 -0.15717501910519549 0 0.093505174579280592 -0.1731787749771625 0 0.072477207369929117 -0.17473224276400179 0 0.093505174579280592 -0.1731787749771625 0 0.091560400862706559 -0.15189516094014111 0 0.081482512553192915 -0.1953056794767786 0 0.093505174579280592 -0.1731787749771625 0 0.072477207369929117 -0.17473224276400179 0 0.093505174579280592 -0.1731787749771625 0 0.072477207369929117 -0.17473224276400179 0 0.066040058368007956 -0.18964665730407451 0 0.072477207369929117 -0.17473224276400179 0 0.051449240160577621 -0.1762857105508405 0 0.066040058368007956 -0.18964665730407451 0 0.081482512553192915 -0.1953056794767786 0 0.072477207369929117 -0.17473224276400179 0 0.078133883947979807 -0.15717501910519549 0 0.072477207369929117 -0.17473224276400179 0 0.063878974636528515 -0.16401540189567099 0 0.072477207369929117 -0.17473224276400179 0 0.063878974636528515 -0.16401540189567099 0 0.051449240160577621 -0.1762857105508405 0 0.078133883947979807 -0.15717501910519549 0 0.063878974636528515 -0.16401540189567099 0 0.06522271263887458 -0.15305574504012881 0 0.06522271263887458 -0.15305574504012881 0 0.069316279952888193 -0.14186668388360371 0 0.075278834721760557 -0.14616760919767161 0 0.06522271263887458 -0.15305574504012881 0 0.069316279952888193 -0.14186668388360371 0 0.05757515479497001 -0.1486962131740798 0 0.069316279952888193 -0.14186668388360371 0 0.075278834721760557 -0.14616760919767161 0 0.079765110473415279 -0.13788087003968491 0 0.078133883947979807 -0.15717501910519549 0 0.06522271263887458 -0.15305574504012881 0 0.075278834721760557 -0.14616760919767161 0 0.098760878024456711 -0.14050656481393209 0 0.091560400862706559 -0.15189516094014111 0 0.089615627146132512 -0.13061154690311971 0 0.078133883947979807 -0.15717501910519549 0 0.083611330147541921 -0.14459745320402559 0 0.091560400862706559 -0.15189516094014111 0 0.091560400862706559 -0.15189516094014111 0 0.089615627146132512 -0.13061154690311971 0 0.078133883947979807 -0.15717501910519549 0 0.075278834721760557 -0.14616760919767161 0 0.083611330147541921 -0.14459745320402559 0 0.083611330147541921 -0.14459745320402559 0 0.091560400862706559 -0.15189516094014111 0 0.089615627146132512 -0.13061154690311971 0 0.075278834721760557 -0.14616760919767161 0 0.083611330147541921 -0.14459745320402559 0 0.079765110473415279 -0.13788087003968491 0 0.099525338641528904 -0.12611341339503321 0 0.089615627146132512 -0.13061154690311971 0 0.081894058627025895 -0.12584863130967919 0 0.083611330147541921 -0.14459745320402559 0 0.089615627146132512 -0.13061154690311971 0 0.079765110473415279 -0.13788087003968491 0 0.089615627146132512 -0.13061154690311971 0 0.079765110473415279 -0.13788087003968491 0 0.081894058627025895 -0.12584863130967919 0 0.081894058627025895 -0.12584863130967919 0 0.065576399090336079 -0.13067912082877309 0 0.057907204523981459 -0.13951585418161591 0 0.081894058627025895 -0.12584863130967919 0 0.057907204523981459 -0.13951585418161591 0 0.069316279952888193 -0.14186668388360371 0 0.081894058627025895 -0.12584863130967919 0 0.057907204523981459 -0.13951585418161591 0 0.081894058627025895 -0.12584863130967919 0 0.068207364780656948 -0.12563827965844471 0 0.065576399090336079 -0.13067912082877309 0 0.069316279952888193 -0.14186668388360371 0 0.079765110473415279 -0.13788087003968491 0 0.081894058627025895 -0.12584863130967919 0 0.068207364780656948 -0.12563827965844471 0 0.065576399090336079 -0.13067912082877309 0 0.054296968429680029 -0.13171371816535249 0 0.054296968429680029 -0.13171371816535249 0 0.057907204523981459 -0.13951585418161591 0 0.034849001543539322 -0.1503583031021323 0 0.054296968429680029 -0.13171371816535249 0 0.045553716665441668 -0.12681104972785159 0 0.052448498866582129 -0.1166826243517366 0 0.065576399090336079 -0.13067912082877309 0 0.054296968429680029 -0.13171371816535249 0 0.057907204523981459 -0.13951585418161591 0 0.069316279952888193 -0.14186668388360371 0 0.057907204523981459 -0.13951585418161591 0 0.05757515479497001 -0.1486962131740798 0 0.06522271263887458 -0.15305574504012881 0 0.05757515479497001 -0.1486962131740798 0 0.052111829065281459 -0.15882829201818821 0 0.046808539919221563 -0.15014413002933799 0 0.052111829065281459 -0.15882829201818821 0 0.043031393960321331 -0.1571354857308308 0 0.05757515479497001 -0.1486962131740798 0 0.046808539919221563 -0.15014413002933799 0 0.052111829065281459 -0.15882829201818821 0 0.057907204523981459 -0.13951585418161591 0 0.05757515479497001 -0.1486962131740798 0 0.046808539919221563 -0.15014413002933799 0 0.057907204523981459 -0.13951585418161591 0 0.046808539919221563 -0.15014413002933799 0 0.033920350420936912 -0.1531830770535528 0 0.057907204523981459 -0.13951585418161591 0 0.034849001543539322 -0.1503583031021323 0 0.033920350420936912 -0.1531830770535528 0 0.054296968429680029 -0.13171371816535249 0 0.034849001543539322 -0.1503583031021323 0 0.038558521200612962 -0.14006542407622449 0 0.054296968429680029 -0.13171371816535249 0 0.034849001543539322 -0.1503583031021323 0 0.057907204523981459 -0.13951585418161591 0 0.033920350420936912 -0.1531830770535528 0 0.046808539919221563 -0.15014413002933799 0 0.040219483271594643 -0.15466785876887121 0 0.033920350420936912 -0.1531830770535528 0 0.046808539919221563 -0.15014413002933799 0 0.040219483271594643 -0.15466785876887121 0 0.043031393960321331 -0.1571354857308308 0 0.040219483271594643 -0.15466785876887121 0 0.033920350420936912 -0.1531830770535528 0 0.037117648785898759 -0.15820874226176301 0 0.034849001543539322 -0.1503583031021323 0 0.031672068294339203 -0.14528428076340441 0 0.030051573782975471 -0.15027594372919439 0 0.034849001543539322 -0.1503583031021323 0 0.033920350420936912 -0.1531830770535528 0 0.030051573782975471 -0.15027594372919439 0 0.034849001543539322 -0.1503583031021323 0 0.031672068294339203 -0.14528428076340441 0 0.038558521200612962 -0.14006542407622449 0 0.031672068294339203 -0.14528428076340441 0 0.038558521200612962 -0.14006542407622449 0 0.030566093298411881 -0.13865773310914861 0 0.054296968429680029 -0.13171371816535249 0 0.038558521200612962 -0.14006542407622449 0 0.040644455285911409 -0.1338393175667463 0 0.038558521200612962 -0.14006542407622449 0 0.040644455285911409 -0.1338393175667463 0 0.030566093298411881 -0.13865773310914861 0 0.034824944079593127 -0.12500853882757099 0 0.040644455285911409 -0.1338393175667463 0 0.030566093298411881 -0.13865773310914861 0 0.034824944079593127 -0.12500853882757099 0 0.045553716665441668 -0.12681104972785159 0 0.040644455285911409 -0.1338393175667463 0 0.054296968429680029 -0.13171371816535249 0 0.045553716665441668 -0.12681104972785159 0 0.040644455285911409 -0.1338393175667463 0 0.072477207369929117 -0.17473224276400179 0 0.051449240160577621 -0.1762857105508405 0 0.056257937900538298 -0.19577788601322099 0 0.066040058368007956 -0.18964665730407451 0 0.051449240160577621 -0.1762857105508405 0 0.063878974636528515 -0.16401540189567099 0 0.051449240160577621 -0.1762857105508405 0 0.052111829065281459 -0.15882829201818821 0 0.051449240160577621 -0.1762857105508405 0 0.052111829065281459 -0.15882829201818821 0 0.040502396519655252 -0.1663673850483231 0 0.063878974636528515 -0.16401540189567099 0 0.06522271263887458 -0.15305574504012881 0 0.052111829065281459 -0.15882829201818821 0 0.043031393960321331 -0.1571354857308308 0 0.037117648785898759 -0.15820874226176301 0 0.040502396519655252 -0.1663673850483231 0 0.052111829065281459 -0.15882829201818821 0 0.043031393960321331 -0.1571354857308308 0 0.040502396519655252 -0.1663673850483231 0 0.040219483271594643 -0.15466785876887121 0 0.043031393960321331 -0.1571354857308308 0 0.037117648785898759 -0.15820874226176301 0 0.033920350420936912 -0.1531830770535528 0 0.033509818979212957 -0.15868168045615499 0 0.027465449436243041 -0.1628752445715565 0 0.037117648785898759 -0.15820874226176301 0 0.034071859908748191 -0.1623715567021686 0 0.040502396519655252 -0.1663673850483231 0 0.033920350420936912 -0.1531830770535528 0 0.037117648785898759 -0.15820874226176301 0 0.033509818979212957 -0.15868168045615499 0 0.037117648785898759 -0.15820874226176301 0 0.033509818979212957 -0.15868168045615499 0 0.034071859908748191 -0.1623715567021686 0 0.033509818979212957 -0.15868168045615499 0 0.034071859908748191 -0.1623715567021686 0 0.027465449436243041 -0.1628752445715565 0 0.031586668938662611 -0.1691709391612749 0 0.040502396519655252 -0.1663673850483231 0 0.030421272951226121 -0.1778391783376792 0 0.034071859908748191 -0.1623715567021686 0 0.031586668938662611 -0.1691709391612749 0 0.040502396519655252 -0.1663673850483231 0 0.051449240160577621 -0.1762857105508405 0 0.040502396519655252 -0.1663673850483231 0 0.030421272951226121 -0.1778391783376792 0 0.041440672425083092 -0.19607701236864419 0 0.051449240160577621 -0.1762857105508405 0 0.030421272951226121 -0.1778391783376792 0 0.051449240160577621 -0.1762857105508405 0 0.030421272951226121 -0.1778391783376792 0 0.02540307025583758 -0.19229280057405279 0 0.015764016274472759 -0.1812646672695073 0 0.030421272951226121 -0.1778391783376792 0 0.031586668938662611 -0.1691709391612749 0 0.030421272951226121 -0.1778391783376792 0 0.021575687727073561 -0.1734893605992324 0 0.015764016274472759 -0.1812646672695073 0 0.021575687727073561 -0.1734893605992324 0 0.012676990919703311 -0.16924925594887871 0 0.015764016274472759 -0.1812646672695073 0 0.030421272951226121 -0.1778391783376792 0 0.021575687727073561 -0.1734893605992324 0 0.033920350420936912 -0.1531830770535528 0 0.009933496317892726 -0.16685029992549011 0 0.02294500892830088 -0.1542832107784407 0 0.033920350420936912 -0.1531830770535528 0 0.027465449436243041 -0.1628752445715565 0 0.009933496317892726 -0.16685029992549011 0 0.019596439448784399 -0.16744493330375371 0 0.027465449436243041 -0.1628752445715565 0 0.009933496317892726 -0.16685029992549011 0 0.033920350420936912 -0.1531830770535528 0 0.009933496317892726 -0.16685029992549011 0 0.021575687727073561 -0.1734893605992324 0 0.019596439448784399 -0.16744493330375371 0 0.012676990919703311 -0.16924925594887871 0 0.021575687727073561 -0.1734893605992324 0 0.019596439448784399 -0.16744493330375371 0 0.025540403417393751 -0.1677775419388785 0 0.031586668938662611 -0.1691709391612749 0 0.021575687727073561 -0.1734893605992324 0 0.025540403417393751 -0.1677775419388785 0 0.019596439448784399 -0.16744493330375371 0 0.025540403417393751 -0.1677775419388785 0 0.027465449436243041 -0.1628752445715565 0 0.034071859908748191 -0.1623715567021686 0 0.031586668938662611 -0.1691709391612749 0 0.027465449436243041 -0.1628752445715565 0 0.031586668938662611 -0.1691709391612749 0 0.025540403417393751 -0.1677775419388785 0 0.027465449436243041 -0.1628752445715565 0 0.009933496317892726 -0.16685029992549011 0 0.01648447247354291 -0.15404273338364399 0 0.02294500892830088 -0.1542832107784407 0 0.009933496317892726 -0.16685029992549011 0 0.01648447247354291 -0.15404273338364399 0 0.0068311679390763679 -0.1533437069849535 0 0.019596439448784399 -0.16744493330375371 0 0.009933496317892726 -0.16685029992549011 0 0.012676990919703311 -0.16924925594887871 0 0.009933496317892726 -0.16685029992549011 0 0.012676990919703311 -0.16924925594887871 0 0.0034571977838801569 -0.17702496179755631 0 0.009933496317892726 -0.16685029992549011 0 0.012676990919703311 -0.16924925594887871 0 -0.0085976242789068957 -0.177408956520272 0 0.009933496317892726 -0.16685029992549011 0 -0.0085976242789068957 -0.177408956520272 0 0.009933496317892726 -0.16685029992549011 0 0.0034571977838801569 -0.17702496179755631 0 0.015764016274472759 -0.1812646672695073 0 0.012676990919703311 -0.16924925594887871 0 0.0034571977838801569 -0.17702496179755631 0 -0.003739977245034012 -0.19168309442994089 0 0.010514116253606281 -0.1925853606064957 0 0.0034571977838801569 -0.17702496179755631 0 0.010514116253606281 -0.1925853606064957 0 0.015764016274472759 -0.1812646672695073 0 0.0034571977838801569 -0.17702496179755631 0 0.02166725362828328 -0.1398342401410575 0 0.019282665512654749 -0.1297026577714144 0 0.01241268948209219 -0.14437852502616319 0 0.034824944079593127 -0.12500853882757099 0 0.019282665512654749 -0.1297026577714144 0 0.030566093298411881 -0.13865773310914861 0 0.02166725362828328 -0.1398342401410575 0 0.019282665512654749 -0.1297026577714144 0 0.030566093298411881 -0.13865773310914861 0 0.031672068294339203 -0.14528428076340441 0 0.030566093298411881 -0.13865773310914861 0 0.024335151646156381 -0.14706399980032239 0 0.02166725362828328 -0.1398342401410575 0 0.030566093298411881 -0.13865773310914861 0 0.024335151646156381 -0.14706399980032239 0 0.031672068294339203 -0.14528428076340441 0 0.024335151646156381 -0.14706399980032239 0 0.030051573782975471 -0.15027594372919439 0 0.033920350420936912 -0.1531830770535528 0 0.030051573782975471 -0.15027594372919439 0 0.02294500892830088 -0.1542832107784407 0 0.024335151646156381 -0.14706399980032239 0 0.030051573782975471 -0.15027594372919439 0 0.02294500892830088 -0.1542832107784407 0 0.024335151646156381 -0.14706399980032239 0 0.01648447247354291 -0.15404273338364399 0 0.01241268948209219 -0.14437852502616319 0 0.024335151646156381 -0.14706399980032239 0 0.01648447247354291 -0.15404273338364399 0 0.02294500892830088 -0.1542832107784407 0 0.02166725362828328 -0.1398342401410575 0 0.024335151646156381 -0.14706399980032239 0 0.01241268948209219 -0.14437852502616319 0 -0.011505986517222349 -0.14810326960451681 0 0.01241268948209219 -0.14437852502616319 0 0.0068311679390763679 -0.1533437069849535 0 -0.011505986517222349 -0.14810326960451681 0 0.009933496317892726 -0.16685029992549011 0 0.0068311679390763679 -0.1533437069849535 0 -0.011505986517222349 -0.14810326960451681 0 0.01241268948209219 -0.14437852502616319 0 0.0027021066240326768 -0.1317064378292063 0 0.01648447247354291 -0.15404273338364399 0 0.01241268948209219 -0.14437852502616319 0 0.0068311679390763679 -0.1533437069849535 0 0.019282665512654749 -0.1297026577714144 0 0.01241268948209219 -0.14437852502616319 0 0.0027021066240326768 -0.1317064378292063 0 0.019282665512654749 -0.1297026577714144 0 0.0027021066240326768 -0.1317064378292063 0 0.005085065621477718 -0.1151057880332567 0 0.019282665512654749 -0.1297026577714144 0 0.005085065621477718 -0.1151057880332567 0 0.024129304522527751 -0.1089818526354679 0 0.034824944079593127 -0.12500853882757099 0 0.019282665512654749 -0.1297026577714144 0 0.024129304522527751 -0.1089818526354679 0 0.024129304522527751 -0.1089818526354679 0 0.01380815825635252 -0.094132232187142617 0 0.031293966725895003 -0.08518965294817829 0 -0.00044729776891663488 -0.1011528385718463 0 0.005085065621477718 -0.1151057880332567 0 0.01380815825635252 -0.094132232187142617 0 0.005085065621477718 -0.1151057880332567 0 0.024129304522527751 -0.1089818526354679 0 0.01380815825635252 -0.094132232187142617 0 0.01380815825635252 -0.094132232187142617 0 0.0042106568376920582 -0.081118225430045127 0 0.020039989671696231 -0.071989185162356889 0 -0.00044729776891663488 -0.1011528385718463 0 0.01380815825635252 -0.094132232187142617 0 0.0042106568376920582 -0.081118225430045127 0 0.0042106568376920582 -0.081118225430045127 0 0.0052181775422467033 -0.064346337314722044 0 0.020039989671696231 -0.071989185162356889 0 -0.0043762627118289626 -0.071729097412358583 0 0.0042106568376920582 -0.081118225430045127 0 0.0052181775422467033 -0.064346337314722044 0 0.0052181775422467033 -0.064346337314722044 0 0.020039989671696231 -0.071989185162356889 0 0.0052181775422467033 -0.064346337314722044 0 0.020039989671696231 -0.071989185162356889 0 0.017880224012190679 -0.058506375123621113 0 0.020039989671696231 -0.071989185162356889 0 0.017880224012190679 -0.058506375123621113 0 0.035073137211611732 -0.060365082031122411 0 0.020039989671696231 -0.071989185162356889 0 0.031293966725895003 -0.08518965294817829 0 0.035073137211611732 -0.060365082031122411 0 0.01380815825635252 -0.094132232187142617 0 0.020039989671696231 -0.071989185162356889 0 0.031293966725895003 -0.08518965294817829 0 0.031293966725895003 -0.08518965294817829 0 0.050629459546369923 -0.074776417317023003 0 0.042727201812981508 -0.099892478072297022 0 0.050629459546369923 -0.074776417317023003 0 0.042727201812981508 -0.099892478072297022 0 0.031293966725895003 -0.08518965294817829 0 0.050629459546369923 -0.074776417317023003 0 0.035073137211611732 -0.060365082031122411 0 0.050629459546369923 -0.074776417317023003 0 0.058531717279758283 -0.049660356561749108 0 0.072219385832792832 -0.066659644627356851 0 0.050629459546369923 -0.074776417317023003 0 0.042727201812981508 -0.099892478072297022 0 0.069701838591585213 -0.089386546866783212 0 0.059655618646742382 -0.10475769562984739 0 0.052448498866582129 -0.1166826243517366 0 0.042727201812981508 -0.099892478072297022 0 0.059655618646742382 -0.10475769562984739 0 0.042727201812981508 -0.099892478072297022 0 0.069701838591585213 -0.089386546866783212 0 0.054296968429680029 -0.13171371816535249 0 0.052448498866582129 -0.1166826243517366 0 0.073744935315820714 -0.1130691332285727 0 0.059655618646742382 -0.10475769562984739 0 0.052448498866582129 -0.1166826243517366 0 0.073744935315820714 -0.1130691332285727 0 0.034824944079593127 -0.12500853882757099 0 0.045553716665441668 -0.12681104972785159 0 0.052448498866582129 -0.1166826243517366 0 0.034824944079593127 -0.12500853882757099 0 0.052448498866582129 -0.1166826243517366 0 0.042727201812981508 -0.099892478072297022 0 0.034824944079593127 -0.12500853882757099 0 0.024129304522527751 -0.1089818526354679 0 0.042727201812981508 -0.099892478072297022 0 0.034824944079593127 -0.12500853882757099 0 0.042727201812981508 -0.099892478072297022 0 0.024129304522527751 -0.1089818526354679 0 0.031293966725895003 -0.08518965294817829 0 0.042727201812981508 -0.099892478072297022 0 0.034885408484197772 0.0062912350017927032 0 0.01265631079038235 -0.01012693536007268 0 0.042517259973231587 -0.011683923625132649 0 -0.00118246574067416 -0.01324232368796026 0 0.0012074066645448821 -0.00065723147797176382 0 0.01265631079038235 -0.01012693536007268 0 0.01265631079038235 -0.01012693536007268 0 0.02406773205363014 -0.026959444655171291 0 0.0015263381015913891 -0.033415212413580753 0 0.01265631079038235 -0.01012693536007268 0 0.0015263381015913891 -0.033415212413580753 0 -0.00118246574067416 -0.01324232368796026 0 0.01265631079038235 -0.01012693536007268 0 0.0015263381015913891 -0.033415212413580753 0 0.01265631079038235 -0.01012693536007268 0 0.02406773205363014 -0.026959444655171291 0 0.042517259973231587 -0.011683923625132649 0 0.02406773205363014 -0.026959444655171291 0 0.021771409900077709 -0.044354063799483319 0 0.04186734150286768 -0.035217088077587062 0 0.02406773205363014 -0.026959444655171291 0 0.021771409900077709 -0.044354063799483319 0 0.0015263381015913891 -0.033415212413580753 0 0.021771409900077709 -0.044354063799483319 0 0.0015263381015913891 -0.033415212413580753 0 0.007298405735321048 -0.051477207310420908 0 -0.0096036345872028556 -0.056703489467087059 0 0.0052181775422467033 -0.064346337314722044 0 0.007298405735321048 -0.051477207310420908 0 0.0052181775422467033 -0.064346337314722044 0 0.007298405735321048 -0.051477207310420908 0 0.017880224012190679 -0.058506375123621113 0 0.021771409900077709 -0.044354063799483319 0 0.017880224012190679 -0.058506375123621113 0 0.035073137211611732 -0.060365082031122411 0 0.021771409900077709 -0.044354063799483319 0 0.007298405735321048 -0.051477207310420908 0 0.017880224012190679 -0.058506375123621113 0 0.035073137211611732 -0.060365082031122411 0 0.058531717279758283 -0.049660356561749108 0 0.04186734150286768 -0.035217088077587062 0 0.050629459546369923 -0.074776417317023003 0 0.058531717279758283 -0.049660356561749108 0 0.050629459546369923 -0.074776417317023003 0 0.035073137211611732 -0.060365082031122411 0 0.058531717279758283 -0.049660356561749108 0 0.058531717279758283 -0.049660356561749108 0 0.066433975013146629 -0.02454429580647528 0 0.058531717279758283 -0.049660356561749108 0 0.04186734150286768 -0.035217088077587062 0 0.066433975013146629 -0.02454429580647528 0 0.021771409900077709 -0.044354063799483319 0 0.035073137211611732 -0.060365082031122411 0 0.04186734150286768 -0.035217088077587062 0 0.02406773205363014 -0.026959444655171291 0 0.04186734150286768 -0.035217088077587062 0 0.042517259973231587 -0.011683923625132649 0 0.04186734150286768 -0.035217088077587062 0 0.042517259973231587 -0.011683923625132649 0 0.066433975013146629 -0.02454429580647528 0 0.052968053050369737 0.0090809173488315582 0 0.042517259973231587 -0.011683923625132649 0 0.067492943165135169 -0.0019794682467893379 0 0.042517259973231587 -0.011683923625132649 0 0.067492943165135169 -0.0019794682467893379 0 0.066433975013146629 -0.02454429580647528 0 0.087040675587819916 -0.0096101539263870796 0 0.066433975013146629 -0.02454429580647528 0 0.098032226742104309 -0.02831505409649597 0 0.083930998993742512 0.0059737405228527038 0 0.087040675587819916 -0.0096101539263870796 0 0.067492943165135169 -0.0019794682467893379 0 0.083930998993742512 0.0059737405228527038 0 0.098495163759696414 0.0029673617968291321 0 0.087040675587819916 -0.0096101539263870796 0 0.087040675587819916 -0.0096101539263870796 0 0.067492943165135169 -0.0019794682467893379 0 0.066433975013146629 -0.02454429580647528 0 0.066433975013146629 -0.02454429580647528 0 0.080663194565618018 -0.042742664855397232 0 0.098032226742104309 -0.02831505409649597 0 0.080663194565618018 -0.042742664855397232 0 0.099119978598511321 -0.045144617550746849 0 0.098032226742104309 -0.02831505409649597 0 0.058531717279758283 -0.049660356561749108 0 0.066433975013146629 -0.02454429580647528 0 0.080663194565618018 -0.042742664855397232 0 0.058531717279758283 -0.049660356561749108 0 0.080663194565618018 -0.042742664855397232 0 0.072219385832792832 -0.066659644627356851 0 0.080663194565618018 -0.042742664855397232 0 0.091985945990252393 -0.059557823171565508 0 0.072219385832792832 -0.066659644627356851 0 0.080663194565618018 -0.042742664855397232 0 0.091985945990252393 -0.059557823171565508 0 0.099119978598511321 -0.045144617550746849 0 0.091985945990252393 -0.059557823171565508 0 0.109385226414503 -0.056941989317685793 0 0.099119978598511321 -0.045144617550746849 0 0.109385226414503 -0.056941989317685793 0 0.1174221699598199 -0.069046986946925279 0 0.12664898879935529 -0.055605769639440771 0 0.109385226414503 -0.056941989317685793 0 0.1155332992800789 -0.038165556312589707 0 0.12664898879935529 -0.055605769639440771 0 0.1155332992800789 -0.038165556312589707 0 0.12954193793015309 -0.041748568408345607 0 0.12664898879935529 -0.055605769639440771 0 0.1155332992800789 -0.038165556312589707 0 0.1294320674019063 -0.023146095115484211 0 0.12954193793015309 -0.041748568408345607 0 0.109385226414503 -0.056941989317685793 0 0.1155332992800789 -0.038165556312589707 0 0.099119978598511321 -0.045144617550746849 0 0.1155332992800789 -0.038165556312589707 0 0.099119978598511321 -0.045144617550746849 0 0.098032226742104309 -0.02831505409649597 0 0.1155332992800789 -0.038165556312589707 0 0.098032226742104309 -0.02831505409649597 0 0.1112777463759113 -0.012222875866518469 0 0.087040675587819916 -0.0096101539263870796 0 0.098032226742104309 -0.02831505409649597 0 0.1112777463759113 -0.012222875866518469 0 0.1155332992800789 -0.038165556312589707 0 0.1112777463759113 -0.012222875866518469 0 0.1294320674019063 -0.023146095115484211 0 0.1158546052028349 0.0064685721448778594 0 0.13464870039648349 0.00080453217212592717 0 0.1112777463759113 -0.012222875866518469 0 0.098495163759696414 0.0029673617968291321 0 0.087040675587819916 -0.0096101539263870796 0 0.1112777463759113 -0.012222875866518469 0 0.1158546052028349 0.0064685721448778594 0 0.098495163759696414 0.0029673617968291321 0 0.1112777463759113 -0.012222875866518469 0 0.093192902201961414 -0.094424548291792879 0 0.088899626305776192 -0.1113374325741409 0 0.073744935315820714 -0.1130691332285727 0 0.093192902201961414 -0.094424548291792879 0 0.073744935315820714 -0.1130691332285727 0 0.069701838591585213 -0.089386546866783212 0 0.093192902201961414 -0.094424548291792879 0 0.073744935315820714 -0.1130691332285727 0 0.081894058627025895 -0.12584863130967919 0 0.088899626305776192 -0.1113374325741409 0 0.09397493983509804 -0.11322330148444169 0 0.081894058627025895 -0.12584863130967919 0 0.079920122843727764 -0.11786127252462281 0 0.075141871126288284 -0.1211898929860986 0 0.081894058627025895 -0.12584863130967919 0 0.088899626305776192 -0.1113374325741409 0 0.079920122843727764 -0.11786127252462281 0 0.088899626305776192 -0.1113374325741409 0 0.079920122843727764 -0.11786127252462281 0 0.073744935315820714 -0.1130691332285727 0 0.068207364780656948 -0.12563827965844471 0 0.054296968429680029 -0.13171371816535249 0 0.073744935315820714 -0.1130691332285727 0 0.054296968429680029 -0.13171371816535249 0 0.073744935315820714 -0.1130691332285727 0 0.068207364780656948 -0.12563827965844471 0 0.073744935315820714 -0.1130691332285727 0 0.075141871126288284 -0.1211898929860986 0 0.079920122843727764 -0.11786127252462281 0 0.073744935315820714 -0.1130691332285727 0 0.075141871126288284 -0.1211898929860986 0 0.081894058627025895 -0.12584863130967919 0 0.068207364780656948 -0.12563827965844471 0 0.075141871126288284 -0.1211898929860986 0 0.059655618646742382 -0.10475769562984739 0 0.073744935315820714 -0.1130691332285727 0 0.069701838591585213 -0.089386546866783212 0 0.050629459546369923 -0.074776417317023003 0 0.069701838591585213 -0.089386546866783212 0 0.072219385832792832 -0.066659644627356851 0 0.069701838591585213 -0.089386546866783212 0 0.072219385832792832 -0.066659644627356851 0 0.089711563165187497 -0.078251462936863553 0 0.091985945990252393 -0.059557823171565508 0 0.072219385832792832 -0.066659644627356851 0 0.089711563165187497 -0.078251462936863553 0 0.093192902201961414 -0.094424548291792879 0 0.069701838591585213 -0.089386546866783212 0 0.089711563165187497 -0.078251462936863553 0 0.093192902201961414 -0.094424548291792879 0 0.089711563165187497 -0.078251462936863553 0 0.1048667032735431 -0.089595599910983495 0 0.089711563165187497 -0.078251462936863553 0 0.1048667032735431 -0.089595599910983495 0 0.1056935618466131 -0.072691272791708894 0 0.1048667032735431 -0.089595599910983495 0 0.1056935618466131 -0.072691272791708894 0 0.11564058922802831 -0.08068930143821873 0 0.091985945990252393 -0.059557823171565508 0 0.089711563165187497 -0.078251462936863553 0 0.1056935618466131 -0.072691272791708894 0 0.091985945990252393 -0.059557823171565508 0 0.109385226414503 -0.056941989317685793 0 0.1056935618466131 -0.072691272791708894 0 0.1174221699598199 -0.069046986946925279 0 0.12840026197867099 -0.078951386265116219 0 0.12664898879935529 -0.055605769639440771 0 0.109385226414503 -0.056941989317685793 0 0.1056935618466131 -0.072691272791708894 0 0.1174221699598199 -0.069046986946925279 0 0.1056935618466131 -0.072691272791708894 0 0.1174221699598199 -0.069046986946925279 0 0.11564058922802831 -0.08068930143821873 0 0.1174221699598199 -0.069046986946925279 0 0.11564058922802831 -0.08068930143821873 0 0.12840026197867099 -0.078951386265116219 0 0.1048667032735431 -0.089595599910983495 0 0.11564058922802831 -0.08068930143821873 0 0.1191358060176364 -0.092450830711447801 0 0.1191358060176364 -0.092450830711447801 0 0.12840026197867099 -0.078951386265116219 0 0.11564058922802831 -0.08068930143821873 0 0.1191358060176364 -0.092450830711447801 0 0.12840026197867099 -0.078951386265116219 0 0.1058809127300703 -0.11218140843774239 0 0.12023297736745781 -0.1110263554770618 0 0.12986776683311119 -0.098514185565799078 0 0.1058809127300703 -0.11218140843774239 0 0.12986776683311119 -0.098514185565799078 0 0.1048667032735431 -0.089595599910983495 0 0.1191358060176364 -0.092450830711447801 0 0.10987135005660249 -0.1059502751577799 0 0.10987135005660249 -0.1059502751577799 0 0.1058809127300703 -0.11218140843774239 0 0.12986776683311119 -0.098514185565799078 0 0.1191358060176364 -0.092450830711447801 0 0.10987135005660249 -0.1059502751577799 0 0.12986776683311119 -0.098514185565799078 0 0.1191358060176364 -0.092450830711447801 0 0.10987135005660249 -0.1059502751577799 0 0.093192902201961414 -0.094424548291792879 0 0.088899626305776192 -0.1113374325741409 0 0.099225161677519755 -0.1035257336162041 0 0.1048667032735431 -0.089595599910983495 0 0.10987135005660249 -0.1059502751577799 0 0.099225161677519755 -0.1035257336162041 0 0.10987135005660249 -0.1059502751577799 0 0.099225161677519755 -0.1035257336162041 0 0.1058809127300703 -0.11218140843774239 0 0.088899626305776192 -0.1113374325741409 0 0.099225161677519755 -0.1035257336162041 0 0.09397493983509804 -0.11322330148444169 0 0.093192902201961414 -0.094424548291792879 0 0.1048667032735431 -0.089595599910983495 0 0.099225161677519755 -0.1035257336162041 0 0.081894058627025895 -0.12584863130967919 0 0.1058809127300703 -0.11218140843774239 0 0.099525338641528904 -0.12611341339503321 0 0.081894058627025895 -0.12584863130967919 0 0.1058809127300703 -0.11218140843774239 0 0.081894058627025895 -0.12584863130967919 0 0.09397493983509804 -0.11322330148444169 0 0.1058809127300703 -0.11218140843774239 0 0.099225161677519755 -0.1035257336162041 0 0.09397493983509804 -0.11322330148444169 0 0.1058809127300703 -0.11218140843774239 0 0.099525338641528904 -0.12611341339503321 0 0.1058809127300703 -0.11218140843774239 0 0.1121708616464093 -0.1216807098986791 0 0.1058809127300703 -0.11218140843774239 0 0.1121708616464093 -0.1216807098986791 0 0.12023297736745781 -0.1110263554770618 0 0.11997683785091839 -0.1276371159963853 0 0.121067612134044 -0.1214532534018402 0 0.13188977167139071 -0.12546883223523481 0 0.12023297736745781 -0.1110263554770618 0 0.121067612134044 -0.1214532534018402 0 0.13188977167139071 -0.12546883223523481 0 0.11997683785091839 -0.1276371159963853 0 0.1121708616464093 -0.1216807098986791 0 0.121067612134044 -0.1214532534018402 0 0.1121708616464093 -0.1216807098986791 0 0.12023297736745781 -0.1110263554770618 0 0.121067612134044 -0.1214532534018402 0 0.12023297736745781 -0.1110263554770618 0 0.12986776683311119 -0.098514185565799078 0 0.13188977167139071 -0.12546883223523481 0 0.12986776683311119 -0.098514185565799078 0 0.13188977167139071 -0.12546883223523481 0 0.14925441928633251 -0.10969288085116551 0 0.13995942417209239 -0.1034127274713456 0 0.13188977167139071 -0.12546883223523481 0 0.14724036225017881 -0.1245170930860646 0 0.14925441928633251 -0.10969288085116551 0 0.13188977167139071 -0.12546883223523481 0 0.14925441928633251 -0.10969288085116551 0 0.15485465026004211 -0.11932571079310079 0 0.15999890680388329 -0.1096406796162286 0 0.14724036225017881 -0.1245170930860646 0 0.15485465026004211 -0.11932571079310079 0 0.15557261582888751 -0.13003178131142151 0 0.14724036225017881 -0.1245170930860646 0 0.14925441928633251 -0.10969288085116551 0 0.15485465026004211 -0.11932571079310079 0 0.14925441928633251 -0.10969288085116551 0 0.14348993397904131 -0.092765062884646393 0 0.1620153957752187 -0.097165399419701551 0 0.14348993397904131 -0.092765062884646393 0 0.1620153957752187 -0.097165399419701551 0 0.14925441928633251 -0.10969288085116551 0 0.13995942417209239 -0.1034127274713456 0 0.14348993397904131 -0.092765062884646393 0 0.13995942417209239 -0.1034127274713456 0 0.12986776683311119 -0.098514185565799078 0 0.13188977167139071 -0.12546883223523481 0 0.13995942417209239 -0.1034127274713456 0 0.12986776683311119 -0.098514185565799078 0 0.14348993397904131 -0.092765062884646393 0 0.12986776683311119 -0.098514185565799078 0 0.12840026197867099 -0.078951386265116219 0 0.1428482005174804 -0.076716741777837147 0 0.1191358060176364 -0.092450830711447801 0 0.12986776683311119 -0.098514185565799078 0 0.12840026197867099 -0.078951386265116219 0 0.12986776683311119 -0.098514185565799078 0 0.12840026197867099 -0.078951386265116219 0 0.12840026197867099 -0.078951386265116219 0 0.12664898879935529 -0.055605769639440771 0 0.12840026197867099 -0.078951386265116219 0 0.12664898879935529 -0.055605769639440771 0 0.14464694777039611 -0.055277979731059648 0 0.12840026197867099 -0.078951386265116219 0 0.1428482005174804 -0.076716741777837147 0 0.14464694777039611 -0.055277979731059648 0 0.12840026197867099 -0.078951386265116219 0 0.14464694777039611 -0.055277979731059648 0 0.1428482005174804 -0.076716741777837147 0 0.15680899227989839 -0.06637062400294011 0 0.14464694777039611 -0.055277979731059648 0 0.1428482005174804 -0.076716741777837147 0 0.15451703372532541 -0.084469533324270707 0 0.15680899227989839 -0.06637062400294011 0 0.12986776683311119 -0.098514185565799078 0 0.15451703372532541 -0.084469533324270707 0 0.12986776683311119 -0.098514185565799078 0 0.14348993397904131 -0.092765062884646393 0 0.15451703372532541 -0.084469533324270707 0 0.14348993397904131 -0.092765062884646393 0 0.15451703372532541 -0.084469533324270707 0 0.1620153957752187 -0.097165399419701551 0 0.12986776683311119 -0.098514185565799078 0 0.1428482005174804 -0.076716741777837147 0 0.15451703372532541 -0.084469533324270707 0 0.15451703372532541 -0.084469533324270707 0 0.1674193516126988 -0.088794767656503876 0 0.1620153957752187 -0.097165399419701551 0 0.15451703372532541 -0.084469533324270707 0 0.1674193516126988 -0.088794767656503876 0 0.16389165652408541 -0.076485311925560115 0 0.1674193516126988 -0.088794767656503876 0 0.16389165652408541 -0.076485311925560115 0 0.17613181446746839 -0.084287857658230353 0 0.15451703372532541 -0.084469533324270707 0 0.15680899227989839 -0.06637062400294011 0 0.16389165652408541 -0.076485311925560115 0 0.16389165652408541 -0.076485311925560115 0 0.1717227713635387 -0.067009979361705274 0 0.17613181446746839 -0.084287857658230353 0 0.15680899227989839 -0.06637062400294011 0 0.16389165652408541 -0.076485311925560115 0 0.1717227713635387 -0.067009979361705274 0 0.15680899227989839 -0.06637062400294011 0 0.1717227713635387 -0.067009979361705274 0 0.1652446184022294 -0.054500080927008407 0 0.1717227713635387 -0.067009979361705274 0 0.17613181446746839 -0.084287857658230353 0 0.1717227713635387 -0.067009979361705274 0 0.18346211879182289 -0.064955309332027283 0 0.18137547142311691 -0.085525622921553163 0 0.18346211879182289 -0.064955309332027283 0 0.18137547142311691 -0.085525622921553163 0 0.1952329782378138 -0.068464889048657496 0 0.1717227713635387 -0.067009979361705274 0 0.18137547142311691 -0.085525622921553163 0 0.1717227713635387 -0.067009979361705274 0 0.18346211879182289 -0.064955309332027283 0 0.1746283364613696 -0.057560297553190053 0 0.18137547142311691 -0.085525622921553163 0 0.17613181446746839 -0.084287857658230353 0 0.18054085757139629 -0.1015657359547559 0 0.17613181446746839 -0.084287857658230353 0 0.18054085757139629 -0.1015657359547559 0 0.1674193516126988 -0.088794767656503876 0 0.17613181446746839 -0.084287857658230353 0 0.18054085757139629 -0.1015657359547559 0 0.1717227713635387 -0.067009979361705274 0 0.18137547142311691 -0.085525622921553163 0 0.17613181446746839 -0.084287857658230353 0 0.18137547142311691 -0.085525622921553163 0 0.19100769245097829 -0.1040519139747048 0 0.18137547142311691 -0.085525622921553163 0 0.18054085757139629 -0.1015657359547559 0 0.19100769245097829 -0.1040519139747048 0 0.18054085757139629 -0.1015657359547559 0 0.1749190978293893 -0.1165979942053425 0 0.16884250162088479 -0.1080310140379921 0 0.18054085757139629 -0.1015657359547559 0 0.19100769245097829 -0.1040519139747048 0 0.18054085757139629 -0.1015657359547559 0 0.1862357176231304 -0.1238823921021804 0 0.1749190978293893 -0.1165979942053425 0 0.18054085757139629 -0.1015657359547559 0 0.1862357176231304 -0.1238823921021804 0 0.19100769245097829 -0.1040519139747048 0 0.18054085757139629 -0.1015657359547559 0 0.1862357176231304 -0.1238823921021804 0 0.1862357176231304 -0.1238823921021804 0 0.1749190978293893 -0.1165979942053425 0 0.17324983187337631 -0.13165498831909611 0 0.1749190978293893 -0.1165979942053425 0 0.16471491079178111 -0.1205264202314431 0 0.16884250162088479 -0.1080310140379921 0 0.16471491079178111 -0.1205264202314431 0 0.15999890680388329 -0.1096406796162286 0 0.16884250162088479 -0.1080310140379921 0 0.1749190978293893 -0.1165979942053425 0 0.16471491079178111 -0.1205264202314431 0 0.17324983187337631 -0.13165498831909611 0 0.15485465026004211 -0.11932571079310079 0 0.16471491079178111 -0.1205264202314431 0 0.15557261582888751 -0.13003178131142151 0 0.15485465026004211 -0.11932571079310079 0 0.16471491079178111 -0.1205264202314431 0 0.15999890680388329 -0.1096406796162286 0 0.18054085757139629 -0.1015657359547559 0 0.1620153957752187 -0.097165399419701551 0 0.1674193516126988 -0.088794767656503876 0 0.18054085757139629 -0.1015657359547559 0 0.1620153957752187 -0.097165399419701551 0 0.14925441928633251 -0.10969288085116551 0 0.15999890680388329 -0.1096406796162286 0 0.1620153957752187 -0.097165399419701551 0 0.15999890680388329 -0.1096406796162286 0 0.1620153957752187 -0.097165399419701551 0 0.16884250162088479 -0.1080310140379921 0 0.18054085757139629 -0.1015657359547559 0 0.1620153957752187 -0.097165399419701551 0 0.16884250162088479 -0.1080310140379921 0 0.13464870039648349 0.00080453217212592717 0 0.15480995508657039 -0.001084596553268768 0 0.14892696920713289 -0.018041582065753459 0 0.13464870039648349 0.00080453217212592717 0 0.1294320674019063 -0.023146095115484211 0 0.14892696920713289 -0.018041582065753459 0 0.13464870039648349 0.00080453217212592717 0 0.1112777463759113 -0.012222875866518469 0 0.1294320674019063 -0.023146095115484211 0 0.1294320674019063 -0.023146095115484211 0 0.14892696920713289 -0.018041582065753459 0 0.14270131340979469 -0.036531096068384838 0 0.14892696920713289 -0.018041582065753459 0 0.14270131340979469 -0.036531096068384838 0 0.16089363356212191 -0.031604573197003549 0 0.14270131340979469 -0.036531096068384838 0 0.14464694777039611 -0.055277979731059648 0 0.16089363356212191 -0.031604573197003549 0 0.14464694777039611 -0.055277979731059648 0 0.15561449558007559 -0.051164132387281437 0 0.16089363356212191 -0.031604573197003549 0 0.14464694777039611 -0.055277979731059648 0 0.16089363356212191 -0.031604573197003549 0 0.14270131340979469 -0.036531096068384838 0 0.12954193793015309 -0.041748568408345607 0 0.14464694777039611 -0.055277979731059648 0 0.1294320674019063 -0.023146095115484211 0 0.14270131340979469 -0.036531096068384838 0 0.12954193793015309 -0.041748568408345607 0 0.12954193793015309 -0.041748568408345607 0 0.12664898879935529 -0.055605769639440771 0 0.14464694777039611 -0.055277979731059648 0 0.15680899227989839 -0.06637062400294011 0 0.14464694777039611 -0.055277979731059648 0 0.15561449558007559 -0.051164132387281437 0 0.15680899227989839 -0.06637062400294011 0 0.15561449558007559 -0.051164132387281437 0 0.1652446184022294 -0.054500080927008407 0 0.15561449558007559 -0.051164132387281437 0 0.1652446184022294 -0.054500080927008407 0 0.1617942405007988 -0.043199732881276223 0 0.1652446184022294 -0.054500080927008407 0 0.1746283364613696 -0.057560297553190053 0 0.1617942405007988 -0.043199732881276223 0 0.1717227713635387 -0.067009979361705274 0 0.1652446184022294 -0.054500080927008407 0 0.1717227713635387 -0.067009979361705274 0 0.1652446184022294 -0.054500080927008407 0 0.1746283364613696 -0.057560297553190053 0 0.1746283364613696 -0.057560297553190053 0 0.1828119860636557 -0.050363577362968731 0 0.1617942405007988 -0.043199732881276223 0 0.18346211879182289 -0.064955309332027283 0 0.1746283364613696 -0.057560297553190053 0 0.1828119860636557 -0.050363577362968731 0 0.18346211879182289 -0.064955309332027283 0 0.1828119860636557 -0.050363577362968731 0 0.19188844298534441 -0.056659859735039647 0 0.1617942405007988 -0.043199732881276223 0 0.18853740735089011 -0.033706188378118708 0 0.1828119860636557 -0.050363577362968731 0 0.1617942405007988 -0.043199732881276223 0 0.18853740735089011 -0.033706188378118708 0 0.15561449558007559 -0.051164132387281437 0 0.16089363356212191 -0.031604573197003549 0 0.1617942405007988 -0.043199732881276223 0 0.16089363356212191 -0.031604573197003549 0 0.1617942405007988 -0.043199732881276223 0 0.18853740735089011 -0.033706188378118708 0 0.16089363356212191 -0.031604573197003549 0 0.17714031935384769 -0.0079311666629475405 0 0.14892696920713289 -0.018041582065753459 0 0.16089363356212191 -0.031604573197003549 0 0.17714031935384769 -0.0079311666629475405 0 0.16089363356212191 -0.031604573197003549 0 0.17714031935384769 -0.0079311666629475405 0 0.18853740735089011 -0.033706188378118708 0 0.1657030786406338 0.0084270166623369204 0 0.15480995508657039 -0.001084596553268768 0 0.17714031935384769 -0.0079311666629475405 0 0.15480995508657039 -0.001084596553268768 0 0.14892696920713289 -0.018041582065753459 0 0.17714031935384769 -0.0079311666629475405 0 0.21351355446813719 -0.0021103410187178909 0 0.2110126965438916 -0.012672932103663791 0 0.2228246624943325 -0.0092295053444410857 0 0.2110126965438916 -0.012672932103663791 0 0.21911622703360889 -0.015650702578479541 0 0.2228246624943325 -0.0092295053444410857 0 0.21351355446813719 -0.0021103410187178909 0 0.2110126965438916 -0.012672932103663791 0 0.19836939172364151 -0.01016904411482358 0 0.1998105265397013 0.00335350757378736 0 0.21351355446813719 -0.0021103410187178909 0 0.19836939172364151 -0.01016904411482358 0 0.1998105265397013 0.00335350757378736 0 0.17714031935384769 -0.0079311666629475405 0 0.19836939172364151 -0.01016904411482358 0 0.17714031935384769 -0.0079311666629475405 0 0.19836939172364151 -0.01016904411482358 0 0.18853740735089011 -0.033706188378118708 0 0.2110126965438916 -0.012672932103663791 0 0.19836939172364151 -0.01016904411482358 0 0.18853740735089011 -0.033706188378118708 0 0.21528057420098159 -0.024212643874961401 0 0.18853740735089011 -0.033706188378118708 0 0.2110126965438916 -0.012672932103663791 0 0.21528057420098159 -0.024212643874961401 0 0.18853740735089011 -0.033706188378118708 0 0.21528057420098159 -0.024212643874961401 0 0.20886364623554921 -0.031523512657201581 0 0.18853740735089011 -0.033706188378118708 0 0.2110126965438916 -0.012672932103663791 0 0.21528057420098159 -0.024212643874961401 0 0.21911622703360889 -0.015650702578479541 0 0.21528057420098159 -0.024212643874961401 0 0.2158000993154765 -0.027276596113623111 0 0.21360323626451261 -0.02858374534336202 0 0.21528057420098159 -0.024212643874961401 0 0.2158000993154765 -0.027276596113623111 0 0.21995729679401421 -0.029331280632926501 0 0.2158000993154765 -0.027276596113623111 0 0.21503400689837671 -0.030930810510401429 0 0.21995729679401421 -0.029331280632926501 0 0.2158000993154765 -0.027276596113623111 0 0.21503400689837671 -0.030930810510401429 0 0.21360323626451261 -0.02858374534336202 0 0.21528057420098159 -0.024212643874961401 0 0.21360323626451261 -0.02858374534336202 0 0.20886364623554921 -0.031523512657201581 0 0.21503400689837671 -0.030930810510401429 0 0.21360323626451261 -0.02858374534336202 0 0.20886364623554921 -0.031523512657201581 0 0.2128060919330283 -0.035124071741943173 0 0.2180191377477218 -0.035203133534298187 0 0.2167024847658664 -0.043974661413588162 0 0.21503400689837671 -0.030930810510401429 0 0.2128060919330283 -0.035124071741943173 0 0.20886364623554921 -0.031523512657201581 0 0.21503400689837671 -0.030930810510401429 0 0.2128060919330283 -0.035124071741943173 0 0.2180191377477218 -0.035203133534298187 0 0.21503400689837671 -0.030930810510401429 0 0.2180191377477218 -0.035203133534298187 0 0.21995729679401421 -0.029331280632926501 0 0.2167024847658664 -0.043974661413588162 0 0.20890374551960481 -0.040729144831228678 0 0.20897987019450001 -0.050060865146210963 0 0.2128060919330283 -0.035124071741943173 0 0.2167024847658664 -0.043974661413588162 0 0.20890374551960481 -0.040729144831228678 0 0.20890374551960481 -0.040729144831228678 0 0.19655169947710091 -0.043788383486002072 0 0.20897987019450001 -0.050060865146210963 0 0.2128060919330283 -0.035124071741943173 0 0.20890374551960481 -0.040729144831228678 0 0.20886364623554921 -0.031523512657201581 0 0.20890374551960481 -0.040729144831228678 0 0.20886364623554921 -0.031523512657201581 0 0.19655169947710091 -0.043788383486002072 0 0.1828119860636557 -0.050363577362968731 0 0.18853740735089011 -0.033706188378118708 0 0.19655169947710091 -0.043788383486002072 0 0.20886364623554921 -0.031523512657201581 0 0.18853740735089011 -0.033706188378118708 0 0.19655169947710091 -0.043788383486002072 0 0.19655169947710091 -0.043788383486002072 0 0.20138343235632811 -0.055727139445542639 0 0.20897987019450001 -0.050060865146210963 0 0.19655169947710091 -0.043788383486002072 0 0.19188844298534441 -0.056659859735039647 0 0.20138343235632811 -0.055727139445542639 0 0.1828119860636557 -0.050363577362968731 0 0.19655169947710091 -0.043788383486002072 0 0.19188844298534441 -0.056659859735039647 0 0.19188844298534441 -0.056659859735039647 0 0.20138343235632811 -0.055727139445542639 0 0.1952329782378138 -0.068464889048657496 0 0.20138343235632811 -0.055727139445542639 0 0.22670270369963491 -0.067064047377793826 0 0.20138343235632811 -0.055727139445542639 0 0.21577564808412511 -0.056666161138016313 0 0.22670270369963491 -0.067064047377793826 0 0.20138343235632811 -0.055727139445542639 0 0.20897987019450001 -0.050060865146210963 0 0.21577564808412511 -0.056666161138016313 0 0.2167024847658664 -0.043974661413588162 0 0.20897987019450001 -0.050060865146210963 0 0.21577564808412511 -0.056666161138016313 0 0.21577564808412511 -0.056666161138016313 0 0.23694359709532001 -0.061394592404840097 0 0.22670270369963491 -0.067064047377793826 0 0.21577564808412511 -0.056666161138016313 0 0.22648325856373289 -0.049317463857355977 0 0.23694359709532001 -0.061394592404840097 0 0.21577564808412511 -0.056666161138016313 0 0.23694359709532001 -0.061394592404840097 0 0.2167024847658664 -0.043974661413588162 0 0.21577564808412511 -0.056666161138016313 0 0.22648325856373289 -0.049317463857355977 0 0.22648325856373289 -0.049317463857355977 0 0.23694359709532001 -0.061394592404840097 0 0.23716366819637241 -0.046229271507985323 0 0.25811154610651499 -0.066123023671663908 0 0.23694359709532001 -0.061394592404840097 0 0.24870160087168189 -0.052882304334001928 0 0.23694359709532001 -0.061394592404840097 0 0.24870160087168189 -0.052882304334001928 0 0.23716366819637241 -0.046229271507985323 0 0.24870160087168189 -0.052882304334001928 0 0.23716366819637241 -0.046229271507985323 0 0.24731406762381819 -0.035960341631652723 0 0.23716366819637241 -0.046229271507985323 0 0.24731406762381819 -0.035960341631652723 0 0.23342582712955959 -0.033308149953783547 0 0.23342582712955959 -0.033308149953783547 0 0.2258308946769807 -0.038322632822349968 0 0.22548915127375299 -0.027513718828695861 0 0.22648325856373289 -0.049317463857355977 0 0.23716366819637241 -0.046229271507985323 0 0.2258308946769807 -0.038322632822349968 0 0.23716366819637241 -0.046229271507985323 0 0.23342582712955959 -0.033308149953783547 0 0.2258308946769807 -0.038322632822349968 0 0.2180191377477218 -0.035203133534298187 0 0.2167024847658664 -0.043974661413588162 0 0.2258308946769807 -0.038322632822349968 0 0.2167024847658664 -0.043974661413588162 0 0.22648325856373289 -0.049317463857355977 0 0.2258308946769807 -0.038322632822349968 0 0.2180191377477218 -0.035203133534298187 0 0.2258308946769807 -0.038322632822349968 0 0.21995729679401421 -0.029331280632926501 0 0.2258308946769807 -0.038322632822349968 0 0.22548915127375299 -0.027513718828695861 0 0.21995729679401421 -0.029331280632926501 0 0.21528057420098159 -0.024212643874961401 0 0.2313313538768734 -0.018514784978234038 0 0.22829619310998309 -0.01520182636873813 0 0.21528057420098159 -0.024212643874961401 0 0.2313313538768734 -0.018514784978234038 0 0.21528057420098159 -0.024212643874961401 0 0.22548915127375299 -0.027513718828695861 0 0.2313313538768734 -0.018514784978234038 0 0.21528057420098159 -0.024212643874961401 0 0.22548915127375299 -0.027513718828695861 0 0.21995729679401421 -0.029331280632926501 0 0.21528057420098159 -0.024212643874961401 0 0.22829619310998309 -0.01520182636873813 0 0.21528057420098159 -0.024212643874961401 0 0.21911622703360889 -0.015650702578479541 0 0.22829619310998309 -0.01520182636873813 0 0.2313313538768734 -0.018514784978234038 0 0.22829619310998309 -0.01520182636873813 0 0.23342582712955959 -0.033308149953783547 0 0.22548915127375299 -0.027513718828695861 0 0.2313313538768734 -0.018514784978234038 0 0.25508119948702751 -0.010083838205662381 0 0.2313313538768734 -0.018514784978234038 0 0.2482857443068576 -0.021714794414400052 0 0.24731406762381819 -0.035960341631652723 0 0.2313313538768734 -0.018514784978234038 0 0.2482857443068576 -0.021714794414400052 0 0.24731406762381819 -0.035960341631652723 0 0.23342582712955959 -0.033308149953783547 0 0.2313313538768734 -0.018514784978234038 0 0.24731406762381819 -0.035960341631652723 0 0.2313313538768734 -0.018514784978234038 0 0.25508119948702751 -0.010083838205662381 0 0.2313313538768734 -0.018514784978234038 0 0.24138147174972829 -0.0061427828714447699 0 0.25508119948702751 -0.010083838205662381 0 0.2313313538768734 -0.018514784978234038 0 0.24138147174972829 -0.0061427828714447699 0 0.22829619310998309 -0.01520182636873813 0 0.25446675038947358 0.0029162606258486688 0 0.2541426920980116 -0.0036136263454906951 0 0.24138147174972829 -0.0061427828714447699 0 0.25446675038947358 0.0029162606258486688 0 0.24138147174972829 -0.0061427828714447699 0 0.22999165343287109 0.0038227322559807589 0 0.24138147174972829 -0.0061427828714447699 0 0.23189167676904729 -0.0064153040848911828 0 0.22999165343287109 0.0038227322559807589 0 0.23189167676904729 -0.0064153040848911828 0 0.2228246624943325 -0.0092295053444410857 0 0.22999165343287109 0.0038227322559807589 0 0.21351355446813719 -0.0021103410187178909 0 0.2228246624943325 -0.0092295053444410857 0 0.23189167676904729 -0.0064153040848911828 0 0.22829619310998309 -0.01520182636873813 0 0.2228246624943325 -0.0092295053444410857 0 0.2313313538768734 -0.018514784978234038 0 0.24138147174972829 -0.0061427828714447699 0 0.22829619310998309 -0.01520182636873813 0 0.24138147174972829 -0.0061427828714447699 0 0.23189167676904729 -0.0064153040848911828 0 0.22829619310998309 -0.01520182636873813 0 0.21911622703360889 -0.015650702578479541 0 0.22829619310998309 -0.01520182636873813 0 0.2228246624943325 -0.0092295053444410857 0 0.22829619310998309 -0.01520182636873813 0 0.2228246624943325 -0.0092295053444410857 0 0.2084634723971549 -0.097930235578601213 0 0.21737999015654699 -0.1103161024944793 0 0.2275791846540145 -0.10054182369239011 0 0.21737999015654699 -0.1103161024944793 0 0.19100769245097829 -0.1040519139747048 0 0.2084634723971549 -0.097930235578601213 0 0.21140608144591419 -0.084503356370523836 0 0.2275791846540145 -0.10054182369239011 0 0.2084634723971549 -0.097930235578601213 0 0.21737999015654699 -0.1103161024944793 0 0.19100769245097829 -0.1040519139747048 0 0.21737999015654699 -0.1103161024944793 0 0.21277072480774051 -0.1248863227998855 0 0.20025029595199689 -0.1218288277367077 0 0.21737999015654699 -0.1103161024944793 0 0.21277072480774051 -0.1248863227998855 0 0.2239597136694004 -0.1277946194696456 0 0.1862357176231304 -0.1238823921021804 0 0.20025029595199689 -0.1218288277367077 0 0.19100769245097829 -0.1040519139747048 0 0.21737999015654699 -0.1103161024944793 0 0.20025029595199689 -0.1218288277367077 0 0.19100769245097829 -0.1040519139747048 0 0.20025029595199689 -0.1218288277367077 0 0.19100769245097829 -0.1040519139747048 0 0.2084634723971549 -0.097930235578601213 0 0.19100769245097829 -0.1040519139747048 0 0.19624682445825681 -0.08914472739044943 0 0.18137547142311691 -0.085525622921553163 0 0.19100769245097829 -0.1040519139747048 0 0.19624682445825681 -0.08914472739044943 0 0.19624682445825681 -0.08914472739044943 0 0.1952329782378138 -0.068464889048657496 0 0.21140608144591419 -0.084503356370523836 0 0.18137547142311691 -0.085525622921553163 0 0.19624682445825681 -0.08914472739044943 0 0.1952329782378138 -0.068464889048657496 0 0.20138343235632811 -0.055727139445542639 0 0.1952329782378138 -0.068464889048657496 0 0.21149591893834541 -0.070957707586151192 0 0.18346211879182289 -0.064955309332027283 0 0.19188844298534441 -0.056659859735039647 0 0.1952329782378138 -0.068464889048657496 0 0.1952329782378138 -0.068464889048657496 0 0.21140608144591419 -0.084503356370523836 0 0.20138343235632811 -0.055727139445542639 0 0.21149591893834541 -0.070957707586151192 0 0.22670270369963491 -0.067064047377793826 0 0.1952329782378138 -0.068464889048657496 0 0.21149591893834541 -0.070957707586151192 0 0.21140608144591419 -0.084503356370523836 0 0.2084634723971549 -0.097930235578601213 0 0.19624682445825681 -0.08914472739044943 0 0.21140608144591419 -0.084503356370523836 0 0.21149591893834541 -0.070957707586151192 0 0.21140608144591419 -0.084503356370523836 0 0.2227543989520358 -0.079029105688238177 0 0.21140608144591419 -0.084503356370523836 0 0.2275791846540145 -0.10054182369239011 0 0.2227543989520358 -0.079029105688238177 0 0.23449163343577681 -0.083610487294907485 0 0.2275791846540145 -0.10054182369239011 0 0.21140608144591419 -0.084503356370523836 0 0.2227543989520358 -0.079029105688238177 0 0.2275791846540145 -0.10054182369239011 0 0.2227543989520358 -0.079029105688238177 0 0.22670270369963491 -0.067064047377793826 0 0.23449163343577681 -0.083610487294907485 0 0.21149591893834541 -0.070957707586151192 0 0.2227543989520358 -0.079029105688238177 0 0.22670270369963491 -0.067064047377793826 0 0.25202197504294188 -0.078400955310045109 0 0.25811154610651499 -0.066123023671663908 0 0.23694359709532001 -0.061394592404840097 0 0.25202197504294188 -0.078400955310045109 0 0.22670270369963491 -0.067064047377793826 0 0.25202197504294188 -0.078400955310045109 0 0.22670270369963491 -0.067064047377793826 0 0.23449163343577681 -0.083610487294907485 0 0.25202197504294188 -0.078400955310045109 0 0.23694359709532001 -0.061394592404840097 0 0.22670270369963491 -0.067064047377793826 0 0.25811154610651499 -0.066123023671663908 0 0.23694359709532001 -0.061394592404840097 0 0.25202197504294188 -0.078400955310045109 0 0.23449163343577681 -0.083610487294907485 0 0.24624903761231479 -0.086847438891893419 0 0.23449163343577681 -0.083610487294907485 0 0.24292322406264641 -0.096552741650977186 0 0.2275791846540145 -0.10054182369239011 0 0.23449163343577681 -0.083610487294907485 0 0.24624903761231479 -0.086847438891893419 0 0.24292322406264641 -0.096552741650977186 0 0.25304747237378489 -0.090741332181114118 0 0.24624903761231479 -0.086847438891893419 0 0.24292322406264641 -0.096552741650977186 0 0.2275791846540145 -0.10054182369239011 0 0.24375228786211539 -0.116580291014256 0 0.24292322406264641 -0.096552741650977186 0 0.2275791846540145 -0.10054182369239011 0 0.24375228786211539 -0.116580291014256 0 0.25771864553297669 -0.099620140202181948 0 0.24292322406264641 -0.096552741650977186 0 0.24375228786211539 -0.116580291014256 0 0.21737999015654699 -0.1103161024944793 0 0.2275791846540145 -0.10054182369239011 0 0.24375228786211539 -0.116580291014256 0 0.21737999015654699 -0.1103161024944793 0 0.24375228786211539 -0.116580291014256 0 0.2239597136694004 -0.1277946194696456 0 0.21737999015654699 -0.1103161024944793 0 0.24375228786211539 -0.116580291014256 0 0.24375228786211539 -0.116580291014256 0 0.235054631712311 -0.13955626642273861 0 0.24955680073527009 -0.143898101237383 0 0.235054631712311 -0.13955626642273861 0 0.24955680073527009 -0.143898101237383 0 0.23627457688356679 -0.15840319400941011 0 0.25449645062408999 -0.16331052089379791 0 0.24955680073527009 -0.143898101237383 0 0.23627457688356679 -0.15840319400941011 0 0.235054631712311 -0.13955626642273861 0 0.22199130801810529 -0.1478171468904442 0 0.23627457688356679 -0.15840319400941011 0 0.24375228786211539 -0.116580291014256 0 0.235054631712311 -0.13955626642273861 0 0.2239597136694004 -0.1277946194696456 0 0.235054631712311 -0.13955626642273861 0 0.22199130801810529 -0.1478171468904442 0 0.2239597136694004 -0.1277946194696456 0 0.20025029595199689 -0.1218288277367077 0 0.20949289945301761 -0.1396057414987095 0 0.22199130801810529 -0.1478171468904442 0 0.2239597136694004 -0.1277946194696456 0 0.20949289945301761 -0.1396057414987095 0 0.21277072480774051 -0.1248863227998855 0 0.20025029595199689 -0.1218288277367077 0 0.20949289945301761 -0.1396057414987095 0 0.21277072480774051 -0.1248863227998855 0 0.2239597136694004 -0.1277946194696456 0 0.20949289945301761 -0.1396057414987095 0 0.22199130801810529 -0.1478171468904442 0 0.20949289945301761 -0.1396057414987095 0 0.2069794531536403 -0.1537888919124783 0 0.20949289945301761 -0.1396057414987095 0 0.2069794531536403 -0.1537888919124783 0 0.1919305776748628 -0.1461990482496055 0 0.2069794531536403 -0.1537888919124783 0 0.1919305776748628 -0.1461990482496055 0 0.19225769977326759 -0.16432491474026781 0 0.1862357176231304 -0.1238823921021804 0 0.1919305776748628 -0.1461990482496055 0 0.19714487019074359 -0.1333469628700395 0 0.20025029595199689 -0.1218288277367077 0 0.20949289945301761 -0.1396057414987095 0 0.19714487019074359 -0.1333469628700395 0 0.20949289945301761 -0.1396057414987095 0 0.1919305776748628 -0.1461990482496055 0 0.19714487019074359 -0.1333469628700395 0 0.1862357176231304 -0.1238823921021804 0 0.1919305776748628 -0.1461990482496055 0 0.1862357176231304 -0.1238823921021804 0 0.20025029595199689 -0.1218288277367077 0 0.19714487019074359 -0.1333469628700395 0 0.19629081049063871 -0.1815365299480412 0 0.19225769977326759 -0.16432491474026781 0 0.17982600751226671 -0.1762593337595659 0 0.19629081049063871 -0.1815365299480412 0 0.19225769977326759 -0.16432491474026781 0 0.22018657323669569 -0.16775416802968299 0 0.2069794531536403 -0.1537888919124783 0 0.19225769977326759 -0.16432491474026781 0 0.22018657323669569 -0.16775416802968299 0 0.22199130801810529 -0.1478171468904442 0 0.2069794531536403 -0.1537888919124783 0 0.22018657323669569 -0.16775416802968299 0 0.19629081049063871 -0.1815365299480412 0 0.22018657323669569 -0.16775416802968299 0 0.21237941264848451 -0.18810475376770611 0 0.22018657323669569 -0.16775416802968299 0 0.23934418379307471 -0.18436482883247621 0 0.22018657323669569 -0.16775416802968299 0 0.23934418379307471 -0.18436482883247621 0 0.21237941264848451 -0.18810475376770611 0 0.22018657323669569 -0.16775416802968299 0 0.23627457688356679 -0.15840319400941011 0 0.23934418379307471 -0.18436482883247621 0 0.22199130801810529 -0.1478171468904442 0 0.22018657323669569 -0.16775416802968299 0 0.23627457688356679 -0.15840319400941011 0 0.25449645062408999 -0.16331052089379791 0 0.23627457688356679 -0.15840319400941011 0 0.23934418379307471 -0.18436482883247621 0 0.25850179434945381 -0.20097548963526929 0 0.23934418379307471 -0.18436482883247621 0 0.25850179434945381 -0.20097548963526929 0 0.23934418379307471 -0.18436482883247621 0 0.23907695871134879 -0.21289681242661959 0 0.23907695871134879 -0.21289681242661959 0 0.22308479462261119 -0.20217133576560289 0 0.21722062693650279 -0.2226466586169516 0 0.23934418379307471 -0.18436482883247621 0 0.22308479462261119 -0.20217133576560289 0 0.21237941264848451 -0.18810475376770611 0 0.23934418379307471 -0.18436482883247621 0 0.23907695871134879 -0.21289681242661959 0 0.22308479462261119 -0.20217133576560289 0 0.25037283077400019 -0.2416092145933311 0 0.23239962387573149 -0.2337287944253621 0 0.2339549802858914 -0.24933471903745599 0 0.25658827463044448 -0.2222138965281123 0 0.23907695871134879 -0.21289681242661959 0 0.2446094219978813 -0.2276121794933563 0 0.25037283077400019 -0.2416092145933311 0 0.2446094219978813 -0.2276121794933563 0 0.23239962387573149 -0.2337287944253621 0 0.23907695871134879 -0.21289681242661959 0 0.2446094219978813 -0.2276121794933563 0 0.23239962387573149 -0.2337287944253621 0 0.23907695871134879 -0.21289681242661959 0 0.23239962387573149 -0.2337287944253621 0 0.21722062693650279 -0.2226466586169516 0 0.23239962387573149 -0.2337287944253621 0 0.2194561222393229 -0.23682627783696539 0 0.21722062693650279 -0.2226466586169516 0 0.23239962387573149 -0.2337287944253621 0 0.22502312889380549 -0.2426362774769398 0 0.2339549802858914 -0.24933471903745599 0 0.2194561222393229 -0.23682627783696539 0 0.22502312889380549 -0.2426362774769398 0 0.21456577207223029 -0.24270171036535029 0 0.23239962387573149 -0.2337287944253621 0 0.2194561222393229 -0.23682627783696539 0 0.22502312889380549 -0.2426362774769398 0 0.22331750647786899 -0.25281133177650322 0 0.22502312889380549 -0.2426362774769398 0 0.21456577207223029 -0.24270171036535029 0 0.22331750647786899 -0.25281133177650322 0 0.22502312889380549 -0.2426362774769398 0 0.2339549802858914 -0.24933471903745599 0 0.2084475354763706 -0.25511513831035743 0 0.2080714594183444 -0.2424179483002232 0 0.21336353465090491 -0.24693864317134839 0 0.2080714594183444 -0.2424179483002232 0 0.21336353465090491 -0.24693864317134839 0 0.2080714594183444 -0.2424179483002232 0 0.21336353465090491 -0.24693864317134839 0 0.21456577207223029 -0.24270171036535029 0 0.2194561222393229 -0.23682627783696539 0 0.2080714594183444 -0.2424179483002232 0 0.21456577207223029 -0.24270171036535029 0 0.21722062693650279 -0.2226466586169516 0 0.20244123733496699 -0.2260211367091485 0 0.19848523837712481 -0.2136299623964425 0 0.2080714594183444 -0.2424179483002232 0 0.21722062693650279 -0.2226466586169516 0 0.2194561222393229 -0.23682627783696539 0 0.2080714594183444 -0.2424179483002232 0 0.21722062693650279 -0.2226466586169516 0 0.2080714594183444 -0.2424179483002232 0 0.21722062693650279 -0.2226466586169516 0 0.20244123733496699 -0.2260211367091485 0 0.2080714594183444 -0.2424179483002232 0 0.18716213711817259 -0.22455639835484539 0 0.2080714594183444 -0.2424179483002232 0 0.20244123733496699 -0.2260211367091485 0 0.18716213711817259 -0.22455639835484539 0 0.20244123733496699 -0.2260211367091485 0 0.19848523837712481 -0.2136299623964425 0 0.18716213711817259 -0.22455639835484539 0 0.2080714594183444 -0.2424179483002232 0 0.19254414318066221 -0.24961624770678509 0 0.1866817818972302 -0.23981118877977231 0 0.2080714594183444 -0.2424179483002232 0 0.1866817818972302 -0.23981118877977231 0 0.18716213711817259 -0.22455639835484539 0 0.19254414318066221 -0.24961624770678509 0 0.18399505531774341 -0.24981832115951039 0 0.1866817818972302 -0.23981118877977231 0 0.21237941264848451 -0.18810475376770611 0 0.20793523744788639 -0.20366419955677639 0 0.19447652973028121 -0.19759128756789451 0 0.22308479462261119 -0.20217133576560289 0 0.21237941264848451 -0.18810475376770611 0 0.20793523744788639 -0.20366419955677639 0 0.22308479462261119 -0.20217133576560289 0 0.21722062693650279 -0.2226466586169516 0 0.20793523744788639 -0.20366419955677639 0 0.21722062693650279 -0.2226466586169516 0 0.20793523744788639 -0.20366419955677639 0 0.19848523837712481 -0.2136299623964425 0 0.19848523837712481 -0.2136299623964425 0 0.19447652973028121 -0.19759128756789451 0 0.1831457957419608 -0.2071674304332729 0 0.20793523744788639 -0.20366419955677639 0 0.19848523837712481 -0.2136299623964425 0 0.19447652973028121 -0.19759128756789451 0 0.19848523837712481 -0.2136299623964425 0 0.1831457957419608 -0.2071674304332729 0 0.18716213711817259 -0.22455639835484539 0 0.19629081049063871 -0.1815365299480412 0 0.19447652973028121 -0.19759128756789451 0 0.1840061663436266 -0.1900566622106199 0 0.19629081049063871 -0.1815365299480412 0 0.21237941264848451 -0.18810475376770611 0 0.19447652973028121 -0.19759128756789451 0 0.19447652973028121 -0.19759128756789451 0 0.1840061663436266 -0.1900566622106199 0 0.1831457957419608 -0.2071674304332729 0 0.1840061663436266 -0.1900566622106199 0 0.1831457957419608 -0.2071674304332729 0 0.16486725365112659 -0.18785963188663279 0 0.1831457957419608 -0.2071674304332729 0 0.16486725365112659 -0.18785963188663279 0 0.1831457957419608 -0.2071674304332729 0 0.16625281481800089 -0.2066948484094672 0 0.18716213711817259 -0.22455639835484539 0 0.16625281481800089 -0.2066948484094672 0 0.18716213711817259 -0.22455639835484539 0 0.16625281481800089 -0.2066948484094672 0 0.18716213711817259 -0.22455639835484539 0 0.16937657335138201 -0.22198425569814831 0 0.16625281481800089 -0.2066948484094672 0 0.15661990237239229 -0.21733625041789439 0 0.14909823278687431 -0.20687378182447139 0 0.16625281481800089 -0.2066948484094672 0 0.15661990237239229 -0.21733625041789439 0 0.16937657335138201 -0.22198425569814831 0 0.1831457957419608 -0.2071674304332729 0 0.16625281481800089 -0.2066948484094672 0 0.16486725365112659 -0.18785963188663279 0 0.16625281481800089 -0.2066948484094672 0 0.16486725365112659 -0.18785963188663279 0 0.14534349251782941 -0.188833298464089 0 0.17619278994504239 -0.24587918172992959 0 0.18399505531774341 -0.24981832115951039 0 0.1866817818972302 -0.23981118877977231 0 0.17619278994504239 -0.24587918172992959 0 0.17450151464944069 -0.23276490516368609 0 0.16609645978724119 -0.24143951784646769 0 0.17619278994504239 -0.24587918172992959 0 0.1866817818972302 -0.23981118877977231 0 0.17450151464944069 -0.23276490516368609 0 0.17450151464944069 -0.23276490516368609 0 0.18716213711817259 -0.22455639835484539 0 0.16937657335138201 -0.22198425569814831 0 0.1866817818972302 -0.23981118877977231 0 0.17450151464944069 -0.23276490516368609 0 0.18716213711817259 -0.22455639835484539 0 0.15661990237239229 -0.21733625041789439 0 0.1623464977989032 -0.22856887614484861 0 0.15090654410468329 -0.22688320449844629 0 0.15661990237239229 -0.21733625041789439 0 0.16937657335138201 -0.22198425569814831 0 0.1623464977989032 -0.22856887614484861 0 0.17450151464944069 -0.23276490516368609 0 0.1623464977989032 -0.22856887614484861 0 0.16609645978724119 -0.24143951784646769 0 0.17450151464944069 -0.23276490516368609 0 0.16937657335138201 -0.22198425569814831 0 0.1623464977989032 -0.22856887614484861 0 0.1623464977989032 -0.22856887614484861 0 0.16609645978724119 -0.24143951784646769 0 0.1528270009437688 -0.23836283418195289 0 0.16001236861667459 -0.2513654190734112 0 0.16609645978724119 -0.24143951784646769 0 0.1528270009437688 -0.23836283418195289 0 0.16978669848249819 -0.25098739912941831 0 0.17619278994504239 -0.24587918172992959 0 0.16609645978724119 -0.24143951784646769 0 0.16001236861667459 -0.2513654190734112 0 0.16978669848249819 -0.25098739912941831 0 0.16609645978724119 -0.24143951784646769 0 0.1429630926125974 -0.2502577086919005 0 0.16001236861667459 -0.2513654190734112 0 0.1528270009437688 -0.23836283418195289 0 0.1429630926125974 -0.2502577086919005 0 0.1528270009437688 -0.23836283418195289 0 0.13988621804673579 -0.23152362256679451 0 0.1528270009437688 -0.23836283418195289 0 0.15090654410468329 -0.22688320449844629 0 0.13988621804673579 -0.23152362256679451 0 0.1623464977989032 -0.22856887614484861 0 0.1528270009437688 -0.23836283418195289 0 0.15090654410468329 -0.22688320449844629 0 0.15661990237239229 -0.21733625041789439 0 0.15090654410468329 -0.22688320449844629 0 0.1428531013616163 -0.21862443918074129 0 0.15090654410468329 -0.22688320449844629 0 0.13988621804673579 -0.23152362256679451 0 0.1428531013616163 -0.21862443918074129 0 0.12018370186474731 -0.23305432747703519 0 0.12895394136930069 -0.22163642029703709 0 0.13988621804673579 -0.23152362256679451 0 0.12895394136930069 -0.22163642029703709 0 0.13988621804673579 -0.23152362256679451 0 0.1428531013616163 -0.21862443918074129 0 0.1429630926125974 -0.2502577086919005 0 0.12018370186474731 -0.23305432747703519 0 0.1429630926125974 -0.2502577086919005 0 0.12018370186474731 -0.23305432747703519 0 0.13988621804673579 -0.23152362256679451 0 0.13217397618885759 -0.25462043987800831 0 0.1429630926125974 -0.2502577086919005 0 0.12018370186474731 -0.23305432747703519 0 0.16625281481800089 -0.2066948484094672 0 0.14534349251782941 -0.188833298464089 0 0.16625281481800089 -0.2066948484094672 0 0.14534349251782941 -0.188833298464089 0 0.14909823278687431 -0.20687378182447139 0 0.14534349251782941 -0.188833298464089 0 0.14909823278687431 -0.20687378182447139 0 0.1346280568372662 -0.20359450925845249 0 0.15661990237239229 -0.21733625041789439 0 0.14909823278687431 -0.20687378182447139 0 0.1428531013616163 -0.21862443918074129 0 0.14909823278687431 -0.20687378182447139 0 0.1428531013616163 -0.21862443918074129 0 0.1346280568372662 -0.20359450925845249 0 0.1178461100078927 -0.20838697738218431 0 0.12895394136930069 -0.22163642029703709 0 0.1346280568372662 -0.20359450925845249 0 0.12895394136930069 -0.22163642029703709 0 0.1428531013616163 -0.21862443918074129 0 0.1346280568372662 -0.20359450925845249 0 0.14534349251782941 -0.188833298464089 0 0.1346280568372662 -0.20359450925845249 0 0.13128332926409281 -0.18787359724935929 0 0.1237689835273371 -0.19605207676116951 0 0.1178461100078927 -0.20838697738218431 0 0.1346280568372662 -0.20359450925845249 0 0.1237689835273371 -0.19605207676116951 0 0.1346280568372662 -0.20359450925845249 0 0.13128332926409281 -0.18787359724935929 0 0.1237689835273371 -0.19605207676116951 0 0.1232013989280239 -0.1819146573535104 0 0.13128332926409281 -0.18787359724935929 0 0.12443417021765769 -0.1709717485187108 0 0.14534349251782941 -0.188833298464089 0 0.12443417021765769 -0.1709717485187108 0 0.1232013989280239 -0.1819146573535104 0 0.13128332926409281 -0.18787359724935929 0 0.12443417021765769 -0.1709717485187108 0 0.14534349251782941 -0.188833298464089 0 0.13128332926409281 -0.18787359724935929 0 0.12443417021765769 -0.1709717485187108 0 0.14534349251782941 -0.188833298464089 0 0.13540865390058859 -0.1688207667960602 0 0.14534349251782941 -0.188833298464089 0 0.14658871156029241 -0.16855183333999291 0 0.13540865390058859 -0.1688207667960602 0 0.16486725365112659 -0.18785963188663279 0 0.14658871156029241 -0.16855183333999291 0 0.16486725365112659 -0.18785963188663279 0 0.14534349251782941 -0.188833298464089 0 0.14658871156029241 -0.16855183333999291 0 0.14658871156029241 -0.16855183333999291 0 0.13391177650968769 -0.15242347890466901 0 0.14971917460686079 -0.1530450482394467 0 0.14658871156029241 -0.16855183333999291 0 0.14971917460686079 -0.1530450482394467 0 0.16192904395431579 -0.15800089119817939 0 0.14658871156029241 -0.16855183333999291 0 0.13391177650968769 -0.15242347890466901 0 0.12831016946945831 -0.1492440347933528 0 0.14658871156029241 -0.16855183333999291 0 0.12831016946945831 -0.1492440347933528 0 0.14658871156029241 -0.16855183333999291 0 0.13540865390058859 -0.1688207667960602 0 0.1290045142054978 -0.1612372837293575 0 0.14658871156029241 -0.16855183333999291 0 0.1290045142054978 -0.1612372837293575 0 0.12831016946945831 -0.1492440347933528 0 0.13540865390058859 -0.1688207667960602 0 0.12715697753007521 -0.16591248018761531 0 0.1290045142054978 -0.1612372837293575 0 0.12443417021765769 -0.1709717485187108 0 0.13540865390058859 -0.1688207667960602 0 0.12715697753007521 -0.16591248018761531 0 0.12098675462827781 -0.16200852072179159 0 0.12715697753007521 -0.16591248018761531 0 0.1290045142054978 -0.1612372837293575 0 0.12324902196630889 -0.15465793599018671 0 0.1227471198665283 -0.15880086614903269 0 0.1290045142054978 -0.1612372837293575 0 0.13391177650968769 -0.15242347890466901 0 0.12831016946945831 -0.1492440347933528 0 0.12532898621889721 -0.13663811256420449 0 0.12324902196630889 -0.15465793599018671 0 0.1290045142054978 -0.1612372837293575 0 0.12831016946945831 -0.1492440347933528 0 0.1217036921304827 -0.1482443959076799 0 0.12831016946945831 -0.1492440347933528 0 0.12532898621889721 -0.13663811256420449 0 0.13391177650968769 -0.15242347890466901 0 0.13188977167139071 -0.12546883223523481 0 0.13391177650968769 -0.15242347890466901 0 0.13188977167139071 -0.12546883223523481 0 0.1446303542042412 -0.1380662602394005 0 0.13391177650968769 -0.15242347890466901 0 0.13188977167139071 -0.12546883223523481 0 0.12532898621889721 -0.13663811256420449 0 0.11997683785091839 -0.1276371159963853 0 0.13188977167139071 -0.12546883223523481 0 0.12532898621889721 -0.13663811256420449 0 0.1446303542042412 -0.1380662602394005 0 0.15557261582888751 -0.13003178131142151 0 0.1621281360659286 -0.14191921566573409 0 0.14724036225017881 -0.1245170930860646 0 0.13188977167139071 -0.12546883223523481 0 0.1446303542042412 -0.1380662602394005 0 0.14724036225017881 -0.1245170930860646 0 0.1446303542042412 -0.1380662602394005 0 0.15557261582888751 -0.13003178131142151 0 0.13391177650968769 -0.15242347890466901 0 0.1446303542042412 -0.1380662602394005 0 0.14971917460686079 -0.1530450482394467 0 0.1446303542042412 -0.1380662602394005 0 0.14971917460686079 -0.1530450482394467 0 0.1621281360659286 -0.14191921566573409 0 0.1621281360659286 -0.14191921566573409 0 0.17324983187337631 -0.13165498831909611 0 0.17651024624945799 -0.1485415537171802 0 0.14971917460686079 -0.1530450482394467 0 0.1621281360659286 -0.14191921566573409 0 0.16192904395431579 -0.15800089119817939 0 0.1621281360659286 -0.14191921566573409 0 0.17651024624945799 -0.1485415537171802 0 0.16192904395431579 -0.15800089119817939 0 0.16471491079178111 -0.1205264202314431 0 0.15557261582888751 -0.13003178131142151 0 0.1639163736399934 -0.1310331013819237 0 0.15557261582888751 -0.13003178131142151 0 0.1621281360659286 -0.14191921566573409 0 0.1639163736399934 -0.1310331013819237 0 0.1621281360659286 -0.14191921566573409 0 0.1639163736399934 -0.1310331013819237 0 0.17324983187337631 -0.13165498831909611 0 0.16471491079178111 -0.1205264202314431 0 0.1639163736399934 -0.1310331013819237 0 0.17324983187337631 -0.13165498831909611 0 0.1862357176231304 -0.1238823921021804 0 0.1919305776748628 -0.1461990482496055 0 0.17324983187337631 -0.13165498831909611 0 0.1919305776748628 -0.1461990482496055 0 0.17324983187337631 -0.13165498831909611 0 0.17651024624945799 -0.1485415537171802 0 0.1919305776748628 -0.1461990482496055 0 0.19225769977326759 -0.16432491474026781 0 0.17651024624945799 -0.1485415537171802 0 0.19225769977326759 -0.16432491474026781 0 0.17526083145963689 -0.16308053239281189 0 0.17982600751226671 -0.1762593337595659 0 0.19225769977326759 -0.16432491474026781 0 0.17651024624945799 -0.1485415537171802 0 0.17526083145963689 -0.16308053239281189 0 0.17526083145963689 -0.16308053239281189 0 0.17982600751226671 -0.1762593337595659 0 0.16627328335530381 -0.17069773137902189 0 0.1840061663436266 -0.1900566622106199 0 0.16486725365112659 -0.18785963188663279 0 0.17982600751226671 -0.1762593337595659 0 0.19629081049063871 -0.1815365299480412 0 0.1840061663436266 -0.1900566622106199 0 0.17982600751226671 -0.1762593337595659 0 0.16486725365112659 -0.18785963188663279 0 0.14658871156029241 -0.16855183333999291 0 0.16627328335530381 -0.17069773137902189 0 0.16486725365112659 -0.18785963188663279 0 0.17982600751226671 -0.1762593337595659 0 0.16627328335530381 -0.17069773137902189 0 0.14658871156029241 -0.16855183333999291 0 0.16192904395431579 -0.15800089119817939 0 0.16627328335530381 -0.17069773137902189 0 0.17526083145963689 -0.16308053239281189 0 0.16192904395431579 -0.15800089119817939 0 0.16627328335530381 -0.17069773137902189 0 0.17651024624945799 -0.1485415537171802 0 0.17526083145963689 -0.16308053239281189 0 0.16192904395431579 -0.15800089119817939 0 
</DataArray>
</Points>
<Cells>
<DataArray type="UInt32" Name="connectivity" format="ascii">
0 1 2 3 4 5 6 7 8 9 10 11 12 13 14 15 16 17 18 19 20 21 22 23 24 25 26 27 28 29 30 31 32 33 34 35 36 37 38 39 40 41 42 43 44 45 46 47 48 49 50 51 52 53 54 55 56 57 58 59 60 61 62 63 64 65 66 67 68 69 70 71 72 73 74 75 76 77 78 79 80 81 82 83 84 85 86 87 88 89 90 91 92 93 94 95 96 97 98 99 100 101 102 103 104 105 106 107 108 109 110 111 112 113 114 115 116 117 118 119 120 121 122 123 124 125 126 127 128 129 130 131 132 133 134 135 136 137 138 139 140 141 142 143 144 145 146 147 148 149 150 151 152 153 154 155 156 157 158 159 160 161 162 163 164 165 166 167 168 169 170 171 172 173 174 175 176 177 178 179 180 181 182 183 184 185 186 187 188 189 190 191 192 193 194 195 196 197 198 199 200 201 202 203 204 205 206 207 208 209 210 211 212 213 214 215 216 217 218 219 220 221 222 223 224 225 226 227 228 229 230 231 232 233 234 235 236 237 238 239 240 241 242 243 244 245 246 247 248 249 250 251 252 253 254 255 256 257 258 259 260 261 262 263 264 265 266 267 268 269 270 271 272 273 274 275 276 277 278 279 280 281 282 283 284 285 286 287 288 289 290 291 292 293 294 295 296 297 298 299 300 301 302 303 304 305 306 307 308 309 310 311 312 313 314 315 316 317 318 319 320 321 322 323 324 325 326 327 328 329 330 331 332 333 334 335 336 337 338 339 340 341 342 343 344 345 346 347 348 349 350 351 352 353 354 355 356 357 358 359 360 361 362 363 364 365 366 367 368 369 370 371 372 373 374 375 376 377 378 379 380 381 382 383 384 385 386 387 388 389 390 391 392 393 394 395 396 397 398 399 400 401 402 403 404 405 406 407 408 409 410 411 412 413 414 415 416 417 418 419 420 421 422 423 424 425 426 427 428 429 430 431 432 433 434 435 436 437 438 439 440 441 442 443 444 445 446 447 448 449 450 451 452 453 454 455 456 457 458 459 460 461 462 463 464 465 466 467 468 469 470 471 472 473 474 475 476 477 478 479 480 481 482 483 484 485 486 487 488 489 490 491 492 493 494 495 496 497 498 499 500 501 502 503 504 505 506 507 508 509 510 511 512 513 514 515 516 517 518 519 520 521 522 523 524 525 526 527 528 529 530 531 532 533 534 535 536 537 538 539 540 541 542 543 544 545 546 547 548 549 550 551 552 553 554 555 556 557 558 559 560 561 562 563 564 565 566 567 568 569 570 571 572 573 574 575 576 577 578 579 580 581 582 583 584 585 586 587 588 589 590 591 592 593 594 595 596 597 598 599 600 601 602 603 604 605 606 607 608 609 610 611 612 613 614 615 616 617 618 619 620 621 622 623 624 625 626 627 628 629 630 631 632 633 634 635 636 637 638 639 640 641 642 643 644 645 646 647 648 649 650 651 652 653 654 655 656 657 658 659 660 661 662 663 664 665 666 667 668 669 670 671 672 673 674 675 676 677 678 679 680 681 682 683 684 685 686 687 688 689 690 691 692 693 694 695 696 697 698 699 700 701 702 703 704 705 706 707 708 709 710 711 712 713 714 715 716 717 718 719 720 721 722 723 724 725 726 727 728 729 730 731 732 733 734 735 736 737 738 739 740 741 742 743 744 745 746 747 748 749 750 751 752 753 754 755 756 757 758 759 760 761 762 763 764 765 766 767 768 769 770 771 772 773 774 775 776 777 778 779 780 781 782 783 784 785 786 787 788 789 790 791 792 793 794 795 796 797 798 799 800 801 802 803 804 805 806 807 808 809 810 811 812 813 814 815 816 817 818 819 820 821 822 823 824 825 826 827 828 829 830 831 832 833 834 835 836 837 838 839 840 841 842 843 844 845 846 847 848 849 850 851 852 853 854 855 856 857 858 859 860 861 862 863 864 865 866 867 868 869 870 871 872 873 874 875 876 877 878 879 880 881 882 883 884 885 886 887 888 889 890 891 892 893 894 895 896 897 898 899 900 901 902 903 904 905 906 907 908 909 910 911 912 913 914 915 916 917 918 919 920 921 922 923 924 925 926 927 928 929 930 931 932 933 934 935 936 937 938 939 940 941 942 943 944 945 946 947 948 949 950 951 952 953 954 955 956 957 958 959 960 961 962 963 964 965 966 967 968 969 970 971 972 973 974 975 976 977 978 979 980 981 982 983 984 985 986 987 988 989 990 991 992 993 994 995 996 997 998 999 1000 1001 1002 1003 1004 1005 1006 1007 1008 1009 1010 1011 1012 1013 1014 1015 1016 1017 1018 1019 1020 1021 1022 1023 1024 1025 1026 1027 1028 1029 1030 1031 1032 1033 1034 1035 1036 1037 1038 1039 1040 1041 1042 1043 1044 1045 1046 1047 1048 1049 1050 1051 1052 1053 1054 1055 1056 1057 1058 1059 1060 1061 1062 1063 1064 1065 1066 1067 1068 1069 1070 1071 1072 1073 1074 1075 1076 1077 1078 1079 1080 1081 1082 1083 1084 1085 1086 1087 1088 1089 1090 1091 1092 1093 1094 1095 1096 1097 1098 1099 1100 1101 1102 1103 1104 1105 1106 1107 1108 1109 1110 1111 1112 1113 1114 1115 1116 1117 1118 1119 1120 1121 1122 1123 1124 1125 1126 1127 1128 1129 1130 1131 1132 1133 1134 1135 1136 1137 1138 1139 1140 1141 1142 1143 1144 1145 1146 1147 1148 1149 1150 1151 1152 1153 1154 1155 1156 1157 1158 1159 1160 1161 1162 1163 1164 1165 1166 1167 1168 1169 1170 1171 1172 1173 1174 1175 1176 1177 1178 1179 1180 1181 1182 1183 1184 1185 1186 1187 1188 1189 1190 1191 1192 1193 1194 1195 1196 1197 1198 1199 1200 1201 1202 1203 1204 1205 1206 1207 1208 1209 1210 1211 1212 1213 1214 1215 1216 1217 1218 1219 1220 1221 1222 1223 1224 1225 1226 1227 1228 1229 1230 1231 1232 1233 1234 1235 1236 1237 1238 1239 1240 1241 1242 1243 1244 1245 1246 1247 1248 1249 1250 1251 1252 1253 1254 1255 1256 1257 1258 1259 1260 1261 1262 1263 1264 1265 1266 1267 1268 1269 1270 1271 1272 1273 1274 1275 1276 1277 1278 1279 1280 1281 1282 1283 1284 1285 1286 1287 1288 1289 1290 1291 1292 1293 1294 1295 1296 1297 1298 1299 1300 1301 1302 1303 1304 1305 1306 1307 1308 1309 1310 1311 1312 1313 1314 1315 1316 1317 1318 1319 1320 1321 1322 1323 1324 1325 1326 1327 1328 1329 1330 1331 1332 1333 1334 1335 1336 1337 1338 1339 1340 1341 1342 1343 1344 1345 1346 1347 1348 1349 1350 1351 1352 1353 1354 1355 1356 1357 1358 1359 1360 1361 1362 1363 1364 1365 1366 1367 1368 1369 1370 1371 1372 1373 1374 1375 1376 1377 1378 1379 1380 1381 1382 1383 1384 1385 1386 1387 1388 1389 1390 1391 1392 1393 1394 1395 1396 1397 1398 1399 1400 1401 1402 1403 1404 1405 1406 1407 1408 1409 1410 1411 1412 1413 1414 1415 1416 1417 1418 1419 1420 1421 1422 1423 1424 1425 1426 1427 1428 1429 1430 1431 1432 1433 1434 1435 1436 1437 1438 1439 1440 1441 1442 1443 1444 1445 1446 1447 1448 1449 1450 1451 1452 1453 1454 1455 1456 1457 1458 1459 1460 1461 1462 1463 1464 1465 1466 1467 1468 1469 1470 1471 1472 1473 1474 1475 1476 1477 1478 1479 1480 1481 1482 1483 1484 1485 1486 1487 1488 1489 1490 1491 1492 1493 1494 1495 1496 1497 1498 1499 1500 1501 1502 1503 1504 1505 1506 1507 1508 1509 1510 1511 1512 1513 1514 1515 1516 1517 1518 1519 1520 1521 1522 1523 1524 1525 1526 1527 1528 1529 1530 1531 1532 1533 1534 1535 1536 1537 1538 1539 1540 1541 1542 1543 1544 1545 1546 1547 1548 1549 1550 1551 1552 1553 1554 1555 1556 1557 1558 1559 1560 1561 1562 1563 1564 1565 1566 1567 1568 1569 1570 1571 1572 1573 1574 1575 1576 1577 1578 1579 1580 1581 1582 1583 1584 1585 1586 1587 1588 1589 1590 1591 1592 1593 1594 1595 1596 1597 1598 1599 1600 1601 1602 1603 1604 1605 1606 1607 1608 1609 1610 1611 1612 1613 1614 1615 1616 1617 1618 1619 1620 1621 1622 1623 1624 1625 1626 1627 1628 1629 1630 1631 1632 1633 1634 1635 1636 1637 1638 1639 1640 1641 1642 1643 1644 1645 1646 1647 1648 1649 1650 1651 1652 1653 1654 1655 1656 1657 1658 1659 1660 1661 1662 1663 1664 1665 1666 1667 1668 1669 1670 1671 1672 1673 1674 1675 1676 1677 1678 1679 1680 1681 1682 1683 1684 1685 1686 1687 1688 1689 1690 1691 1692 1693 1694 1695 1696 1697 1698 1699 1700 1701 1702 1703 1704 1705 1706 1707 1708 1709 1710 1711 1712 1713 1714 1715 1716 1717 1718 1719 1720 1721 1722 1723 1724 1725 1726 1727 1728 1729 1730 1731 1732 1733 1734 1735 1736 1737 1738 1739 1740 1741 1742 1743 1744 1745 1746 1747 1748 1749 1750 1751 1752 1753 1754 1755 1756 1757 1758 1759 1760 1761 1762 1763 1764 1765 1766 1767 1768 1769 1770 1771 1772 1773 1774 1775 1776 1777 1778 1779 1780 1781 1782 1783 1784 1785 1786 1787 1788 1789 1790 1791 1792 1793 1794 1795 1796 1797 1798 1799 1800 1801 1802 1803 1804 1805 1806 1807 1808 1809 1810 1811 1812 1813 1814 1815 1816 1817 1818 1819 1820 1821 1822 1823 1824 1825 1826 1827 1828 1829 1830 1831 1832 1833 1834 1835 1836 1837 1838 1839 1840 1841 1842 1843 1844 1845 1846 1847 1848 1849 1850 1851 1852 1853 1854 1855 1856 1857 1858 1859 1860 1861 1862 1863 1864 1865 1866 1867 1868 1869 1870 1871 1872 1873 1874 1875 1876 1877 1878 1879 1880 1881 1882 1883 1884 1885 1886 1887 1888 1889 1890 1891 1892 1893 1894 1895 1896 1897 1898 1899 1900 1901 1902 1903 1904 1905 1906 1907 1908 1909 1910 1911 1912 1913 1914 1915 1916 1917 1918 1919 1920 1921 1922 1923 1924 1925 1926 1927 1928 1929 1930 1931 1932 1933 1934 1935 1936 1937 1938 1939 1940 1941 1942 1943 1944 1945 1946 1947 1948 1949 1950 1951 1952 1953 1954 1955 1956 1957 1958 1959 1960 1961 1962 1963 1964 1965 1966 1967 1968 1969 1970 1971 1972 1973 1974 1975 1976 1977 1978 1979 1980 1981 1982 1983 1984 1985 1986 1987 1988 1989 1990 1991 1992 1993 1994 1995 1996 1997 1998 1999 2000 2001 2002 2003 2004 2005 2006 2007 2008 2009 2010 2011 2012 2013 2014 2015 2016 2017 2018 2019 2020 2021 2022 2023 2024 2025 2026 2027 2028 2029 2030 2031 2032 2033 2034 2035 2036 2037 2038 2039 2040 2041 2042 2043 2044 2045 2046 2047 2048 2049 2050 2051 2052 2053 2054 2055 2056 2057 2058 2059 2060 2061 2062 2063 2064 2065 2066 2067 2068 2069 2070 2071 2072 2073 2074 2075 2076 2077 2078 2079 2080 2081 2082 2083 2084 2085 2086 2087 2088 2089 2090 2091 2092 2093 2094 2095 2096 2097 2098 2099 2100 2101 2102 2103 2104 2105 2106 2107 2108 2109 2110 2111 2112 2113 2114 2115 2116 2117 2118 2119 2120 2121 2122 2123 2124 2125 2126 2127 2128 2129 2130 2131 2132 2133 2134 2135 2136 2137 2138 2139 2140 2141 2142 2143 2144 2145 2146 2147 2148 2149 2150 2151 2152 2153 2154 2155 2156 2157 2158 2159 2160 2161 2162 2163 2164 2165 2166 2167 2168 2169 2170 2171 2172 2173 2174 2175 2176 2177 2178 2179 2180 2181 2182 2183 2184 2185 2186 2187 2188 2189 2190 2191 2192 2193 2194 2195 2196 2197 2198 2199 2200 2201 2202 2203 2204 2205 2206 2207 2208 2209 2210 2211 2212 2213 2214 2215 2216 2217 2218 2219 2220 2221 2222 2223 2224 2225 2226 2227 2228 2229 2230 2231 2232 2233 2234 2235 2236 2237 2238 2239 2240 2241 2242 2243 2244 2245 2246 2247 2248 2249 2250 2251 2252 2253 2254 2255 2256 2257 2258 2259 2260 2261 2262 2263 2264 2265 2266 2267 2268 2269 2270 2271 2272 2273 2274 2275 2276 2277 2278 2279 2280 2281 2282 2283 2284 2285 2286 2287 2288 2289 2290 2291 2292 2293 2294 2295 2296 2297 2298 2299 2300 2301 2302 2303 2304 2305 2306 2307 2308 2309 2310 2311 2312 2313 2314 2315 2316 2317 2318 2319 2320 2321 2322 2323 2324 2325 2326 2327 2328 2329 2330 2331 2332 2333 2334 2335 2336 2337 2338 2339 2340 2341 2342 2343 2344 2345 2346 2347 2348 2349 2350 2351 2352 2353 2354 2355 2356 2357 2358 2359 2360 2361 2362 2363 2364 2365 2366 2367 2368 2369 2370 2371 2372 2373 2374 2375 2376 2377 2378 2379 2380 2381 2382 2383 2384 2385 2386 2387 2388 2389 2390 2391 2392 2393 2394 2395 2396 2397 2398 2399 2400 2401 2402 2403 2404 2405 2406 2407 2408 2409 2410 2411 2412 2413 2414 2415 2416 2417 2418 2419 2420 2421 2422 2423 2424 2425 2426 2427 2428 2429 2430 2431 2432 2433 2434 2435 2436 2437 2438 2439 2440 2441 2442 2443 2444 2445 2446 2447 2448 2449 2450 2451 2452 2453 2454 2455 2456 2457 2458 2459 2460 2461 2462 2463 2464 2465 2466 2467 2468 2469 2470 2471 2472 2473 2474 2475 2476 2477 2478 2479 2480 2481 2482 2483 2484 2485 2486 2487 2488 2489 2490 2491 2492 2493 2494 2495 2496 2497 2498 2499 2500 2501 2502 2503 2504 2505 2506 2507 2508 2509 2510 2511 2512 2513 2514 2515 2516 2517 2518 2519 2520 2521 2522 2523 2524 2525 2526 2527 2528 2529 2530 2531 2532 2533 2534 2535 2536 2537 2538 2539 2540 2541 2542 2543 2544 2545 2546 2547 2548 2549 2550 2551 2552 2553 2554 2555 2556 2557 2558 2559 2560 2561 2562 2563 2564 2565 2566 2567 2568 2569 2570 2571 2572 2573 2574 2575 2576 2577 2578 2579 2580 2581 2582 2583 2584 2585 2586 2587 2588 2589 2590 2591 2592 2593 2594 2595 2596 2597 2598 2599 2600 2601 2602 2603 2604 2605 2606 2607 2608 2609 2610 2611 2612 2613 2614 2615 2616 2617 2618 2619 2620 2621 2622 2623 2624 2625 2626 2627 2628 2629 2630 2631 2632 2633 2634 2635 2636 2637 2638 2639 2640 2641 2642 2643 2644 2645 2646 2647 2648 2649 2650 2651 2652 2653 2654 2655 2656 2657 2658 2659 2660 2661 2662 2663 2664 2665 2666 2667 2668 2669 2670 2671 2672 2673 2674 2675 2676 2677 2678 2679 2680 2681 2682 2683 2684 2685 2686 2687 2688 2689 2690 2691 2692 2693 2694 2695 2696 2697 2698 2699 2700 2701 2702 2703 2704 2705 2706 2707 2708 2709 2710 2711 2712 2713 2714 2715 2716 2717 2718 2719 2720 2721 2722 2723 2724 2725 2726 2727 2728 2729 2730 2731 2732 2733 2734 2735 2736 2737 2738 2739 2740 2741 2742 2743 2744 2745 2746 2747 2748 2749 2750 2751 2752 2753 2754 2755 2756 2757 2758 2759 2760 2761 2762 2763 2764 2765 2766 2767 2768 2769 2770 2771 2772 2773 2774 2775 2776 2777 2778 2779 2780 2781 2782 2783 2784 2785 2786 2787 2788 2789 2790 2791 2792 2793 2794 2795 2796 2797 2798 2799 2800 2801 2802 2803 2804 2805 2806 2807 2808 2809 2810 2811 2812 2813 2814 2815 2816 2817 2818 2819 2820 2821 2822 2823 2824 2825 2826 2827 2828 2829 2830 2831 2832 2833 2834 2835 2836 2837 2838 2839 2840 2841 2842 2843 2844 2845 2846 2847 2848 2849 2850 2851 2852 2853 2854 2855 2856 2857 2858 2859 2860 2861 2862 2863 2864 2865 2866 2867 2868 2869 2870 2871 2872 2873 2874 2875 2876 2877 2878 2879 2880 2881 2882 2883 2884 2885 2886 2887 2888 2889 2890 2891 2892 2893 2894 2895 2896 2897 2898 2899 2900 2901 2902 2903 2904 2905 2906 2907 2908 2909 2910 2911 2912 2913 2914 2915 2916 2917 2918 2919 2920 2921 2922 2923 2924 2925 2926 2927 2928 2929 2930 2931 2932 2933 2934 2935 2936 2937 2938 2939 2940 2941 2942 2943 2944 2945 2946 2947 2948 2949 2950 2951 2952 2953 2954 2955 2956 2957 2958 2959 2960 2961 2962 2963 2964 2965 2966 2967 2968 2969 2970 2971 2972 2973 2974 2975 2976 2977 2978 2979 2980 2981 2982 2983 2984 2985 2986 2987 2988 2989 2990 2991 2992 2993 2994 2995 2996 2997 2998 2999 3000 3001 3002 3003 3004 3005 3006 3007 3008 3009 3010 3011 3012 3013 3014 3015 3016 3017 3018 3019 3020 3021 3022 3023 3024 3025 3026 3027 3028 3029 3030 3031 3032 3033 3034 3035 3036 3037 3038 3039 3040 3041 3042 3043 3044 3045 3046 3047 3048 3049 3050 3051 3052 3053 3054 3055 3056 3057 3058 3059 3060 3061 3062 3063 3064 3065 3066 3067 3068 3069 3070 3071 3072 3073 3074 3075 3076 3077 3078 3079 3080 3081 3082 3083 3084 3085 3086 3087 3088 3089 3090 3091 3092 3093 3094 3095 3096 3097 3098 3099 3100 3101 3102 3103 3104 3105 3106 3107 3108 3109 3110 3111 3112 3113 3114 3115 3116 3117 3118 3119 3120 3121 3122 3123 3124 3125 3126 3127 3128 3129 3130 3131 3132 3133 3134 3135 3136 3137 3138 3139 3140 3141 3142 3143 3144 3145 3146 3147 3148 3149 3150 3151 3152 3153 3154 3155 3156 3157 3158 3159 3160 3161 3162 3163 3164 3165 3166 3167 3168 3169 3170 3171 3172 3173 3174 3175 3176 3177 3178 3179 3180 3181 3182 3183 3184 3185 3186 3187 3188 3189 3190 3191 3192 3193 3194 3195 3196 3197 3198 3199 3200 3201 3202 3203 3204 3205 3206 3207 3208 3209 3210 3211 3212 3213 3214 3215 3216 3217 3218 3219 3220 3221 3222 3223 3224 3225 3226 3227 3228 3229 3230 3231 3232 3233 3234 3235 3236 3237 3238 3239 3240 3241 3242 3243 3244 3245 3246 3247 3248 3249 3250 3251 3252 3253 3254 3255 3256 3257 3258 3259 3260 3261 3262 3263 3264 3265 3266 3267 3268 3269 3270 3271 3272 3273 3274 3275 3276 3277 3278 3279 3280 3281 3282 3283 3284 3285 3286 3287 3288 3289 3290 3291 3292 3293 3294 3295 3296 3297 3298 3299 3300 3301 3302 3303 3304 3305 3306 3307 3308 3309 3310 3311 3312 3313 3314 3315 3316 3317 3318 3319 3320 3321 3322 3323 3324 3325 3326 3327 3328 3329 3330 3331 3332 3333 3334 3335 3336 3337 3338 3339 3340 3341 3342 3343 3344 3345 3346 3347 3348 3349 3350 3351 3352 3353 3354 3355 3356 3357 3358 3359 3360 3361 3362 3363 3364 3365 3366 3367 3368 3369 3370 3371 3372 3373 3374 3375 3376 3377 3378 3379 3380 3381 3382 3383 3384 3385 3386 3387 3388 3389 3390 3391 3392 3393 3394 3395 3396 3397 3398 3399 3400 3401 3402 3403 3404 3405 3406 3407 3408 3409 3410 3411 3412 3413 3414 3415 3416 3417 3418 3419 3420 3421 3422 3423 3424 3425 3426 3427 3428 3429 3430 3431 3432 3433 3434 3435 3436 3437 3438 3439 3440 3441 3442 3443 3444 3445 3446 3447 3448 3449 3450 3451 3452 3453 3454 3455 3456 3457 3458 3459 3460 3461 3462 3463 3464 3465 3466 3467 3468 3469 3470 3471 3472 3473 3474 3475 3476 3477 3478 3479 3480 3481 3482 3483 3484 3485 3486 3487 3488 3489 3490 3491 3492 3493 3494 3495 3496 3497 3498 3499 3500 3501 3502 3503 3504 3505 3506 3507 3508 3509 3510 3511 3512 3513 3514 3515 3516 3517 3518 3519 3520 3521 3522 3523 3524 3525 3526 3527 3528 3529 3530 3531 3532 3533 3534 3535 3536 3537 3538 3539 3540 3541 3542 3543 3544 3545 3546 3547 3548 3549 3550 3551 3552 3553 3554 3555 3556 3557 3558 3559 3560 3561 3562 3563 3564 3565 3566 3567 3568 3569 3570 3571 3572 3573 3574 3575 3576 3577 3578 3579 3580 3581 3582 3583 3584 3585 3586 3587 3588 3589 3590 3591 3592 3593 3594 3595 3596 3597 3598 3599 3600 3601 3602 3603 3604 3605 3606 3607 3608 3609 3610 3611 3612 3613 3614 3615 3616 3617 3618 3619 3620 3621 3622 3623 3624 3625 3626 3627 3628 3629 3630 3631 3632 3633 3634 3635 3636 3637 3638 3639 3640 3641 3642 3643 3644 3645 3646 3647 3648 3649 3650 3651 3652 3653 3654 3655 3656 3657 3658 3659 3660 3661 3662 3663 3664 3665 3666 3667 3668 3669 3670 3671 3672 3673 3674 3675 3676 3677 3678 3679 3680 3681 3682 3683 3684 3685 3686 3687 3688 3689 3690 3691 3692 3693 3694 3695 3696 3697 3698 3699 3700 3701 3702 3703 3704 3705 3706 3707 3708 3709 3710 3711 3712 3713 3714 3715 3716 3717 3718 3719 3720 3721 3722 3723 3724 3725 3726 3727 3728 3729 3730 3731 3732 3733 3734 3735 3736 3737 3738 3739 3740 3741 3742 3743 3744 3745 3746 3747 3748 3749 3750 3751 3752 3753 3754 3755 3756 3757 3758 3759 3760 3761 3762 3763 3764 3765 3766 3767 3768 3769 3770 3771 3772 3773 3774 3775 3776 3777 3778 3779 3780 3781 3782 3783 3784 3785 3786 3787 3788 3789 3790 3791 3792 3793 3794 3795 3796 3797 3798 3799 3800 3801 3802 3803 3804 3805 3806 3807 3808 3809 3810 3811 3812 3813 3814 3815 3816 3817 3818 3819 3820 3821 3822 3823 3824 3825 3826 3827 3828 3829 3830 3831 3832 3833 3834 3835 3836 3837 3838 3839 3840 3841 3842 3843 3844 3845 3846 3847 3848 3849 3850 3851 3852 3853 3854 3855 3856 3857 3858 3859 3860 3861 3862 3863 3864 3865 3866 3867 3868 3869 3870 3871 3872 3873 3874 3875 3876 3877 3878 3879 3880 3881 3882 3883 3884 3885 3886 3887 3888 3889 3890 3891 3892 3893 3894 3895 3896 3897 3898 3899 3900 3901 3902 3903 3904 3905 3906 3907 3908 3909 3910 3911 3912 3913 3914 3915 3916 3917 3918 3919 3920 3921 3922 3923 3924 3925 3926 3927 3928 3929 3930 3931 3932 3933 3934 3935 3936 3937 3938 3939 3940 3941 3942 3943 3944 3945 3946 3947 3948 3949 3950 3951 3952 3953 3954 3955 3956 3957 3958 3959 3960 3961 3962 3963 3964 3965 3966 3967 3968 3969 3970 3971 3972 3973 3974 3975 3976 3977 3978 3979 3980 3981 3982 3983 3984 3985 3986 3987 3988 3989 3990 3991 3992 3993 3994 3995 3996 3997 3998 3999 4000 4001 4002 4003 4004 4005 4006 4007 4008 4009 4010 4011 4012 4013 4014 4015 4016 4017 4018 4019 4020 4021 4022 4023 4024 4025 4026 4027 4028 4029 4030 4031 4032 4033 4034 4035 4036 4037 4038 4039 4040 4041 4042 4043 4044 4045 4046 4047 4048 4049 4050 4051 4052 4053 4054 4055 4056 4057 4058 4059 4060 4061 4062 4063 4064 4065 4066 4067 4068 4069 4070 4071 4072 4073 4074 4075 4076 4077 4078 4079 4080 4081 4082 4083 4084 4085 4086 4087 4088 4089 4090 4091 4092 4093 4094 4095 4096 4097 4098 4099 4100 4101 4102 4103 4104 4105 4106 4107 4108 4109 4110 4111 4112 4113 4114 4115 4116 4117 4118 4119 4120 4121 4122 4123 4124 4125 4126 4127 4128 4129 4130 4131 4132 4133 4134 4135 4136 4137 4138 4139 4140 4141 4142 4143 4144 4145 4146 4147 4148 4149 4150 4151 4152 4153 4154 4155 4156 4157 4158 4159 4160 4161 4162 4163 4164 4165 4166 4167 4168 4169 4170 4171 4172 4173 4174 4175 4176 4177 4178 4179 4180 4181 4182 4183 4184 4185 4186 4187 4188 4189 4190 4191 4192 4193 4194 4195 4196 4197 4198 4199 4200 4201 4202 4203 4204 4205 4206 4207 4208 4209 4210 4211 4212 4213 4214 4215 4216 4217 4218 4219 4220 4221 4222 4223 4224 4225 4226 4227 4228 4229 4230 4231 4232 4233 4234 4235 4236 4237 4238 4239 4240 4241 4242 4243 4244 4245 4246 4247 4248 4249 4250 4251 4252 4253 4254 4255 4256 4257 4258 4259 4260 4261 4262 4263 4264 4265 4266 4267 4268 4269 4270 4271 4272 4273 4274 4275 4276 4277 4278 4279 4280 4281 4282 4283 4284 4285 4286 4287 4288 4289 4290 4291 4292 4293 4294 4295 4296 4297 4298 4299 4300 4301 4302 4303 4304 4305 4306 4307 4308 4309 4310 4311 4312 4313 4314 4315 4316 4317 4318 4319 4320 4321 4322 4323 4324 4325 4326 4327 4328 4329 4330 4331 4332 4333 4334 4335 4336 4337 4338 4339 4340 4341 4342 4343 4344 4345 4346 4347 4348 4349 4350 4351 4352 4353 4354 4355 4356 4357 4358 4359 4360 4361 4362 4363 4364 4365 4366 4367 4368 4369 4370 4371 4372 4373 4374 4375 4376 4377 4378 4379 4380 4381 4382 4383 4384 4385 4386 4387 4388 4389 4390 4391 4392 4393 4394 4395 4396 4397 4398 4399 4400 4401 4402 4403 4404 4405 4406 4407 4408 4409 4410 4411 4412 4413 4414 4415 4416 4417 4418 4419 4420 4421 4422 4423 4424 4425 4426 4427 4428 4429 4430 4431 4432 4433 4434 4435 4436 4437 4438 4439 4440 4441 4442 4443 4444 4445 4446 4447 4448 4449 4450 4451 4452 4453 4454 4455 4456 4457 4458 4459 4460 4461 4462 4463 4464 4465 4466 4467 4468 4469 4470 4471 4472 4473 4474 4475 4476 4477 4478 4479 4480 4481 4482 4483 4484 4485 4486 4487 4488 4489 4490 4491 4492 4493 4494 4495 4496 4497 4498 4499 4500 4501 4502 4503 4504 4505 4506 4507 4508 4509 4510 4511 4512 4513 4514 4515 4516 4517 4518 4519 4520 4521 4522 4523 4524 4525 4526 4527 4528 4529 4530 4531 4532 4533 4534 4535 4536 4537 4538 4539 4540 4541 4542 4543 4544 4545 4546 4547 4548 4549 4550 4551 4552 4553 4554 4555 4556 4557 4558 4559 4560 4561 4562 4563 4564 4565 4566 4567 4568 4569 4570 4571 4572 4573 4574 4575 4576 4577 4578 4579 4580 4581 4582 4583 4584 4585 4586 4587 4588 4589 4590 4591 4592 4593 4594 4595 4596 4597 4598 4599 4600 4601 4602 4603 4604 4605 4606 4607 4608 4609 4610 4611 4612 4613 4614 4615 4616 4617 4618 4619 4620 4621 4622 4623 4624 4625 4626 4627 4628 4629 4630 4631 4632 4633 4634 4635 4636 4637 4638 4639 4640 4641 4642 4643 4644 4645 4646 4647 4648 4649 4650 4651 4652 4653 4654 4655 4656 4657 4658 4659 4660 4661 4662 4663 4664 4665 4666 4667 4668 4669 4670 4671 4672 4673 4674 4675 4676 4677 4678 4679 4680 4681 4682 4683 4684 4685 4686 4687 4688 4689 4690 4691 4692 4693 4694 4695 4696 4697 4698 4699 4700 4701 4702 4703 4704 4705 4706 4707 4708 4709 4710 4711 4712 4713 4714 4715 4716 4717 4718 4719 4720 4721 4722 4723 4724 4725 4726 4727 4728 4729 4730 4731 4732 4733 4734 4735 4736 4737 4738 4739 4740 4741 4742 4743 4744 4745 4746 4747 4748 4749 4750 4751 4752 4753 4754 4755 4756 4757 4758 4759 4760 4761 4762 4763 4764 4765 4766 4767 4768 4769 4770 4771 4772 4773 4774 4775 4776 4777 4778 4779 4780 4781 4782 4783 4784 4785 4786 4787 4788 4789 4790 4791 4792 4793 4794 4795 4796 4797 4798 4799 4800 4801 4802 4803 4804 4805 4806 4807 4808 4809 4810 4811 4812 4813 4814 4815 4816 4817 4818 4819 4820 4821 4822 4823 4824 4825 4826 4827 4828 4829 4830 4831 4832 4833 4834 4835 4836 4837 4838 4839 4840 4841 4842 4843 4844 4845 4846 4847 4848 4849 4850 4851 4852 4853 4854 4855 4856 4857 4858 4859 4860 4861 4862 4863 4864 4865 4866 4867 4868 4869 4870 4871 4872 4873 4874 4875 4876 4877 4878 4879 4880 4881 4882 4883 4884 4885 4886 4887 4888 4889 4890 4891 4892 4893 4894 4895 4896 4897 4898 4899 4900 4901 4902 4903 4904 4905 4906 4907 4908 4909 4910 4911 4912 4913 4914 4915 4916 4917 4918 4919 4920 4921 4922 4923 4924 4925 4926 4927 4928 4929 4930 4931 4932 4933 4934 4935 4936 4937 4938 4939 4940 4941 4942 4943 4944 4945 4946 4947 4948 4949 4950 4951 4952 4953 4954 4955 4956 4957 4958 4959 4960 4961 4962 4963 4964 4965 4966 4967 4968 4969 4970 4971 4972 4973 4974 4975 4976 4977 4978 4979 4980 4981 4982 4983 4984 4985 4986 4987 4988 4989 4990 4991 4992 4993 4994 4995 4996 4997 4998 4999 5000 5001 5002 5003 5004 5005 5006 5007 5008 5009 5010 5011 5012 5013 5014 5015 5016 5017 5018 5019 5020 5021 5022 5023 5024 5025 5026 5027 5028 5029 5030 5031 5032 5033 5034 5035 5036 5037 5038 5039 5040 5041 5042 5043 5044 5045 5046 5047 5048 5049 5050 5051 5052 5053 5054 5055 5056 5057 5058 5059 5060 5061 5062 5063 5064 5065 5066 5067 5068 5069 5070 5071 5072 5073 5074 5075 5076 5077 5078 5079 5080 5081 5082 5083 5084 5085 5086 5087 5088 5089 5090 5091 5092 5093 5094 5095 5096 5097 5098 5099 5100 5101 5102 5103 5104 5105 5106 5107 5108 5109 5110 5111 5112 5113 5114 5115 5116 5117 5118 5119 5120 5121 5122 5123 5124 5125 5126 5127 5128 5129 5130 5131 5132 5133 5134 5135 5136 5137 5138 5139 5140 5141 5142 5143 5144 5145 5146 5147 5148 5149 5150 5151 5152 5153 5154 5155 5156 5157 5158 5159 5160 5161 5162 5163 5164 5165 5166 5167 5168 5169 5170 5171 5172 5173 5174 5175 5176 5177 5178 5179 5180 5181 5182 5183 5184 5185 5186 5187 5188 5189 5190 5191 5192 5193 5194 5195 5196 5197 5198 5199 5200 5201 5202 5203 5204 5205 5206 5207 5208 5209 5210 5211 5212 5213 5214 5215 5216 5217 5218 5219 5220 5221 5222 5223 5224 5225 5226 5227 5228 5229 5230 5231 5232 5233 5234 5235 5236 5237 5238 5239 5240 5241 5242 5243 5244 5245 5246 5247 5248 5249 5250 5251 5252 5253 5254 5255 5256 5257 5258 5259 5260 5261 5262 5263 5264 5265 5266 5267 5268 5269 5270 5271 5272 5273 5274 5275 5276 5277 5278 5279 5280 5281 5282 5283 5284 5285 5286 5287 5288 5289 5290 5291 5292 5293 5294 5295 5296 5297 5298 5299 5300 5301 5302 5303 5304 5305 5306 5307 5308 5309 5310 5311 5312 5313 5314 5315 5316 5317 5318 5319 5320 5321 5322 5323 5324 5325 5326 5327 5328 5329 5330 5331 5332 5333 5334 5335 5336 5337 5338 5339 5340 5341 5342 5343 5344 5345 5346 5347 5348 5349 5350 5351 5352 5353 5354 5355 5356 5357 5358 5359 5360 5361 5362 5363 5364 5365 5366 5367 5368 5369 5370 5371 5372 5373 5374 5375 5376 5377 5378 5379 5380 5381 5382 5383 5384 5385 5386 5387 5388 5389 5390 5391 5392 5393 5394 5395 5396 5397 5398 5399 5400 5401 5402 5403 5404 5405 5406 5407 5408 5409 5410 5411 5412 5413 5414 5415 5416 5417 5418 5419 5420 5421 5422 5423 5424 5425 5426 5427 5428 5429 5430 5431 5432 5433 5434 5435 5436 5437 5438 5439 5440 5441 5442 5443 5444 5445 5446 5447 5448 5449 5450 5451 5452 5453 5454 5455 5456 5457 5458 5459 5460 5461 5462 5463 5464 5465 5466 5467 5468 5469 5470 5471 5472 5473 5474 5475 5476 5477 5478 5479 5480 5481 5482 5483 5484 5485 5486 5487 5488 5489 5490 5491 5492 5493 5494 5495 5496 5497 5498 5499 5500 5501 5502 5503 5504 5505 5506 5507 5508 5509 5510 5511 5512 5513 5514 5515 5516 5517 5518 5519 5520 5521 5522 5523 5524 5525 5526 5527 5528 5529 5530 5531 5532 5533 5534 5535 5536 5537 5538 5539 5540 5541 5542 5543 5544 5545 5546 5547 5548 5549 5550 5551 5552 5553 5554 5555 5556 5557 5558 5559 5560 5561 5562 5563 5564 5565 5566 5567 5568 5569 5570 5571 5572 5573 5574 5575 5576 5577 5578 5579 5580 5581 5582 5583 5584 5585 5586 5587 5588 5589 5590 5591 5592 5593 5594 5595 5596 5597 5598 5599 5600 5601 5602 5603 5604 5605 5606 5607 5608 5609 5610 5611 5612 5613 5614 5615 5616 5617 5618 5619 5620 5621 5622 5623 5624 5625 5626 5627 5628 5629 5630 5631 5632 5633 5634 5635 5636 5637 5638 5639 5640 5641 5642 5643 5644 5645 5646 5647 5648 5649 5650 5651 5652 5653 5654 5655 5656 5657 5658 5659 5660 5661 5662 5663 5664 5665 5666 5667 5668 5669 5670 5671 5672 5673 5674 5675 5676 5677 5678 5679 5680 5681 5682 5683 5684 5685 5686 5687 5688 5689 5690 5691 5692 5693 5694 5695 5696 5697 5698 5699 5700 5701 5702 5703 5704 5705 5706 5707 5708 5709 5710 5711 5712 5713 5714 5715 5716 5717 5718 5719 5720 5721 5722 5723 5724 5725 5726 5727 5728 5729 5730 5731 5732 5733 5734 5735 5736 5737 5738 5739 5740 5741 5742 5743 5744 5745 5746 5747 5748 5749 5750 5751 5752 5753 5754 5755 5756 5757 5758 5759 5760 5761 5762 5763 5764 5765 5766 5767 5768 5769 5770 5771 5772 5773 5774 5775 5776 5777 5778 5779 5780 5781 5782 5783 5784 5785 5786 5787 5788 5789 5790 5791 5792 5793 5794 5795 5796 5797 5798 5799 5800 5801 5802 5803 5804 5805 5806 5807 5808 5809 5810 5811 5812 5813 5814 5815 5816 5817 5818 5819 5820 5821 5822 5823 5824 5825 5826 5827 5828 5829 5830 5831 5832 5833 5834 5835 5836 5837 5838 5839 5840 5841 5842 5843 5844 5845 5846 5847 5848 5849 5850 5851 5852 5853 5854 5855 5856 5857 5858 5859 5860 5861 5862 5863 5864 5865 5866 5867 5868 5869 5870 5871 5872 5873 5874 5875 5876 5877 5878 5879 5880 5881 5882 5883 5884 5885 5886 5887 5888 5889 5890 5891 5892 5893 5894 5895 5896 5897 5898 5899 5900 5901 5902 5903 5904 5905 5906 5907 5908 5909 5910 5911 5912 5913 5914 5915 5916 5917 5918 5919 5920 5921 5922 5923 5924 5925 5926 5927 5928 5929 5930 5931 5932 5933 5934 5935 5936 5937 5938 5939 5940 5941 5942 5943 5944 5945 5946 5947 5948 5949 5950 5951 5952 5953 5954 5955 5956 5957 5958 5959 5960 5961 5962 5963 5964 5965 5966 5967 5968 5969 5970 5971 5972 5973 5974 5975 5976 5977 5978 5979 5980 5981 5982 5983 5984 5985 5986 5987 5988 5989 5990 5991 5992 5993 5994 5995 5996 5997 5998 5999 6000 6001 6002 6003 6004 6005 6006 6007 6008 6009 6010 6011 6012 6013 6014 6015 6016 6017 6018 6019 6020 6021 6022 6023 6024 6025 6026 6027 6028 6029 6030 6031 6032 6033 6034 6035 6036 6037 6038 6039 6040 6041 6042 6043 6044 6045 6046 6047 6048 6049 6050 6051 6052 6053 6054 6055 6056 6057 6058 6059 6060 6061 6062 6063 6064 6065 6066 6067 6068 6069 6070 6071 6072 6073 6074 6075 6076 6077 6078 6079 6080 6081 6082 6083 6084 6085 6086 6087 6088 6089 6090 6091 6092 6093 6094 6095 6096 6097 6098 6099 6100 6101 6102 6103 6104 6105 6106 6107 6108 6109 6110 6111 6112 6113 6114 6115 6116 6117 6118 6119 6120 6121 6122 6123 6124 6125 6126 6127 6128 6129 6130 6131 6132 6133 6134 6135 6136 6137 6138 6139 6140 6141 6142 6143 6144 6145 6146 6147 6148 6149 6150 6151 6152 6153 6154 6155 6156 6157 6158 6159 6160 6161 6162 6163 6164 6165 6166 6167 6168 6169 6170 6171 6172 6173 6174 6175 6176 6177 6178 6179 6180 6181 6182 6183 6184 6185 6186 6187 6188 6189 6190 6191 6192 6193 6194 6195 6196 6197 6198 6199 6200 6201 6202 6203 6204 6205 6206 6207 6208 6209 6210 6211 6212 6213 6214 6215 6216 6217 6218 6219 6220 6221 6222 6223 6224 6225 6226 6227 6228 6229 6230 6231 6232 6233 6234 6235 6236 6237 6238 6239 6240 6241 6242 6243 6244 6245 6246 6247 6248 6249 6250 6251 6252 6253 6254 6255 6256 6257 6258 6259 6260 6261 6262 6263 6264 6265 6266 6267 6268 6269 6270 6271 6272 6273 6274 6275 6276 6277 6278 6279 6280 6281 6282 6283 6284 6285 6286 6287 6288 6289 6290 6291 6292 6293 6294 6295 6296 6297 6298 6299 6300 6301 6302 6303 6304 6305 6306 6307 6308 6309 6310 6311 6312 6313 6314 6315 6316 6317 6318 6319 6320 6321 6322 6323 6324 6325 6326 6327 6328 6329 6330 6331 6332 6333 6334 6335 6336 6337 6338 6339 6340 6341 6342 6343 6344 6345 6346 6347 6348 6349 6350 6351 6352 6353 6354 6355 6356 6357 6358 6359 6360 6361 6362 6363 6364 6365 6366 6367 6368 6369 6370 6371 6372 6373 6374 6375 6376 6377 6378 6379 6380 6381 6382 6383 6384 6385 6386 6387 6388 6389 6390 6391 6392 6393 6394 6395 6396 6397 6398 6399 6400 6401 6402 6403 6404 6405 6406 6407 6408 6409 6410 6411 6412 6413 6414 6415 6416 6417 6418 6419 6420 6421 6422 6423 6424 6425 6426 6427 6428 6429 6430 6431 6432 6433 6434 6435 6436 6437 6438 6439 6440 6441 6442 6443 6444 6445 6446 6447 6448 6449 6450 6451 6452 6453 6454 6455 6456 6457 6458 6459 6460 6461 6462 6463 6464 6465 6466 6467 6468 6469 6470 6471 6472 6473 6474 6475 6476 6477 6478 6479 6480 6481 6482 6483 6484 6485 6486 6487 6488 6489 6490 6491 6492 6493 6494 6495 6496 6497 6498 6499 6500 6501 6502 6503 6504 6505 6506 6507 6508 6509 6510 6511 6512 6513 6514 6515 6516 6517 6518 6519 6520 6521 6522 6523 6524 6525 6526 6527 6528 6529 6530 6531 6532 6533 6534 6535 6536 6537 6538 6539 6540 6541 6542 6543 6544 6545 6546 6547 6548 6549 6550 6551 6552 6553 6554 6555 6556 6557 6558 6559 6560 6561 6562 6563 6564 6565 6566 6567 6568 6569 6570 6571 6572 6573 6574 6575 6576 6577 6578 6579 6580 6581 6582 6583 6584 6585 6586 6587 6588 6589 6590 6591 6592 6593 6594 6595 6596 6597 6598 6599 6600 6601 6602 6603 6604 6605 6606 6607 6608 6609 6610 6611 6612 6613 6614 6615 6616 6617 6618 6619 6620 6621 6622 6623 6624 6625 6626 6627 6628 6629 6630 6631 6632 6633 6634 6635 6636 6637 6638 6639 6640 6641 6642 6643 6644 6645 6646 6647 6648 6649 6650 6651 6652 6653 6654 6655 6656 6657 6658 6659 6660 6661 6662 6663 6664 6665 6666 6667 6668 6669 6670 6671 6672 6673 6674 6675 6676 6677 6678 6679 6680 6681 6682 6683 6684 6685 6686 6687 6688 6689 6690 6691 6692 6693 6694 6695 6696 6697 6698 6699 6700 6701 6702 6703 6704 6705 6706 6707 6708 6709 6710 6711 6712 6713 6714 6715 6716 6717 6718 6719 6720 6721 6722 6723 6724 6725 6726 6727 6728 6729 6730 6731 6732 6733 6734 6735 6736 6737 6738 6739 6740 6741 6742 6743 6744 6745 6746 6747 6748 6749 6750 6751 6752 6753 6754 6755 6756 6757 6758 6759 6760 6761 6762 6763 6764 6765 6766 6767 6768 6769 6770 6771 6772 6773 6774 6775 6776 6777 6778 6779 6780 6781 6782 6783 6784 6785 6786 6787 6788 6789 6790 6791 6792 6793 6794 6795 6796 6797 6798 6799 6800 6801 6802 6803 6804 6805 6806 6807 6808 6809 6810 6811 6812 6813 6814 6815 6816 6817 6818 6819 6820 6821 6822 6823 6824 6825 6826 6827 6828 6829 6830 6831 6832 6833 6834 6835 6836 6837 6838 6839 6840 6841 6842 6843 6844 6845 6846 6847 6848 6849 6850 6851 6852 6853 6854 6855 6856 6857 6858 6859 6860 6861 6862 6863 6864 6865 6866 6867 6868 6869 6870 6871 6872 6873 6874 6875 6876 6877 6878 6879 6880 6881 6882 6883 6884 6885 6886 6887 6888 6889 6890 6891 6892 6893 6894 6895 6896 6897 6898 6899 6900 6901 6902 6903 6904 6905 6906 6907 6908 6909 6910 6911 6912 6913 6914 6915 6916 6917 6918 6919 6920 6921 6922 6923 6924 6925 6926 6927 6928 6929 6930 6931 6932 6933 6934 6935 6936 6937 6938 6939 6940 6941 6942 6943 6944 6945 6946 6947 6948 6949 6950 6951 6952 6953 6954 6955 6956 6957 6958 6959 6960 6961 6962 6963 6964 6965 6966 6967 6968 6969 6970 6971 6972 6973 6974 6975 6976 6977 6978 6979 6980 6981 6982 6983 6984 6985 6986 6987 6988 6989 6990 6991 6992 6993 6994 6995 6996 6997 6998 6999 7000 7001 7002 7003 7004 7005 7006 7007 7008 7009 7010 7011 7012 7013 7014 7015 7016 7017 7018 7019 7020 7021 7022 7023 7024 7025 7026 7027 7028 7029 7030 7031 7032 7033 7034 7035 7036 7037 7038 7039 7040 7041 7042 7043 7044 7045 7046 7047 7048 7049 7050 7051 7052 7053 7054 7055 7056 7057 7058 7059 7060 7061 7062 7063 7064 7065 7066 7067 7068 7069 7070 7071 7072 7073 7074 7075 7076 7077 7078 7079 7080 7081 7082 7083 7084 7085 7086 7087 7088 7089 7090 7091 7092 7093 7094 7095 7096 7097 7098 7099 7100 7101 7102 7103 7104 7105 7106 7107 7108 7109 7110 7111 7112 7113 7114 7115 7116 7117 7118 7119 7120 7121 7122 7123 7124 7125 7126 7127 7128 7129 7130 7131 7132 7133 7134 7135 7136 7137 7138 7139 7140 7141 7142 7143 7144 7145 7146 7147 7148 7149 7150 7151 7152 7153 7154 7155 7156 7157 7158 7159 7160 7161 7162 7163 7164 7165 7166 7167 7168 7169 7170 7171 7172 7173 7174 7175 7176 7177 7178 7179 7180 7181 7182 7183 7184 7185 7186 7187 7188 7189 7190 7191 7192 7193 7194 7195 7196 7197 7198 7199 7200 7201 7202 7203 7204 7205 7206 7207 7208 7209 7210 7211 7212 7213 7214 7215 7216 7217 7218 7219 7220 7221 7222 7223 7224 7225 7226 7227 7228 7229 7230 7231 7232 7233 7234 7235 7236 7237 7238 7239 7240 7241 7242 7243 7244 7245 7246 7247 7248 7249 7250 7251 7252 7253 7254 7255 7256 7257 7258 7259 7260 7261 7262 7263 7264 7265 7266 7267 7268 7269 7270 7271 7272 7273 7274 7275 7276 7277 7278 7279 7280 7281 7282 7283 7284 7285 7286 7287 7288 7289 7290 7291 7292 7293 7294 7295 7296 7297 7298 7299 7300 7301 7302 7303 7304 7305 7306 7307 7308 7309 7310 7311 7312 7313 7314 7315 7316 7317 7318 7319 7320 7321 7322 7323 7324 7325 7326 7327 7328 7329 7330 7331 7332 7333 7334 7335 7336 7337 7338 7339 7340 7341 7342 7343 7344 7345 7346 7347 7348 7349 7350 7351 7352 7353 7354 7355 7356 7357 7358 7359 7360 7361 7362 7363 7364 7365 7366 7367 7368 7369 7370 7371 7372 7373 7374 7375 7376 7377 7378 7379 7380 7381 7382 7383 7384 7385 7386 7387 7388 7389 7390 7391 7392 7393 7394 7395 7396 7397 7398 7399 7400 7401 7402 7403 7404 7405 7406 7407 7408 7409 7410 7411 7412 7413 7414 7415 7416 7417 7418 7419 7420 7421 7422 7423 7424 7425 7426 7427 7428 7429 7430 7431 7432 7433 7434 7435 7436 7437 7438 7439 7440 7441 7442 7443 7444 7445 7446 7447 7448 7449 7450 7451 7452 7453 7454 7455 7456 7457 7458 7459 7460 7461 7462 7463 7464 7465 7466 7467 7468 7469 7470 7471 7472 7473 7474 7475 7476 7477 7478 7479 7480 7481 7482 7483 7484 7485 7486 7487 7488 7489 7490 7491 7492 7493 7494 7495 7496 7497 7498 7499 7500 7501 7502 7503 7504 7505 7506 7507 7508 7509 7510 7511 7512 7513 7514 7515 7516 7517 7518 7519 7520 7521 7522 7523 7524 7525 7526 7527 7528 7529 7530 7531 7532 7533 7534 7535 7536 7537 7538 7539 7540 7541 7542 7543 7544 7545 7546 7547 7548 7549 7550 7551 7552 7553 7554 7555 7556 7557 7558 7559 7560 7561 7562 7563 7564 7565 7566 7567 7568 7569 7570 7571 7572 7573 7574 7575 7576 7577 7578 7579 7580 7581 7582 7583 7584 7585 7586 7587 7588 7589 7590 7591 7592 7593 7594 7595 7596 7597 7598 7599 7600 7601 7602 7603 7604 7605 7606 7607 7608 7609 7610 7611 7612 7613 7614 7615 7616 7617 7618 7619 7620 7621 7622 7623 7624 7625 7626 7627 7628 7629 7630 7631 7632 7633 7634 7635 7636 7637 7638 7639 7640 7641 7642 7643 7644 7645 7646 7647 7648 7649 7650 7651 7652 7653 7654 7655 7656 7657 7658 7659 7660 7661 7662 7663 7664 7665 7666 7667 7668 7669 7670 7671 7672 7673 7674 7675 7676 7677 7678 7679 7680 7681 7682 7683 7684 7685 7686 7687 7688 7689 7690 7691 7692 7693 7694 7695 7696 7697 7698 7699 7700 7701 7702 7703 7704 7705 7706 7707 7708 7709 7710 7711 7712 7713 7714 7715 7716 7717 7718 7719 7720 7721 7722 7723 7724 7725 7726 7727 7728 7729 7730 7731 7732 7733 7734 7735 7736 7737 7738 7739 7740 7741 7742 7743 7744 7745 7746 7747 7748 7749 7750 7751 7752 7753 7754 7755 7756 7757 7758 7759 7760 7761 7762 7763 7764 7765 7766 7767 7768 7769 7770 7771 7772 7773 7774 7775 7776 7777 7778 7779 7780 7781 7782 7783 7784 7785 7786 7787 7788 7789 7790 7791 7792 7793 7794 7795 7796 7797 7798 7799 7800 7801 7802 7803 7804 7805 7806 7807 7808 7809 7810 7811 7812 7813 7814 7815 7816 7817 7818 7819 7820 7821 7822 7823 7824 7825 7826 7827 7828 7829 7830 7831 7832 7833 7834 7835 7836 7837 7838 7839 7840 7841 7842 7843 7844 7845 7846 7847 7848 7849 7850 7851 7852 7853 7854 7855 7856 7857 7858 7859 7860 7861 7862 7863 7864 7865 7866 7867 7868 7869 7870 7871 7872 7873 7874 7875 7876 7877 7878 7879 7880 7881 7882 7883 7884 7885 7886 7887 7888 7889 7890 7891 7892 7893 7894 7895 7896 7897 7898 7899 7900 7901 7902 7903 7904 7905 7906 7907 7908 7909 7910 7911 7912 7913 7914 7915 7916 7917 7918 7919 7920 7921 7922 7923 7924 7925 7926 7927 7928 7929 7930 7931 7932 7933 7934 7935 7936 7937 7938 7939 7940 7941 7942 7943 7944 7945 7946 7947 7948 7949 7950 7951 7952 7953 7954 7955 7956 7957 7958 7959 7960 7961 7962 7963 7964 7965 7966 7967 7968 7969 7970 7971 7972 7973 7974 7975 7976 7977 7978 7979 7980 7981 7982 7983 7984 7985 7986 7987 7988 7989 7990 7991 7992 7993 7994 7995 7996 7997 7998 7999 8000 8001 8002 8003 8004 8005 8006 8007 8008 8009 8010 8011 8012 8013 8014 8015 8016 8017 8018 8019 8020 8021 8022 8023 8024 8025 8026 8027 8028 8029 8030 8031 8032 8033 8034 8035 8036 8037 8038 8039 8040 8041 8042 8043 8044 8045 8046 8047 8048 8049 8050 8051 8052 8053 8054 8055 8056 8057 8058 8059 8060 8061 8062 8063 8064 8065 8066 8067 8068 8069 8070 8071 8072 8073 8074 8075 8076 8077 8078 8079 8080 8081 8082 8083 8084 8085 8086 8087 8088 8089 8090 8091 8092 8093 8094 8095 8096 8097 8098 8099 8100 8101 8102 8103 8104 8105 8106 8107 8108 8109 8110 8111 8112 8113 8114 8115 8116 8117 8118 8119 8120 8121 8122 8123 8124 8125 8126 8127 8128 8129 8130 8131 8132 8133 8134 8135 8136 8137 8138 8139 8140 8141 8142 8143 8144 8145 8146 8147 8148 8149 8150 8151 8152 8153 8154 8155 8156 8157 8158 8159 8160 8161 8162 8163 8164 8165 8166 8167 8168 8169 8170 8171 8172 8173 8174 8175 8176 8177 8178 8179 8180 8181 8182 8183 8184 8185 8186 8187 8188 8189 8190 8191 8192 8193 8194 8195 8196 8197 8198 8199 8200 8201 8202 8203 8204 8205 8206 8207 8208 8209 8210 8211 8212 8213 8214 8215 8216 8217 8218 8219 8220 8221 8222 8223 8224 8225 8226 8227 8228 8229 8230 8231 8232 8233 8234 8235 8236 8237 8238 8239 8240 8241 8242 8243 8244 8245 8246 8247 8248 8249 8250 8251 8252 8253 8254 8255 8256 8257 8258 8259 8260 8261 8262 8263 8264 8265 8266 8267 8268 8269 8270 8271 8272 8273 8274 8275 8276 8277 8278 8279 8280 8281 8282 8283 8284 8285 8286 8287 8288 8289 8290 8291 8292 8293 8294 8295 8296 8297 8298 8299 8300 8301 8302 8303 8304 8305 8306 8307 8308 8309 8310 8311 8312 8313 8314 8315 8316 8317 8318 8319 8320 8321 8322 8323 8324 8325 8326 8327 8328 8329 8330 8331 8332 8333 8334 8335 8336 8337 8338 8339 8340 8341 8342 8343 8344 8345 8346 8347 8348 8349 8350 8351 8352 8353 8354 8355 8356 8357 8358 8359 8360 8361 8362 8363 8364 8365 8366 8367 8368 8369 8370 8371 8372 8373 8374 8375 8376 8377 8378 8379 8380 8381 8382 8383 8384 8385 8386 8387 8388 8389 8390 8391 8392 8393 8394 8395 8396 8397 8398 8399 8400 8401 8402 8403 8404 8405 8406 8407 8408 8409 8410 8411 8412 8413 8414 8415 8416 8417 8418 8419 8420 8421 8422 8423 8424 8425 8426 8427 8428 8429 8430 8431 8432 8433 8434 8435 8436 8437 8438 8439 8440 8441 8442 8443 8444 8445 8446 8447 8448 8449 8450 8451 8452 8453 8454 8455 8456 8457 8458 8459 8460 8461 8462 8463 8464 8465 8466 8467 8468 8469 8470 8471 8472 8473 8474 8475 8476 8477 8478 8479 8480 8481 8482 8483 8484 8485 8486 8487 8488 8489 8490 8491 8492 8493 8494 8495 8496 8497 8498 8499 8500 8501 8502 8503 8504 8505 8506 8507 8508 8509 8510 8511 8512 8513 8514 8515 8516 8517 8518 8519 8520 8521 8522 8523 8524 8525 8526 8527 8528 8529 8530 8531 8532 8533 8534 8535 8536 8537 8538 8539 8540 8541 8542 8543 8544 8545 8546 8547 8548 8549 8550 8551 8552 8553 8554 8555 8556 8557 8558 8559 8560 8561 8562 8563 8564 8565 8566 8567 8568 8569 8570 8571 8572 8573 8574 8575 8576 8577 8578 8579 8580 8581 8582 8583 8584 8585 8586 8587 8588 8589 8590 8591 8592 8593 8594 8595 8596 8597 8598 8599 8600 8601 8602 8603 8604 8605 8606 8607 8608 8609 8610 8611 8612 8613 8614 8615 8616 8617 8618 8619 8620 8621 8622 8623 8624 8625 8626 8627 8628 8629 8630 8631 8632 8633 8634 8635 8636 8637 8638 8639 8640 8641 8642 8643 8644 8645 8646 8647 8648 8649 8650 8651 8652 8653 8654 8655 8656 8657 8658 8659 8660 8661 8662 8663 8664 8665 8666 8667 8668 8669 8670 8671 8672 8673 8674 8675 8676 8677 8678 8679 8680 8681 8682 8683 8684 8685 8686 8687 8688 8689 8690 8691 8692 8693 8694 8695 8696 8697 8698 8699 8700 8701 8702 8703 8704 8705 8706 8707 8708 8709 8710 8711 8712 8713 8714 8715 8716 8717 8718 8719 8720 8721 8722 8723 8724 8725 8726 8727 8728 8729 8730 8731 8732 8733 8734 8735 8736 8737 8738 8739 8740 8741 8742 8743 8744 8745 8746 8747 8748 8749 8750 8751 8752 8753 8754 8755 8756 8757 8758 8759 8760 8761 8762 8763 8764 8765 8766 8767 8768 8769 8770 8771 8772 8773 8774 8775 8776 8777 8778 8779 8780 8781 8782 8783 8784 8785 8786 8787 8788 8789 8790 8791 8792 8793 8794 8795 8796 8797 8798 8799 8800 8801 8802 8803 8804 8805 8806 8807 8808 8809 8810 8811 8812 8813 8814 8815 8816 8817 8818 8819 8820 8821 8822 8823 8824 8825 8826 8827 8828 8829 8830 8831 8832 8833 8834 8835 8836 8837 8838 8839 8840 8841 8842 8843 8844 8845 8846 8847 8848 8849 8850 8851 8852 8853 8854 8855 8856 8857 8858 8859 8860 8861 8862 8863 8864 8865 8866 8867 8868 8869 8870 8871 8872 8873 8874 8875 8876 8877 8878 8879 8880 8881 8882 8883 8884 8885 8886 8887 8888 8889 8890 8891 8892 8893 8894 8895 8896 8897 8898 8899 8900 8901 8902 8903 8904 8905 8906 8907 8908 8909 8910 8911 8912 8913 8914 8915 8916 8917 8918 8919 8920 8921 8922 8923 8924 8925 8926 8927 8928 8929 8930 8931 8932 8933 8934 8935 8936 8937 8938 8939 8940 8941 8942 8943 8944 8945 8946 8947 8948 8949 8950 8951 8952 8953 8954 8955 8956 8957 8958 8959 8960 8961 8962 8963 8964 8965 8966 8967 8968 8969 8970 8971 8972 8973 8974 8975 8976 8977 8978 8979 8980 8981 8982 8983 8984 8985 8986 8987 8988 8989 8990 8991 8992 8993 8994 8995 8996 8997 8998 8999 9000 9001 9002 9003 9004 9005 9006 9007 9008 9009 9010 9011 9012 9013 9014 9015 9016 9017 9018 9019 9020 9021 9022 9023 9024 9025 9026 9027 9028 9029 9030 9031 9032 9033 9034 9035 9036 9037 9038 9039 9040 9041 9042 9043 9044 9045 9046 9047 9048 9049 9050 9051 9052 9053 9054 9055 9056 9057 9058 9059 9060 9061 9062 9063 9064 9065 9066 9067 9068 9069 9070 9071 9072 9073 9074 9075 9076 9077 9078 9079 9080 9081 9082 9083 9084 9085 9086 9087 9088 9089 9090 9091 9092 9093 9094 9095 9096 9097 9098 9099 9100 9101 9102 9103 9104 9105 9106 9107 9108 9109 9110 9111 9112 9113 9114 9115 9116 9117 9118 9119 9120 9121 9122 9123 9124 9125 9126 9127 9128 9129 9130 9131 9132 9133 9134 9135 9136 9137 9138 9139 9140 9141 9142 9143 9144 9145 9146 9147 9148 9149 9150 9151 9152 9153 9154 9155 9156 9157 9158 9159 9160 9161 9162 9163 9164 9165 9166 9167 9168 9169 9170 9171 9172 9173 9174 9175 9176 9177 9178 9179 9180 9181 9182 9183 9184 9185 9186 9187 9188 9189 9190 9191 9192 9193 9194 9195 9196 9197 9198 9199 9200 9201 9202 9203 9204 9205 9206 9207 9208 9209 9210 9211 9212 9213 9214 9215 9216 9217 9218 9219 9220 9221 9222 9223 9224 9225 9226 9227 9228 9229 9230 9231 9232 9233 9234 9235 9236 9237 9238 9239 9240 9241 9242 9243 9244 9245 9246 9247 9248 9249 9250 9251 9252 9253 9254 9255 9256 9257 9258 9259 9260 9261 9262 9263 9264 9265 9266 9267 9268 9269 9270 9271 9272 9273 9274 9275 9276 9277 9278 9279 9280 9281 9282 9283 9284 9285 9286 9287 9288 9289 9290 9291 9292 9293 9294 9295 9296 9297 9298 9299 9300 9301 9302 9303 9304 9305 9306 9307 9308 9309 9310 9311 9312 9313 9314 9315 9316 9317 9318 9319 9320 9321 9322 9323 9324 9325 9326 9327 9328 9329 9330 9331 9332 9333 9334 9335 9336 9337 9338 9339 9340 9341 9342 9343 9344 9345 9346 9347 9348 9349 9350 9351 9352 9353 9354 9355 9356 9357 9358 9359 9360 9361 9362 9363 9364 9365 9366 9367 9368 9369 9370 9371 9372 9373 9374 9375 9376 9377 9378 9379 9380 9381 9382 9383 9384 9385 9386 9387 9388 9389 9390 9391 9392 9393 9394 9395 9396 9397 9398 9399 9400 9401 9402 9403 9404 9405 9406 9407 9408 9409 9410 9411 9412 9413 9414 9415 9416 9417 9418 9419 9420 9421 9422 9423 9424 9425 9426 9427 9428 9429 9430 9431 9432 9433 9434 9435 9436 9437 9438 9439 9440 9441 9442 9443 9444 9445 9446 9447 9448 9449 9450 9451 9452 9453 9454 9455 9456 9457 9458 9459 9460 9461 9462 9463 9464 9465 9466 9467 9468 9469 9470 9471 9472 9473 9474 9475 9476 9477 9478 9479 9480 9481 9482 9483 9484 9485 9486 9487 9488 9489 9490 9491 9492 9493 9494 9495 9496 9497 9498 9499 9500 9501 9502 9503 9504 9505 9506 9507 9508 9509 9510 9511 9512 9513 9514 9515 9516 9517 9518 9519 9520 9521 9522 9523 9524 9525 9526 9527 9528 9529 9530 9531 9532 9533 9534 9535 9536 9537 9538 9539 9540 9541 9542 9543 9544 9545 9546 9547 9548 9549 9550 9551 9552 9553 9554 9555 9556 9557 9558 9559 9560 9561 9562 9563 9564 9565 9566 9567 9568 9569 9570 9571 9572 9573 9574 9575 9576 9577 9578 9579 9580 9581 9582 9583 9584 9585 9586 9587 9588 9589 9590 9591 9592 9593 9594 9595 9596 9597 9598 9599 9600 9601 9602 9603 9604 9605 9606 9607 9608 9609 9610 9611 9612 9613 9614 9615 9616 9617 9618 9619 9620 9621 9622 9623 9624 9625 9626 9627 9628 9629 9630 9631 9632 9633 9634 9635 9636 9637 9638 9639 9640 9641 9642 9643 9644 9645 9646 9647 9648 9649 9650 9651 9652 9653 9654 9655 9656 9657 9658 9659 9660 9661 9662 9663 9664 9665 9666 9667 9668 9669 9670 9671 9672 9673 9674 9675 9676 9677 9678 9679 9680 9681 9682 9683 9684 9685 9686 9687 9688 9689 9690 9691 9692 9693 9694 9695 9696 9697 9698 9699 9700 9701 9702 9703 9704 9705 9706 9707 9708 9709 9710 9711 9712 9713 9714 9715 9716 9717 9718 9719 9720 9721 9722 9723 9724 9725 9726 9727 9728 9729 9730 9731 9732 9733 9734 9735 9736 9737 9738 9739 9740 9741 9742 9743 9744 9745 9746 9747 9748 9749 9750 9751 9752 9753 9754 9755 9756 9757 9758 9759 9760 9761 9762 9763 9764 9765 9766 9767 9768 9769 9770 9771 9772 9773 9774 9775 9776 9777 9778 9779 9780 9781 9782 9783 9784 9785 9786 9787 9788 9789 9790 9791 9792 9793 9794 9795 9796 9797 9798 9799 9800 9801 9802 9803 9804 9805 9806 9807 9808 9809 9810 9811 9812 9813 9814 9815 9816 9817 9818 9819 9820 9821 9822 9823 9824 9825 9826 9827 9828 9829 9830 9831 9832 9833 9834 9835 9836 9837 9838 9839 9840 9841 9842 9843 9844 9845 9846 9847 9848 9849 9850 9851 9852 9853 9854 9855 9856 9857 9858 9859 9860 9861 9862 9863 9864 9865 9866 9867 9868 9869 9870 9871 9872 9873 9874 9875 9876 9877 9878 9879 9880 9881 9882 9883 9884 9885 9886 9887 9888 9889 9890 9891 9892 9893 9894 9895 9896 9897 9898 9899 9900 9901 9902 9903 9904 9905 9906 9907 9908 9909 9910 9911 9912 9913 9914 9915 9916 9917 9918 9919 9920 9921 9922 9923 9924 9925 9926 9927 9928 9929 9930 9931 9932 9933 9934 9935 9936 9937 9938 9939 9940 9941 9942 9943 9944 9945 9946 9947 9948 9949 9950 9951 9952 9953 9954 9955 9956 9957 9958 9959 9960 9961 9962 9963 9964 9965 9966 9967 9968 9969 9970 9971 9972 9973 9974 9975 9976 9977 9978 9979 9980 9981 9982 9983 9984 9985 9986 9987 9988 9989 9990 9991 9992 9993 9994 9995 9996 9997 9998 9999 10000 10001 10002 10003 10004 10005 10006 10007 10008 10009 10010 10011 10012 10013 10014 10015 10016 10017 10018 10019 10020 10021 10022 10023 10024 10025 10026 10027 10028 10029 10030 10031 10032 10033 10034 10035 10036 10037 10038 10039 10040 10041 10042 10043 10044 10045 10046 10047 10048 10049 10050 10051 10052 10053 10054 10055 10056 10057 10058 10059 10060 10061 10062 10063 10064 10065 10066 10067 10068 10069 10070 10071 10072 10073 10074 10075 10076 10077 10078 10079 10080 10081 10082 10083 10084 10085 10086 10087 10088 10089 10090 10091 10092 10093 10094 10095 10096 10097 10098 10099 10100 10101 10102 10103 10104 10105 10106 10107 10108 10109 10110 10111 10112 10113 10114 10115 10116 10117 10118 10119 10120 10121 10122 10123 10124 10125 10126 10127 10128 10129 10130 10131 10132 10133 10134 10135 10136 10137 10138 10139 10140 10141 10142 10143 10144 10145 10146 10147 10148 10149 10150 10151 10152 10153 10154 10155 10156 10157 10158 10159 10160 10161 10162 10163 10164 10165 10166 10167 10168 10169 10170 10171 10172 10173 10174 10175 10176 10177 10178 10179 10180 10181 10182 10183 10184 10185 10186 10187 10188 10189 10190 10191 10192 10193 10194 10195 10196 10197 10198 10199 10200 10201 10202 10203 10204 10205 10206 10207 10208 10209 10210 10211 10212 10213 10214 10215 10216 10217 10218 10219 10220 10221 10222 10223 10224 10225 10226 10227 10228 10229 10230 10231 10232 10233 10234 10235 10236 10237 10238 10239 10240 10241 10242 10243 10244 10245 10246 10247 10248 10249 10250 10251 10252 10253 10254 10255 10256 10257 10258 10259 10260 10261 10262 10263 10264 10265 10266 10267 10268 10269 10270 10271 10272 10273 10274 10275 10276 10277 10278 10279 10280 10281 10282 10283 10284 10285 10286 10287 10288 10289 10290 10291 10292 10293 10294 10295 10296 10297 10298 10299 10300 10301 10302 10303 10304 10305 10306 10307 10308 10309 10310 10311 10312 10313 10314 10315 10316 10317 10318 10319 10320 10321 10322 10323 10324 10325 10326 10327 10328 10329 10330 10331 10332 10333 10334 10335 10336 10337 10338 10339 10340 10341 10342 10343 10344 10345 10346 10347 10348 10349 10350 10351 10352 10353 10354 10355 10356 10357 10358 10359 10360 10361 10362 10363 10364 10365 10366 10367 10368 10369 10370 10371 10372 10373 10374 10375 10376 10377 10378 10379 10380 10381 10382 10383 10384 10385 10386 10387 10388 10389 10390 10391 10392 10393 10394 10395 10396 10397 10398 10399 10400 10401 10402 10403 10404 10405 10406 10407 10408 10409 10410 10411 10412 10413 10414 10415 10416 10417 10418 10419 10420 10421 10422 10423 10424 10425 10426 10427 10428 10429 10430 10431 10432 10433 10434 10435 10436 10437 10438 10439 10440 10441 10442 10443 10444 10445 10446 10447 10448 10449 10450 10451 10452 10453 10454 10455 10456 10457 10458 10459 10460 10461 10462 10463 10464 10465 10466 10467 10468 10469 10470 10471 10472 10473 10474 10475 10476 10477 10478 10479 10480 10481 10482 10483 10484 10485 10486 10487 10488 10489 10490 10491 10492 10493 10494 10495 10496 10497 10498 10499 10500 10501 10502 10503 10504 10505 10506 10507 10508 10509 10510 10511 10512 10513 10514 10515 10516 10517 10518 10519 10520 10521 10522 10523 10524 10525 10526 10527 10528 10529 10530 10531 10532 10533 10534 10535 10536 10537 10538 10539 10540 10541 10542 10543 10544 10545 10546 10547 10548 10549 10550 10551 10552 10553 10554 10555 10556 10557 10558 10559 10560 10561 10562 10563 10564 10565 10566 10567 10568 10569 10570 10571 10572 10573 10574 10575 10576 10577 10578 10579 10580 10581 10582 10583 10584 10585 10586 10587 10588 10589 10590 10591 10592 10593 10594 10595 10596 10597 10598 10599 10600 10601 10602 10603 10604 10605 10606 10607 10608 10609 10610 10611 10612 10613 10614 10615 10616 10617 10618 10619 10620 10621 10622 10623 10624 10625 10626 10627 10628 10629 10630 10631 10632 10633 10634 10635 10636 10637 10638 10639 10640 10641 10642 10643 10644 10645 10646 10647 10648 10649 10650 10651 10652 10653 10654 10655 10656 10657 10658 10659 10660 10661 10662 10663 10664 10665 10666 10667 10668 10669 10670 10671 10672 10673 10674 10675 10676 10677 10678 10679 10680 10681 10682 10683 10684 10685 10686 10687 10688 10689 10690 10691 10692 10693 10694 10695 10696 10697 10698 10699 10700 10701 10702 10703 10704 10705 10706 10707 10708 10709 10710 10711 10712 10713 10714 10715 10716 10717 10718 10719 10720 10721 10722 10723 10724 10725 10726 10727 10728 10729 10730 10731 10732 10733 10734 10735 10736 10737 10738 10739 10740 10741 10742 10743 10744 10745 10746 10747 10748 10749 10750 10751 10752 10753 10754 10755 10756 10757 10758 10759 10760 10761 10762 10763 10764 10765 10766 10767 10768 10769 10770 10771 10772 10773 10774 10775 10776 10777 10778 10779 10780 10781 10782 10783 10784 10785 10786 10787 10788 10789 10790 10791 10792 10793 10794 10795 10796 10797 10798 10799 10800 10801 10802 10803 10804 10805 10806 10807 10808 10809 10810 10811 10812 10813 10814 10815 10816 10817 10818 10819 10820 10821 10822 10823 10824 10825 10826 10827 10828 10829 10830 10831 10832 10833 10834 10835 10836 10837 10838 10839 10840 10841 10842 10843 10844 10845 10846 10847 10848 10849 10850 10851 10852 10853 10854 10855 10856 10857 10858 10859 10860 10861 10862 10863 10864 10865 10866 10867 10868 10869 10870 10871 10872 10873 10874 10875 10876 10877 10878 10879 10880 10881 10882 10883 10884 10885 10886 10887 10888 10889 10890 10891 10892 10893 10894 10895 10896 10897 10898 10899 10900 10901 10902 10903 10904 10905 10906 10907 10908 10909 10910 10911 10912 10913 10914 10915 10916 10917 10918 10919 10920 10921 10922 10923 10924 10925 10926 10927 10928 10929 10930 10931 10932 10933 10934 10935 10936 10937 10938 10939 10940 10941 10942 10943 10944 10945 10946 10947 10948 10949 10950 10951 10952 10953 10954 10955 10956 10957 10958 10959 10960 10961 10962 10963 10964 10965 10966 10967 10968 10969 10970 10971 10972 10973 10974 10975 10976 10977 10978 10979 10980 10981 10982 10983 10984 10985 10986 10987 10988 10989 10990 10991 10992 10993 10994 10995 10996 10997 10998 10999 11000 11001 11002 11003 11004 11005 11006 11007 11008 11009 11010 11011 11012 11013 11014 11015 11016 11017 11018 11019 11020 11021 11022 11023 11024 11025 11026 11027 11028 11029 11030 11031 11032 11033 11034 11035 11036 11037 11038 11039 11040 11041 11042 11043 11044 11045 11046 11047 11048 11049 11050 11051 11052 11053 11054 11055 11056 11057 11058 11059 11060 11061 11062 11063 11064 11065 11066 11067 11068 11069 11070 11071 11072 11073 11074 11075 11076 11077 11078 11079 11080 11081 11082 11083 11084 11085 11086 11087 11088 11089 11090 11091 11092 11093 11094 11095 11096 11097 11098 11099 11100 11101 11102 11103 11104 11105 11106 11107 11108 11109 11110 11111 11112 11113 11114 11115 11116 11117 11118 11119 11120 11121 11122 11123 11124 11125 11126 11127 11128 11129 11130 11131 11132 11133 11134 11135 11136 11137 11138 11139 11140 11141 11142 11143 11144 11145 11146 11147 11148 11149 11150 11151 11152 11153 11154 11155 11156 11157 11158 11159 11160 11161 11162 11163 11164 11165 11166 11167 11168 11169 11170 11171 11172 11173 11174 11175 11176 11177 11178 11179 11180 11181 11182 11183 11184 11185 11186 11187 11188 11189 11190 11191 11192 11193 11194 11195 11196 11197 11198 11199 11200 11201 11202 11203 11204 11205 11206 11207 11208 11209 11210 11211 11212 11213 11214 11215 11216 11217 11218 11219 11220 11221 11222 11223 11224 11225 11226 11227 11228 11229 11230 11231 11232 11233 11234 11235 11236 11237 11238 11239 11240 11241 11242 11243 11244 11245 11246 11247 11248 11249 11250 11251 11252 11253 11254 11255 11256 11257 11258 11259 11260 11261 11262 11263 11264 11265 11266 11267 11268 11269 11270 11271 11272 11273 11274 11275 11276 11277 11278 11279 11280 11281 11282 11283 11284 11285 11286 11287 11288 11289 11290 11291 11292 11293 11294 11295 11296 11297 11298 11299 11300 11301 11302 11303 11304 11305 11306 11307 11308 11309 11310 11311 11312 11313 11314 11315 11316 11317 11318 11319 11320 11321 11322 11323 11324 11325 11326 11327 11328 11329 11330 11331 11332 11333 11334 11335 11336 11337 11338 11339 11340 11341 11342 11343 11344 11345 11346 11347 11348 11349 11350 11351 11352 11353 11354 11355 11356 11357 11358 11359 11360 11361 11362 11363 11364 11365 11366 11367 11368 11369 11370 11371 11372 11373 11374 11375 11376 11377 11378 11379 11380 11381 11382 11383 11384 11385 11386 11387 11388 11389 11390 11391 11392 11393 11394 11395 11396 11397 11398 11399 11400 11401 11402 11403 11404 11405 11406 11407 11408 11409 11410 11411 11412 11413 11414 11415 11416 11417 11418 11419 11420 11421 11422 11423 11424 11425 11426 11427 11428 11429 11430 11431 11432 11433 11434 11435 11436 11437 11438 11439 11440 11441 11442 11443 11444 11445 11446 11447 11448 11449 11450 11451 11452 11453 11454 11455 11456 11457 11458 11459 11460 11461 11462 11463 11464 11465 11466 11467 11468 11469 11470 11471 11472 11473 11474 11475 11476 11477 11478 11479 11480 11481 11482 11483 11484 11485 11486 11487 11488 11489 11490 11491 11492 11493 11494 11495 11496 11497 11498 11499 11500 11501 11502 11503 11504 11505 11506 11507 11508 11509 11510 11511 11512 11513 11514 11515 11516 11517 11518 11519 11520 11521 11522 11523 11524 11525 11526 11527 11528 11529 11530 11531 11532 11533 11534 11535 11536 11537 11538 11539 11540 11541 11542 11543 11544 11545 11546 11547 11548 11549 11550 11551 11552 11553 11554 11555 11556 11557 11558 11559 11560 11561 11562 11563 11564 11565 11566 11567 11568 11569 11570 11571 11572 11573 11574 11575 11576 11577 11578 11579 11580 11581 11582 11583 11584 11585 11586 11587 11588 11589 11590 11591 11592 11593 11594 11595 11596 11597 11598 11599 11600 11601 11602 11603 11604 11605 11606 11607 11608 11609 11610 11611 11612 11613 11614 11615 11616 11617 11618 11619 11620 11621 11622 11623 11624 11625 11626 11627 11628 11629 11630 11631 11632 11633 11634 11635 11636 11637 11638 11639 11640 11641 11642 11643 11644 11645 11646 11647 11648 11649 11650 11651 11652 11653 11654 11655 11656 11657 11658 11659 11660 11661 11662 11663 11664 11665 11666 11667 11668 11669 11670 11671 11672 11673 11674 11675 11676 11677 11678 11679 11680 11681 11682 11683 11684 11685 11686 11687 11688 11689 11690 11691 11692 11693 11694 11695 11696 11697 11698 11699 11700 11701 11702 11703 11704 11705 11706 11707 11708 11709 11710 11711 11712 11713 11714 11715 11716 11717 11718 11719 11720 11721 11722 11723 11724 11725 11726 11727 11728 11729 11730 11731 11732 11733 11734 11735 11736 11737 11738 11739 11740 11741 11742 11743 11744 11745 11746 11747 11748 11749 11750 11751 11752 11753 11754 11755 11756 11757 11758 11759 11760 11761 11762 11763 11764 11765 11766 11767 11768 11769 11770 11771 11772 11773 11774 11775 11776 11777 11778 11779 11780 11781 11782 11783 11784 11785 11786 11787 11788 11789 11790 11791 11792 11793 11794 11795 11796 11797 11798 11799 11800 11801 11802 11803 11804 11805 11806 11807 11808 11809 11810 11811 11812 11813 11814 11815 11816 11817 11818 11819 11820 11821 11822 11823 11824 11825 11826 11827 11828 11829 11830 11831 11832 11833 11834 11835 11836 11837 11838 11839 11840 11841 11842 11843 11844 11845 11846 11847 11848 11849 11850 11851 11852 11853 11854 11855 11856 11857 11858 11859 11860 11861 11862 11863 11864 11865 11866 11867 11868 11869 11870 11871 11872 11873 11874 11875 11876 11877 11878 11879 11880 11881 11882 11883 11884 11885 11886 11887 11888 11889 11890 11891 11892 11893 11894 11895 11896 11897 11898 11899 11900 11901 11902 11903 11904 11905 11906 11907 11908 11909 11910 11911 11912 11913 11914 11915 11916 11917 11918 11919 11920 11921 11922 11923 11924 11925 11926 11927 11928 11929 11930 11931 11932 11933 11934 11935 11936 11937 11938 11939 11940 11941 11942 11943 11944 11945 11946 11947 11948 11949 11950 11951 11952 11953 11954 11955 11956 11957 11958 11959 11960 11961 11962 11963 11964 11965 11966 11967 11968 11969 11970 11971 11972 11973 11974 11975 11976 11977 11978 11979 11980 11981 11982 11983 11984 11985 11986 11987 11988 11989 11990 11991 11992 11993 11994 11995 11996 11997 11998 11999 12000 12001 12002 12003 12004 12005 12006 12007 12008 12009 12010 12011 12012 12013 12014 12015 12016 12017 12018 12019 12020 12021 12022 12023 12024 12025 12026 12027 12028 12029 12030 12031 12032 12033 12034 12035 12036 12037 12038 12039 12040 12041 12042 12043 12044 12045 12046 12047 12048 12049 12050 12051 12052 12053 12054 12055 12056 12057 12058 12059 12060 12061 12062 12063 12064 12065 12066 12067 12068 12069 12070 12071 12072 12073 12074 12075 12076 12077 12078 12079 12080 12081 12082 12083 12084 12085 12086 12087 12088 12089 12090 12091 12092 12093 12094 12095 12096 12097 12098 12099 12100 12101 12102 12103 12104 12105 12106 12107 12108 12109 12110 12111 12112 12113 12114 12115 12116 12117 12118 12119 12120 12121 12122 12123 12124 12125 12126 12127 12128 12129 12130 12131 12132 12133 12134 12135 12136 12137 12138 12139 12140 12141 12142 12143 12144 12145 12146 12147 12148 12149 12150 12151 12152 12153 12154 12155 12156 12157 12158 12159 12160 12161 12162 12163 12164 12165 12166 12167 12168 12169 12170 12171 12172 12173 12174 12175 12176 12177 12178 12179 12180 12181 12182 12183 12184 12185 12186 12187 12188 12189 12190 12191 12192 12193 12194 12195 12196 12197 12198 12199 12200 12201 12202 12203 12204 12205 12206 12207 12208 12209 12210 12211 12212 12213 12214 12215 12216 12217 12218 12219 12220 12221 12222 12223 12224 12225 12226 12227 12228 12229 12230 12231 12232 12233 12234 12235 12236 12237 12238 12239 12240 12241 12242 12243 12244 12245 12246 12247 12248 12249 12250 12251 12252 12253 12254 12255 12256 12257 12258 12259 12260 12261 12262 12263 12264 12265 12266 12267 12268 12269 12270 12271 12272 12273 12274 12275 12276 12277 12278 12279 12280 12281 12282 12283 12284 12285 12286 12287 12288 12289 12290 12291 12292 12293 12294 12295 12296 12297 12298 12299 12300 12301 12302 12303 12304 12305 12306 12307 12308 12309 12310 12311 12312 12313 12314 12315 12316 12317 12318 12319 12320 12321 12322 12323 12324 12325 12326 12327 12328 12329 12330 12331 12332 12333 12334 12335 12336 12337 12338 12339 12340 12341 12342 12343 12344 12345 12346 12347 12348 12349 12350 12351 12352 12353 12354 12355 12356 12357 12358 12359 12360 12361 12362 12363 12364 12365 12366 12367 12368 12369 12370 12371 12372 12373 12374 12375 12376 12377 12378 12379 12380 12381 12382 12383 12384 12385 12386 12387 12388 12389 12390 12391 12392 12393 12394 12395 12396 12397 12398 12399 12400 12401 12402 12403 12404 12405 12406 12407 12408 12409 12410 12411 12412 12413 12414 12415 12416 12417 12418 12419 12420 12421 12422 12423 12424 12425 12426 12427 12428 12429 12430 12431 12432 12433 12434 12435 12436 12437 12438 12439 12440 12441 12442 12443 12444 12445 12446 12447 12448 12449 12450 12451 12452 12453 12454 12455 12456 12457 12458 12459 12460 12461 12462 12463 12464 12465 12466 12467 12468 12469 12470 12471 12472 12473 12474 12475 12476 12477 12478 12479 12480 12481 12482 12483 12484 12485 12486 12487 12488 12489 12490 12491 12492 12493 12494 12495 12496 12497 12498 12499 12500 12501 12502 12503 12504 12505 12506 12507 12508 12509 12510 12511 12512 12513 12514 12515 12516 12517 12518 12519 12520 12521 12522 12523 12524 12525 12526 12527 12528 12529 12530 12531 12532 12533 12534 12535 12536 12537 12538 12539 12540 12541 12542 12543 12544 12545 12546 12547 12548 12549 12550 12551 12552 12553 12554 12555 12556 12557 12558 12559 12560 12561 12562 12563 12564 12565 12566 12567 12568 12569 12570 12571 12572 12573 12574 12575 12576 12577 12578 12579 12580 12581 12582 12583 12584 12585 12586 12587 12588 12589 12590 12591 12592 12593 12594 12595 12596 12597 12598 12599 12600 12601 12602 12603 12604 12605 12606 12607 12608 12609 12610 12611 12612 12613 12614 12615 12616 12617 12618 12619 12620 12621 12622 12623 12624 12625 12626 12627 12628 12629 12630 12631 12632 12633 12634 12635 12636 12637 12638 12639 12640 12641 12642 12643 12644 12645 12646 12647 12648 12649 12650 12651 12652 12653 12654 12655 12656 12657 12658 12659 12660 12661 12662 12663 12664 12665 12666 12667 12668 12669 12670 12671 12672 12673 12674 12675 12676 12677 12678 12679 12680 12681 12682 12683 12684 12685 12686 12687 12688 12689 12690 12691 12692 12693 12694 12695 12696 12697 12698 12699 12700 12701 12702 12703 12704 12705 12706 12707 12708 12709 12710 12711 12712 12713 12714 12715 12716 12717 12718 12719 12720 12721 12722 12723 12724 12725 12726 12727 12728 12729 12730 12731 12732 12733 12734 12735 12736 12737 12738 12739 12740 12741 12742 12743 12744 12745 12746 12747 12748 12749 12750 12751 12752 12753 12754 12755 12756 12757 12758 12759 12760 12761 12762 12763 12764 12765 12766 12767 12768 12769 12770 12771 12772 12773 12774 12775 12776 12777 12778 12779 12780 12781 12782 12783 12784 12785 12786 12787 12788 12789 12790 12791 12792 12793 12794 12795 12796 12797 12798 12799 12800 12801 12802 12803 12804 12805 12806 12807 12808 12809 12810 12811 12812 12813 12814 12815 12816 12817 12818 12819 12820 12821 12822 12823 12824 12825 12826 12827 12828 12829 12830 12831 12832 12833 12834 12835 12836 12837 12838 12839 12840 12841 12842 12843 12844 12845 12846 12847 12848 12849 12850 12851 12852 12853 12854 12855 12856 12857 12858 12859 12860 12861 12862 12863 12864 12865 12866 12867 12868 12869 12870 12871 12872 12873 12874 12875 12876 12877 12878 12879 12880 12881 12882 12883 12884 12885 12886 12887 12888 12889 12890 12891 12892 12893 12894 12895 12896 12897 12898 12899 12900 12901 12902 12903 12904 12905 12906 12907 12908 12909 12910 12911 12912 12913 12914 12915 12916 12917 12918 12919 12920 12921 12922 12923 12924 12925 12926 12927 12928 12929 12930 12931 12932 12933 12934 12935 12936 12937 12938 12939 12940 12941 12942 12943 12944 12945 12946 12947 12948 12949 12950 12951 12952 12953 12954 12955 12956 12957 12958 12959 12960 12961 12962 12963 12964 12965 12966 12967 12968 12969 12970 12971 12972 12973 12974 12975 12976 12977 12978 12979 12980 12981 12982 12983 12984 12985 12986 12987 12988 12989 12990 12991 12992 12993 12994 12995 12996 12997 12998 12999 13000 13001 13002 13003 13004 13005 13006 13007 13008 13009 13010 13011 13012 13013 13014 13015 13016 13017 13018 13019 13020 13021 13022 13023 13024 13025 13026 13027 13028 13029 13030 13031 13032 13033 13034 13035 13036 13037 13038 13039 13040 13041 13042 13043 13044 13045 13046 13047 13048 13049 13050 13051 13052 13053 13054 13055 13056 13057 13058 13059 13060 13061 13062 13063 13064 13065 13066 13067 13068 13069 13070 13071 13072 13073 13074 13075 13076 13077 13078 13079 13080 13081 13082 13083 13084 13085 13086 13087 13088 13089 13090 13091 13092 13093 13094 13095 13096 13097 13098 13099 13100 13101 13102 13103 13104 13105 13106 13107 13108 13109 13110 13111 13112 13113 13114 13115 13116 13117 13118 13119 13120 13121 13122 13123 13124 13125 13126 13127 13128 13129 13130 13131 13132 13133 13134 13135 13136 13137 13138 13139 13140 13141 13142 13143 13144 13145 13146 13147 13148 13149 13150 13151 13152 13153 13154 13155 13156 13157 13158 13159 13160 13161 13162 13163 13164 13165 13166 13167 13168 13169 13170 13171 13172 13173 13174 13175 13176 13177 13178 13179 13180 13181 13182 13183 13184 13185 13186 13187 13188 13189 13190 13191 13192 13193 13194 13195 13196 13197 13198 13199 13200 13201 13202 13203 13204 13205 13206 13207 13208 13209 13210 13211 13212 13213 13214 13215 13216 13217 13218 13219 13220 13221 13222 13223 13224 13225 13226 13227 13228 13229 13230 13231 13232 13233 13234 13235 13236 13237 13238 13239 13240 13241 13242 13243 13244 13245 13246 13247 13248 13249 13250 13251 13252 13253 13254 13255 13256 13257 13258 13259 13260 13261 13262 13263 13264 13265 13266 13267 13268 13269 13270 13271 13272 13273 13274 13275 13276 13277 13278 13279 13280 13281 13282 13283 13284 13285 13286 13287 13288 13289 13290 13291 13292 13293 13294 13295 13296 13297 13298 13299 13300 13301 13302 13303 13304 13305 13306 13307 13308 13309 13310 13311 13312 13313 13314 13315 13316 13317 13318 13319 13320 13321 13322 13323 13324 13325 13326 13327 13328 13329 13330 13331 13332 13333 13334 13335 13336 13337 13338 13339 13340 13341 13342 13343 13344 13345 13346 13347 13348 13349 13350 13351 13352 13353 13354 13355 13356 13357 13358 13359 13360 13361 13362 13363 13364 13365 13366 13367 13368 13369 13370 13371 13372 13373 13374 13375 13376 13377 13378 13379 13380 13381 13382 13383 13384 13385 13386 13387 13388 13389 13390 13391 13392 13393 13394 13395 13396 13397 13398 13399 13400 13401 13402 13403 13404 13405 13406 13407 13408 13409 13410 13411 13412 13413 13414 13415 13416 13417 13418 13419 13420 13421 13422 13423 13424 13425 13426 13427 13428 13429 13430 13431 13432 13433 13434 13435 13436 13437 13438 13439 13440 13441 13442 13443 13444 13445 13446 13447 13448 13449 13450 13451 13452 13453 13454 13455 13456 13457 13458 13459 13460 13461 13462 13463 13464 13465 13466 13467 13468 13469 13470 13471 13472 13473 13474 13475 13476 13477 13478 13479 13480 13481 13482 13483 13484 13485 13486 13487 13488 13489 13490 13491 13492 13493 13494 13495 13496 13497 13498 13499 13500 13501 13502 13503 13504 13505 13506 13507 13508 13509 13510 13511 13512 13513 13514 13515 13516 13517 13518 13519 13520 13521 13522 13523 13524 13525 13526 13527 13528 13529 13530 13531 13532 13533 13534 13535 13536 13537 13538 13539 13540 13541 13542 13543 13544 13545 13546 13547 13548 13549 13550 13551 13552 13553 13554 13555 13556 13557 13558 13559 13560 13561 13562 13563 13564 13565 13566 13567 13568 13569 13570 13571 13572 13573 13574 13575 13576 13577 13578 13579 13580 13581 13582 13583 13584 13585 13586 13587 13588 13589 13590 13591 13592 13593 13594 13595 13596 13597 13598 13599 13600 13601 13602 13603 13604 13605 13606 13607 13608 13609 13610 13611 13612 13613 13614 13615 13616 13617 13618 13619 13620 13621 13622 13623 13624 13625 13626 13627 13628 13629 13630 13631 13632 13633 13634 13635 13636 13637 13638 13639 13640 13641 13642 13643 13644 13645 13646 13647 13648 13649 13650 13651 13652 13653 13654 13655 13656 13657 13658 13659 13660 13661 13662 13663 13664 13665 13666 13667 13668 13669 13670 13671 13672 13673 13674 13675 13676 13677 13678 13679 13680 13681 13682 13683 13684 13685 13686 13687 13688 13689 13690 13691 13692 13693 13694 13695 13696 13697 13698 13699 13700 13701 13702 13703 13704 13705 13706 13707 13708 13709 13710 13711 13712 13713 13714 13715 13716 13717 13718 13719 13720 13721 13722 13723 13724 13725 13726 13727 13728 13729 13730 13731 13732 13733 13734 13735 13736 13737 13738 13739 13740 13741 13742 13743 13744 13745 13746 13747 13748 13749 13750 13751 13752 13753 13754 13755 13756 13757 13758 13759 13760 13761 13762 13763 13764 13765 13766 13767 13768 13769 13770 13771 13772 13773 13774 13775 13776 13777 13778 13779 13780 13781 13782 13783 13784 13785 13786 13787 13788 13789 13790 13791 13792 13793 13794 13795 13796 13797 13798 13799 13800 13801 13802 13803 13804 13805 13806 13807 13808 13809 13810 13811 13812 13813 13814 13815 13816 13817 13818 13819 13820 13821 13822 13823 13824 13825 13826 13827 13828 13829 13830 13831 13832 13833 13834 13835 13836 13837 13838 13839 13840 13841 13842 13843 13844 13845 13846 13847 13848 13849 13850 13851 13852 13853 13854 13855 13856 13857 13858 13859 13860 13861 13862 13863 13864 13865 13866 13867 13868 13869 13870 13871 13872 13873 13874 13875 13876 13877 13878 13879 13880 13881 13882 13883 13884 13885 13886 13887 13888 13889 13890 13891 13892 13893 13894 13895 13896 13897 13898 13899 13900 13901 13902 13903 13904 13905 13906 13907 13908 13909 13910 13911 13912 13913 13914 13915 13916 13917 13918 13919 13920 13921 13922 13923 13924 13925 13926 13927 13928 13929 13930 13931 13932 13933 13934 13935 13936 13937 13938 13939 13940 13941 13942 13943 13944 13945 13946 13947 13948 13949 13950 13951 13952 13953 13954 13955 13956 13957 13958 13959 13960 13961 13962 13963 13964 13965 13966 13967 13968 13969 13970 13971 13972 13973 13974 13975 13976 13977 13978 13979 13980 13981 13982 13983 13984 13985 13986 13987 13988 13989 13990 13991 13992 13993 13994 13995 13996 13997 13998 13999 14000 14001 14002 14003 14004 14005 14006 14007 14008 14009 14010 14011 14012 14013 14014 14015 14016 14017 14018 14019 14020 14021 14022 14023 14024 14025 14026 14027 14028 14029 14030 14031 14032 14033 14034 14035 14036 14037 14038 14039 14040 14041 14042 14043 14044 14045 14046 14047 14048 14049 14050 14051 14052 14053 14054 14055 14056 14057 14058 14059 14060 14061 14062 14063 14064 14065 14066 14067 14068 14069 14070 14071 14072 14073 14074 14075 14076 14077 14078 14079 14080 14081 14082 14083 14084 14085 14086 14087 14088 14089 14090 14091 14092 14093 14094 14095 14096 14097 14098 14099 14100 14101 14102 14103 14104 14105 14106 14107 14108 14109 14110 14111 14112 14113 14114 14115 14116 14117 14118 14119 14120 14121 14122 14123 14124 14125 14126 14127 14128 14129 14130 14131 14132 14133 14134 14135 14136 14137 14138 14139 14140 14141 14142 14143 14144 14145 14146 14147 14148 14149 14150 14151 14152 14153 14154 14155 14156 14157 14158 14159 14160 14161 14162 14163 14164 14165 14166 14167 14168 14169 14170 14171 14172 14173 14174 14175 14176 14177 14178 14179 14180 14181 14182 14183 14184 14185 14186 14187 14188 14189 14190 14191 14192 14193 14194 14195 14196 14197 14198 14199 14200 14201 14202 14203 14204 14205 14206 14207 14208 14209 14210 14211 14212 14213 14214 14215 14216 14217 14218 14219 14220 14221 14222 14223 14224 14225 14226 14227 14228 14229 14230 14231 14232 14233 14234 14235 14236 14237 14238 14239 14240 14241 14242 14243 14244 14245 14246 14247 14248 14249 14250 14251 14252 14253 14254 14255 14256 14257 14258 14259 14260 14261 14262 14263 14264 14265 14266 14267 14268 14269 14270 14271 14272 14273 14274 14275 14276 14277 14278 14279 14280 14281 14282 14283 14284 14285 14286 14287 14288 14289 14290 14291 14292 14293 14294 14295 14296 14297 14298 14299 14300 14301 14302 14303 14304 14305 14306 14307 14308 14309 14310 14311 14312 14313 14314 14315 14316 14317 14318 14319 14320 14321 14322 14323 14324 14325 14326 14327 14328 14329 14330 14331 14332 14333 14334 14335 14336 14337 14338 14339 14340 14341 14342 14343 14344 14345 14346 14347 14348 14349 14350 14351 14352 14353 14354 14355 14356 14357 14358 14359 14360 14361 14362 14363 14364 14365 14366 14367 14368 14369 14370 14371 14372 14373 14374 14375 14376 14377 14378 14379 14380 14381 14382 14383 14384 14385 14386 14387 14388 14389 14390 14391 14392 14393 14394 14395 14396 14397 14398 14399 14400 14401 14402 14403 14404 14405 14406 14407 14408 14409 14410 14411 14412 14413 14414 14415 14416 14417 14418 14419 14420 14421 14422 14423 14424 14425 14426 14427 14428 14429 14430 14431 14432 14433 14434 14435 14436 14437 14438 14439 14440 14441 14442 14443 14444 14445 14446 14447 14448 14449 14450 14451 14452 14453 14454 14455 14456 14457 14458 14459 14460 14461 14462 14463 14464 14465 14466 14467 14468 14469 14470 14471 14472 14473 14474 14475 14476 14477 14478 14479 14480 14481 14482 14483 14484 14485 14486 14487 14488 14489 14490 14491 14492 14493 14494 14495 14496 14497 14498 14499 14500 14501 14502 14503 14504 14505 14506 14507 14508 14509 14510 14511 14512 14513 14514 14515 14516 14517 14518 14519 14520 14521 14522 14523 14524 14525 14526 14527 14528 14529 14530 14531 14532 14533 14534 14535 14536 14537 14538 14539 14540 14541 14542 14543 14544 14545 14546 14547 14548 14549 14550 14551 14552 14553 14554 14555 14556 14557 14558 14559 14560 14561 14562 14563 14564 14565 14566 14567 14568 14569 14570 14571 14572 14573 14574 14575 14576 14577 14578 14579 14580 14581 14582 14583 14584 14585 14586 14587 14588 14589 14590 14591 14592 14593 14594 14595 14596 14597 14598 14599 14600 14601 14602 14603 14604 14605 14606 14607 14608 14609 14610 14611 14612 14613 14614 14615 14616 14617 14618 14619 14620 14621 14622 14623 14624 14625 14626 14627 14628 14629 14630 14631 14632 14633 14634 14635 14636 14637 14638 14639 14640 14641 14642 14643 14644 14645 14646 14647 14648 14649 14650 14651 14652 14653 14654 14655 14656 14657 14658 14659 14660 14661 14662 14663 14664 14665 14666 14667 14668 14669 14670 14671 14672 14673 14674 14675 14676 14677 14678 14679 14680 14681 14682 14683 14684 14685 14686 14687 14688 14689 14690 14691 14692 14693 14694 14695 14696 14697 14698 14699 14700 14701 14702 14703 14704 14705 14706 14707 14708 14709 14710 14711 14712 14713 14714 14715 14716 14717 14718 14719 14720 14721 14722 14723 14724 14725 14726 14727 14728 14729 14730 14731 14732 14733 14734 14735 14736 14737 14738 14739 14740 14741 14742 14743 14744 14745 14746 14747 14748 14749 14750 14751 14752 14753 14754 14755 14756 14757 14758 14759 14760 14761 14762 14763 14764 14765 14766 14767 14768 14769 14770 14771 14772 14773 14774 14775 14776 14777 14778 14779 14780 14781 14782 14783 14784 14785 14786 14787 14788 14789 14790 14791 14792 14793 14794 14795 14796 14797 14798 14799 14800 14801 14802 14803 14804 14805 14806 14807 14808 14809 14810 14811 14812 14813 14814 14815 14816 14817 14818 14819 14820 14821 14822 14823 14824 14825 14826 14827 14828 14829 14830 14831 14832 14833 14834 14835 14836 14837 14838 14839 14840 14841 14842 14843 14844 14845 14846 14847 14848 14849 14850 14851 14852 14853 14854 14855 14856 14857 14858 14859 14860 14861 14862 14863 14864 14865 14866 14867 14868 14869 14870 14871 14872 14873 14874 14875 14876 14877 14878 14879 14880 14881 14882 14883 14884 14885 14886 14887 14888 14889 14890 14891 14892 14893 14894 14895 14896 14897 14898 14899 14900 14901 14902 14903 14904 14905 14906 14907 14908 14909 14910 14911 14912 14913 14914 14915 14916 14917 14918 14919 14920 14921 14922 14923 14924 14925 14926 14927 14928 14929 14930 14931 14932 14933 14934 14935 14936 14937 14938 14939 14940 14941 14942 14943 14944 14945 14946 14947 14948 14949 14950 14951 14952 14953 14954 14955 14956 14957 14958 14959 14960 14961 14962 14963 14964 14965 14966 14967 14968 14969 14970 14971 14972 14973 14974 14975 14976 14977 14978 14979 14980 14981 14982 14983 14984 14985 14986 14987 14988 14989 14990 14991 14992 14993 14994 14995 14996 14997 14998 14999 15000 15001 15002 15003 15004 15005 15006 15007 15008 15009 15010 15011 15012 15013 15014 15015 15016 15017 15018 15019 15020 15021 15022 15023 15024 15025 15026 15027 15028 15029 15030 15031 15032 15033 15034 15035 15036 15037 15038 15039 15040 15041 15042 15043 15044 15045 15046 15047 15048 15049 15050 15051 15052 15053 15054 15055 15056 15057 15058 15059 15060 15061 15062 15063 15064 15065 15066 15067 15068 15069 15070 15071 15072 15073 15074 15075 15076 15077 15078 15079 15080 15081 15082 15083 15084 15085 15086 15087 15088 15089 15090 15091 15092 15093 15094 15095 15096 15097 15098 15099 15100 15101 15102 15103 15104 15105 15106 15107 15108 15109 15110 15111 15112 15113 15114 15115 15116 15117 15118 15119 15120 15121 15122 15123 15124 15125 15126 15127 15128 15129 15130 15131 15132 15133 15134 15135 15136 15137 15138 15139 15140 15141 15142 15143 15144 15145 15146 15147 15148 15149 15150 15151 15152 15153 15154 15155 15156 15157 15158 15159 15160 15161 15162 15163 15164 15165 15166 15167 15168 15169 15170 15171 15172 15173 15174 15175 15176 15177 15178 15179 15180 15181 15182 15183 15184 15185 15186 15187 15188 15189 15190 15191 15192 15193 15194 15195 15196 15197 15198 15199 15200 15201 15202 15203 15204 15205 15206 15207 15208 15209 15210 15211 15212 15213 15214 15215 15216 15217 15218 15219 15220 15221 15222 15223 15224 15225 15226 15227 15228 15229 15230 15231 15232 15233 15234 15235 15236 15237 15238 15239 15240 15241 15242 15243 15244 15245 15246 15247 15248 15249 15250 15251 15252 15253 15254 15255 15256 15257 15258 15259 15260 15261 15262 15263 15264 15265 15266 15267 15268 15269 15270 15271 15272 15273 15274 15275 15276 15277 15278 15279 15280 15281 15282 15283 15284 15285 15286 15287 15288 15289 15290 15291 15292 15293 15294 15295 15296 15297 15298 15299 15300 15301 15302 15303 15304 15305 15306 15307 15308 15309 15310 15311 15312 15313 15314 15315 15316 15317 15318 15319 15320 15321 15322 15323 15324 15325 15326 15327 15328 15329 15330 15331 15332 15333 15334 15335 15336 15337 15338 15339 15340 15341 15342 15343 15344 15345 15346 15347 15348 15349 15350 15351 15352 15353 15354 15355 15356 15357 15358 15359 15360 15361 15362 15363 15364 15365 15366 15367 15368 15369 15370 15371 15372 15373 15374 15375 15376 15377 15378 15379 15380 15381 15382 15383 15384 15385 15386 15387 15388 15389 15390 15391 15392 15393 15394 15395 15396 15397 15398 15399 15400 15401 15402 15403 15404 15405 15406 15407 15408 15409 15410 15411 15412 15413 15414 15415 15416 15417 15418 15419 15420 15421 15422 15423 15424 15425 15426 15427 15428 15429 15430 15431 15432 15433 15434 15435 15436 15437 15438 15439 15440 15441 15442 15443 15444 15445 15446 15447 15448 15449 15450 15451 15452 15453 15454 15455 15456 15457 15458 15459 15460 15461 15462 15463 15464 15465 15466 15467 15468 15469 15470 15471 15472 15473 15474 15475 15476 15477 15478 15479 15480 15481 15482 15483 15484 15485 15486 15487 15488 15489 15490 15491 15492 15493 15494 15495 15496 15497 15498 15499 15500 15501 15502 15503 15504 15505 15506 15507 15508 15509 15510 15511 15512 15513 15514 15515 15516 15517 15518 15519 15520 15521 15522 15523 15524 15525 15526 15527 15528 15529 15530 15531 15532 15533 15534 15535 15536 15537 15538 15539 15540 15541 15542 15543 15544 15545 15546 15547 15548 15549 15550 15551 15552 15553 15554 15555 15556 15557 15558 15559 15560 15561 15562 15563 15564 15565 15566 15567 15568 15569 15570 15571 15572 15573 15574 15575 15576 15577 15578 15579 15580 15581 15582 15583 15584 15585 15586 15587 15588 15589 15590 15591 15592 15593 15594 15595 15596 15597 15598 15599 15600 15601 15602 15603 15604 15605 15606 15607 15608 15609 15610 15611 15612 15613 15614 15615 15616 15617 15618 15619 15620 15621 15622 15623 15624 15625 15626 15627 15628 15629 15630 15631 15632 15633 15634 15635 15636 15637 15638 15639 15640 15641 15642 15643 15644 15645 15646 15647 15648 15649 15650 15651 15652 15653 15654 15655 15656 15657 15658 15659 15660 15661 15662 15663 15664 15665 15666 15667 15668 15669 15670 15671 15672 15673 15674 15675 15676 15677 15678 15679 15680 15681 15682 15683 15684 15685 15686 15687 15688 15689 15690 15691 15692 15693 15694 15695 15696 15697 15698 15699 15700 15701 15702 15703 15704 15705 15706 15707 15708 15709 15710 15711 15712 15713 15714 15715 15716 15717 15718 15719 15720 15721 15722 15723 15724 15725 15726 15727 15728 15729 15730 15731 15732 15733 15734 15735 15736 15737 15738 15739 15740 15741 15742 15743 15744 15745 15746 15747 15748 15749 15750 15751 15752 15753 15754 15755 15756 15757 15758 15759 15760 15761 15762 15763 15764 15765 15766 15767 15768 15769 15770 15771 15772 15773 15774 15775 15776 15777 15778 15779 15780 15781 15782 15783 15784 15785 15786 15787 15788 15789 15790 15791 15792 15793 15794 15795 15796 15797 15798 15799 15800 15801 15802 15803 15804 15805 15806 15807 15808 15809 15810 15811 15812 15813 15814 15815 15816 15817 15818 15819 15820 15821 15822 15823 15824 15825 15826 15827 15828 15829 15830 15831 15832 15833 15834 15835 15836 15837 15838 15839 15840 15841 15842 15843 15844 15845 15846 15847 15848 15849 15850 15851 15852 15853 15854 15855 15856 15857 15858 15859 15860 15861 15862 15863 15864 15865 15866 15867 15868 15869 15870 15871 15872 15873 15874 15875 15876 15877 15878 15879 15880 15881 15882 15883 15884 15885 15886 15887 15888 15889 15890 15891 15892 15893 15894 15895 15896 15897 15898 15899 15900 15901 15902 15903 15904 15905 15906 15907 15908 15909 15910 15911 15912 15913 15914 15915 15916 15917 15918 15919 15920 15921 15922 15923 15924 15925 15926 15927 15928 15929 15930 15931 15932 15933 15934 15935 15936 15937 15938 15939 15940 15941 15942 15943 15944 15945 15946 15947 15948 15949 15950 15951 15952 15953 15954 15955 15956 15957 15958 15959 15960 15961 15962 15963 15964 15965 15966 15967 15968 15969 15970 15971 15972 15973 15974 15975 15976 15977 15978 15979 15980 15981 15982 15983 15984 15985 15986 15987 15988 15989 15990 15991 15992 15993 15994 15995 15996 15997 15998 15999 16000 16001 16002 16003 16004 16005 16006 16007 16008 16009 16010 16011 16012 16013 16014 16015 16016 16017 16018 16019 16020 16021 16022 16023 16024 16025 16026 16027 16028 16029 16030 16031 16032 16033 16034 16035 16036 16037 16038 16039 16040 16041 16042 16043 16044 16045 16046 16047 16048 16049 16050 16051 16052 16053 16054 16055 16056 16057 16058 16059 16060 16061 16062 16063 16064 16065 16066 16067 16068 16069 16070 16071 16072 16073 16074 16075 16076 16077 16078 16079 16080 16081 16082 16083 16084 16085 16086 16087 16088 16089 16090 16091 16092 16093 16094 16095 16096 16097 16098 16099 16100 16101 16102 16103 16104 16105 16106 16107 16108 16109 16110 16111 16112 16113 16114 16115 16116 16117 16118 16119 16120 16121 16122 16123 16124 16125 16126 16127 16128 16129 16130 16131 16132 16133 16134 16135 16136 16137 16138 16139 16140 16141 16142 16143 16144 16145 16146 16147 16148 16149 16150 16151 16152 16153 16154 16155 16156 16157 16158 16159 16160 16161 16162 16163 16164 16165 16166 16167 16168 16169 16170 16171 16172 16173 16174 16175 16176 16177 16178 16179 16180 16181 16182 16183 16184 16185 16186 16187 16188 16189 16190 16191 16192 16193 16194 16195 16196 16197 16198 16199 16200 16201 16202 16203 16204 16205 16206 16207 16208 16209 16210 16211 16212 16213 16214 16215 16216 16217 16218 16219 16220 16221 16222 16223 16224 16225 16226 16227 16228 16229 16230 16231 16232 16233 16234 16235 16236 16237 16238 16239 16240 16241 16242 16243 16244 16245 16246 16247 16248 16249 16250 16251 16252 16253 16254 16255 16256 16257 16258 16259 16260 16261 16262 16263 16264 16265 16266 16267 16268 16269 16270 16271 16272 16273 16274 16275 16276 16277 16278 16279 16280 16281 16282 16283 16284 16285 16286 16287 16288 16289 16290 16291 16292 16293 16294 16295 16296 16297 16298 16299 16300 16301 16302 16303 16304 16305 16306 16307 16308 16309 16310 16311 16312 16313 16314 16315 16316 16317 16318 16319 16320 16321 16322 16323 16324 16325 16326 16327 16328 16329 16330 16331 16332 16333 16334 16335 16336 16337 16338 16339 16340 16341 16342 16343 16344 16345 16346 16347 16348 16349 16350 16351 16352 16353 16354 16355 16356 16357 16358 16359 16360 16361 16362 16363 16364 16365 16366 16367 16368 16369 16370 16371 16372 16373 16374 16375 16376 16377 16378 16379 16380 16381 16382 16383 16384 16385 16386 16387 16388 16389 16390 16391 16392 16393 16394 16395 16396 16397 16398 16399 16400 16401 16402 16403 16404 16405 16406 16407 16408 16409 16410 16411 16412 16413 16414 16415 16416 16417 16418 16419 16420 16421 16422 16423 16424 16425 16426 16427 16428 16429 16430 16431 16432 16433 16434 16435 16436 16437 16438 16439 16440 16441 16442 16443 16444 16445 16446 16447 16448 16449 16450 16451 16452 16453 16454 16455 16456 16457 16458 16459 16460 16461 16462 16463 16464 16465 16466 16467 16468 16469 16470 16471 16472 16473 16474 16475 16476 16477 16478 16479 16480 16481 16482 16483 16484 16485 16486 16487 16488 16489 16490 16491 16492 16493 16494 16495 16496 16497 16498 16499 16500 16501 16502 16503 16504 16505 16506 16507 16508 16509 16510 16511 16512 16513 16514 16515 16516 16517 16518 16519 16520 16521 16522 16523 16524 16525 16526 16527 16528 16529 16530 16531 16532 16533 16534 16535 16536 16537 16538 16539 16540 16541 16542 16543 16544 16545 16546 16547 16548 16549 16550 16551 16552 16553 16554 16555 16556 16557 16558 16559 16560 16561 16562 16563 16564 16565 16566 16567 16568 16569 16570 16571 16572 16573 16574 16575 16576 16577 16578 16579 16580 16581 16582 16583 16584 16585 16586 16587 16588 16589 16590 16591 16592 16593 16594 16595 16596 16597 16598 16599 16600 16601 16602 16603 16604 16605 16606 16607 16608 16609 16610 16611 16612 16613 16614 16615 16616 16617 16618 16619 16620 16621 16622 16623 16624 16625 16626 16627 16628 16629 16630 16631 16632 16633 16634 16635 16636 16637 16638 16639 16640 16641 16642 16643 16644 16645 16646 16647 16648 16649 16650 16651 16652 16653 16654 16655 16656 16657 16658 16659 16660 16661 16662 16663 16664 16665 16666 16667 16668 16669 16670 16671 16672 16673 16674 16675 16676 16677 16678 16679 16680 16681 16682 16683 16684 16685 16686 16687 16688 16689 16690 16691 16692 16693 16694 16695 16696 16697 16698 16699 16700 16701 16702 16703 16704 16705 16706 16707 16708 16709 16710 16711 16712 16713 16714 16715 16716 16717 16718 16719 16720 16721 16722 16723 16724 16725 16726 16727 16728 16729 16730 16731 16732 16733 16734 16735 16736 16737 16738 16739 16740 16741 16742 16743 16744 16745 16746 16747 16748 16749 16750 16751 16752 16753 16754 16755 16756 16757 16758 16759 16760 16761 16762 16763 16764 16765 16766 16767 16768 16769 16770 16771 16772 16773 16774 16775 16776 16777 16778 16779 16780 16781 16782 16783 16784 16785 16786 16787 16788 16789 16790 16791 16792 16793 16794 16795 16796 16797 16798 16799 16800 16801 16802 16803 16804 16805 16806 16807 16808 16809 16810 16811 16812 16813 16814 16815 16816 16817 16818 16819 16820 16821 16822 16823 16824 16825 16826 16827 16828 16829 16830 16831 16832 16833 16834 16835 16836 16837 16838 16839 16840 16841 16842 16843 16844 16845 16846 16847 16848 16849 16850 16851 16852 16853 16854 16855 16856 16857 16858 16859 16860 16861 16862 16863 16864 16865 16866 16867 16868 16869 16870 16871 16872 16873 16874 16875 16876 16877 16878 16879 16880 16881 16882 16883 16884 16885 16886 16887 16888 16889 16890 16891 16892 16893 16894 16895 16896 16897 16898 16899 16900 16901 16902 16903 16904 16905 16906 16907 16908 16909 16910 16911 16912 16913 16914 16915 16916 16917 16918 16919 16920 16921 16922 16923 16924 16925 16926 16927 16928 16929 16930 16931 16932 16933 16934 16935 16936 16937 16938 16939 16940 16941 16942 16943 16944 16945 16946 16947 16948 16949 16950 16951 16952 16953 16954 16955 16956 16957 16958 16959 16960 16961 16962 16963 16964 16965 16966 16967 16968 16969 16970 16971 16972 16973 16974 16975 16976 16977 16978 16979 16980 16981 16982 16983 16984 16985 16986 16987 16988 16989 16990 16991 16992 16993 16994 16995 16996 16997 16998 16999 17000 17001 17002 17003 17004 17005 17006 17007 17008 17009 17010 17011 17012 17013 17014 17015 17016 17017 17018 17019 17020 17021 17022 17023 17024 17025 17026 17027 17028 17029 17030 17031 17032 17033 17034 17035 17036 17037 17038 17039 17040 17041 17042 17043 17044 17045 17046 17047 17048 17049 17050 17051 17052 17053 17054 17055 17056 17057 17058 17059 17060 17061 17062 17063 17064 17065 17066 17067 17068 17069 17070 17071 17072 17073 17074 17075 17076 17077 17078 17079 17080 17081 17082 17083 17084 17085 17086 17087 17088 17089 17090 17091 17092 17093 17094 17095 17096 17097 17098 17099 17100 17101 17102 17103 17104 17105 17106 17107 17108 17109 17110 17111 17112 17113 17114 17115 17116 17117 17118 17119 17120 17121 17122 17123 17124 17125 17126 17127 17128 17129 17130 17131 17132 17133 17134 17135 17136 17137 17138 17139 17140 17141 17142 17143 17144 17145 17146 17147 17148 17149 17150 17151 17152 17153 17154 17155 17156 17157 17158 17159 17160 17161 17162 17163 17164 17165 17166 17167 17168 17169 17170 17171 17172 17173 17174 17175 17176 17177 17178 17179 17180 17181 17182 17183 17184 17185 17186 17187 17188 17189 17190 17191 17192 17193 17194 17195 17196 17197 17198 17199 17200 17201 17202 17203 17204 17205 17206 17207 17208 17209 17210 17211 17212 17213 17214 17215 17216 17217 17218 17219 17220 17221 17222 17223 17224 17225 17226 17227 17228 17229 17230 17231 17232 17233 17234 17235 17236 17237 17238 17239 17240 17241 17242 17243 17244 17245 17246 17247 17248 17249 17250 17251 17252 17253 17254 17255 17256 17257 17258 17259 17260 17261 17262 17263 17264 17265 17266 17267 17268 17269 17270 17271 17272 17273 17274 17275 17276 17277 17278 17279 17280 17281 17282 17283 17284 17285 17286 17287 17288 17289 17290 17291 17292 17293 17294 17295 17296 17297 17298 17299 17300 17301 17302 17303 17304 17305 17306 17307 17308 17309 17310 17311 17312 17313 17314 17315 17316 17317 17318 17319 17320 17321 17322 17323 17324 17325 17326 17327 17328 17329 17330 17331 17332 17333 17334 17335 17336 17337 17338 17339 17340 17341 17342 17343 17344 17345 17346 17347 17348 17349 17350 17351 17352 17353 17354 17355 17356 17357 17358 17359 17360 17361 17362 17363 17364 17365 17366 17367 17368 17369 17370 17371 17372 17373 17374 17375 17376 17377 17378 17379 17380 17381 17382 17383 17384 17385 17386 17387 17388 17389 17390 17391 17392 17393 17394 17395 17396 17397 17398 17399 17400 17401 17402 17403 17404 17405 17406 17407 17408 17409 17410 17411 17412 17413 17414 17415 17416 17417 17418 17419 17420 17421 17422 17423 17424 17425 17426 17427 17428 17429 17430 17431 17432 17433 17434 17435 17436 17437 17438 17439 17440 17441 17442 17443 17444 17445 17446 17447 17448 17449 17450 17451 17452 17453 17454 17455 17456 17457 17458 17459 17460 17461 17462 17463 17464 17465 17466 17467 17468 17469 17470 17471 17472 17473 17474 17475 17476 17477 17478 17479 17480 17481 17482 17483 17484 17485 17486 17487 17488 17489 17490 17491 17492 17493 17494 17495 17496 17497 17498 17499 17500 17501 17502 17503 17504 17505 17506 17507 17508 17509 17510 17511 17512 17513 17514 17515 17516 17517 17518 17519 17520 17521 17522 17523 17524 17525 17526 17527 17528 17529 17530 17531 17532 17533 17534 17535 17536 17537 17538 17539 17540 17541 17542 17543 17544 17545 17546 17547 17548 17549 17550 17551 17552 17553 17554 17555 17556 17557 17558 17559 17560 17561 17562 17563 17564 17565 17566 17567 17568 17569 17570 17571 17572 17573 17574 17575 17576 17577 17578 17579 17580 17581 17582 17583 17584 17585 17586 17587 17588 17589 17590 17591 17592 17593 17594 17595 17596 17597 17598 17599 17600 17601 17602 17603 17604 17605 17606 17607 17608 17609 17610 17611 17612 17613 17614 17615 17616 17617 17618 17619 17620 17621 17622 17623 17624 17625 17626 17627 17628 17629 17630 17631 17632 17633 17634 17635 17636 17637 17638 17639 17640 17641 17642 17643 17644 17645 17646 17647 17648 17649 17650 17651 17652 17653 17654 17655 17656 17657 17658 17659 17660 17661 17662 17663 17664 17665 17666 17667 17668 17669 17670 17671 17672 17673 17674 17675 17676 17677 17678 17679 17680 17681 17682 17683 17684 17685 17686 17687 17688 17689 17690 17691 17692 17693 17694 17695 17696 17697 17698 17699 17700 17701 17702 17703 17704 17705 17706 17707 17708 17709 17710 17711 17712 17713 17714 17715 17716 17717 17718 17719 17720 17721 17722 17723 17724 17725 17726 17727 17728 17729 17730 17731 17732 17733 17734 17735 17736 17737 17738 17739 17740 17741 17742 17743 17744 17745 17746 17747 17748 17749 17750 17751 17752 17753 17754 17755 17756 17757 17758 17759 17760 17761 17762 17763 17764 17765 17766 17767 17768 17769 17770 17771 17772 17773 17774 17775 17776 17777 17778 17779 17780 17781 17782 17783 17784 17785 17786 17787 17788 17789 17790 17791 17792 17793 17794 17795 17796 17797 17798 17799 17800 17801 17802 17803 17804 17805 17806 17807 17808 17809 17810 17811 17812 17813 17814 17815 17816 17817 17818 17819 17820 17821 17822 17823 17824 17825 17826 17827 17828 17829 17830 17831 17832 17833 17834 17835 17836 17837 17838 17839 17840 17841 17842 17843 17844 17845 17846 17847 17848 17849 17850 17851 17852 17853 17854 17855 17856 17857 17858 17859 17860 17861 17862 17863 17864 17865 17866 17867 17868 17869 17870 17871 17872 17873 17874 17875 17876 17877 17878 17879 17880 17881 17882 17883 17884 17885 17886 17887 17888 17889 17890 17891 17892 17893 17894 17895 17896 17897 17898 17899 17900 17901 17902 17903 17904 17905 17906 17907 17908 17909 17910 17911 17912 17913 17914 17915 17916 17917 17918 17919 17920 17921 17922 17923 17924 17925 17926 17927 17928 17929 17930 17931 17932 17933 17934 17935 17936 17937 17938 17939 17940 17941 17942 17943 17944 17945 17946 17947 17948 17949 17950 17951 17952 17953 17954 17955 17956 17957 17958 17959 17960 17961 17962 17963 17964 17965 17966 17967 17968 17969 17970 17971 17972 17973 17974 17975 17976 17977 17978 17979 17980 17981 17982 17983 17984 17985 17986 17987 17988 17989 17990 17991 17992 17993 17994 17995 17996 17997 17998 17999 18000 18001 18002 18003 18004 18005 18006 18007 18008 18009 18010 18011 18012 18013 18014 18015 18016 18017 18018 18019 18020 18021 18022 18023 18024 18025 18026 18027 18028 18029 18030 18031 18032 18033 18034 18035 18036 18037 18038 18039 18040 18041 18042 18043 18044 18045 18046 18047 18048 18049 18050 18051 18052 18053 18054 18055 18056 18057 18058 18059 18060 18061 18062 18063 18064 18065 18066 18067 18068 18069 18070 18071 18072 18073 18074 18075 18076 18077 18078 18079 18080 18081 18082 18083 18084 18085 18086 18087 18088 18089 18090 18091 18092 18093 18094 18095 18096 18097 18098 18099 18100 18101 18102 18103 18104 18105 18106 18107 18108 18109 18110 18111 18112 18113 18114 18115 18116 18117 18118 18119 18120 18121 18122 18123 18124 18125 18126 18127 18128 18129 18130 18131 18132 18133 18134 18135 18136 18137 18138 18139 18140 18141 18142 18143 18144 18145 18146 18147 18148 18149 18150 18151 18152 18153 18154 18155 18156 18157 18158 18159 18160 18161 18162 18163 18164 18165 18166 18167 18168 18169 18170 18171 18172 18173 18174 18175 18176 18177 18178 18179 18180 18181 18182 18183 18184 18185 18186 18187 18188 18189 18190 18191 18192 18193 18194 18195 18196 18197 18198 18199 18200 18201 18202 18203 18204 18205 18206 18207 18208 18209 18210 18211 18212 18213 18214 18215 18216 18217 18218 18219 18220 18221 18222 18223 18224 18225 18226 18227 18228 18229 18230 18231 18232 18233 18234 18235 18236 18237 18238 18239 18240 18241 18242 18243 18244 18245 18246 18247 18248 18249 18250 18251 18252 18253 18254 18255 18256 18257 18258 18259 18260 18261 18262 18263 18264 18265 18266 18267 18268 18269 18270 18271 18272 18273 18274 18275 18276 18277 18278 18279 18280 18281 18282 18283 18284 18285 18286 18287 18288 18289 18290 18291 18292 18293 18294 18295 18296 18297 18298 18299 18300 18301 18302 18303 18304 18305 18306 18307 18308 18309 18310 18311 18312 18313 18314 18315 18316 18317 18318 18319 18320 18321 18322 18323 18324 18325 18326 18327 18328 18329 18330 18331 18332 18333 18334 18335 18336 18337 18338 18339 18340 18341 18342 18343 18344 18345 18346 18347 18348 18349 18350 18351 18352 18353 18354 18355 18356 18357 18358 18359 18360 18361 18362 18363 18364 18365 18366 18367 18368 18369 18370 18371 18372 18373 18374 18375 18376 18377 18378 18379 18380 18381 18382 18383 18384 18385 18386 18387 18388 18389 18390 18391 18392 18393 18394 18395 18396 18397 18398 18399 18400 18401 18402 18403 18404 18405 18406 18407 18408 18409 18410 18411 18412 18413 18414 18415 18416 18417 18418 18419 18420 18421 18422 18423 18424 18425 18426 18427 18428 18429 18430 18431 18432 18433 18434 18435 18436 18437 18438 18439 18440 18441 18442 18443 18444 18445 18446 18447 18448 18449 18450 18451 18452 18453 18454 18455 18456 18457 18458 18459 18460 18461 18462 18463 18464 18465 18466 18467 18468 18469 18470 18471 18472 18473 18474 18475 18476 18477 18478 18479 18480 18481 18482 18483 18484 18485 18486 18487 18488 18489 18490 18491 18492 18493 18494 18495 18496 18497 18498 18499 18500 18501 18502 18503 18504 18505 18506 18507 18508 18509 18510 18511 18512 18513 18514 18515 18516 18517 18518 18519 18520 18521 18522 18523 18524 18525 18526 18527 18528 18529 18530 18531 18532 18533 18534 18535 18536 18537 18538 18539 18540 18541 18542 18543 18544 18545 18546 18547 18548 18549 18550 18551 18552 18553 18554 18555 18556 18557 18558 18559 18560 18561 18562 18563 18564 18565 18566 18567 18568 18569 18570 18571 18572 18573 18574 18575 18576 18577 18578 18579 18580 18581 18582 18583 18584 18585 18586 18587 18588 18589 18590 18591 18592 18593 18594 18595 18596 18597 18598 18599 18600 18601 18602 18603 18604 18605 18606 18607 18608 18609 18610 18611 18612 18613 18614 18615 18616 18617 18618 18619 18620 18621 18622 18623 18624 18625 18626 18627 18628 18629 18630 18631 18632 18633 18634 18635 18636 18637 18638 18639 18640 18641 18642 18643 18644 18645 18646 18647 18648 18649 18650 18651 18652 18653 18654 18655 18656 18657 18658 18659 18660 18661 18662 18663 18664 18665 18666 18667 18668 18669 18670 18671 18672 18673 18674 18675 18676 18677 18678 18679 18680 18681 18682 18683 18684 18685 18686 18687 18688 18689 18690 18691 18692 18693 18694 18695 18696 18697 18698 18699 18700 18701 18702 18703 18704 18705 18706 18707 18708 18709 18710 18711 18712 18713 18714 18715 18716 18717 18718 18719 18720 18721 18722 18723 18724 18725 18726 18727 18728 18729 18730 18731 18732 18733 18734 18735 18736 18737 18738 18739 18740 18741 18742 18743 18744 18745 18746 18747 18748 18749 18750 18751 18752 18753 18754 18755 18756 18757 18758 18759 18760 18761 18762 18763 18764 18765 18766 18767 18768 18769 18770 18771 18772 18773 18774 18775 18776 18777 18778 18779 18780 18781 18782 18783 18784 18785 18786 18787 18788 18789 18790 18791 18792 18793 18794 18795 18796 18797 18798 18799 18800 18801 18802 18803 18804 18805 18806 18807 18808 18809 18810 18811 18812 18813 18814 18815 18816 18817 18818 18819 18820 18821 18822 18823 18824 18825 18826 18827 18828 18829 18830 18831 18832 18833 18834 18835 18836 18837 18838 18839 18840 18841 18842 18843 18844 18845 18846 18847 18848 18849 18850 18851 18852 18853 18854 18855 18856 18857 18858 18859 18860 18861 18862 18863 18864 18865 18866 18867 18868 18869 18870 18871 18872 18873 18874 18875 18876 18877 18878 18879 18880 18881 18882 18883 18884 18885 18886 18887 18888 18889 18890 18891 18892 18893 18894 18895 18896 18897 18898 18899 18900 18901 18902 18903 18904 18905 18906 18907 18908 18909 18910 18911 18912 18913 18914 18915 18916 18917 18918 18919 18920 18921 18922 18923 18924 18925 18926 18927 18928 18929 18930 18931 18932 18933 18934 18935 18936 18937 18938 18939 18940 18941 18942 18943 18944 18945 18946 18947 18948 18949 18950 18951 18952 18953 18954 18955 18956 18957 18958 18959 18960 18961 18962 18963 18964 18965 18966 18967 18968 18969 18970 18971 18972 18973 18974 18975 18976 18977 18978 18979 18980 18981 18982 18983 18984 18985 18986 18987 18988 18989 18990 18991 18992 18993 18994 18995 18996 18997 18998 18999 19000 19001 19002 19003 19004 19005 19006 19007 19008 19009 19010 19011 19012 19013 19014 19015 19016 19017 19018 19019 19020 19021 19022 19023 19024 19025 19026 19027 19028 19029 19030 19031 19032 19033 19034 19035 19036 19037 19038 19039 19040 19041 19042 19043 19044 19045 19046 19047 19048 19049 19050 19051 19052 19053 19054 19055 19056 19057 19058 19059 19060 19061 19062 19063 19064 19065 19066 19067 19068 19069 19070 19071 19072 19073 19074 19075 19076 19077 19078 19079 19080 19081 19082 19083 19084 19085 19086 19087 19088 19089 19090 19091 19092 19093 19094 19095 19096 19097 19098 19099 19100 19101 19102 19103 19104 19105 19106 19107 19108 19109 19110 19111 19112 19113 19114 19115 19116 19117 19118 19119 19120 19121 19122 19123 19124 19125 19126 19127 19128 19129 19130 19131 19132 19133 19134 19135 19136 19137 19138 19139 19140 19141 19142 19143 19144 19145 19146 19147 19148 19149 19150 19151 19152 19153 19154 19155 19156 19157 19158 19159 19160 19161 19162 19163 19164 19165 19166 19167 19168 19169 19170 19171 19172 19173 19174 19175 19176 19177 19178 19179 19180 19181 19182 19183 19184 19185 19186 19187 19188 19189 19190 19191 19192 19193 19194 19195 19196 19197 19198 19199 19200 19201 19202 19203 19204 19205 19206 19207 19208 19209 19210 19211 19212 19213 19214 19215 19216 19217 19218 19219 19220 19221 19222 19223 19224 19225 19226 19227 19228 19229 19230 19231 19232 19233 19234 19235 19236 19237 19238 19239 19240 19241 19242 19243 19244 19245 19246 19247 19248 19249 19250 19251 19252 19253 19254 19255 19256 19257 19258 19259 19260 19261 19262 19263 19264 19265 19266 19267 19268 19269 19270 19271 19272 19273 19274 19275 19276 19277 19278 19279 19280 19281 19282 19283 19284 19285 19286 19287 19288 19289 19290 19291 19292 19293 19294 19295 19296 19297 19298 19299 19300 19301 19302 19303 19304 19305 19306 19307 19308 19309 19310 19311 19312 19313 19314 19315 19316 19317 19318 19319 19320 19321 19322 19323 19324 19325 19326 19327 19328 19329 19330 19331 19332 19333 19334 19335 19336 19337 19338 19339 19340 19341 19342 19343 19344 19345 19346 19347 19348 19349 19350 19351 19352 19353 19354 19355 19356 19357 19358 19359 19360 19361 19362 19363 19364 19365 19366 19367 19368 19369 19370 19371 19372 19373 19374 19375 19376 19377 19378 19379 19380 19381 19382 19383 19384 19385 19386 19387 19388 19389 19390 19391 19392 19393 19394 19395 19396 19397 19398 19399 19400 19401 19402 19403 19404 19405 19406 19407 19408 19409 19410 19411 19412 19413 19414 19415 19416 19417 19418 19419 19420 19421 19422 19423 19424 19425 19426 19427 19428 19429 19430 19431 19432 19433 19434 19435 19436 19437 19438 19439 19440 19441 19442 19443 19444 19445 19446 19447 19448 19449 19450 19451 19452 19453 19454 19455 19456 19457 19458 19459 19460 19461 19462 19463 19464 19465 19466 19467 19468 19469 19470 19471 19472 19473 19474 19475 19476 19477 19478 19479 19480 19481 19482 19483 19484 19485 19486 19487 19488 19489 19490 19491 19492 19493 19494 19495 19496 19497 19498 19499 19500 19501 19502 19503 19504 19505 19506 19507 19508 19509 19510 19511 19512 19513 19514 19515 19516 19517 19518 19519 19520 19521 19522 19523 19524 19525 19526 19527 19528 19529 19530 19531 19532 19533 19534 19535 19536 19537 19538 19539 19540 19541 19542 19543 19544 19545 19546 19547 19548 19549 19550 19551 19552 19553 19554 19555 19556 19557 19558 19559 19560 19561 19562 19563 19564 19565 19566 19567 19568 19569 19570 19571 19572 19573 19574 19575 19576 19577 19578 19579 19580 19581 19582 19583 19584 19585 19586 19587 19588 19589 19590 19591 19592 19593 19594 19595 19596 19597 19598 19599 19600 19601 19602 19603 19604 19605 19606 19607 19608 19609 19610 19611 19612 19613 19614 19615 19616 19617 19618 19619 19620 19621 19622 19623 19624 19625 19626 19627 19628 19629 19630 19631 19632 19633 19634 19635 19636 19637 19638 19639 19640 19641 19642 19643 19644 19645 19646 19647 19648 19649 19650 19651 19652 19653 19654 19655 19656 19657 19658 19659 19660 19661 19662 19663 19664 19665 19666 19667 19668 19669 19670 19671 19672 19673 19674 19675 19676 19677 19678 19679 19680 19681 19682 19683 19684 19685 19686 19687 19688 19689 19690 19691 19692 19693 19694 19695 19696 19697 19698 19699 19700 19701 19702 19703 19704 19705 19706 19707 19708 19709 19710 19711 19712 19713 19714 19715 19716 19717 19718 19719 19720 19721 19722 19723 19724 19725 19726 19727 19728 19729 19730 19731 19732 19733 19734 19735 19736 19737 19738 19739 19740 19741 19742 19743 19744 19745 19746 19747 19748 19749 19750 19751 19752 19753 19754 19755 19756 19757 19758 19759 19760 19761 19762 19763 19764 19765 19766 19767 19768 19769 19770 19771 19772 19773 19774 19775 19776 19777 19778 19779 19780 19781 19782 19783 19784 19785 19786 19787 19788 19789 19790 19791 19792 19793 19794 19795 19796 19797 19798 19799 19800 19801 19802 19803 19804 19805 19806 19807 19808 19809 19810 19811 19812 19813 19814 19815 19816 19817 19818 19819 19820 19821 19822 19823 19824 19825 19826 19827 19828 19829 19830 19831 19832 19833 19834 19835 19836 19837 19838 19839 19840 19841 19842 19843 19844 19845 19846 19847 19848 19849 19850 19851 19852 19853 19854 19855 19856 19857 19858 19859 19860 19861 19862 19863 19864 19865 19866 19867 19868 19869 19870 19871 19872 19873 19874 19875 19876 19877 19878 19879 19880 19881 19882 19883 19884 19885 19886 19887 19888 19889 19890 19891 19892 19893 19894 19895 19896 19897 19898 19899 19900 19901 19902 19903 19904 19905 19906 19907 19908 19909 19910 19911 19912 19913 19914 19915 19916 19917 19918 19919 19920 19921 19922 19923 19924 19925 19926 19927 19928 19929 19930 19931 19932 19933 19934 19935 19936 19937 19938 19939 19940 19941 19942 19943 19944 19945 19946 19947 19948 19949 19950 19951 19952 19953 19954 19955 19956 19957 19958 19959 19960 19961 19962 19963 19964 19965 19966 19967 19968 19969 19970 19971 19972 19973 19974 19975 19976 19977 19978 19979 19980 19981 19982 19983 19984 19985 19986 19987 19988 19989 19990 19991 19992 19993 19994 19995 19996 19997 19998 19999 20000 20001 20002 20003 20004 20005 20006 20007 20008 20009 20010 20011 20012 20013 20014 20015 20016 20017 20018 20019 20020 20021 20022 20023 20024 20025 20026 20027 20028 20029 20030 20031 20032 20033 20034 20035 20036 20037 20038 20039 20040 20041 20042 20043 20044 20045 20046 20047 20048 20049 20050 20051 20052 20053 20054 20055 20056 20057 20058 20059 20060 20061 20062 20063 20064 20065 20066 20067 20068 20069 20070 20071 20072 20073 20074 20075 20076 20077 20078 20079 20080 20081 20082 20083 20084 20085 20086 20087 20088 20089 20090 20091 20092 20093 20094 20095 20096 20097 20098 20099 20100 20101 20102 20103 20104 20105 20106 20107 20108 20109 20110 20111 20112 20113 20114 20115 20116 20117 20118 20119 20120 20121 20122 20123 20124 20125 20126 20127 20128 20129 20130 20131 20132 20133 20134 20135 20136 20137 20138 20139 20140 20141 20142 20143 20144 20145 20146 20147 20148 20149 20150 20151 20152 20153 20154 20155 20156 20157 20158 20159 20160 20161 20162 20163 20164 20165 20166 20167 20168 20169 20170 20171 20172 20173 20174 20175 20176 20177 20178 20179 20180 20181 20182 20183 20184 20185 20186 20187 20188 20189 20190 20191 20192 20193 20194 20195 20196 20197 20198 20199 20200 20201 20202 20203 20204 20205 20206 20207 20208 20209 20210 20211 20212 20213 20214 20215 20216 20217 20218 20219 20220 20221 20222 20223 20224 20225 20226 20227 20228 20229 20230 20231 20232 20233 20234 20235 20236 20237 20238 20239 20240 20241 20242 20243 20244 20245 20246 20247 20248 20249 20250 20251 20252 20253 20254 20255 20256 20257 20258 20259 20260 20261 20262 20263 20264 20265 20266 20267 20268 20269 20270 20271 20272 20273 20274 20275 20276 20277 20278 20279 20280 20281 20282 20283 20284 20285 20286 20287 20288 20289 20290 20291 20292 20293 20294 20295 20296 20297 20298 20299 20300 20301 20302 20303 20304 20305 20306 20307 20308 20309 20310 20311 20312 20313 20314 20315 20316 20317 20318 20319 20320 20321 20322 20323 20324 20325 20326 20327 20328 20329 20330 20331 20332 20333 20334 20335 20336 20337 20338 20339 20340 20341 20342 20343 20344 20345 20346 20347 20348 20349 20350 20351 20352 20353 20354 20355 20356 20357 20358 20359 20360 20361 20362 20363 20364 20365 20366 20367 20368 20369 20370 20371 20372 20373 20374 20375 20376 20377 20378 20379 20380 20381 20382 20383 20384 20385 20386 20387 20388 20389 20390 20391 20392 20393 20394 20395 20396 20397 20398 20399 20400 20401 20402 20403 20404 20405 20406 20407 20408 20409 20410 20411 20412 20413 20414 20415 20416 20417 20418 20419 20420 20421 20422 20423 20424 20425 20426 20427 20428 20429 20430 20431 20432 20433 20434 20435 20436 20437 20438 20439 20440 20441 20442 20443 20444 20445 20446 20447 20448 20449 20450 20451 20452 20453 20454 20455 20456 20457 20458 20459 20460 20461 20462 20463 20464 20465 20466 20467 20468 20469 20470 20471 20472 20473 20474 20475 20476 20477 20478 20479 20480 20481 20482 20483 20484 20485 20486 20487 20488 20489 20490 20491 20492 20493 20494 20495 20496 20497 20498 20499 20500 20501 20502 20503 20504 20505 20506 20507 20508 20509 20510 20511 20512 20513 20514 20515 20516 20517 20518 20519 20520 20521 20522 20523 20524 20525 20526 20527 20528 20529 20530 20531 20532 20533 20534 20535 20536 20537 20538 20539 20540 20541 20542 20543 20544 20545 20546 20547 20548 20549 20550 20551 20552 20553 20554 20555 20556 20557 20558 20559 20560 20561 20562 20563 20564 20565 20566 20567 20568 20569 20570 20571 20572 20573 20574 20575 20576 20577 20578 20579 20580 20581 20582 20583 20584 20585 20586 20587 20588 20589 20590 20591 20592 20593 20594 20595 20596 20597 20598 20599 20600 20601 20602 20603 20604 20605 20606 20607 20608 20609 20610 20611 20612 20613 20614 20615 20616 20617 20618 20619 20620 20621 20622 20623 20624 20625 20626 20627 20628 20629 20630 20631 20632 20633 20634 20635 20636 20637 20638 20639 20640 20641 20642 20643 20644 20645 20646 20647 20648 20649 20650 20651 20652 20653 20654 20655 20656 20657 20658 20659 20660 20661 20662 20663 20664 20665 20666 20667 20668 20669 20670 20671 20672 20673 20674 20675 20676 20677 20678 20679 20680 20681 20682 20683 20684 20685 20686 20687 20688 20689 20690 20691 20692 20693 20694 20695 20696 20697 20698 20699 20700 20701 20702 20703 20704 20705 20706 20707 20708 20709 20710 20711 20712 20713 20714 20715 20716 20717 20718 20719 20720 20721 20722 20723 20724 20725 20726 20727 20728 20729 20730 20731 20732 20733 20734 20735 20736 20737 20738 20739 20740 20741 20742 20743 20744 20745 20746 20747 20748 20749 20750 20751 20752 20753 20754 20755 20756 20757 20758 20759 20760 20761 20762 20763 20764 20765 20766 20767 20768 20769 20770 20771 20772 20773 20774 20775 20776 20777 20778 20779 20780 20781 20782 20783 20784 20785 20786 20787 20788 20789 20790 20791 20792 20793 20794 20795 20796 20797 20798 20799 20800 20801 20802 20803 20804 20805 20806 20807 20808 20809 20810 20811 20812 20813 20814 20815 20816 20817 20818 20819 20820 20821 20822 20823 20824 20825 20826 20827 20828 20829 20830 20831 20832 20833 20834 20835 20836 20837 20838 20839 20840 20841 20842 20843 20844 20845 20846 20847 20848 20849 20850 20851 20852 20853 20854 20855 20856 20857 20858 20859 20860 20861 20862 20863 20864 20865 20866 20867 20868 20869 20870 20871 20872 20873 20874 20875 20876 20877 20878 20879 20880 20881 20882 20883 20884 20885 20886 20887 20888 20889 20890 20891 20892 20893 20894 20895 20896 20897 20898 20899 20900 20901 20902 20903 20904 20905 20906 20907 20908 20909 20910 20911 20912 20913 20914 20915 20916 20917 20918 20919 20920 20921 20922 20923 20924 20925 20926 20927 20928 20929 20930 20931 20932 20933 20934 20935 20936 20937 20938 20939 20940 20941 20942 20943 20944 20945 20946 20947 20948 20949 20950 20951 20952 20953 20954 20955 20956 20957 20958 20959 20960 20961 20962 20963 20964 20965 20966 20967 20968 20969 20970 20971 20972 20973 20974 20975 20976 20977 20978 20979 20980 20981 20982 20983 20984 20985 20986 20987 20988 20989 20990 20991 20992 20993 20994 20995 20996 20997 20998 20999 21000 21001 21002 21003 21004 21005 21006 21007 21008 21009 21010 21011 21012 21013 21014 21015 21016 21017 21018 21019 21020 21021 21022 21023 21024 21025 21026 21027 21028 21029 21030 21031 21032 21033 21034 21035 21036 21037 21038 21039 21040 21041 21042 21043 21044 21045 21046 21047 21048 21049 21050 21051 21052 21053 21054 21055 21056 21057 21058 21059 21060 21061 21062 21063 21064 21065 21066 21067 21068 21069 21070 21071 21072 21073 21074 21075 21076 21077 21078 21079 21080 21081 21082 21083 21084 21085 21086 21087 21088 21089 21090 21091 21092 21093 21094 21095 21096 21097 21098 21099 21100 21101 21102 21103 21104 21105 21106 21107 21108 21109 21110 21111 21112 21113 21114 21115 21116 21117 21118 21119 21120 21121 21122 21123 21124 21125 21126 21127 21128 21129 21130 21131 21132 21133 21134 21135 21136 21137 21138 21139 21140 21141 21142 21143 21144 21145 21146 21147 21148 21149 21150 21151 21152 21153 21154 21155 21156 21157 21158 21159 21160 21161 21162 21163 21164 21165 21166 21167 21168 21169 21170 21171 21172 21173 21174 21175 21176 21177 21178 21179 21180 21181 21182 21183 21184 21185 21186 21187 21188 21189 21190 21191 21192 21193 21194 21195 21196 21197 21198 21199 21200 21201 21202 21203 21204 21205 21206 21207 21208 21209 21210 21211 21212 21213 21214 21215 21216 21217 21218 21219 21220 21221 21222 21223 21224 21225 21226 21227 21228 21229 21230 21231 21232 21233 21234 21235 21236 21237 21238 21239 21240 21241 21242 21243 21244 21245 21246 21247 21248 21249 21250 21251 21252 21253 21254 21255 21256 21257 21258 21259 21260 21261 21262 21263 21264 21265 21266 21267 21268 21269 21270 21271 21272 21273 21274 21275 21276 21277 21278 21279 21280 21281 21282 21283 21284 21285 21286 21287 21288 21289 21290 21291 21292 21293 21294 21295 21296 21297 21298 21299 21300 21301 21302 21303 21304 21305 21306 21307 21308 21309 21310 21311 21312 21313 21314 21315 21316 21317 21318 21319 21320 21321 21322 21323 21324 21325 21326 21327 21328 21329 21330 21331 21332 21333 21334 21335 21336 21337 21338 21339 21340 21341 21342 21343 21344 21345 21346 21347 21348 21349 21350 21351 21352 21353 21354 21355 21356 21357 21358 21359 21360 21361 21362 21363 21364 21365 21366 21367 21368 21369 21370 21371 21372 21373 21374 21375 21376 21377 21378 21379 21380 21381 21382 21383 21384 21385 21386 21387 21388 21389 21390 21391 21392 21393 21394 21395 21396 21397 21398 21399 21400 21401 21402 21403 21404 21405 21406 21407 21408 21409 21410 21411 21412 21413 21414 21415 21416 21417 21418 21419 21420 21421 21422 21423 21424 21425 21426 21427 21428 21429 21430 21431 21432 21433 21434 21435 21436 21437 21438 21439 21440 21441 21442 21443 21444 21445 21446 21447 21448 21449 21450 21451 21452 21453 21454 21455 21456 21457 21458 21459 21460 21461 21462 21463 21464 21465 21466 21467 21468 21469 21470 21471 21472 21473 21474 21475 21476 21477 21478 21479 21480 21481 21482 21483 21484 21485 21486 21487 21488 21489 21490 21491 21492 21493 21494 21495 21496 21497 21498 21499 21500 21501 21502 21503 21504 21505 21506 21507 21508 21509 21510 21511 21512 21513 21514 21515 21516 21517 21518 21519 21520 21521 21522 21523 21524 21525 21526 21527 21528 21529 21530 21531 21532 21533 21534 21535 21536 21537 21538 21539 21540 21541 21542 21543 21544 21545 21546 21547 21548 21549 21550 21551 21552 21553 21554 21555 21556 21557 21558 21559 21560 21561 21562 21563 21564 21565 21566 21567 21568 21569 21570 21571 21572 21573 21574 21575 21576 21577 21578 21579 21580 21581 21582 21583 21584 21585 21586 21587 21588 21589 21590 21591 21592 21593 21594 21595 21596 21597 21598 21599 21600 21601 21602 21603 21604 21605 21606 21607 21608 21609 21610 21611 21612 21613 21614 21615 21616 21617 21618 21619 21620 21621 21622 21623 21624 21625 21626 21627 21628 21629 21630 21631 21632 21633 21634 21635 21636 21637 21638 21639 21640 21641 21642 21643 21644 21645 21646 21647 21648 21649 21650 21651 21652 21653 21654 21655 21656 21657 21658 21659 21660 21661 21662 21663 21664 21665 21666 21667 21668 21669 21670 21671 21672 21673 21674 21675 21676 21677 21678 21679 21680 21681 21682 21683 21684 21685 21686 21687 21688 21689 21690 21691 21692 21693 21694 21695 21696 21697 21698 21699 21700 21701 21702 21703 21704 21705 21706 21707 21708 21709 21710 21711 21712 21713 21714 21715 21716 21717 21718 21719 21720 21721 21722 21723 21724 21725 21726 21727 21728 21729 21730 21731 21732 21733 21734 21735 21736 21737 21738 21739 21740 21741 21742 21743 21744 21745 21746 21747 21748 21749 21750 21751 21752 21753 21754 21755 21756 21757 21758 21759 21760 21761 21762 21763 21764 21765 21766 21767 21768 21769 21770 21771 21772 21773 21774 21775 21776 21777 21778 21779 21780 21781 21782 21783 21784 21785 21786 21787 21788 21789 21790 21791 21792 21793 21794 21795 21796 21797 21798 21799 21800 21801 21802 21803 21804 21805 21806 21807 21808 21809 21810 21811 21812 21813 21814 21815 21816 21817 21818 21819 21820 21821 21822 21823 21824 21825 21826 21827 21828 21829 21830 21831 21832 21833 21834 21835 21836 21837 21838 21839 21840 21841 21842 21843 21844 21845 21846 21847 21848 21849 21850 21851 21852 21853 21854 21855 21856 21857 21858 21859 21860 21861 21862 21863 21864 21865 21866 21867 21868 21869 21870 21871 21872 21873 21874 21875 21876 21877 21878 21879 21880 21881 21882 21883 21884 21885 21886 21887 21888 21889 21890 21891 21892 21893 21894 21895 21896 21897 21898 21899 21900 21901 21902 21903 21904 21905 21906 21907 21908 21909 21910 21911 21912 21913 21914 21915 21916 21917 21918 21919 21920 21921 21922 21923 21924 21925 21926 21927 21928 21929 21930 21931 21932 21933 21934 21935 21936 21937 21938 21939 21940 21941 21942 21943 21944 21945 21946 21947 21948 21949 21950 21951 21952 21953 21954 21955 21956 21957 21958 21959 21960 21961 21962 21963 21964 21965 21966 21967 21968 21969 21970 21971 21972 21973 21974 21975 21976 21977 21978 21979 21980 21981 21982 21983 21984 21985 21986 21987 21988 21989 21990 21991 21992 21993 21994 21995 21996 21997 21998 21999 22000 22001 22002 22003 22004 22005 22006 22007 22008 22009 22010 22011 22012 22013 22014 22015 22016 22017 22018 22019 22020 22021 22022 22023 22024 22025 22026 22027 22028 22029 22030 22031 22032 22033 22034 22035 22036 22037 22038 22039 22040 22041 22042 22043 22044 22045 22046 22047 22048 22049 22050 22051 22052 22053 22054 22055 22056 22057 22058 22059 22060 22061 22062 22063 22064 22065 22066 22067 22068 22069 22070 22071 22072 22073 22074 22075 22076 22077 22078 22079 22080 22081 22082 22083 22084 22085 22086 22087 22088 22089 22090 22091 22092 22093 22094 22095 22096 22097 22098 22099 22100 22101 22102 22103 22104 22105 22106 22107 22108 22109 22110 22111 22112 22113 22114 22115 22116 22117 22118 22119 22120 22121 22122 22123 22124 22125 22126 22127 22128 22129 22130 22131 22132 22133 22134 22135 22136 22137 22138 22139 22140 22141 22142 22143 22144 22145 22146 22147 22148 22149 22150 22151 22152 22153 22154 22155 22156 22157 22158 22159 22160 22161 22162 22163 22164 22165 22166 22167 22168 22169 22170 22171 22172 22173 22174 22175 22176 22177 22178 22179 22180 22181 22182 22183 22184 22185 22186 22187 22188 22189 22190 22191 22192 22193 22194 22195 22196 22197 22198 22199 22200 22201 22202 22203 22204 22205 22206 22207 22208 22209 22210 22211 22212 22213 22214 22215 22216 22217 22218 22219 22220 22221 22222 22223 22224 22225 22226 22227 22228 22229 22230 22231 22232 22233 22234 22235 22236 22237 22238 22239 22240 22241 22242 22243 22244 22245 22246 22247 22248 22249 22250 22251 22252 22253 22254 22255 22256 22257 22258 22259 22260 22261 22262 22263 22264 22265 22266 22267 22268 22269 22270 22271 22272 22273 22274 22275 22276 22277 22278 22279 22280 22281 22282 22283 22284 22285 22286 22287 22288 22289 22290 22291 22292 22293 22294 22295 22296 22297 22298 22299 22300 22301 22302 22303 22304 22305 22306 22307 22308 22309 22310 22311 22312 22313 22314 22315 22316 22317 22318 22319 22320 22321 22322 22323 22324 22325 22326 22327 22328 22329 22330 22331 22332 22333 22334 22335 22336 22337 22338 22339 22340 22341 22342 22343 22344 22345 22346 22347 22348 22349 22350 22351 22352 22353 22354 22355 22356 22357 22358 22359 22360 22361 22362 22363 22364 22365 22366 22367 22368 22369 22370 22371 22372 22373 22374 22375 22376 22377 22378 22379 22380 22381 22382 22383 22384 22385 22386 22387 22388 22389 22390 22391 22392 22393 22394 22395 22396 22397 22398 22399 22400 22401 22402 22403 22404 22405 22406 22407 22408 22409 22410 22411 22412 22413 22414 22415 22416 22417 22418 22419 22420 22421 22422 22423 22424 22425 22426 22427 22428 22429 22430 22431 22432 22433 22434 22435 22436 22437 22438 22439 22440 22441 22442 22443 22444 22445 22446 22447 22448 22449 22450 22451 22452 22453 22454 22455 22456 22457 22458 22459 22460 22461 22462 22463 22464 22465 22466 22467 22468 22469 22470 22471 22472 22473 22474 22475 22476 22477 22478 22479 22480 22481 22482 22483 22484 22485 22486 22487 22488 22489 22490 22491 22492 22493 22494 22495 22496 22497 22498 22499 22500 22501 22502 22503 22504 22505 22506 22507 22508 22509 22510 22511 22512 22513 22514 22515 22516 22517 22518 22519 22520 22521 22522 22523 22524 22525 22526 22527 22528 22529 22530 22531 22532 22533 22534 22535 22536 22537 22538 22539 22540 22541 22542 22543 22544 22545 22546 22547 22548 22549 22550 22551 22552 22553 22554 22555 22556 22557 22558 22559 22560 22561 22562 22563 22564 22565 22566 22567 22568 22569 22570 22571 22572 22573 22574 22575 22576 22577 22578 22579 22580 22581 22582 22583 22584 22585 22586 22587 22588 22589 22590 22591 22592 22593 22594 22595 22596 22597 22598 22599 22600 22601 22602 22603 22604 22605 22606 22607 22608 22609 22610 22611 22612 22613 22614 22615 22616 22617 22618 22619 22620 22621 22622 22623 22624 22625 22626 22627 22628 22629 22630 22631 22632 22633 22634 22635 22636 22637 22638 22639 22640 22641 22642 22643 22644 22645 22646 22647 22648 22649 22650 22651 22652 22653 22654 22655 22656 22657 22658 22659 22660 22661 22662 22663 22664 22665 22666 22667 22668 22669 22670 22671 22672 22673 22674 22675 22676 22677 22678 22679 22680 22681 22682 22683 22684 22685 22686 22687 22688 22689 22690 22691 22692 22693 22694 22695 22696 22697 22698 22699 22700 22701 22702 22703 22704 22705 22706 22707 22708 22709 22710 22711 22712 22713 22714 22715 22716 22717 22718 22719 22720 22721 22722 22723 22724 22725 22726 22727 22728 22729 22730 22731 22732 22733 22734 22735 22736 22737 22738 22739 22740 22741 22742 22743 22744 22745 22746 22747 22748 22749 22750 22751 22752 22753 22754 22755 22756 22757 22758 22759 22760 22761 22762 22763 22764 22765 22766 22767 22768 22769 22770 22771 22772 22773 22774 22775 22776 22777 22778 22779 22780 22781 22782 22783 22784 22785 22786 22787 22788 22789 22790 22791 22792 22793 22794 22795 22796 22797 22798 22799 22800 22801 22802 22803 22804 22805 22806 22807 22808 22809 22810 22811 22812 22813 22814 22815 22816 22817 22818 22819 22820 22821 22822 22823 22824 22825 22826 22827 22828 22829 22830 22831 22832 22833 22834 22835 22836 22837 22838 22839 22840 22841 22842 22843 22844 22845 22846 22847 22848 22849 22850 22851 22852 22853 22854 22855 22856 22857 22858 22859 22860 22861 22862 22863 22864 22865 22866 22867 22868 22869 22870 22871 22872 22873 22874 22875 22876 22877 22878 22879 22880 22881 22882 22883 22884 22885 22886 22887 22888 22889 22890 22891 22892 22893 22894 22895 22896 22897 22898 22899 22900 22901 22902 22903 22904 22905 22906 22907 22908 22909 22910 22911 22912 22913 22914 22915 22916 22917 22918 22919 22920 22921 22922 22923 22924 22925 22926 22927 22928 22929 22930 22931 22932 22933 22934 22935 22936 22937 22938 22939 22940 22941 22942 22943 22944 22945 22946 22947 22948 22949 22950 22951 22952 22953 22954 22955 22956 22957 22958 22959 22960 22961 22962 22963 22964 22965 22966 22967 22968 22969 22970 22971 22972 22973 22974 22975 22976 22977 22978 22979 22980 22981 22982 22983 22984 22985 22986 22987 22988 22989 22990 22991 22992 22993 22994 22995 22996 22997 22998 22999 23000 23001 23002 23003 23004 23005 23006 23007 23008 23009 23010 23011 23012 23013 23014 23015 23016 23017 23018 23019 23020 23021 23022 23023 23024 23025 23026 23027 23028 23029 23030 23031 23032 23033 23034 23035 23036 23037 23038 23039 23040 23041 23042 23043 23044 23045 23046 23047 23048 23049 23050 23051 23052 23053 23054 23055 23056 23057 23058 23059 23060 23061 23062 23063 23064 23065 23066 23067 23068 23069 23070 23071 23072 23073 23074 23075 23076 23077 23078 23079 23080 23081 23082 23083 23084 23085 23086 23087 23088 23089 23090 23091 23092 23093 23094 23095 23096 23097 23098 23099 23100 23101 23102 23103 23104 23105 23106 23107 23108 23109 23110 23111 23112 23113 23114 23115 23116 23117 23118 23119 23120 23121 23122 23123 23124 23125 23126 23127 23128 23129 23130 23131 23132 23133 23134 23135 23136 23137 23138 23139 23140 23141 23142 23143 23144 23145 23146 23147 23148 23149 23150 23151 23152 23153 23154 23155 23156 23157 23158 23159 23160 23161 23162 23163 23164 23165 23166 23167 23168 23169 23170 23171 23172 23173 23174 23175 23176 23177 23178 23179 23180 23181 23182 23183 23184 23185 23186 23187 23188 23189 23190 23191 23192 23193 23194 23195 23196 23197 23198 23199 23200 23201 23202 23203 23204 23205 23206 23207 23208 23209 23210 23211 23212 23213 23214 23215 23216 23217 23218 23219 23220 23221 23222 23223 23224 23225 23226 23227 23228 23229 23230 23231 23232 23233 23234 23235 23236 23237 23238 23239 23240 23241 23242 23243 23244 23245 23246 23247 23248 23249 23250 23251 23252 23253 23254 23255 23256 23257 23258 23259 23260 23261 23262 23263 23264 23265 23266 23267 23268 23269 23270 23271 23272 23273 23274 23275 23276 23277 23278 23279 23280 23281 23282 23283 23284 23285 23286 23287 23288 23289 23290 23291 23292 23293 23294 23295 23296 23297 23298 23299 23300 23301 23302 23303 23304 23305 23306 23307 23308 23309 23310 23311 23312 23313 23314 23315 23316 23317 23318 23319 23320 23321 23322 23323 23324 23325 23326 23327 23328 23329 23330 23331 23332 23333 23334 23335 23336 23337 23338 23339 23340 23341 23342 23343 23344 23345 23346 23347 23348 23349 23350 23351 23352 23353 23354 23355 23356 23357 23358 23359 23360 23361 23362 23363 23364 23365 23366 23367 23368 23369 23370 23371 23372 23373 23374 23375 23376 23377 23378 23379 23380 23381 23382 23383 23384 23385 23386 23387 23388 23389 23390 23391 23392 23393 23394 23395 23396 23397 23398 23399 23400 23401 23402 23403 23404 23405 23406 23407 23408 23409 23410 23411 23412 23413 23414 23415 23416 23417 23418 23419 23420 23421 23422 23423 23424 23425 23426 23427 23428 23429 23430 23431 23432 23433 23434 23435 23436 23437 23438 23439 23440 23441 23442 23443 23444 23445 23446 23447 23448 23449 23450 23451 23452 23453 23454 23455 23456 23457 23458 23459 23460 23461 23462 23463 23464 23465 23466 23467 23468 23469 23470 23471 23472 23473 23474 23475 23476 23477 23478 23479 23480 23481 23482 23483 23484 23485 23486 23487 23488 23489 23490 23491 23492 23493 23494 23495 23496 23497 23498 23499 23500 23501 23502 23503 23504 23505 23506 23507 23508 23509 23510 23511 23512 23513 23514 23515 23516 23517 23518 23519 23520 23521 23522 23523 23524 23525 23526 23527 23528 23529 23530 23531 23532 23533 23534 23535 23536 23537 23538 23539 23540 23541 23542 23543 23544 23545 23546 23547 23548 23549 23550 23551 23552 23553 23554 23555 23556 23557 23558 23559 23560 23561 23562 23563 23564 23565 23566 23567 23568 23569 23570 23571 23572 23573 23574 23575 23576 23577 23578 23579 23580 23581 23582 23583 23584 23585 23586 23587 23588 23589 23590 23591 23592 23593 23594 23595 23596 23597 23598 23599 23600 23601 23602 23603 23604 23605 23606 23607 23608 23609 23610 23611 23612 23613 23614 23615 23616 23617 23618 23619 23620 23621 23622 23623 23624 23625 23626 23627 23628 23629 23630 23631 23632 23633 23634 23635 23636 23637 23638 23639 23640 23641 23642 23643 23644 23645 23646 23647 23648 23649 23650 23651 23652 23653 23654 23655 23656 23657 23658 23659 23660 23661 23662 23663 23664 23665 23666 23667 23668 23669 23670 23671 23672 23673 23674 23675 23676 23677 23678 23679 23680 23681 23682 23683 23684 23685 23686 23687 23688 23689 23690 23691 23692 23693 23694 23695 23696 23697 23698 23699 23700 23701 23702 23703 23704 23705 23706 23707 23708 23709 23710 23711 23712 23713 23714 23715 23716 23717 23718 23719 23720 23721 23722 23723 23724 23725 23726 23727 23728 23729 23730 23731 23732 23733 23734 23735 23736 23737 23738 23739 23740 23741 23742 23743 23744 23745 23746 23747 23748 23749 23750 23751 23752 23753 23754 23755 23756 23757 23758 23759 23760 23761 23762 23763 23764 23765 23766 23767 23768 23769 23770 23771 23772 23773 23774 23775 23776 23777 23778 23779 23780 23781 23782 23783 23784 23785 23786 23787 23788 23789 23790 23791 23792 23793 23794 23795 23796 23797 23798 23799 23800 23801 23802 23803 23804 23805 23806 23807 23808 23809 23810 23811 23812 23813 23814 23815 23816 23817 23818 23819 23820 23821 23822 23823 23824 23825 23826 23827 23828 23829 23830 23831 23832 23833 23834 23835 23836 23837 23838 23839 23840 23841 23842 23843 23844 23845 23846 23847 23848 23849 23850 23851 23852 23853 23854 23855 23856 23857 23858 23859 23860 23861 23862 23863 23864 23865 23866 23867 23868 23869 23870 23871 23872 23873 23874 23875 23876 23877 23878 23879 23880 23881 23882 23883 23884 23885 23886 23887 23888 23889 23890 23891 23892 23893 23894 23895 23896 23897 23898 23899 23900 23901 23902 23903 23904 23905 23906 23907 23908 23909 23910 23911 23912 23913 23914 23915 23916 23917 23918 23919 23920 23921 23922 23923 23924 23925 23926 23927 23928 23929 23930 23931 23932 23933 23934 23935 23936 23937 23938 23939 23940 23941 23942 23943 23944 23945 23946 23947 23948 23949 23950 23951 23952 23953 23954 23955 23956 23957 23958 23959 23960 23961 23962 23963 23964 23965 23966 23967 23968 23969 23970 23971 23972 23973 23974 23975 23976 23977 23978 23979 23980 23981 23982 23983 23984 23985 23986 23987 23988 23989 23990 23991 23992 23993 23994 23995 23996 23997 23998 23999 24000 24001 24002 24003 24004 24005 24006 24007 24008 24009 24010 24011 24012 24013 24014 24015 24016 24017 24018 24019 24020 24021 24022 24023 24024 24025 24026 24027 24028 24029 24030 24031 24032 24033 24034 24035 24036 24037 24038 24039 24040 24041 24042 24043 24044 24045 24046 24047 24048 24049 24050 24051 24052 24053 24054 24055 24056 24057 24058 24059 24060 24061 24062 24063 24064 24065 24066 24067 24068 24069 24070 24071 24072 24073 24074 24075 24076 24077 24078 24079 24080 24081 24082 24083 24084 24085 24086 24087 24088 24089 24090 24091 24092 24093 24094 24095 24096 24097 24098 24099 24100 24101 24102 24103 24104 24105 24106 24107 24108 24109 24110 24111 24112 24113 24114 24115 24116 24117 24118 24119 24120 24121 24122 24123 24124 24125 24126 24127 24128 24129 24130 24131 24132 24133 24134 24135 24136 24137 24138 24139 24140 24141 24142 24143 24144 24145 24146 24147 24148 24149 24150 24151 24152 24153 24154 24155 24156 24157 24158 24159 24160 24161 24162 24163 24164 24165 24166 24167 24168 24169 24170 24171 24172 24173 24174 24175 24176 24177 24178 24179 24180 24181 24182 24183 24184 24185 24186 24187 24188 24189 24190 24191 24192 24193 24194 24195 24196 24197 24198 24199 24200 24201 24202 24203 24204 24205 24206 24207 24208 24209 24210 24211 24212 24213 24214 24215 24216 24217 24218 24219 24220 24221 24222 24223 24224 24225 24226 24227 24228 24229 24230 24231 24232 24233 24234 24235 24236 24237 24238 24239 24240 24241 24242 24243 24244 24245 24246 24247 24248 24249 24250 24251 24252 24253 24254 24255 24256 24257 24258 24259 24260 24261 24262 24263 24264 24265 24266 24267 24268 24269 24270 24271 24272 24273 24274 24275 24276 24277 24278 24279 24280 24281 24282 24283 24284 24285 24286 24287 24288 24289 24290 24291 24292 24293 24294 24295 24296 24297 24298 24299 24300 24301 24302 24303 24304 24305 24306 24307 24308 24309 24310 24311 24312 24313 24314 24315 24316 24317 24318 24319 24320 24321 24322 24323 24324 24325 24326 24327 24328 24329 24330 24331 24332 24333 24334 24335 24336 24337 24338 24339 24340 24341 24342 24343 24344 24345 24346 24347 24348 24349 24350 24351 24352 24353 24354 24355 24356 24357 24358 24359 24360 24361 24362 24363 24364 24365 24366 24367 24368 24369 24370 24371 24372 24373 24374 24375 24376 24377 24378 24379 24380 24381 24382 24383 24384 24385 24386 24387 24388 24389 24390 24391 24392 24393 24394 24395 24396 24397 24398 24399 24400 24401 24402 24403 24404 24405 24406 24407 24408 24409 24410 24411 24412 24413 24414 24415 24416 24417 24418 24419 24420 24421 24422 24423 24424 24425 24426 24427 24428 24429 24430 24431 24432 24433 24434 24435 24436 24437 24438 24439 24440 24441 24442 24443 24444 24445 24446 24447 24448 24449 24450 24451 24452 24453 24454 24455 24456 24457 24458 24459 24460 24461 24462 24463 24464 24465 24466 24467 24468 24469 24470 24471 24472 24473 24474 24475 24476 24477 24478 24479 24480 24481 24482 24483 24484 24485 24486 24487 24488 24489 24490 24491 24492 24493 24494 24495 24496 24497 24498 24499 24500 24501 24502 24503 24504 24505 24506 24507 24508 24509 24510 24511 24512 24513 24514 24515 24516 24517 24518 24519 24520 24521 24522 24523 24524 24525 24526 24527 24528 24529 24530 24531 24532 24533 24534 24535 24536 24537 24538 24539 24540 24541 24542 24543 24544 24545 24546 24547 24548 24549 24550 24551 24552 24553 24554 24555 24556 24557 24558 24559 24560 24561 24562 24563 24564 24565 24566 24567 24568 24569 24570 24571 24572 24573 24574 24575 24576 24577 24578 24579 24580 24581 24582 24583 24584 24585 24586 24587 24588 24589 24590 24591 24592 24593 24594 24595 24596 24597 24598 24599 24600 24601 24602 24603 24604 24605 24606 24607 24608 24609 24610 24611 24612 24613 24614 24615 24616 24617 24618 24619 24620 24621 24622 24623 24624 24625 24626 24627 24628 24629 24630 24631 24632 24633 24634 24635 24636 24637 24638 24639 24640 24641 24642 24643 24644 24645 24646 24647 24648 24649 24650 24651 24652 24653 24654 24655 24656 24657 24658 24659 24660 24661 24662 24663 24664 24665 24666 24667 24668 24669 24670 24671 24672 24673 24674 24675 24676 24677 24678 24679 24680 24681 24682 24683 24684 24685 24686 24687 24688 24689 24690 24691 24692 24693 24694 24695 24696 24697 24698 24699 24700 24701 24702 24703 24704 24705 24706 24707 24708 24709 24710 24711 24712 24713 24714 24715 24716 24717 24718 24719 24720 24721 24722 24723 24724 24725 24726 24727 24728 24729 24730 24731 24732 24733 24734 24735 24736 24737 24738 24739 24740 24741 24742 24743 24744 24745 24746 24747 24748 24749 24750 24751 24752 24753 24754 24755 24756 24757 24758 24759 24760 24761 24762 24763 24764 24765 24766 24767 24768 24769 24770 24771 24772 24773 24774 24775 24776 24777 24778 24779 24780 24781 24782 24783 24784 24785 24786 24787 24788 24789 24790 24791 24792 24793 24794 24795 24796 24797 24798 24799 24800 24801 24802 24803 24804 24805 24806 24807 24808 24809 24810 24811 24812 24813 24814 24815 24816 24817 24818 24819 24820 24821 24822 24823 24824 24825 24826 24827 24828 24829 24830 24831 24832 24833 24834 24835 24836 24837 24838 24839 24840 24841 24842 24843 24844 24845 24846 24847 24848 24849 24850 24851 24852 24853 24854 24855 24856 24857 24858 24859 24860 24861 24862 24863 24864 24865 24866 24867 24868 24869 24870 24871 24872 24873 24874 24875 24876 24877 24878 24879 24880 24881 24882 24883 24884 24885 24886 24887 24888 24889 24890 24891 24892 24893 24894 24895 24896 24897 24898 24899 24900 24901 24902 24903 24904 24905 24906 24907 24908 24909 24910 24911 24912 24913 24914 24915 24916 24917 24918 24919 24920 24921 24922 24923 24924 24925 24926 24927 24928 24929 24930 24931 24932 24933 24934 24935 24936 24937 24938 24939 24940 24941 24942 24943 24944 24945 24946 24947 24948 24949 24950 24951 24952 24953 24954 24955 24956 24957 24958 24959 24960 24961 24962 24963 24964 24965 24966 24967 24968 24969 24970 24971 24972 24973 24974 24975 24976 24977 24978 24979 24980 24981 24982 24983 24984 24985 24986 24987 24988 24989 24990 24991 24992 24993 24994 24995 24996 24997 24998 24999 25000 25001 25002 25003 25004 25005 25006 25007 25008 25009 25010 25011 25012 25013 25014 25015 25016 25017 25018 25019 25020 25021 25022 25023 25024 25025 25026 25027 25028 25029 25030 25031 25032 25033 25034 25035 25036 25037 25038 25039 25040 25041 25042 25043 25044 25045 25046 25047 25048 25049 25050 25051 25052 25053 25054 25055 25056 25057 25058 25059 25060 25061 25062 25063 25064 25065 25066 25067 25068 25069 25070 25071 25072 25073 25074 25075 25076 25077 25078 25079 25080 25081 25082 25083 25084 25085 25086 25087 25088 25089 25090 25091 25092 25093 25094 25095 25096 25097 25098 25099 25100 25101 25102 25103 25104 25105 25106 25107 25108 25109 25110 25111 25112 25113 25114 25115 25116 25117 25118 25119 25120 25121 25122 25123 25124 25125 25126 25127 25128 25129 25130 25131 25132 25133 25134 25135 25136 25137 25138 25139 25140 25141 25142 25143 25144 25145 25146 25147 25148 25149 25150 25151 25152 25153 25154 25155 25156 25157 25158 25159 25160 25161 25162 25163 25164 25165 25166 25167 25168 25169 25170 25171 25172 25173 25174 25175 25176 25177 25178 25179 25180 25181 25182 25183 25184 25185 25186 25187 25188 25189 25190 25191 25192 25193 25194 25195 25196 25197 25198 25199 25200 25201 25202 25203 25204 25205 25206 25207 25208 25209 25210 25211 25212 25213 25214 25215 25216 25217 25218 25219 25220 25221 25222 25223 25224 25225 25226 25227 25228 25229 25230 25231 25232 25233 25234 25235 25236 25237 25238 25239 25240 25241 25242 25243 25244 25245 25246 25247 25248 25249 25250 25251 25252 25253 25254 25255 25256 25257 25258 25259 25260 25261 25262 25263 25264 25265 25266 25267 25268 25269 25270 25271 25272 25273 25274 25275 25276 25277 25278 25279 25280 25281 25282 25283 25284 25285 25286 25287 25288 25289 25290 25291 25292 25293 25294 25295 25296 25297 25298 25299 25300 25301 25302 25303 25304 25305 25306 25307 25308 25309 25310 25311 25312 25313 25314 25315 25316 25317 25318 25319 25320 25321 25322 25323 25324 25325 25326 25327 25328 25329 25330 25331 25332 25333 25334 25335 25336 25337 25338 25339 25340 25341 25342 25343 25344 25345 25346 25347 25348 25349 25350 25351 25352 25353 25354 25355 25356 25357 25358 25359 25360 25361 25362 25363 25364 25365 25366 25367 25368 25369 25370 25371 25372 25373 25374 25375 25376 25377 25378 25379 25380 25381 25382 25383 25384 25385 25386 25387 25388 25389 25390 25391 25392 25393 25394 25395 25396 25397 25398 25399 25400 25401 25402 25403 25404 25405 25406 25407 25408 25409 25410 25411 25412 25413 25414 25415 25416 25417 25418 25419 25420 25421 25422 25423 25424 25425 25426 25427 25428 25429 25430 25431 25432 25433 25434 25435 25436 25437 25438 25439 25440 25441 25442 25443 25444 25445 25446 25447 25448 25449 25450 25451 25452 25453 25454 25455 25456 25457 25458 25459 25460 25461 25462 25463 25464 25465 25466 25467 25468 25469 25470 25471 25472 25473 25474 25475 25476 25477 25478 25479 25480 25481 25482 25483 25484 25485 25486 25487 25488 25489 25490 25491 25492 25493 25494 25495 25496 25497 25498 25499 25500 25501 25502 25503 25504 25505 25506 25507 25508 25509 25510 25511 25512 25513 25514 25515 25516 25517 25518 25519 25520 25521 25522 25523 25524 25525 25526 25527 25528 25529 25530 25531 25532 25533 25534 25535 25536 25537 25538 25539 25540 25541 25542 25543 25544 25545 25546 25547 25548 25549 25550 25551 25552 25553 25554 25555 25556 25557 25558 25559 25560 25561 25562 25563 25564 25565 25566 25567 25568 25569 25570 25571 25572 25573 25574 25575 25576 25577 25578 25579 25580 25581 25582 25583 25584 25585 25586 25587 25588 25589 25590 25591 25592 25593 25594 25595 25596 25597 25598 25599 25600 25601 25602 25603 25604 25605 25606 25607 25608 25609 25610 25611 25612 25613 25614 25615 25616 25617 25618 25619 25620 25621 25622 25623 25624 25625 25626 25627 25628 25629 25630 25631 25632 25633 25634 25635 25636 25637 25638 25639 25640 25641 25642 25643 25644 25645 25646 25647 25648 25649 25650 25651 25652 25653 25654 25655 25656 25657 25658 25659 25660 25661 25662 25663 25664 25665 25666 25667 25668 25669 25670 25671 25672 25673 25674 25675 25676 25677 25678 25679 25680 25681 25682 25683 25684 25685 25686 25687 25688 25689 25690 25691 25692 25693 25694 25695 25696 25697 25698 25699 25700 25701 25702 25703 25704 25705 25706 25707 25708 25709 25710 25711 25712 25713 25714 25715 25716 25717 25718 25719 25720 25721 25722 25723 25724 25725 25726 25727 25728 25729 25730 25731 25732 25733 25734 25735 25736 25737 25738 25739 25740 25741 25742 25743 25744 25745 25746 25747 25748 25749 25750 25751 25752 25753 25754 25755 25756 25757 25758 25759 25760 25761 25762 25763 25764 25765 25766 25767 25768 25769 25770 25771 25772 25773 25774 25775 25776 25777 25778 25779 25780 25781 25782 25783 25784 25785 25786 25787 25788 25789 25790 25791 25792 25793 25794 25795 25796 25797 25798 25799 25800 25801 25802 25803 25804 25805 25806 25807 25808 25809 25810 25811 25812 25813 25814 25815 25816 25817 25818 25819 25820 25821 25822 25823 25824 25825 25826 25827 25828 25829 25830 25831 25832 25833 25834 25835 25836 25837 25838 25839 25840 25841 25842 25843 25844 25845 25846 25847 25848 25849 25850 25851 25852 25853 25854 25855 25856 25857 25858 25859 25860 25861 25862 25863 25864 25865 25866 25867 25868 25869 25870 25871 25872 25873 25874 25875 25876 25877 25878 25879 25880 25881 25882 25883 25884 25885 25886 25887 25888 25889 25890 25891 25892 25893 25894 25895 25896 25897 25898 25899 25900 25901 25902 25903 25904 25905 25906 25907 25908 25909 25910 25911 25912 25913 25914 25915 25916 25917 25918 25919 25920 25921 25922 25923 25924 25925 25926 25927 25928 25929 25930 25931 25932 25933 25934 25935 25936 25937 25938 25939 25940 25941 25942 25943 25944 25945 25946 25947 25948 25949 25950 25951 25952 25953 25954 25955 25956 25957 25958 25959 25960 25961 25962 25963 25964 25965 25966 25967 25968 25969 25970 25971 25972 25973 25974 25975 25976 25977 25978 25979 25980 25981 25982 25983 25984 25985 25986 25987 25988 25989 25990 25991 25992 25993 25994 25995 25996 25997 25998 25999 26000 26001 26002 26003 26004 26005 26006 26007 26008 26009 26010 26011 26012 26013 26014 26015 26016 26017 26018 26019 26020 26021 26022 26023 26024 26025 26026 26027 26028 26029 26030 26031 26032 26033 26034 26035 26036 26037 26038 26039 26040 26041 26042 26043 26044 26045 26046 26047 26048 26049 26050 26051 26052 26053 26054 26055 26056 26057 26058 26059 26060 26061 26062 26063 26064 26065 26066 26067 26068 26069 26070 26071 26072 26073 26074 26075 26076 26077 26078 26079 26080 26081 26082 26083 26084 26085 26086 26087 26088 26089 26090 26091 26092 26093 26094 26095 26096 26097 26098 26099 26100 26101 26102 26103 26104 26105 26106 26107 26108 26109 26110 26111 26112 26113 26114 26115 26116 26117 26118 26119 26120 26121 26122 26123 26124 26125 26126 26127 26128 26129 26130 26131 26132 26133 26134 26135 26136 26137 26138 26139 26140 26141 26142 26143 26144 26145 26146 26147 26148 26149 26150 26151 26152 26153 26154 26155 26156 26157 26158 26159 26160 26161 26162 26163 26164 26165 26166 26167 26168 26169 26170 26171 26172 26173 26174 26175 26176 26177 26178 26179 26180 26181 26182 26183 26184 26185 26186 26187 26188 26189 26190 26191 26192 26193 26194 26195 26196 26197 26198 26199 26200 26201 26202 26203 26204 26205 26206 26207 26208 26209 26210 26211 26212 26213 26214 26215 26216 26217 26218 26219 26220 26221 26222 26223 26224 26225 26226 26227 26228 26229 26230 26231 26232 26233 26234 26235 26236 26237 26238 26239 26240 26241 26242 26243 26244 26245 26246 26247 26248 26249 26250 26251 26252 26253 26254 26255 26256 26257 26258 26259 26260 26261 26262 26263 26264 26265 26266 26267 26268 26269 26270 26271 26272 26273 26274 26275 26276 26277 26278 26279 26280 26281 26282 26283 26284 26285 26286 26287 26288 26289 26290 26291 26292 26293 26294 26295 26296 26297 26298 26299 26300 26301 26302 26303 26304 26305 26306 26307 26308 26309 26310 26311 26312 26313 26314 26315 26316 26317 26318 26319 26320 26321 26322 26323 26324 26325 26326 26327 26328 26329 26330 26331 26332 26333 26334 26335 26336 26337 26338 26339 26340 26341 26342 26343 26344 26345 26346 26347 26348 26349 26350 26351 26352 26353 26354 26355 26356 26357 26358 26359 26360 26361 26362 26363 26364 26365 26366 26367 26368 26369 26370 26371 26372 26373 26374 26375 26376 26377 26378 26379 26380 26381 26382 26383 26384 26385 26386 26387 26388 26389 26390 26391 26392 26393 26394 26395 26396 26397 26398 26399 26400 26401 26402 26403 26404 26405 26406 26407 26408 26409 26410 26411 26412 26413 26414 26415 26416 26417 26418 26419 26420 26421 26422 26423 26424 26425 26426 26427 26428 26429 26430 26431 26432 26433 26434 26435 26436 26437 26438 26439 26440 26441 26442 26443 26444 26445 26446 26447 26448 26449 26450 26451 26452 26453 26454 26455 26456 26457 26458 26459 26460 26461 26462 26463 26464 26465 26466 26467 26468 26469 26470 26471 26472 26473 26474 26475 26476 26477 26478 26479 26480 26481 26482 26483 26484 26485 26486 26487 26488 26489 26490 26491 26492 26493 26494 26495 26496 26497 26498 26499 26500 26501 26502 26503 26504 26505 26506 26507 26508 26509 26510 26511 26512 26513 26514 26515 26516 26517 26518 26519 26520 26521 26522 26523 26524 26525 26526 26527 26528 26529 26530 26531 26532 26533 26534 26535 26536 26537 26538 26539 26540 26541 26542 26543 26544 26545 26546 26547 26548 26549 26550 26551 26552 26553 26554 26555 26556 26557 26558 26559 26560 26561 26562 26563 26564 26565 26566 26567 26568 26569 26570 26571 26572 26573 26574 26575 26576 26577 26578 26579 26580 26581 26582 26583 26584 26585 26586 26587 26588 26589 26590 26591 26592 26593 26594 26595 26596 26597 26598 26599 26600 26601 26602 26603 26604 26605 26606 26607 26608 26609 26610 26611 26612 26613 26614 26615 26616 26617 26618 26619 26620 26621 26622 26623 26624 26625 26626 26627 26628 26629 26630 26631 26632 26633 26634 26635 26636 26637 26638 26639 26640 26641 26642 26643 26644 26645 26646 26647 26648 26649 26650 26651 26652 26653 26654 26655 26656 26657 26658 26659 26660 26661 26662 26663 26664 26665 26666 26667 26668 26669 26670 26671 26672 26673 26674 26675 26676 26677 26678 26679 26680 26681 26682 26683 26684 26685 26686 26687 26688 26689 26690 26691 26692 26693 26694 26695 26696 26697 26698 26699 26700 26701 26702 26703 26704 26705 26706 26707 26708 26709 26710 26711 26712 26713 26714 26715 26716 26717 26718 26719 26720 26721 26722 26723 26724 26725 26726 26727 26728 26729 26730 26731 26732 26733 26734 26735 26736 26737 26738 26739 26740 26741 26742 26743 26744 26745 26746 26747 26748 26749 26750 26751 26752 26753 26754 26755 26756 26757 26758 26759 26760 26761 26762 26763 26764 26765 26766 26767 26768 26769 26770 26771 26772 26773 26774 26775 26776 26777 26778 26779 26780 26781 26782 26783 26784 26785 26786 26787 26788 26789 26790 26791 26792 26793 26794 26795 26796 26797 26798 26799 26800 26801 26802 26803 26804 26805 26806 26807 26808 26809 26810 26811 26812 26813 26814 26815 26816 26817 26818 26819 26820 26821 26822 26823 26824 26825 26826 26827 26828 26829 26830 26831 26832 26833 26834 26835 26836 26837 26838 26839 26840 26841 26842 26843 26844 26845 26846 26847 26848 26849 26850 26851 26852 26853 26854 26855 26856 26857 26858 26859 26860 26861 26862 26863 26864 26865 26866 26867 26868 26869 26870 26871 26872 26873 26874 26875 26876 26877 26878 26879 26880 26881 26882 26883 26884 26885 26886 26887 26888 26889 26890 26891 26892 26893 26894 26895 26896 26897 26898 26899 26900 26901 26902 26903 26904 26905 26906 26907 26908 26909 26910 26911 26912 26913 26914 26915 26916 26917 26918 26919 26920 26921 26922 26923 26924 26925 26926 26927 26928 26929 26930 26931 26932 26933 26934 26935 26936 26937 26938 26939 26940 26941 26942 26943 26944 26945 26946 26947 26948 26949 26950 26951 26952 26953 26954 26955 26956 26957 26958 26959 26960 26961 26962 26963 26964 26965 26966 26967 26968 26969 26970 26971 26972 26973 26974 26975 26976 26977 26978 26979 26980 26981 26982 26983 26984 26985 26986 26987 26988 26989 26990 26991 26992 26993 26994 26995 26996 26997 26998 26999 27000 27001 27002 27003 27004 27005 27006 27007 27008 27009 27010 27011 27012 27013 27014 27015 27016 27017 27018 27019 27020 27021 27022 27023 27024 27025 27026 27027 27028 27029 27030 27031 27032 27033 27034 27035 27036 27037 27038 27039 27040 27041 27042 27043 27044 27045 27046 27047 27048 27049 27050 27051 27052 27053 27054 27055 27056 27057 27058 27059 27060 27061 27062 27063 27064 27065 27066 27067 27068 27069 27070 27071 27072 27073 27074 27075 27076 27077 27078 27079 27080 27081 27082 27083 27084 27085 27086 27087 27088 27089 27090 27091 27092 27093 27094 27095 27096 27097 27098 27099 27100 27101 27102 27103 27104 27105 27106 27107 27108 27109 27110 27111 27112 27113 27114 27115 27116 27117 27118 27119 27120 27121 27122 27123 27124 27125 27126 27127 27128 27129 27130 27131 27132 27133 27134 27135 27136 27137 27138 27139 27140 27141 27142 27143 27144 27145 27146 27147 27148 27149 27150 27151 27152 27153 27154 27155 27156 27157 27158 27159 27160 27161 27162 27163 27164 27165 27166 27167 27168 27169 27170 27171 27172 27173 27174 27175 27176 27177 27178 27179 27180 27181 27182 27183 27184 27185 27186 27187 27188 27189 27190 27191 27192 27193 27194 27195 27196 27197 27198 27199 27200 27201 27202 27203 27204 27205 27206 27207 27208 27209 27210 27211 27212 27213 27214 27215 27216 27217 27218 27219 27220 27221 27222 27223 27224 27225 27226 27227 27228 27229 27230 27231 27232 27233 27234 27235 27236 27237 27238 27239 27240 27241 27242 27243 27244 27245 27246 27247 27248 27249 27250 27251 27252 27253 27254 27255 27256 27257 27258 27259 27260 27261 27262 27263 27264 27265 27266 27267 27268 27269 27270 27271 27272 27273 27274 27275 27276 27277 27278 27279 27280 27281 27282 27283 27284 27285 27286 27287 27288 27289 27290 27291 27292 27293 27294 27295 27296 27297 27298 27299 27300 27301 27302 27303 27304 27305 27306 27307 27308 27309 27310 27311 27312 27313 27314 27315 27316 27317 27318 27319 27320 27321 27322 27323 27324 27325 27326 27327 27328 27329 27330 27331 27332 27333 27334 27335 27336 27337 27338 27339 27340 27341 27342 27343 27344 27345 27346 27347 27348 27349 27350 27351 27352 27353 27354 27355 27356 27357 27358 27359 27360 27361 27362 27363 27364 27365 27366 27367 27368 27369 27370 27371 27372 27373 27374 27375 27376 27377 27378 27379 27380 27381 27382 27383 27384 27385 27386 27387 27388 27389 27390 27391 27392 27393 27394 27395 27396 27397 27398 27399 27400 27401 27402 27403 27404 27405 27406 27407 27408 27409 27410 27411 27412 27413 27414 27415 27416 27417 27418 27419 27420 27421 27422 27423 27424 27425 27426 27427 27428 27429 27430 27431 27432 27433 27434 27435 27436 27437 27438 27439 27440 27441 27442 27443 27444 27445 27446 27447 27448 27449 27450 27451 27452 27453 27454 27455 27456 27457 27458 27459 27460 27461 27462 27463 27464 27465 27466 27467 27468 27469 27470 27471 27472 27473 27474 27475 27476 27477 27478 27479 27480 27481 27482 27483 27484 27485 27486 27487 27488 27489 27490 27491 27492 27493 27494 27495 27496 27497 27498 27499 27500 27501 27502 27503 27504 27505 27506 27507 27508 27509 27510 27511 27512 27513 27514 27515 27516 27517 27518 27519 27520 27521 27522 27523 27524 27525 27526 27527 27528 27529 27530 27531 27532 27533 27534 27535 27536 27537 27538 27539 27540 27541 27542 27543 27544 27545 27546 27547 27548 27549 27550 27551 27552 27553 27554 27555 27556 27557 27558 27559 27560 27561 27562 27563 27564 27565 27566 27567 27568 27569 27570 27571 27572 27573 27574 27575 27576 27577 27578 27579 27580 27581 27582 27583 27584 27585 27586 27587 27588 27589 27590 27591 27592 27593 27594 27595 27596 27597 27598 27599 27600 27601 27602 27603 27604 27605 27606 27607 27608 27609 27610 27611 27612 27613 27614 27615 27616 27617 27618 27619 27620 27621 27622 27623 27624 27625 27626 27627 27628 27629 27630 27631 27632 27633 27634 27635 27636 27637 27638 27639 27640 27641 27642 27643 27644 27645 27646 27647 27648 27649 27650 27651 27652 27653 27654 27655 27656 27657 27658 27659 27660 27661 27662 27663 27664 27665 27666 27667 27668 27669 27670 27671 27672 27673 27674 27675 27676 27677 27678 27679 27680 27681 27682 27683 27684 27685 27686 27687 27688 27689 27690 27691 27692 27693 27694 27695 27696 27697 27698 27699 27700 27701 27702 27703 27704 27705 27706 27707 27708 27709 27710 27711 27712 27713 27714 27715 27716 27717 27718 27719 27720 27721 27722 27723 27724 27725 27726 27727 27728 27729 27730 27731 27732 27733 27734 27735 27736 27737 27738 27739 27740 27741 27742 27743 27744 27745 27746 27747 27748 27749 27750 27751 27752 27753 27754 27755 27756 27757 27758 27759 27760 27761 27762 27763 27764 27765 27766 27767 27768 27769 27770 27771 27772 27773 27774 27775 27776 27777 27778 27779 27780 27781 27782 27783 27784 27785 27786 27787 27788 27789 27790 27791 27792 27793 27794 27795 27796 27797 27798 27799 27800 27801 27802 27803 27804 27805 27806 27807 27808 27809 27810 27811 27812 27813 27814 27815 27816 27817 27818 27819 27820 27821 27822 27823 27824 27825 27826 27827 27828 27829 27830 27831 27832 27833 27834 27835 27836 27837 27838 27839 27840 27841 27842 27843 27844 27845 27846 27847 27848 27849 27850 27851 27852 27853 27854 27855 27856 27857 27858 27859 27860 27861 27862 27863 27864 27865 27866 27867 27868 27869 27870 27871 27872 27873 27874 27875 27876 27877 27878 27879 27880 27881 27882 27883 27884 27885 27886 27887 27888 27889 27890 27891 27892 27893 27894 27895 27896 27897 27898 27899 27900 27901 27902 27903 27904 27905 27906 27907 27908 27909 27910 27911 27912 27913 27914 27915 27916 27917 27918 27919 27920 27921 27922 27923 27924 27925 27926 27927 27928 27929 27930 27931 27932 27933 27934 27935 27936 27937 27938 27939 27940 27941 27942 27943 27944 27945 27946 27947 27948 27949 27950 27951 27952 27953 27954 27955 27956 27957 27958 27959 27960 27961 27962 27963 27964 27965 27966 27967 27968 27969 27970 27971 27972 27973 27974 27975 27976 27977 27978 27979 27980 27981 27982 27983 27984 27985 27986 27987 27988 27989 27990 27991 27992 27993 27994 27995 27996 27997 27998 27999 28000 28001 28002 28003 28004 28005 28006 28007 28008 28009 28010 28011 28012 28013 28014 28015 28016 28017 28018 28019 28020 28021 28022 28023 28024 28025 28026 28027 28028 28029 28030 28031 28032 28033 28034 28035 28036 28037 28038 28039 28040 28041 28042 28043 28044 28045 28046 28047 28048 28049 28050 28051 28052 28053 28054 28055 28056 28057 28058 28059 28060 28061 28062 28063 28064 28065 28066 28067 28068 28069 28070 28071 28072 28073 28074 28075 28076 28077 28078 28079 28080 28081 28082 28083 28084 28085 28086 28087 28088 28089 28090 28091 28092 28093 28094 28095 28096 28097 28098 28099 28100 28101 28102 28103 28104 28105 28106 28107 28108 28109 28110 28111 28112 28113 28114 28115 28116 28117 28118 28119 28120 28121 28122 28123 28124 28125 28126 28127 28128 28129 28130 28131 28132 28133 28134 28135 28136 28137 28138 28139 28140 28141 28142 28143 28144 28145 28146 28147 28148 28149 28150 28151 28152 28153 28154 28155 28156 28157 28158 28159 28160 28161 28162 28163 28164 28165 28166 28167 28168 28169 28170 28171 28172 28173 28174 28175 28176 28177 28178 28179 28180 28181 28182 28183 28184 28185 28186 28187 28188 28189 28190 28191 28192 28193 28194 28195 28196 28197 28198 28199 28200 28201 28202 28203 28204 28205 28206 28207 28208 28209 28210 28211 28212 28213 28214 28215 28216 28217 28218 28219 28220 28221 28222 28223 28224 28225 28226 28227 28228 28229 28230 28231 28232 28233 28234 28235 28236 28237 28238 28239 28240 28241 28242 28243 28244 28245 28246 28247 28248 28249 28250 28251 28252 28253 28254 28255 28256 28257 28258 28259 28260 28261 28262 28263 28264 28265 28266 28267 28268 28269 28270 28271 28272 28273 28274 28275 28276 28277 28278 28279 28280 28281 28282 28283 28284 28285 28286 28287 28288 28289 28290 28291 28292 28293 28294 28295 28296 28297 28298 28299 28300 28301 28302 28303 28304 28305 28306 28307 28308 28309 28310 28311 28312 28313 28314 28315 28316 28317 28318 28319 28320 28321 28322 28323 28324 28325 28326 28327 28328 28329 28330 28331 28332 28333 28334 28335 28336 28337 28338 28339 28340 28341 28342 28343 28344 28345 28346 28347 28348 28349 28350 28351 28352 28353 28354 28355 28356 28357 28358 28359 28360 28361 28362 28363 28364 28365 28366 28367 28368 28369 28370 28371 28372 28373 28374 28375 28376 28377 28378 28379 28380 28381 28382 28383 28384 28385 28386 28387 28388 28389 28390 28391 28392 28393 28394 28395 28396 28397 28398 28399 28400 28401 28402 28403 28404 28405 28406 28407 28408 28409 28410 28411 28412 28413 28414 28415 28416 28417 28418 28419 28420 28421 28422 28423 28424 28425 28426 28427 28428 28429 28430 28431 28432 28433 28434 28435 28436 28437 28438 28439 28440 28441 28442 28443 28444 28445 28446 28447 28448 28449 28450 28451 28452 28453 28454 28455 28456 28457 28458 28459 28460 28461 28462 28463 28464 28465 28466 28467 28468 28469 28470 28471 28472 28473 28474 28475 28476 28477 28478 28479 28480 28481 28482 28483 28484 28485 28486 28487 28488 28489 28490 28491 28492 28493 28494 28495 28496 28497 28498 28499 28500 28501 28502 28503 28504 28505 28506 28507 28508 28509 28510 28511 28512 28513 28514 28515 28516 28517 28518 28519 28520 28521 28522 28523 28524 28525 28526 28527 28528 28529 28530 28531 28532 28533 28534 28535 28536 28537 28538 28539 28540 28541 28542 28543 28544 28545 28546 28547 28548 28549 28550 28551 28552 28553 28554 28555 28556 28557 28558 28559 28560 28561 28562 28563 28564 28565 28566 28567 28568 28569 28570 28571 28572 28573 28574 28575 28576 28577 28578 28579 28580 28581 28582 28583 28584 28585 28586 28587 28588 28589 28590 28591 28592 28593 28594 28595 28596 28597 28598 28599 28600 28601 28602 28603 28604 28605 28606 28607 28608 28609 28610 28611 28612 28613 28614 28615 28616 28617 28618 28619 28620 28621 28622 28623 28624 28625 28626 28627 28628 28629 28630 28631 28632 28633 28634 28635 28636 28637 28638 28639 28640 28641 28642 28643 28644 28645 28646 28647 28648 28649 28650 28651 28652 28653 28654 28655 28656 28657 28658 28659 28660 28661 28662 28663 28664 28665 28666 28667 28668 28669 28670 28671 28672 28673 28674 28675 28676 28677 28678 28679 28680 28681 28682 28683 28684 28685 28686 28687 28688 28689 28690 28691 28692 28693 28694 28695 28696 28697 28698 28699 28700 28701 28702 28703 28704 28705 28706 28707 28708 28709 28710 28711 28712 28713 28714 28715 28716 28717 28718 28719 28720 28721 28722 28723 28724 28725 28726 28727 28728 28729 28730 28731 28732 28733 28734 28735 28736 28737 28738 28739 28740 28741 28742 28743 28744 28745 28746 28747 28748 28749 28750 28751 28752 28753 28754 28755 28756 28757 28758 28759 28760 28761 28762 28763 28764 28765 28766 28767 28768 28769 28770 28771 28772 28773 28774 28775 28776 28777 28778 28779 28780 28781 28782 28783 28784 28785 28786 28787 28788 28789 28790 28791 28792 28793 28794 28795 28796 28797 28798 28799 28800 28801 28802 28803 28804 28805 28806 28807 28808 28809 28810 28811 28812 28813 28814 28815 28816 28817 28818 28819 28820 28821 28822 28823 28824 28825 28826 28827 28828 28829 28830 28831 28832 28833 28834 28835 28836 28837 28838 28839 28840 28841 28842 28843 28844 28845 28846 28847 28848 28849 28850 28851 28852 28853 28854 28855 28856 28857 28858 28859 28860 28861 28862 28863 28864 28865 28866 28867 28868 28869 28870 28871 28872 28873 28874 28875 28876 28877 28878 28879 28880 28881 28882 28883 28884 28885 28886 28887 28888 28889 28890 28891 28892 28893 28894 28895 28896 28897 28898 28899 28900 28901 28902 28903 28904 28905 28906 28907 28908 28909 28910 28911 28912 28913 28914 28915 28916 28917 28918 28919 28920 28921 28922 28923 28924 28925 28926 28927 28928 28929 28930 28931 28932 28933 28934 28935 28936 28937 28938 28939 28940 28941 28942 28943 28944 28945 28946 28947 28948 28949 28950 28951 28952 28953 28954 28955 28956 28957 28958 28959 28960 28961 28962 28963 28964 28965 28966 28967 28968 28969 28970 28971 28972 28973 28974 28975 28976 28977 28978 28979 28980 28981 28982 28983 28984 28985 28986 28987 28988 28989 28990 28991 28992 28993 28994 28995 28996 28997 28998 28999 29000 29001 29002 29003 29004 29005 29006 29007 29008 29009 29010 29011 29012 29013 29014 29015 29016 29017 29018 29019 29020 29021 29022 29023 29024 29025 29026 29027 29028 29029 29030 29031 29032 29033 29034 29035 29036 29037 29038 29039 29040 29041 29042 29043 29044 29045 29046 29047 29048 29049 29050 29051 29052 29053 29054 29055 29056 29057 29058 29059 29060 29061 29062 29063 29064 29065 29066 29067 29068 29069 29070 29071 29072 29073 29074 29075 29076 29077 29078 29079 29080 29081 29082 29083 29084 29085 29086 29087 29088 29089 29090 29091 29092 29093 29094 29095 29096 29097 29098 29099 29100 29101 29102 29103 29104 29105 29106 29107 29108 29109 29110 29111 29112 29113 29114 29115 29116 29117 29118 29119 29120 29121 29122 29123 29124 29125 29126 29127 29128 29129 29130 29131 29132 29133 29134 29135 29136 29137 29138 29139 29140 29141 29142 29143 29144 29145 29146 29147 29148 29149 29150 29151 29152 29153 29154 29155 29156 29157 29158 29159 29160 29161 29162 29163 29164 29165 29166 29167 29168 29169 29170 29171 29172 29173 29174 29175 29176 29177 29178 29179 29180 29181 29182 29183 29184 29185 29186 29187 29188 29189 29190 29191 29192 29193 29194 29195 29196 29197 29198 29199 29200 29201 29202 29203 29204 29205 29206 29207 29208 29209 29210 29211 29212 29213 29214 29215 29216 29217 29218 29219 29220 29221 29222 29223 29224 29225 29226 29227 29228 29229 29230 29231 29232 29233 29234 29235 29236 29237 29238 29239 29240 29241 29242 29243 29244 29245 29246 29247 29248 29249 29250 29251 29252 29253 29254 29255 29256 29257 29258 29259 29260 29261 29262 29263 29264 29265 29266 29267 29268 29269 29270 29271 29272 29273 29274 29275 29276 29277 29278 29279 29280 29281 29282 29283 29284 29285 29286 29287 29288 29289 29290 29291 29292 29293 29294 29295 29296 29297 29298 29299 29300 29301 29302 29303 29304 29305 29306 29307 29308 29309 29310 29311 29312 29313 29314 29315 29316 29317 29318 29319 29320 29321 29322 29323 29324 29325 29326 29327 29328 29329 29330 29331 29332 29333 29334 29335 29336 29337 29338 29339 29340 29341 29342 29343 29344 29345 29346 29347 29348 29349 29350 29351 29352 29353 29354 29355 29356 29357 29358 29359 29360 29361 29362 29363 29364 29365 29366 29367 29368 29369 29370 29371 29372 29373 29374 29375 29376 29377 29378 29379 29380 29381 29382 29383 29384 29385 29386 29387 29388 29389 29390 29391 29392 29393 29394 29395 29396 29397 29398 29399 29400 29401 29402 29403 29404 29405 29406 29407 29408 29409 29410 29411 29412 29413 29414 29415 29416 29417 29418 29419 29420 29421 29422 29423 29424 29425 29426 29427 29428 29429 29430 29431 29432 29433 29434 29435 29436 29437 29438 29439 29440 29441 29442 29443 29444 29445 29446 29447 29448 29449 29450 29451 29452 29453 29454 29455 29456 29457 29458 29459 29460 29461 29462 29463 29464 29465 29466 29467 29468 29469 29470 29471 29472 29473 29474 29475 29476 29477 29478 29479 29480 29481 29482 29483 29484 29485 29486 29487 29488 29489 29490 29491 29492 29493 29494 29495 29496 29497 29498 29499 29500 29501 29502 29503 29504 29505 29506 29507 29508 29509 29510 29511 29512 29513 29514 29515 29516 29517 29518 29519 29520 29521 29522 29523 29524 29525 29526 29527 29528 29529 29530 29531 29532 29533 29534 29535 29536 29537 29538 29539 29540 29541 29542 29543 29544 29545 29546 29547 29548 29549 29550 29551 29552 29553 29554 29555 29556 29557 29558 29559 29560 29561 29562 29563 29564 29565 29566 29567 29568 29569 29570 29571 29572 29573 29574 29575 29576 29577 29578 29579 29580 29581 29582 29583 29584 29585 29586 29587 29588 29589 29590 29591 29592 29593 29594 29595 29596 29597 29598 29599 29600 29601 29602 29603 29604 29605 29606 29607 29608 29609 29610 29611 29612 29613 29614 29615 29616 29617 29618 29619 29620 29621 29622 29623 29624 29625 29626 29627 29628 29629 29630 29631 29632 29633 29634 29635 29636 29637 29638 29639 29640 29641 29642 29643 29644 29645 29646 29647 29648 29649 29650 29651 29652 29653 29654 29655 29656 29657 29658 29659 29660 29661 29662 29663 29664 29665 29666 29667 29668 29669 29670 29671 29672 29673 29674 29675 29676 29677 29678 29679 29680 29681 29682 29683 29684 29685 29686 29687 29688 29689 29690 29691 29692 29693 29694 29695 29696 29697 29698 29699 29700 29701 29702 29703 29704 29705 29706 29707 29708 29709 29710 29711 29712 29713 29714 29715 29716 29717 29718 29719 29720 29721 29722 29723 29724 29725 29726 29727 29728 29729 29730 29731 29732 29733 29734 29735 29736 29737 29738 29739 29740 29741 29742 29743 29744 29745 29746 29747 29748 29749 29750 29751 29752 29753 29754 29755 29756 29757 29758 29759 29760 29761 29762 29763 29764 29765 29766 29767 29768 29769 29770 29771 29772 29773 29774 29775 29776 29777 29778 29779 29780 29781 29782 29783 29784 29785 29786 29787 29788 29789 29790 29791 29792 29793 29794 29795 29796 29797 29798 29799 29800 29801 29802 29803 29804 29805 29806 29807 29808 29809 29810 29811 29812 29813 29814 29815 29816 29817 29818 29819 29820 29821 29822 29823 29824 29825 29826 29827 29828 29829 29830 29831 29832 29833 29834 29835 29836 29837 29838 29839 29840 29841 29842 29843 29844 29845 29846 29847 29848 29849 29850 29851 29852 29853 29854 29855 29856 29857 29858 29859 29860 29861 29862 29863 29864 29865 29866 29867 29868 29869 29870 29871 29872 29873 29874 29875 29876 29877 29878 29879 29880 29881 29882 29883 29884 29885 29886 29887 29888 29889 29890 29891 29892 29893 29894 29895 29896 29897 29898 29899 29900 29901 29902 29903 29904 29905 29906 29907 29908 29909 29910 29911 29912 29913 29914 29915 29916 29917 29918 29919 29920 29921 29922 29923 29924 29925 29926 29927 29928 29929 29930 29931 29932 29933 29934 29935 29936 29937 29938 29939 29940 29941 29942 29943 29944 29945 29946 29947 29948 29949 29950 29951 29952 29953 29954 29955 29956 29957 29958 29959 29960 29961 29962 29963 29964 29965 29966 29967 29968 29969 29970 29971 29972 29973 29974 29975 29976 29977 29978 29979 29980 29981 29982 29983 29984 29985 29986 29987 29988 29989 29990 29991 29992 29993 29994 29995 29996 29997 29998 29999 30000 30001 30002 30003 30004 30005 30006 30007 30008 30009 30010 30011 30012 30013 30014 30015 30016 30017 30018 30019 30020 30021 30022 30023 30024 30025 30026 30027 30028 30029 30030 30031 30032 30033 30034 30035 30036 30037 30038 30039 30040 30041 30042 30043 30044 30045 30046 30047 30048 30049 30050 30051 30052 30053 30054 30055 30056 30057 30058 30059 30060 30061 30062 30063 30064 30065 30066 30067 30068 30069 30070 30071 30072 30073 30074 30075 30076 30077 30078 30079 30080 30081 30082 30083 30084 30085 30086 30087 30088 30089 30090 30091 30092 30093 30094 30095 30096 30097 30098 30099 30100 30101 30102 30103 30104 30105 30106 30107 30108 30109 30110 30111 30112 30113 30114 30115 30116 30117 30118 30119 30120 30121 30122 30123 30124 30125 30126 30127 30128 30129 30130 30131 30132 30133 30134 30135 30136 30137 30138 30139 30140 30141 30142 30143 30144 30145 30146 30147 30148 30149 30150 30151 30152 30153 30154 30155 30156 30157 30158 30159 30160 30161 30162 30163 30164 30165 30166 30167 30168 30169 30170 30171 30172 30173 30174 30175 30176 30177 30178 30179 30180 30181 30182 30183 30184 30185 30186 30187 30188 30189 30190 30191 30192 30193 30194 30195 30196 30197 30198 30199 30200 30201 30202 30203 30204 30205 30206 30207 30208 30209 30210 30211 30212 30213 30214 30215 30216 30217 30218 30219 30220 30221 30222 30223 30224 30225 30226 30227 30228 30229 30230 30231 30232 30233 30234 30235 30236 30237 30238 30239 30240 30241 30242 30243 30244 30245 30246 30247 30248 30249 30250 30251 30252 30253 30254 30255 30256 30257 30258 30259 30260 30261 30262 30263 30264 30265 30266 30267 30268 30269 30270 30271 30272 30273 30274 30275 30276 30277 30278 30279 30280 30281 30282 30283 30284 30285 30286 30287 30288 30289 30290 30291 30292 30293 30294 30295 30296 30297 30298 30299 30300 30301 30302 30303 30304 30305 30306 30307 30308 30309 30310 30311 30312 30313 30314 30315 30316 30317 30318 30319 30320 30321 30322 30323 30324 30325 30326 30327 30328 30329 30330 30331 30332 30333 30334 30335 30336 30337 30338 30339 30340 30341 30342 30343 30344 30345 30346 30347 30348 30349 30350 30351 30352 30353 30354 30355 30356 30357 30358 30359 30360 30361 30362 30363 30364 30365 30366 30367 30368 30369 30370 30371 30372 30373 30374 30375 30376 30377 30378 30379 30380 30381 30382 30383 30384 30385 30386 30387 30388 30389 30390 30391 30392 30393 30394 30395 30396 30397 30398 30399 30400 30401 30402 30403 30404 30405 30406 30407 30408 30409 30410 30411 30412 30413 30414 30415 30416 30417 30418 30419 30420 30421 30422 30423 30424 30425 30426 30427 30428 30429 30430 30431 30432 30433 30434 30435 30436 30437 30438 30439 30440 30441 30442 30443 30444 30445 30446 30447 30448 30449 30450 30451 30452 30453 30454 30455 30456 30457 30458 30459 30460 30461 30462 30463 30464 30465 30466 30467 30468 30469 30470 30471 30472 30473 30474 30475 30476 30477 30478 30479 30480 30481 30482 30483 30484 30485 30486 30487 30488 30489 30490 30491 30492 30493 30494 30495 30496 30497 30498 30499 30500 30501 30502 30503 30504 30505 30506 30507 30508 30509 30510 30511 30512 30513 30514 30515 30516 30517 30518 30519 30520 30521 30522 30523 30524 30525 30526 30527 30528 30529 30530 30531 30532 30533 30534 30535 30536 30537 30538 30539 30540 30541 30542 30543 30544 30545 30546 30547 30548 30549 30550 30551 30552 30553 30554 30555 30556 30557 30558 30559 30560 30561 30562 30563 30564 30565 30566 30567 30568 30569 30570 30571 30572 30573 30574 30575 30576 30577 30578 30579 30580 30581 30582 30583 30584 30585 30586 30587 30588 30589 30590 30591 30592 30593 30594 30595 30596 30597 30598 30599 30600 30601 30602 30603 30604 30605 30606 30607 30608 30609 30610 30611 30612 30613 30614 30615 30616 30617 30618 30619 30620 30621 30622 30623 30624 30625 30626 30627 30628 30629 30630 30631 30632 30633 30634 30635 30636 30637 30638 30639 30640 30641 30642 30643 30644 30645 30646 30647 30648 30649 30650 30651 30652 30653 30654 30655 30656 30657 30658 30659 30660 30661 30662 30663 30664 30665 30666 30667 30668 30669 30670 30671 30672 30673 30674 30675 30676 30677 30678 30679 30680 30681 30682 30683 30684 30685 30686 30687 30688 30689 30690 30691 30692 30693 30694 30695 30696 30697 30698 30699 30700 30701 30702 30703 30704 30705 30706 30707 30708 30709 30710 30711 30712 30713 30714 30715 30716 30717 30718 30719 30720 30721 30722 30723 30724 30725 30726 30727 30728 30729 30730 30731 30732 30733 30734 30735 30736 30737 30738 30739 30740 30741 30742 30743 30744 30745 30746 30747 30748 30749 30750 30751 30752 30753 30754 30755 30756 30757 30758 30759 30760 30761 30762 30763 30764 30765 30766 30767 30768 30769 30770 30771 30772 30773 30774 30775 30776 30777 30778 30779 30780 30781 30782 30783 30784 30785 30786 30787 30788 30789 30790 30791 30792 30793 30794 30795 30796 30797 30798 30799 30800 30801 30802 30803 30804 30805 30806 30807 30808 30809 30810 30811 30812 30813 30814 30815 30816 30817 30818 30819 30820 30821 30822 30823 30824 30825 30826 30827 30828 30829 30830 30831 30832 30833 30834 30835 30836 30837 30838 30839 30840 30841 30842 30843 30844 30845 30846 30847 30848 30849 30850 30851 30852 30853 30854 30855 30856 30857 30858 30859 30860 30861 30862 30863 30864 30865 30866 30867 30868 30869 30870 30871 30872 30873 30874 30875 30876 30877 30878 30879 30880 30881 30882 30883 30884 30885 30886 30887 30888 30889 30890 30891 30892 30893 30894 30895 30896 30897 30898 30899 30900 30901 30902 30903 30904 30905 30906 30907 30908 30909 30910 30911 30912 30913 30914 30915 30916 30917 30918 30919 30920 30921 30922 30923 30924 30925 30926 30927 30928 30929 30930 30931 30932 30933 30934 30935 30936 30937 30938 30939 30940 30941 30942 30943 30944 30945 30946 30947 30948 30949 30950 30951 30952 30953 30954 30955 30956 30957 30958 30959 30960 30961 30962 30963 30964 30965 30966 30967 30968 30969 30970 30971 30972 30973 30974 30975 30976 30977 30978 30979 30980 30981 30982 30983 30984 30985 30986 30987 30988 30989 30990 30991 30992 30993 30994 30995 30996 30997 30998 30999 31000 31001 31002 31003 31004 31005 31006 31007 31008 31009 31010 31011 31012 31013 31014 31015 31016 31017 31018 31019 31020 31021 31022 31023 31024 31025 31026 31027 31028 31029 31030 31031 31032 31033 31034 31035 31036 31037 31038 31039 31040 31041 31042 31043 31044 31045 31046 31047 31048 31049 31050 31051 31052 31053 31054 31055 31056 31057 31058 31059 31060 31061 31062 31063 31064 31065 31066 31067 31068 31069 31070 31071 31072 31073 31074 31075 31076 31077 31078 31079 31080 31081 31082 31083 31084 31085 31086 31087 31088 31089 31090 31091 31092 31093 31094 31095 31096 31097 31098 31099 31100 31101 31102 31103 31104 31105 31106 31107 31108 31109 31110 31111 31112 31113 31114 31115 31116 31117 31118 31119 31120 31121 31122 31123 31124 31125 31126 31127 31128 31129 31130 31131 31132 31133 31134 31135 31136 31137 31138 31139 31140 31141 31142 31143 31144 31145 31146 31147 31148 31149 31150 31151 31152 31153 31154 31155 31156 31157 31158 31159 31160 31161 31162 31163 31164 31165 31166 31167 31168 31169 31170 31171 31172 31173 31174 31175 31176 31177 31178 31179 31180 31181 31182 31183 31184 31185 31186 31187 31188 31189 31190 31191 31192 31193 31194 31195 31196 31197 31198 31199 31200 31201 31202 31203 31204 31205 31206 31207 31208 31209 31210 31211 31212 31213 31214 31215 31216 31217 31218 31219 31220 31221 31222 31223 31224 31225 31226 31227 31228 31229 31230 31231 31232 31233 31234 31235 31236 31237 31238 31239 31240 31241 31242 31243 31244 31245 31246 31247 31248 31249 31250 31251 31252 31253 31254 31255 31256 31257 31258 31259 31260 31261 31262 31263 31264 31265 31266 31267 31268 31269 31270 31271 31272 31273 31274 31275 31276 31277 31278 31279 31280 31281 31282 31283 31284 31285 31286 31287 31288 31289 31290 31291 31292 31293 31294 31295 31296 31297 31298 31299 31300 31301 31302 31303 31304 31305 31306 31307 31308 31309 31310 31311 31312 31313 31314 31315 31316 31317 31318 31319 31320 31321 31322 31323 31324 31325 31326 31327 31328 31329 31330 31331 31332 31333 31334 31335 31336 31337 31338 31339 31340 31341 31342 31343 31344 31345 31346 31347 31348 31349 31350 31351 31352 31353 31354 31355 31356 31357 31358 31359 31360 31361 31362 31363 31364 31365 31366 31367 31368 31369 31370 31371 31372 31373 31374 31375 31376 31377 31378 31379 31380 31381 31382 31383 31384 31385 31386 31387 31388 31389 31390 31391 31392 31393 31394 31395 31396 31397 31398 31399 31400 31401 31402 31403 31404 31405 31406 31407 31408 31409 31410 31411 31412 31413 31414 31415 31416 31417 31418 31419 31420 31421 31422 31423 31424 31425 31426 31427 31428 31429 31430 31431 31432 31433 31434 31435 31436 31437 31438 31439 31440 31441 31442 31443 31444 31445 31446 31447 31448 31449 31450 31451 31452 31453 31454 31455 31456 31457 31458 31459 31460 31461 31462 31463 31464 31465 31466 31467 31468 31469 31470 31471 31472 31473 31474 31475 31476 31477 31478 31479 31480 31481 31482 31483 31484 31485 31486 31487 31488 31489 31490 31491 31492 31493 31494 31495 31496 31497 31498 31499 31500 31501 31502 31503 31504 31505 31506 31507 31508 31509 31510 31511 31512 31513 31514 31515 31516 31517 31518 31519 31520 31521 31522 31523 31524 31525 31526 31527 31528 31529 31530 31531 31532 31533 31534 31535 31536 31537 31538 31539 31540 31541 31542 31543 31544 31545 31546 31547 31548 31549 31550 31551 31552 31553 31554 31555 31556 31557 31558 31559 31560 31561 31562 31563 31564 31565 31566 31567 31568 31569 31570 31571 31572 31573 31574 31575 31576 31577 31578 31579 31580 31581 31582 31583 31584 31585 31586 31587 31588 31589 31590 31591 31592 31593 31594 31595 31596 31597 31598 31599 31600 31601 31602 31603 31604 31605 31606 31607 31608 31609 31610 31611 31612 31613 31614 31615 31616 31617 31618 31619 31620 31621 31622 31623 31624 31625 31626 31627 31628 31629 31630 31631 31632 31633 31634 31635 31636 31637 31638 31639 31640 31641 31642 31643 31644 31645 31646 31647 31648 31649 31650 31651 31652 31653 31654 31655 31656 31657 31658 31659 31660 31661 31662 31663 31664 31665 31666 31667 31668 31669 31670 31671 31672 31673 31674 31675 31676 31677 31678 31679 31680 31681 31682 31683 31684 31685 31686 31687 31688 31689 31690 31691 31692 31693 31694 31695 31696 31697 31698 31699 31700 31701 31702 31703 31704 31705 31706 31707 31708 31709 31710 31711 31712 31713 31714 31715 31716 31717 31718 31719 31720 31721 31722 31723 31724 31725 31726 31727 31728 31729 31730 31731 31732 31733 31734 31735 31736 31737 31738 31739 31740 31741 31742 31743 31744 31745 31746 31747 31748 31749 31750 31751 31752 31753 31754 31755 31756 31757 31758 31759 31760 31761 31762 31763 31764 31765 31766 31767 31768 31769 31770 31771 31772 31773 31774 31775 31776 31777 31778 31779 31780 31781 31782 31783 31784 31785 31786 31787 31788 31789 31790 31791 31792 31793 31794 31795 31796 31797 31798 31799 31800 31801 31802 31803 31804 31805 31806 31807 31808 31809 31810 31811 31812 31813 31814 31815 31816 31817 31818 31819 31820 31821 31822 31823 31824 31825 31826 31827 31828 31829 31830 31831 31832 31833 31834 31835 31836 31837 31838 31839 31840 31841 31842 31843 31844 31845 31846 31847 31848 31849 31850 31851 31852 31853 31854 31855 31856 31857 31858 31859 31860 31861 31862 31863 31864 31865 31866 31867 31868 31869 31870 31871 31872 31873 31874 31875 31876 31877 31878 31879 31880 31881 31882 31883 31884 31885 31886 31887 31888 31889 31890 31891 31892 31893 31894 31895 31896 31897 
</DataArray>
<DataArray type="UInt32" Name="offsets" format="ascii">
3 6 9 12 15 17 20 23 26 29 32 35 38 40 43 46 49 52 54 57 60 62 65 68 71 74 76 79 82 85 88 90 93 96 99 102 105 108 111 114 117 120 123 126 129 131 134 137 139 142 145 148 151 154 156 159 162 165 168 171 174 177 179 182 185 188 191 193 196 199 202 205 208 211 214 217 220 222 225 228 230 233 236 238 241 244 247 250 252 255 258 261 264 267 270 273 275 277 279 282 285 287 290 293 296 299 302 304 307 310 313 316 319 322 325 328 331 334 337 340 343 345 348 351 354 356 359 362 365 368 371 374 376 379 382 385 388 391 394 397 400 403 406 409 412 415 418 421 424 427 430 433 436 439 442 445 448 451 453 456 459 462 464 467 470 472 475 478 481 484 487 490 493 496 499 502 505 507 510 513 516 519 522 525 528 531 533 536 539 542 545 548 551 554 557 559 562 565 568 571 574 577 580 583 586 588 591 594 597 600 603 606 609 612 615 618 621 624 627 630 633 636 639 642 645 648 651 654 657 659 662 665 668 670 673 675 678 680 683 686 688 691 694 697 699 702 704 707 709 712 714 716 719 721 724 727 729 732 734 737 740 743 745 748 750 752 755 758 760 763 766 769 771 774 776 778 780 783 785 788 791 794 796 799 801 803 805 808 811 813 815 818 821 824 827 829 832 834 837 840 842 845 848 851 853 856 858 860 862 865 868 871 873 876 878 880 882 884 887 890 893 895 897 900 903 905 907 909 912 914 917 920 923 926 928 931 934 937 940 943 946 949 951 954 957 960 963 966 969 971 973 976 979 982 984 987 990 993 995 998 1000 1003 1005 1007 1010 1013 1016 1019 1021 1024 1027 1029 1032 1035 1038 1041 1043 1046 1048 1051 1054 1057 1060 1063 1065 1067 1070 1073 1076 1079 1082 1085 1088 1091 1093 1096 1099 1102 1104 1107 1110 1112 1115 1117 1120 1123 1126 1129 1132 1135 1138 1141 1144 1147 1150 1152 1155 1157 1160 1162 1165 1168 1171 1173 1176 1178 1181 1183 1186 1189 1192 1195 1198 1201 1203 1206 1208 1211 1214 1217 1219 1222 1225 1228 1230 1233 1235 1237 1240 1243 1246 1249 1251 1254 1257 1260 1263 1265 1267 1270 1273 1275 1278 1280 1283 1285 1287 1290 1293 1296 1298 1301 1304 1307 1310 1312 1315 1318 1321 1324 1327 1330 1333 1336 1339 1342 1345 1347 1350 1353 1356 1359 1361 1364 1367 1370 1372 1375 1377 1379 1381 1384 1387 1390 1392 1394 1397 1399 1402 1405 1407 1410 1413 1416 1419 1421 1424 1427 1430 1433 1436 1439 1442 1445 1448 1451 1454 1456 1458 1461 1464 1466 1469 1472 1475 1477 1480 1483 1486 1489 1492 1495 1497 1500 1503 1506 1508 1511 1514 1517 1519 1522 1525 1528 1531 1534 1537 1540 1543 1546 1549 1552 1554 1557 1560 1563 1565 1568 1571 1574 1577 1580 1583 1586 1588 1591 1594 1597 1600 1603 1605 1608 1611 1614 1617 1620 1623 1626 1629 1632 1635 1638 1641 1644 1647 1650 1653 1656 1659 1662 1664 1667 1670 1673 1676 1678 1681 1684 1686 1689 1692 1695 1698 1701 1704 1707 1709 1712 1715 1718 1721 1724 1727 1730 1733 1735 1738 1740 1743 1746 1748 1751 1754 1757 1759 1762 1765 1767 1770 1773 1776 1778 1781 1783 1786 1789 1791 1794 1796 1799 1802 1805 1808 1811 1814 1817 1820 1823 1826 1829 1832 1835 1838 1841 1844 1847 1850 1853 1856 1859 1862 1864 1867 1869 1872 1874 1877 1880 1883 1886 1889 1892 1895 1898 1901 1904 1907 1910 1913 1916 1919 1921 1924 1927 1930 1933 1936 1939 1942 1945 1948 1950 1953 1956 1959 1962 1965 1968 1971 1974 1977 1980 1983 1986 1989 1992 1995 1998 2001 2004 2007 2010 2013 2016 2019 2022 2025 2028 2031 2034 2037 2039 2042 2045 2047 2050 2053 2056 2058 2060 2063 2065 2068 2071 2074 2077 2080 2082 2085 2088 2091 2094 2097 2099 2102 2105 2108 2111 2114 2117 2120 2123 2126 2129 2132 2135 2138 2141 2144 2147 2150 2153 2156 2159 2162 2165 2168 2171 2174 2177 2180 2183 2186 2189 2192 2195 2198 2201 2204 2207 2210 2213 2216 2219 2222 2225 2228 2231 2234 2237 2240 2243 2246 2248 2251 2254 2257 2260 2263 2266 2269 2272 2275 2278 2281 2284 2287 2290 2293 2295 2298 2301 2304 2307 2309 2312 2315 2318 2321 2324 2327 2330 2333 2336 2339 2342 2345 2348 2351 2354 2357 2360 2363 2366 2369 2372 2375 2378 2381 2384 2387 2390 2392 2395 2398 2400 2403 2405 2407 2409 2411 2414 2417 2419 2422 2425 2428 2431 2434 2437 2440 2443 2446 2449 2452 2455 2458 2461 2464 2467 2470 2472 2475 2478 2480 2483 2485 2488 2491 2494 2497 2499 2502 2504 2507 2510 2513 2516 2518 2521 2524 2527 2529 2532 2535 2538 2541 2544 2546 2549 2551 2554 2557 2559 2561 2564 2566 2569 2572 2575 2578 2581 2584 2587 2590 2593 2596 2599 2601 2604 2607 2610 2612 2615 2618 2621 2623 2626 2629 2631 2633 2635 2638 2641 2644 2647 2650 2653 2656 2659 2662 2665 2668 2670 2673 2676 2679 2682 2685 2688 2691 2694 2696 2698 2700 2703 2706 2709 2712 2715 2718 2721 2724 2726 2728 2731 2734 2737 2739 2742 2745 2747 2750 2753 2756 2759 2762 2765 2768 2771 2774 2777 2780 2782 2785 2788 2791 2794 2797 2800 2803 2806 2808 2811 2814 2817 2820 2823 2826 2829 2832 2835 2838 2840 2843 2845 2847 2849 2852 2855 2858 2861 2864 2867 2870 2872 2874 2877 2879 2882 2885 2888 2891 2894 2896 2899 2901 2903 2906 2909 2912 2914 2917 2919 2922 2925 2928 2931 2933 2936 2939 2942 2945 2948 2951 2954 2957 2960 2963 2966 2969 2972 2975 2978 2981 2984 2986 2989 2992 2995 2997 3000 3003 3006 3009 3012 3014 3017 3020 3023 3026 3029 3032 3034 3037 3039 3042 3045 3048 3051 3054 3057 3060 3063 3065 3068 3071 3074 3076 3079 3082 3085 3088 3091 3094 3097 3100 3103 3106 3109 3112 3115 3118 3121 3124 3127 3130 3133 3136 3139 3142 3145 3148 3151 3153 3155 3157 3160 3163 3166 3169 3171 3174 3177 3180 3183 3185 3188 3191 3194 3197 3200 3203 3206 3208 3211 3214 3217 3220 3223 3226 3229 3232 3234 3237 3240 3243 3246 3249 3252 3255 3258 3261 3264 3267 3270 3272 3275 3278 3281 3284 3287 3290 3292 3295 3298 3301 3304 3307 3310 3313 3316 3318 3321 3324 3327 3329 3332 3335 3338 3341 3344 3347 3350 3353 3356 3359 3362 3365 3367 3370 3373 3376 3379 3382 3385 3388 3391 3394 3397 3400 3403 3406 3409 3412 3415 3418 3421 3424 3427 3430 3433 3436 3439 3442 3445 3448 3451 3454 3457 3460 3463 3466 3469 3472 3475 3478 3481 3484 3487 3490 3493 3496 3499 3502 3505 3508 3510 3513 3516 3519 3522 3525 3528 3531 3534 3537 3540 3543 3546 3549 3552 3555 3558 3561 3564 3567 3570 3573 3576 3579 3582 3584 3587 3590 3593 3596 3599 3602 3605 3608 3611 3614 3616 3619 3622 3624 3627 3630 3633 3636 3639 3642 3645 3648 3651 3653 3656 3658 3661 3664 3667 3670 3672 3675 3678 3680 3683 3685 3688 3691 3694 3697 3700 3702 3705 3708 3711 3714 3717 3720 3723 3726 3728 3731 3734 3737 3740 3743 3746 3749 3752 3755 3758 3761 3764 3767 3770 3772 3775 3777 3779 3782 3785 3788 3791 3794 3796 3799 3802 3805 3808 3811 3814 3817 3820 3823 3826 3829 3832 3835 3838 3841 3843 3846 3849 3852 3855 3858 3861 3864 3867 3870 3873 3876 3879 3882 3885 3888 3891 3893 3896 3899 3902 3905 3908 3910 3912 3915 3918 3920 3923 3926 3929 3932 3935 3938 3941 3944 3947 3950 3952 3955 3958 3961 3964 3967 3970 3973 3976 3979 3981 3984 3986 3989 3992 3995 3998 4001 4003 4006 4009 4012 4015 4017 4020 4023 4026 4028 4031 4034 4037 4039 4042 4045 4047 4050 4053 4056 4059 4062 4065 4068 4071 4074 4077 4080 4083 4086 4089 4092 4095 4097 4100 4103 4106 4109 4112 4115 4118 4120 4123 4126 4129 4132 4135 4138 4141 4144 4147 4150 4153 4156 4159 4162 4165 4168 4171 4174 4177 4180 4183 4186 4189 4192 4195 4198 4201 4203 4206 4209 4212 4215 4217 4220 4223 4226 4228 4231 4234 4237 4240 4243 4246 4249 4252 4255 4257 4260 4262 4265 4268 4271 4274 4277 4280 4283 4286 4289 4292 4295 4298 4301 4304 4307 4310 4313 4316 4318 4320 4323 4326 4329 4331 4334 4337 4339 4342 4345 4347 4350 4353 4356 4358 4361 4364 4366 4369 4372 4375 4378 4381 4384 4387 4390 4393 4396 4399 4402 4405 4408 4411 4414 4417 4420 4423 4426 4428 4431 4433 4436 4439 4442 4445 4448 4451 4454 4457 4460 4463 4466 4468 4471 4473 4476 4479 4482 4484 4487 4490 4493 4496 4499 4501 4504 4507 4510 4513 4516 4519 4521 4524 4527 4530 4533 4536 4539 4542 4545 4548 4551 4554 4556 4559 4562 4565 4568 4571 4574 4577 4580 4582 4585 4588 4591 4593 4596 4599 4601 4604 4607 4610 4613 4616 4618 4621 4624 4627 4630 4633 4636 4639 4642 4645 4647 4650 4653 4655 4658 4660 4663 4665 4667 4669 4672 4674 4677 4680 4683 4686 4689 4692 4694 4697 4700 4703 4706 4709 4712 4714 4717 4720 4723 4726 4729 4732 4735 4737 4740 4743 4746 4749 4751 4754 4757 4760 4763 4766 4768 4771 4773 4776 4779 4782 4785 4788 4791 4794 4797 4800 4803 4805 4808 4811 4814 4817 4820 4823 4826 4828 4831 4834 4837 4840 4843 4846 4849 4851 4854 4856 4859 4862 4865 4868 4871 4874 4877 4880 4882 4885 4888 4891 4893 4895 4898 4901 4904 4907 4910 4912 4914 4917 4919 4922 4925 4927 4930 4933 4935 4938 4941 4944 4947 4950 4953 4956 4959 4961 4964 4967 4970 4973 4976 4978 4981 4984 4987 4990 4992 4995 4998 5000 5003 5006 5009 5012 5015 5018 5021 5024 5027 5030 5033 5036 5039 5042 5045 5048 5051 5054 5057 5060 5063 5066 5069 5072 5075 5078 5081 5084 5087 5090 5093 5096 5099 5102 5105 5108 5111 5114 5117 5120 5123 5125 5128 5131 5133 5136 5139 5142 5145 5148 5150 5153 5156 5159 5162 5164 5167 5170 5173 5176 5179 5182 5185 5188 5191 5194 5197 5200 5203 5206 5209 5212 5215 5218 5221 5224 5227 5230 5233 5236 5238 5241 5244 5247 5249 5252 5255 5258 5261 5264 5267 5269 5272 5275 5278 5281 5284 5287 5290 5293 5296 5299 5302 5304 5307 5309 5311 5314 5317 5319 5322 5325 5328 5331 5334 5337 5340 5343 5346 5349 5352 5354 5357 5360 5362 5365 5368 5371 5374 5377 5380 5383 5386 5389 5392 5395 5398 5401 5404 5407 5409 5412 5415 5418 5421 5424 5427 5430 5432 5435 5437 5440 5443 5446 5449 5451 5454 5456 5459 5462 5465 5468 5471 5474 5477 5480 5483 5485 5488 5491 5494 5497 5500 5503 5506 5509 5512 5515 5518 5521 5524 5527 5530 5533 5536 5538 5541 5544 5547 5550 5553 5556 5559 5562 5565 5568 5571 5574 5577 5580 5583 5586 5589 5592 5595 5598 5601 5604 5607 5610 5613 5615 5617 5620 5623 5626 5629 5632 5635 5638 5641 5644 5647 5650 5652 5655 5658 5661 5664 5666 5669 5672 5675 5678 5680 5683 5686 5689 5692 5695 5698 5701 5704 5706 5709 5712 5715 5718 5721 5724 5727 5730 5733 5735 5738 5741 5744 5747 5750 5753 5756 5759 5762 5765 5768 5771 5774 5777 5780 5783 5786 5789 5792 5795 5797 5800 5803 5806 5809 5812 5815 5818 5821 5824 5827 5830 5833 5836 5839 5841 5844 5846 5849 5852 5855 5858 5861 5864 5867 5870 5872 5875 5878 5880 5883 5886 5889 5892 5895 5898 5901 5904 5907 5910 5913 5916 5919 5922 5925 5928 5931 5934 5937 5940 5943 5946 5949 5952 5955 5958 5961 5964 5967 5970 5973 5976 5979 5982 5985 5988 5990 5993 5996 5998 6001 6004 6007 6010 6012 6015 6017 6020 6023 6025 6028 6030 6033 6036 6039 6042 6045 6047 6050 6053 6056 6059 6062 6065 6068 6071 6074 6077 6080 6083 6085 6088 6091 6094 6096 6099 6102 6105 6108 6111 6114 6117 6120 6123 6125 6128 6131 6134 6137 6139 6141 6144 6147 6150 6153 6156 6159 6162 6165 6167 6170 6173 6176 6179 6182 6184 6187 6190 6193 6195 6198 6201 6204 6206 6209 6212 6215 6218 6220 6223 6226 6229 6232 6235 6238 6241 6244 6247 6250 6253 6256 6259 6262 6264 6267 6270 6273 6276 6279 6282 6284 6287 6289 6291 6294 6296 6299 6301 6304 6307 6310 6313 6315 6318 6321 6324 6327 6329 6332 6335 6338 6341 6344 6347 6350 6353 6356 6358 6361 6364 6367 6370 6373 6376 6379 6382 6385 6388 6391 6394 6397 6400 6402 6405 6408 6411 6413 6416 6419 6422 6424 6427 6429 6432 6435 6438 6441 6444 6447 6450 6453 6456 6459 6462 6465 6468 6471 6474 6477 6479 6482 6485 6488 6491 6494 6497 6499 6502 6505 6508 6511 6514 6517 6520 6523 6526 6529 6532 6535 6538 6541 6544 6547 6550 6553 6555 6558 6561 6564 6567 6570 6573 6576 6579 6582 6585 6588 6591 6594 6597 6600 6603 6606 6609 6612 6615 6618 6621 6624 6627 6630 6633 6636 6639 6642 6645 6648 6651 6654 6657 6659 6662 6665 6668 6671 6673 6676 6679 6682 6685 6688 6691 6694 6696 6699 6702 6705 6708 6711 6714 6717 6720 6723 6725 6728 6731 6733 6736 6739 6742 6745 6748 6750 6753 6756 6759 6761 6764 6767 6769 6772 6775 6778 6781 6784 6787 6790 6793 6796 6799 6802 6805 6808 6811 6814 6817 6820 6823 6826 6829 6831 6834 6837 6840 6843 6846 6849 6852 6855 6858 6861 6863 6865 6868 6870 6873 6876 6879 6882 6885 6887 6890 6893 6896 6899 6901 6904 6907 6910 6913 6916 6918 6921 6923 6926 6929 6931 6934 6937 6940 6943 6946 6949 6952 6955 6957 6960 6963 6966 6969 6972 6975 6977 6980 6983 6986 6989 6992 6995 6997 7000 7003 7006 7009 7011 7014 7017 7019 7022 7024 7027 7030 7032 7035 7038 7041 7044 7047 7050 7052 7055 7058 7061 7064 7066 7069 7072 7075 7078 7081 7084 7087 7090 7092 7094 7097 7100 7103 7106 7109 7112 7115 7118 7120 7123 7126 7129 7132 7135 7138 7140 7143 7146 7149 7152 7155 7158 7161 7163 7166 7169 7172 7174 7177 7180 7183 7186 7189 7192 7195 7198 7201 7204 7207 7210 7212 7215 7218 7221 7224 7226 7229 7232 7234 7237 7240 7243 7246 7248 7251 7254 7257 7259 7261 7264 7267 7270 7272 7275 7278 7281 7283 7286 7289 7292 7295 7298 7301 7304 7307 7310 7312 7315 7318 7321 7323 7326 7329 7332 7335 7338 7341 7344 7347 7350 7353 7356 7359 7361 7364 7366 7369 7372 7374 7377 7380 7382 7385 7388 7391 7394 7397 7400 7403 7405 7408 7411 7414 7417 7420 7422 7425 7427 7430 7433 7436 7438 7440 7443 7445 7447 7450 7452 7455 7458 7461 7464 7467 7470 7472 7475 7477 7480 7483 7486 7489 7492 7495 7498 7501 7504 7507 7510 7513 7516 7518 7521 7524 7526 7529 7531 7534 7537 7539 7542 7545 7548 7550 7552 7555 7558 7560 7563 7566 7569 7572 7575 7578 7581 7584 7587 7590 7593 7596 7599 7602 7605 7608 7611 7614 7617 7620 7623 7626 7629 7631 7633 7636 7638 7641 7643 7646 7649 7651 7653 7656 7659 7661 7664 7667 7669 7672 7675 7677 7680 7682 7685 7688 7691 7694 7696 7699 7702 7705 7708 7710 7713 7715 7717 7720 7722 7725 7728 7730 7732 7735 7738 7741 7743 7746 7749 7752 7755 7757 7759 7762 7765 7768 7771 7774 7776 7779 7782 7785 7788 7791 7794 7797 7800 7803 7806 7809 7811 7814 7816 7819 7821 7824 7827 7829 7832 7834 7837 7840 7843 7846 7849 7852 7855 7858 7860 7863 7866 7868 7871 7874 7877 7880 7882 7885 7888 7891 7894 7897 7900 7903 7906 7909 7912 7915 7918 7920 7923 7926 7929 7932 7935 7938 7941 7944 7947 7950 7953 7955 7958 7961 7964 7967 7970 7973 7975 7978 7980 7983 7986 7988 7991 7994 7997 8000 8003 8006 8009 8012 8015 8018 8021 8024 8027 8030 8033 8036 8039 8041 8043 8046 8049 8052 8054 8057 8060 8062 8065 8068 8071 8074 8077 8080 8083 8086 8089 8092 8095 8098 8101 8104 8107 8110 8113 8116 8119 8122 8125 8128 8131 8134 8137 8139 8141 8144 8147 8150 8153 8156 8159 8162 8165 8168 8171 8174 8176 8179 8182 8185 8188 8191 8194 8197 8200 8203 8206 8209 8212 8215 8218 8221 8224 8227 8230 8233 8236 8239 8242 8245 8248 8251 8254 8257 8260 8263 8266 8269 8272 8275 8277 8280 8283 8286 8289 8292 8294 8297 8300 8302 8305 8308 8310 8312 8315 8318 8321 8324 8327 8330 8333 8336 8339 8342 8345 8348 8351 8353 8356 8359 8361 8364 8367 8370 8373 8376 8379 8381 8384 8387 8389 8392 8395 8398 8401 8404 8407 8410 8413 8416 8419 8422 8425 8428 8430 8433 8436 8439 8442 8445 8448 8451 8453 8456 8459 8462 8465 8468 8471 8474 8477 8480 8483 8486 8489 8491 8494 8497 8499 8502 8505 8508 8511 8514 8517 8520 8523 8526 8529 8532 8535 8538 8541 8544 8547 8550 8553 8556 8559 8561 8564 8567 8569 8572 8574 8577 8580 8583 8585 8588 8591 8593 8596 8598 8601 8604 8607 8609 8612 8615 8618 8621 8623 8626 8629 8632 8635 8638 8641 8644 8646 8649 8652 8655 8657 8660 8663 8666 8669 8672 8675 8678 8681 8684 8687 8690 8693 8695 8698 8701 8704 8707 8710 8713 8716 8719 8721 8724 8727 8730 8733 8736 8739 8742 8745 8748 8751 8754 8756 8759 8762 8765 8768 8771 8774 8777 8780 8783 8786 8789 8792 8795 8798 8801 8804 8807 8810 8813 8815 8817 8820 8823 8826 8828 8831 8834 8837 8840 8843 8846 8849 8852 8855 8858 8861 8864 8866 8869 8872 8875 8878 8881 8884 8887 8890 8893 8895 8898 8901 8904 8907 8910 8913 8916 8919 8922 8925 8928 8931 8934 8937 8940 8943 8945 8948 8950 8953 8956 8959 8962 8965 8967 8970 8973 8976 8979 8981 8984 8987 8990 8992 8995 8998 9001 9003 9006 9009 9012 9015 9018 9021 9024 9027 9030 9032 9035 9038 9041 9043 9046 9049 9051 9054 9057 9060 9063 9066 9069 9071 9074 9077 9080 9083 9086 9089 9092 9095 9097 9100 9103 9106 9108 9111 9114 9117 9120 9123 9126 9129 9132 9135 9138 9141 9144 9147 9150 9153 9156 9159 9162 9165 9168 9171 9174 9177 9180 9183 9186 9189 9191 9194 9197 9200 9203 9206 9209 9212 9214 9217 9220 9223 9226 9229 9232 9235 9238 9241 9244 9247 9250 9253 9256 9259 9262 9265 9268 9271 9274 9277 9280 9283 9286 9289 9291 9294 9296 9299 9302 9305 9308 9311 9314 9316 9319 9322 9325 9327 9330 9333 9335 9338 9341 9344 9347 9350 9353 9356 9359 9362 9365 9368 9371 9373 9376 9379 9382 9385 9388 9390 9393 9396 9399 9402 9405 9408 9411 9414 9417 9420 9423 9426 9429 9431 9434 9437 9440 9442 9445 9448 9451 9454 9457 9460 9463 9466 9469 9472 9475 9478 9480 9482 9485 9488 9491 9494 9496 9499 9502 9505 9508 9511 9514 9517 9520 9523 9525 9527 9530 9533 9536 9539 9542 9544 9547 9550 9553 9556 9559 9561 9564 9567 9570 9573 9576 9578 9581 9583 9586 9589 9592 9595 9597 9600 9602 9605 9607 9609 9612 9615 9618 9621 9624 9627 9630 9632 9634 9637 9640 9643 9646 9649 9652 9654 9656 9658 9661 9663 9665 9668 9671 9674 9676 9679 9682 9685 9688 9691 9693 9695 9697 9700 9702 9705 9708 9711 9713 9716 9718 9720 9723 9726 9729 9732 9735 9738 9741 9743 9745 9748 9751 9753 9755 9757 9760 9763 9766 9769 9772 9775 9778 9781 9784 9787 9790 9793 9796 9799 9802 9805 9808 9811 9814 9817 9820 9823 9826 9829 9832 9835 9838 9841 9844 9847 9850 9853 9856 9859 9862 9865 9868 9871 9874 9877 9879 9882 9885 9888 9891 9894 9897 9900 9903 9906 9909 9911 9914 9917 9920 9923 9926 9929 9931 9934 9937 9939 9942 9945 9948 9951 9954 9957 9960 9963 9966 9969 9972 9975 9978 9980 9983 9985 9988 9991 9994 9997 9999 10002 10005 10008 10010 10013 10016 10018 10021 10024 10027 10029 10032 10035 10037 10040 10043 10046 10049 10052 10054 10057 10060 10063 10066 10069 10072 10075 10077 10080 10083 10086 10089 10092 10095 10098 10100 10103 10106 10108 10111 10114 10117 10120 10122 10125 10127 10130 10133 10136 10139 10142 10144 10147 10150 10153 10156 10158 10161 10164 10167 10170 10173 10176 10178 10180 10183 10186 10189 10192 10195 10197 10200 10203 10205 10208 10211 10214 10217 10220 10223 10226 10229 10232 10235 10237 10240 10243 10246 10249 10252 10255 10258 10261 10264 10267 10270 10273 10276 10279 10282 10285 10288 10291 10293 10296 10299 10302 10305 10308 10311 10313 10316 10319 10322 10325 10328 10331 10334 10336 10338 10341 10344 10347 10350 10352 10355 10358 10361 10364 10367 10370 10373 10375 10378 10381 10383 10386 10388 10390 10392 10395 10398 10401 10404 10407 10410 10412 10415 10418 10421 10424 10427 10429 10432 10435 10438 10441 10443 10446 10449 10452 10454 10457 10460 10463 10465 10468 10471 10474 10477 10480 10483 10486 10489 10492 10495 10498 10501 10504 10507 10510 10513 10516 10519 10522 10525 10528 10531 10534 10537 10540 10542 10545 10548 10551 10554 10557 10560 10563 10565 10568 10570 10573 10576 10579 10582 10585 10588 10590 10593 10596 10598 10601 10604 10607 10609 10612 10615 10617 10620 10623 10626 10629 10632 10634 10637 10640 10643 10645 10647 10650 10653 10656 10659 10662 10665 10668 10671 10674 10677 10680 10683 10685 10688 10691 10694 10697 10700 10703 10706 10709 10712 10714 10717 10720 10723 10726 10729 10731 10733 10736 10739 10742 10745 10748 10751 10754 10757 10760 10762 10765 10768 10771 10774 10777 10780 10783 10786 10788 10791 10794 10797 10800 10803 10806 10809 10812 10815 10818 10821 10824 10827 10830 10833 10836 10839 10842 10844 10847 10850 10853 10856 10858 10861 10863 10866 10868 10871 10874 10877 10880 10883 10886 10889 10892 10895 10898 10901 10904 10907 10910 10913 10916 10919 10921 10924 10927 10930 10933 10936 10938 10941 10944 10947 10949 10951 10954 10957 10960 10963 10966 10968 10971 10974 10977 10980 10982 10985 10988 10991 10994 10997 11000 11003 11006 11008 11011 11014 11017 11020 11023 11026 11029 11031 11034 11037 11040 11043 11046 11049 11052 11055 11058 11060 11063 11066 11069 11072 11075 11078 11081 11084 11087 11090 11093 11096 11099 11102 11105 11108 11111 11114 11116 11119 11122 11125 11128 11131 11134 11137 11140 11143 11146 11149 11152 11155 11157 11160 11163 11166 11169 11172 11175 11177 11180 11183 11185 11188 11191 11193 11196 11199 11202 11205 11208 11211 11214 11217 11220 11223 11226 11229 11232 11235 11238 11241 11244 11247 11250 11253 11256 11259 11262 11265 11268 11271 11273 11276 11278 11281 11283 11285 11288 11291 11294 11296 11299 11302 11305 11308 11311 11314 11317 11320 11323 11325 11327 11330 11332 11335 11338 11341 11344 11347 11350 11353 11356 11359 11362 11365 11368 11371 11374 11376 11379 11381 11383 11386 11388 11391 11394 11397 11400 11403 11406 11409 11412 11415 11417 11419 11422 11425 11428 11431 11434 11437 11440 11443 11446 11449 11452 11455 11458 11461 11464 11467 11470 11473 11476 11479 11482 11485 11487 11490 11493 11496 11499 11502 11504 11507 11510 11513 11516 11519 11521 11524 11527 11530 11532 11535 11538 11541 11544 11547 11550 11553 11556 11559 11561 11564 11567 11570 11573 11575 11578 11581 11584 11587 11590 11593 11595 11598 11601 11604 11607 11610 11613 11616 11618 11621 11624 11627 11630 11632 11635 11638 11641 11644 11647 11650 11653 11656 11659 11662 11664 11667 11670 11673 11676 11678 11681 11684 11687 11689 11692 11695 11698 11701 11704 11706 11709 11712 11715 11718 11721 11724 11727 11730 11733 11736 11739 11742 11745 11748 11750 11752 11755 11758 11760 11763 11766 11769 11772 11775 11778 11781 11783 11786 11789 11792 11795 11798 11801 11803 11806 11809 11812 11815 11818 11821 11824 11827 11830 11833 11836 11839 11842 11845 11848 11851 11854 11857 11860 11863 11866 11869 11872 11874 11877 11880 11883 11886 11889 11892 11895 11898 11900 11903 11906 11909 11912 11914 11917 11920 11923 11926 11929 11931 11934 11936 11939 11941 11944 11947 11950 11953 11956 11959 11962 11964 11967 11970 11973 11975 11978 11981 11984 11987 11990 11992 11995 11998 12001 12004 12007 12009 12012 12014 12017 12020 12022 12025 12027 12030 12033 12036 12039 12042 12044 12047 12050 12053 12055 12058 12061 12064 12067 12070 12073 12076 12079 12082 12085 12087 12090 12093 12096 12099 12102 12105 12108 12111 12114 12117 12120 12123 12126 12129 12132 12135 12138 12141 12144 12147 12150 12153 12155 12158 12161 12164 12167 12170 12173 12176 12179 12182 12185 12188 12191 12194 12197 12200 12203 12206 12209 12211 12214 12217 12220 12222 12225 12228 12231 12234 12237 12240 12242 12245 12248 12251 12253 12255 12258 12260 12263 12265 12267 12270 12272 12275 12278 12280 12283 12286 12288 12290 12293 12296 12299 12302 12305 12308 12311 12314 12316 12319 12321 12324 12327 12330 12333 12336 12339 12342 12345 12348 12351 12354 12357 12360 12363 12366 12369 12372 12375 12378 12381 12384 12387 12389 12392 12395 12398 12401 12404 12407 12410 12413 12415 12418 12421 12423 12426 12429 12431 12433 12436 12439 12441 12444 12447 12450 12453 12456 12459 12462 12465 12468 12471 12474 12477 12480 12483 12486 12489 12492 12495 12498 12501 12504 12507 12510 12513 12516 12519 12522 12525 12528 12531 12534 12537 12540 12543 12546 12549 12552 12555 12558 12560 12563 12565 12568 12571 12574 12577 12580 12583 12586 12589 12592 12595 12598 12601 12604 12607 12610 12613 12616 12619 12622 12625 12628 12631 12634 12637 12640 12643 12646 12649 12652 12655 12658 12661 12664 12667 12670 12673 12676 12679 12682 12685 12687 12690 12693 12695 12698 12701 12704 12707 12710 12712 12715 12717 12720 12723 12725 12728 12731 12734 12737 12740 12743 12745 12748 12751 12754 12757 12760 12763 12766 12769 12772 12775 12778 12780 12783 12786 12788 12790 12793 12795 12798 12801 12803 12806 12809 12812 12815 12817 12820 12823 12826 12829 12832 12835 12838 12841 12844 12846 12849 12851 12854 12857 12860 12863 12866 12869 12872 12874 12877 12879 12882 12885 12888 12891 12894 12897 12900 12903 12906 12908 12911 12913 12916 12919 12922 12925 12928 12931 12934 12937 12940 12943 12945 12948 12951 12954 12956 12959 12962 12964 12967 12970 12972 12975 12978 12981 12984 12986 12989 12992 12995 12997 13000 13003 13006 13009 13012 13015 13018 13021 13024 13027 13030 13033 13036 13039 13041 13044 13047 13050 13053 13056 13059 13061 13064 13066 13069 13071 13074 13077 13080 13082 13085 13088 13091 13094 13097 13100 13103 13106 13108 13111 13114 13117 13120 13123 13125 13128 13131 13133 13136 13139 13142 13145 13148 13151 13154 13157 13160 13162 13165 13168 13171 13173 13176 13179 13182 13185 13188 13191 13193 13196 13199 13202 13205 13208 13211 13214 13217 13220 13223 13226 13229 13232 13235 13238 13241 13244 13247 13250 13253 13256 13259 13262 13265 13268 13271 13274 13277 13280 13283 13286 13288 13291 13294 13297 13300 13303 13305 13308 13311 13313 13315 13318 13321 13324 13327 13329 13332 13335 13338 13341 13344 13346 13349 13352 13355 13358 13361 13364 13367 13370 13373 13376 13379 13382 13385 13388 13391 13394 13396 13399 13402 13405 13408 13411 13414 13417 13420 13422 13424 13427 13430 13433 13436 13439 13442 13444 13447 13450 13453 13456 13458 13461 13464 13467 13470 13473 13476 13479 13482 13485 13488 13491 13494 13497 13500 13503 13506 13509 13512 13515 13518 13521 13524 13527 13530 13532 13535 13538 13540 13543 13546 13549 13552 13555 13558 13561 13564 13567 13570 13573 13576 13579 13582 13585 13588 13591 13594 13597 13600 13603 13606 13609 13612 13615 13618 13621 13623 13626 13628 13631 13634 13637 13640 13643 13645 13648 13651 13654 13657 13660 13663 13666 13669 13672 13675 13678 13681 13684 13687 13690 13693 13696 13699 13702 13705 13707 13709 13712 13714 13717 13720 13723 13726 13729 13732 13735 13738 13741 13744 13747 13750 13753 13756 13759 13762 13764 13767 13770 13773 13775 13778 13781 13784 13787 13790 13793 13796 13799 13802 13805 13808 13811 13814 13816 13819 13822 13825 13828 13831 13834 13837 13840 13843 13846 13849 13852 13855 13858 13861 13864 13867 13870 13873 13876 13879 13882 13884 13887 13890 13893 13896 13899 13902 13905 13908 13911 13914 13917 13920 13923 13925 13928 13930 13933 13936 13938 13940 13943 13946 13949 13952 13955 13958 13961 13964 13967 13970 13973 13976 13979 13982 13985 13988 13991 13994 13997 14000 14002 14005 14008 14010 14013 14016 14019 14021 14024 14027 14030 14033 14036 14039 14041 14044 14047 14050 14052 14055 14058 14061 14064 14067 14070 14073 14076 14078 14081 14084 14086 14089 14092 14094 14097 14099 14102 14105 14108 14111 14113 14115 14118 14121 14123 14125 14128 14131 14133 14136 14139 14142 14145 14147 14150 14153 14155 14157 14160 14162 14165 14168 14171 14174 14177 14180 14183 14186 14189 14192 14195 14198 14201 14204 14207 14210 14213 14216 14219 14222 14224 14227 14230 14233 14236 14238 14241 14244 14247 14250 14252 14254 14257 14260 14263 14266 14269 14272 14275 14278 14281 14284 14287 14290 14292 14295 14298 14301 14303 14306 14309 14312 14315 14318 14321 14324 14326 14329 14332 14335 14337 14340 14343 14345 14347 14350 14353 14356 14358 14361 14364 14367 14369 14372 14375 14378 14381 14384 14387 14390 14393 14396 14399 14402 14405 14408 14411 14414 14417 14420 14423 14425 14428 14431 14434 14437 14440 14443 14446 14449 14452 14455 14458 14461 14464 14467 14470 14473 14476 14479 14481 14483 14486 14489 14492 14495 14498 14500 14502 14505 14507 14510 14513 14516 14519 14522 14525 14528 14531 14534 14536 14539 14542 14545 14547 14550 14553 14556 14559 14562 14565 14568 14571 14574 14577 14580 14583 14586 14589 14591 14594 14597 14600 14603 14606 14609 14612 14614 14617 14620 14622 14625 14628 14631 14634 14637 14640 14642 14645 14648 14651 14654 14656 14659 14662 14665 14668 14671 14674 14676 14679 14682 14685 14688 14691 14694 14697 14700 14702 14704 14707 14710 14713 14715 14717 14720 14723 14726 14729 14732 14734 14737 14740 14743 14746 14749 14752 14754 14757 14760 14763 14766 14768 14771 14774 14777 14780 14783 14785 14788 14791 14794 14797 14799 14802 14805 14808 14811 14814 14817 14820 14823 14826 14829 14832 14835 14838 14841 14844 14847 14850 14853 14856 14859 14862 14865 14868 14871 14874 14876 14879 14882 14885 14888 14890 14893 14895 14898 14900 14903 14906 14908 14911 14914 14916 14919 14922 14924 14927 14930 14933 14936 14939 14942 14944 14947 14950 14952 14955 14957 14959 14961 14964 14967 14969 14972 14974 14976 14979 14982 14985 14987 14990 14992 14995 14998 15001 15004 15007 15010 15012 15015 15018 15021 15023 15026 15029 15032 15035 15038 15041 15044 15046 15049 15052 15055 15057 15060 15062 15064 15067 15070 15073 15076 15079 15082 15085 15087 15090 15093 15096 15099 15102 15105 15108 15111 15113 15115 15118 15121 15124 15127 15129 15132 15135 15137 15140 15143 15146 15148 15151 15154 15157 15159 15161 15164 15167 15170 15173 15175 15178 15181 15184 15187 15190 15192 15194 15197 15200 15203 15206 15209 15212 15215 15218 15221 15224 15227 15230 15233 15236 15239 15242 15245 15248 15251 15254 15257 15260 15263 15266 15269 15272 15275 15278 15281 15284 15287 15289 15292 15295 15298 15300 15303 15306 15309 15312 15315 15318 15321 15324 15327 15330 15333 15336 15339 15342 15345 15347 15350 15352 15354 15357 15360 15362 15365 15368 15371 15374 15377 15380 15383 15386 15389 15392 15395 15398 15401 15404 15407 15410 15413 15416 15419 15422 15425 15428 15431 15433 15436 15439 15441 15443 15446 15449 15452 15455 15458 15461 15464 15466 15469 15472 15475 15477 15480 15483 15486 15489 15491 15493 15496 15499 15502 15505 15508 15511 15514 15516 15519 15522 15525 15528 15530 15533 15536 15539 15542 15544 15547 15550 15553 15556 15559 15562 15565 15568 15571 15574 15577 15580 15583 15586 15589 15592 15595 15598 15601 15603 15606 15609 15612 15615 15618 15621 15624 15627 15630 15633 15636 15639 15642 15645 15648 15651 15653 15656 15659 15662 15664 15667 15670 15673 15676 15679 15682 15685 15688 15691 15693 15696 15699 15702 15705 15708 15711 15714 15717 15720 15723 15726 15729 15732 15735 15738 15741 15744 15747 15750 15753 15756 15758 15761 15764 15767 15770 15773 15776 15779 15782 15785 15788 15791 15794 15797 15800 15803 15806 15809 15811 15814 15817 15820 15823 15826 15828 15831 15834 15837 15840 15843 15846 15849 15852 15855 15858 15861 15864 15867 15870 15873 15876 15879 15882 15885 15888 15891 15894 15897 15900 15903 15906 15909 15911 15914 15917 15919 15922 15925 15928 15930 15933 15936 15939 15942 15945 15948 15951 15954 15957 15960 15963 15966 15969 15972 15975 15977 15980 15982 15985 15988 15991 15994 15997 16000 16003 16006 16009 16011 16014 16017 16020 16023 16026 16029 16032 16035 16038 16040 16042 16045 16048 16051 16054 16057 16060 16063 16066 16069 16072 16075 16078 16081 16084 16087 16090 16093 16096 16099 16102 16105 16108 16111 16114 16117 16120 16123 16126 16129 16132 16135 16138 16141 16144 16147 16150 16153 16156 16159 16162 16165 16168 16171 16174 16177 16180 16183 16186 16189 16192 16195 16198 16201 16204 16207 16210 16213 16216 16219 16222 16225 16228 16231 16234 16237 16240 16243 16246 16249 16252 16255 16257 16260 16263 16266 16269 16272 16275 16277 16280 16283 16286 16289 16292 16295 16298 16301 16304 16306 16309 16311 16314 16317 16320 16323 16326 16329 16332 16335 16338 16341 16344 16347 16350 16353 16356 16359 16362 16365 16368 16371 16374 16377 16380 16383 16386 16389 16392 16395 16398 16401 16404 16407 16410 16413 16415 16418 16421 16424 16426 16428 16431 16434 16437 16440 16443 16446 16449 16452 16455 16458 16461 16464 16467 16470 16473 16476 16479 16482 16485 16488 16491 16494 16496 16498 16501 16504 16507 16510 16513 16516 16519 16522 16524 16527 16530 16533 16536 16539 16542 16544 16547 16550 16553 16556 16559 16561 16564 16567 16570 16573 16575 16578 16581 16584 16586 16589 16592 16595 16597 16600 16603 16605 16608 16611 16614 16617 16620 16623 16626 16629 16632 16635 16638 16641 16644 16646 16649 16652 16655 16658 16661 16664 16667 16670 16672 16675 16678 16681 16684 16687 16690 16693 16696 16699 16702 16705 16707 16710 16713 16716 16718 16721 16724 16727 16730 16732 16735 16738 16741 16744 16747 16750 16753 16756 16758 16761 16763 16766 16769 16771 16774 16777 16780 16783 16786 16788 16791 16794 16797 16800 16803 16806 16809 16812 16815 16818 16821 16824 16826 16829 16832 16835 16838 16841 16844 16847 16850 16853 16855 16858 16861 16864 16867 16870 16873 16875 16878 16881 16884 16887 16890 16893 16896 16898 16901 16904 16907 16910 16913 16915 16918 16921 16924 16927 16930 16933 16936 16939 16942 16945 16948 16951 16954 16957 16960 16963 16966 16969 16972 16975 16978 16981 16984 16987 16990 16993 16996 16999 17002 17005 17008 17011 17014 17017 17020 17023 17026 17029 17032 17035 17038 17041 17044 17047 17050 17053 17056 17058 17061 17063 17066 17069 17072 17075 17078 17081 17084 17087 17090 17093 17096 17099 17102 17105 17107 17110 17113 17116 17119 17122 17125 17128 17131 17134 17137 17140 17143 17146 17149 17152 17154 17157 17160 17162 17165 17167 17170 17173 17176 17179 17182 17184 17187 17190 17193 17196 17199 17202 17205 17208 17211 17214 17217 17220 17223 17226 17229 17232 17235 17238 17241 17244 17246 17249 17252 17255 17258 17261 17264 17267 17270 17273 17276 17279 17281 17284 17286 17289 17292 17294 17297 17299 17302 17305 17308 17311 17314 17317 17320 17322 17325 17327 17330 17333 17336 17339 17341 17344 17347 17350 17353 17355 17357 17360 17363 17365 17368 17371 17374 17377 17380 17383 17386 17389 17392 17395 17398 17401 17404 17407 17410 17413 17415 17418 17421 17424 17427 17430 17433 17436 17439 17442 17445 17448 17451 17454 17457 17459 17462 17464 17467 17470 17473 17476 17479 17482 17485 17487 17490 17492 17495 17498 17501 17504 17507 17510 17513 17516 17519 17521 17523 17526 17529 17532 17534 17537 17540 17543 17546 17548 17551 17553 17556 17559 17561 17564 17566 17568 17570 17573 17576 17578 17581 17584 17587 17589 17591 17593 17596 17599 17602 17605 17608 17611 17614 17617 17620 17623 17626 17628 17631 17634 17637 17640 17643 17646 17648 17651 17654 17657 17659 17662 17665 17668 17671 17674 17677 17680 17683 17685 17688 17691 17694 17696 17699 17702 17705 17708 17711 17714 17717 17720 17723 17726 17729 17732 17735 17738 17741 17744 17747 17750 17753 17756 17759 17762 17765 17768 17771 17774 17777 17780 17783 17786 17789 17792 17795 17798 17801 17804 17807 17810 17813 17816 17819 17822 17825 17828 17831 17834 17837 17840 17843 17846 17849 17852 17855 17858 17861 17864 17867 17870 17873 17876 17878 17881 17884 17887 17890 17893 17895 17898 17901 17904 17907 17909 17912 17915 17918 17920 17923 17926 17929 17932 17935 17938 17941 17944 17947 17950 17953 17956 17959 17962 17965 17968 17971 17974 17977 17980 17983 17986 17989 17992 17995 17998 18001 18004 18007 18010 18013 18016 18019 18022 18025 18028 18031 18034 18037 18040 18042 18045 18048 18050 18053 18056 18059 18062 18065 18068 18071 18073 18076 18079 18082 18085 18088 18091 18094 18097 18100 18103 18106 18108 18111 18114 18116 18119 18121 18124 18127 18130 18132 18135 18138 18141 18144 18147 18150 18153 18156 18158 18161 18164 18167 18170 18172 18175 18178 18181 18184 18186 18189 18191 18194 18197 18200 18203 18206 18209 18212 18215 18218 18221 18224 18227 18229 18232 18234 18237 18240 18243 18246 18249 18252 18255 18258 18261 18264 18267 18270 18273 18275 18278 18281 18284 18287 18290 18293 18296 18299 18302 18304 18307 18310 18313 18315 18318 18321 18324 18327 18330 18333 18336 18339 18342 18345 18348 18351 18354 18357 18360 18363 18366 18369 18372 18375 18378 18381 18384 18387 18390 18393 18396 18399 18402 18405 18408 18411 18414 18417 18420 18422 18425 18428 18430 18433 18436 18439 18442 18444 18447 18450 18453 18456 18459 18462 18465 18468 18471 18474 18477 18480 18483 18486 18489 18491 18494 18497 18500 18503 18506 18509 18512 18515 18518 18520 18523 18525 18528 18531 18534 18537 18540 18543 18546 18548 18551 18554 18557 18560 18563 18566 18569 18572 18575 18578 18581 18584 18587 18590 18592 18595 18598 18601 18604 18607 18610 18613 18616 18619 18622 18625 18627 18630 18633 18636 18639 18642 18645 18648 18651 18654 18657 18660 18663 18666 18669 18672 18675 18678 18681 18684 18687 18690 18693 18696 18698 18701 18703 18706 18709 18712 18715 18718 18721 18723 18726 18728 18731 18734 18737 18739 18742 18745 18748 18750 18753 18756 18759 18761 18764 18767 18769 18772 18775 18778 18781 18784 18787 18790 18792 18795 18798 18801 18804 18807 18810 18813 18815 18818 18821 18824 18827 18830 18833 18836 18839 18842 18845 18848 18851 18854 18856 18859 18862 18865 18868 18871 18874 18877 18880 18882 18885 18888 18891 18894 18897 18900 18903 18906 18909 18912 18915 18918 18921 18924 18927 18930 18933 18936 18939 18942 18944 18947 18950 18953 18956 18959 18962 18965 18968 18971 18974 18977 18980 18983 18986 18989 18992 18995 18998 19001 19004 19007 19010 19013 19016 19019 19022 19025 19028 19031 19034 19037 19040 19043 19046 19049 19052 19055 19058 19061 19064 19067 19070 19073 19076 19079 19082 19085 19088 19091 19094 19096 19099 19101 19104 19107 19110 19112 19115 19118 19120 19122 19125 19127 19130 19133 19136 19139 19142 19145 19148 19151 19154 19157 19160 19163 19166 19169 19172 19175 19178 19181 19184 19187 19190 19193 19196 19199 19202 19205 19208 19211 19214 19217 19220 19223 19226 19229 19232 19234 19237 19240 19243 19246 19248 19251 19254 19256 19259 19262 19265 19267 19270 19273 19276 19279 19281 19284 19286 19288 19291 19294 19297 19300 19302 19305 19308 19311 19313 19316 19319 19322 19324 19327 19330 19333 19336 19339 19342 19344 19347 19350 19353 19356 19359 19362 19365 19368 19371 19374 19377 19380 19383 19386 19389 19392 19395 19398 19401 19404 19406 19409 19412 19415 19418 19421 19424 19427 19430 19433 19436 19439 19442 19445 19448 19451 19454 19457 19460 19462 19465 19468 19470 19473 19476 19478 19481 19484 19487 19490 19493 19496 19499 19502 19505 19508 19511 19513 19516 19519 19522 19525 19527 19530 19533 19536 19539 19541 19544 19547 19550 19552 19555 19558 19561 19564 19567 19570 19573 19576 19579 19582 19585 19588 19591 19594 19597 19600 19603 19606 19609 19612 19615 19618 19621 19624 19627 19629 19632 19635 19638 19641 19644 19647 19650 19653 19655 19658 19661 19664 19666 19669 19672 19675 19678 19681 19684 19687 19690 19693 19696 19699 19702 19705 19708 19711 19714 19717 19720 19723 19726 19729 19732 19735 19738 19740 19743 19746 19749 19751 19754 19757 19760 19763 19766 19769 19772 19775 19777 19780 19783 19785 19788 19791 19794 19797 19799 19802 19805 19808 19811 19814 19817 19820 19822 19825 19827 19830 19833 19835 19838 19841 19843 19845 19848 19851 19854 19857 19860 19863 19866 19869 19872 19875 19878 19881 19884 19887 19890 19893 19896 19899 19902 19905 19908 19910 19913 19916 19919 19922 19924 19927 19930 19933 19936 19939 19942 19945 19948 19951 19954 19957 19960 19963 19965 19968 19971 19973 19976 19979 19982 19985 19988 19991 19994 19997 20000 20003 20006 20009 20012 20015 20018 20021 20024 20027 20030 20033 20036 20039 20042 20045 20048 20051 20054 20057 20060 20063 20066 20069 20072 20075 20078 20081 20084 20087 20090 20093 20096 20099 20102 20105 20108 20111 20114 20117 20120 20123 20126 20129 20132 20135 20138 20141 20144 20147 20150 20153 20156 20159 20162 20165 20168 20171 20174 20177 20180 20183 20186 20189 20192 20195 20198 20201 20204 20207 20210 20213 20216 20219 20222 20225 20228 20231 20234 20237 20240 20243 20246 20249 20252 20255 20258 20261 20264 20267 20270 20273 20276 20279 20282 20285 20288 20291 20294 20297 20300 20303 20306 20309 20312 20315 20318 20321 20324 20327 20330 20333 20336 20339 20342 20345 20348 20351 20354 20357 20359 20362 20365 20368 20371 20374 20377 20380 20382 20385 20388 20391 20394 20397 20400 20403 20406 20409 20411 20414 20416 20419 20422 20425 20427 20430 20433 20435 20438 20441 20444 20447 20450 20453 20456 20459 20462 20465 20468 20471 20474 20477 20480 20483 20486 20489 20492 20495 20498 20501 20504 20507 20510 20513 20516 20519 20522 20525 20528 20531 20534 20537 20540 20543 20546 20548 20551 20554 20556 20558 20561 20564 20566 20569 20572 20574 20577 20580 20583 20585 20588 20591 20594 20597 20600 20603 20606 20609 20612 20614 20617 20620 20623 20626 20629 20632 20634 20637 20640 20643 20646 20649 20652 20655 20658 20661 20664 20667 20670 20673 20676 20679 20682 20685 20688 20691 20694 20697 20700 20703 20706 20709 20712 20715 20718 20721 20724 20727 20729 20732 20735 20738 20741 20744 20747 20750 20753 20756 20759 20762 20765 20768 20771 20774 20777 20780 20783 20786 20789 20792 20795 20798 20801 20804 20807 20810 20813 20816 20819 20822 20825 20828 20831 20834 20837 20840 20843 20846 20849 20852 20855 20858 20861 20864 20867 20869 20872 20874 20877 20880 20883 20886 20888 20891 20894 20897 20900 20902 20905 20908 20911 20914 20916 20919 20922 20925 20928 20931 20934 20937 20940 20942 20945 20948 20950 20953 20955 20958 20961 20964 20967 20969 20972 20975 20977 20979 20982 20985 20988 20991 20994 20997 20999 21002 21005 21008 21011 21014 21017 21020 21023 21026 21029 21031 21033 21036 21039 21042 21045 21048 21050 21053 21056 21058 21061 21064 21067 21070 21072 21075 21078 21080 21083 21086 21089 21092 21095 21098 21101 21104 21107 21110 21113 21116 21119 21122 21125 21128 21131 21134 21137 21140 21143 21146 21149 21152 21155 21158 21161 21164 21167 21169 21172 21174 21177 21180 21183 21186 21189 21192 21195 21198 21201 21204 21207 21210 21213 21215 21218 21221 21224 21227 21229 21231 21234 21237 21240 21243 21246 21249 21252 21255 21258 21261 21264 21267 21270 21273 21276 21279 21282 21285 21288 21291 21294 21297 21300 21303 21306 21309 21312 21315 21318 21321 21324 21327 21330 21333 21336 21339 21342 21345 21348 21351 21354 21357 21359 21362 21365 21368 21370 21373 21376 21379 21382 21385 21388 21391 21394 21397 21400 21403 21406 21409 21412 21415 21418 21421 21424 21427 21430 21432 21435 21438 21440 21443 21446 21449 21452 21455 21458 21461 21464 21467 21469 21472 21475 21478 21481 21484 21486 21489 21492 21495 21498 21501 21503 21506 21508 21511 21514 21517 21520 21523 21526 21529 21532 21535 21538 21541 21544 21547 21549 21552 21555 21558 21560 21562 21565 21568 21571 21574 21577 21580 21583 21586 21588 21591 21594 21596 21599 21602 21604 21606 21609 21612 21615 21618 21621 21623 21626 21629 21632 21635 21638 21641 21644 21646 21649 21652 21654 21656 21659 21662 21665 21668 21671 21674 21676 21678 21681 21684 21687 21689 21692 21695 21698 21701 21704 21707 21710 21712 21715 21718 21721 21724 21727 21730 21733 21736 21739 21742 21745 21748 21751 21754 21757 21760 21763 21766 21769 21772 21775 21778 21781 21784 21787 21790 21792 21795 21798 21801 21804 21807 21810 21813 21815 21818 21821 21824 21827 21830 21833 21836 21839 21842 21845 21848 21850 21853 21856 21859 21862 21865 21868 21871 21874 21876 21879 21882 21885 21888 21891 21894 21897 21900 21903 21906 21909 21912 21915 21918 21921 21924 21926 21929 21932 21935 21937 21940 21943 21946 21949 21952 21954 21957 21960 21963 21966 21969 21972 21975 21978 21981 21984 21987 21990 21993 21996 21998 22001 22004 22007 22010 22012 22015 22018 22020 22023 22026 22029 22032 22035 22037 22040 22043 22046 22049 22052 22055 22058 22061 22064 22067 22070 22073 22076 22079 22081 22084 22086 22089 22092 22095 22097 22100 22102 22105 22107 22110 22113 22116 22119 22122 22125 22127 22129 22132 22135 22138 22141 22144 22147 22149 22152 22154 22157 22160 22163 22166 22169 22172 22175 22178 22181 22184 22187 22190 22193 22196 22199 22202 22205 22207 22210 22213 22216 22218 22220 22223 22226 22229 22232 22235 22237 22240 22243 22245 22247 22250 22253 22256 22259 22262 22265 22268 22271 22274 22277 22280 22283 22286 22289 22292 22295 22298 22301 22304 22307 22310 22313 22316 22319 22322 22325 22328 22331 22334 22337 22340 22343 22346 22349 22352 22355 22358 22361 22364 22367 22370 22373 22376 22379 22381 22384 22387 22389 22391 22393 22396 22399 22402 22405 22408 22411 22413 22416 22419 22422 22425 22428 22431 22434 22437 22440 22442 22445 22448 22451 22453 22456 22459 22462 22465 22468 22471 22474 22477 22480 22483 22486 22489 22492 22495 22498 22501 22504 22507 22510 22513 22515 22518 22521 22524 22527 22529 22532 22535 22538 22541 22544 22547 22550 22553 22556 22559 22562 22565 22568 22571 22574 22577 22580 22583 22586 22589 22592 22595 22598 22601 22604 22607 22610 22613 22616 22619 22622 22625 22628 22631 22633 22636 22638 22641 22644 22647 22650 22653 22656 22659 22662 22664 22667 22670 22673 22675 22678 22680 22683 22686 22689 22692 22695 22698 22701 22704 22706 22709 22712 22715 22718 22720 22723 22726 22729 22732 22734 22737 22740 22743 22746 22749 22752 22755 22757 22760 22763 22766 22769 22771 22774 22777 22780 22783 22786 22789 22792 22795 22798 22801 22804 22807 22810 22813 22816 22819 22822 22825 22828 22831 22834 22837 22840 22843 22846 22849 22852 22855 22858 22861 22864 22867 22870 22873 22876 22879 22882 22885 22888 22891 22894 22897 22900 22903 22906 22909 22911 22914 22917 22920 22923 22925 22927 22930 22933 22935 22937 22940 22943 22946 22949 22952 22955 22958 22961 22964 22967 22970 22973 22976 22979 22982 22985 22988 22991 22994 22996 22999 23002 23005 23007 23009 23012 23015 23018 23021 23024 23027 23030 23033 23036 23039 23042 23045 23048 23051 23054 23057 23060 23063 23066 23069 23072 23075 23078 23081 23084 23087 23090 23092 23095 23098 23101 23104 23107 23110 23113 23115 23118 23121 23124 23127 23130 23133 23136 23139 23142 23145 23148 23151 23154 23157 23160 23162 23165 23168 23171 23174 23177 23180 23183 23186 23188 23191 23193 23195 23198 23201 23204 23207 23210 23213 23216 23219 23222 23225 23228 23231 23233 23236 23239 23242 23245 23248 23251 23254 23257 23260 23263 23266 23269 23272 23275 23278 23281 23284 23287 23289 23292 23295 23298 23300 23303 23306 23309 23312 23315 23318 23321 23324 23326 23329 23332 23335 23338 23341 23344 23347 23350 23353 23356 23359 23362 23365 23368 23371 23373 23376 23379 23382 23384 23387 23390 23393 23396 23399 23402 23405 23408 23411 23414 23417 23420 23423 23426 23429 23432 23435 23438 23441 23444 23447 23450 23453 23456 23459 23462 23465 23468 23471 23474 23477 23480 23483 23485 23488 23490 23493 23496 23499 23502 23505 23508 23511 23514 23516 23519 23522 23525 23528 23531 23534 23537 23540 23543 23545 23548 23551 23553 23556 23559 23562 23565 23568 23570 23573 23576 23579 23582 23584 23587 23590 23593 23596 23598 23601 23604 23607 23609 23612 23614 23617 23620 23622 23625 23628 23631 23634 23637 23640 23643 23646 23649 23652 23655 23658 23661 23664 23666 23669 23672 23674 23677 23679 23682 23685 23688 23690 23693 23696 23698 23701 23704 23707 23710 23712 23715 23717 23720 23723 23726 23729 23732 23735 23737 23740 23742 23745 23748 23751 23754 23757 23759 23762 23765 23768 23771 23773 23776 23779 23782 23785 23788 23791 23793 23796 23799 23802 23805 23808 23811 23814 23817 23820 23823 23826 23829 23832 23835 23838 23841 23844 23847 23850 23853 23856 23859 23862 23865 23868 23871 23874 23877 23880 23883 23886 23889 23892 23894 23896 23899 23902 23905 23908 23911 23914 23917 23920 23923 23926 23928 23931 23934 23936 23938 23941 23943 23946 23949 23952 23955 23958 23961 23964 23966 23969 23972 23975 23978 23981 23984 23987 23990 23993 23996 23999 24002 24004 24007 24010 24013 24016 24018 24021 24024 24027 24030 24033 24036 24039 24042 24045 24048 24051 24054 24056 24059 24062 24065 24068 24071 24074 24077 24080 24083 24086 24089 24092 24095 24098 24101 24104 24107 24109 24112 24115 24118 24121 24124 24126 24129 24132 24135 24137 24140 24143 24146 24149 24152 24155 24157 24160 24162 24165 24168 24171 24173 24176 24179 24182 24185 24188 24191 24194 24197 24200 24202 24205 24208 24210 24213 24216 24219 24222 24225 24228 24231 24233 24236 24239 24242 24245 24248 24251 24254 24257 24260 24263 24266 24269 24272 24274 24277 24280 24282 24285 24288 24291 24294 24297 24300 24302 24305 24308 24311 24314 24317 24320 24322 24325 24328 24331 24334 24337 24340 24343 24345 24348 24351 24354 24357 24360 24363 24366 24369 24372 24375 24378 24381 24384 24387 24390 24393 24396 24399 24402 24405 24408 24411 24413 24416 24419 24422 24425 24428 24431 24434 24437 24440 24443 24445 24448 24451 24454 24457 24459 24461 24464 24467 24470 24473 24475 24478 24481 24484 24487 24490 24493 24496 24499 24502 24504 24507 24510 24513 24516 24519 24522 24525 24528 24531 24534 24537 24539 24542 24545 24548 24550 24553 24556 24559 24561 24564 24567 24570 24573 24576 24579 24582 24585 24588 24591 24594 24597 24599 24602 24605 24608 24611 24614 24616 24619 24622 24624 24627 24630 24633 24636 24639 24642 24645 24648 24651 24654 24657 24660 24663 24666 24668 24671 24674 24677 24680 24683 24686 24689 24691 24694 24697 24700 24702 24705 24708 24711 24714 24717 24719 24722 24725 24728 24731 24734 24737 24740 24743 24746 24748 24751 24754 24757 24760 24763 24766 24769 24772 24774 24777 24780 24783 24786 24789 24791 24794 24797 24800 24803 24806 24809 24812 24814 24817 24820 24823 24826 24829 24832 24835 24838 24841 24844 24847 24850 24853 24856 24859 24862 24865 24868 24871 24874 24877 24880 24883 24886 24889 24892 24895 24898 24901 24904 24907 24910 24913 24916 24919 24922 24925 24928 24931 24934 24937 24940 24943 24946 24949 24952 24955 24958 24960 24963 24966 24969 24972 24975 24978 24981 24983 24986 24989 24992 24995 24998 25001 25004 25007 25010 25013 25016 25019 25022 25025 25028 25031 25034 25037 25040 25043 25046 25049 25051 25053 25056 25059 25061 25063 25066 25069 25072 25075 25078 25081 25084 25086 25089 25092 25095 25098 25101 25104 25107 25110 25113 25116 25119 25122 25125 25128 25130 25133 25136 25139 25142 25145 25148 25151 25154 25156 25159 25162 25164 25167 25170 25173 25175 25178 25181 25184 25187 25190 25193 25196 25199 25202 25205 25208 25211 25214 25217 25220 25223 25226 25229 25232 25235 25238 25241 25244 25247 25250 25253 25256 25259 25261 25264 25267 25270 25273 25276 25279 25282 25285 25287 25290 25293 25296 25299 25302 25305 25307 25309 25312 25315 25318 25321 25323 25326 25329 25331 25334 25337 25339 25342 25345 25348 25351 25354 25357 25359 25362 25365 25368 25371 25374 25377 25380 25383 25385 25388 25391 25394 25397 25400 25403 25406 25409 25412 25415 25418 25420 25423 25426 25428 25431 25434 25437 25440 25443 25446 25449 25451 25454 25457 25460 25462 25465 25467 25470 25472 25475 25478 25481 25484 25487 25490 25493 25496 25499 25502 25505 25508 25511 25514 25517 25520 25523 25525 25528 25530 25533 25536 25539 25542 25545 25548 25551 25554 25557 25560 25562 25565 25568 25571 25574 25577 25580 25583 25585 25588 25591 25594 25596 25599 25601 25603 25606 25609 25611 25614 25617 25620 25623 25625 25628 25631 25634 25636 25639 25642 25645 25647 25650 25652 25654 25657 25660 25663 25666 25669 25672 25674 25677 25680 25683 25686 25689 25692 25695 25698 25700 25702 25704 25707 25709 25712 25715 25717 25719 25722 25725 25727 25730 25733 25736 25739 25742 25745 25748 25751 25754 25757 25760 25762 25765 25768 25771 25774 25777 25780 25783 25786 25789 25792 25795 25798 25801 25803 25805 25808 25811 25814 25817 25819 25822 25825 25828 25830 25833 25836 25839 25842 25845 25847 25849 25852 25855 25858 25860 25863 25866 25869 25872 25875 25878 25881 25884 25887 25890 25893 25896 25899 25902 25905 25907 25910 25913 25916 25918 25921 25924 25927 25929 25932 25935 25938 25941 25944 25947 25949 25952 25955 25958 25961 25964 25966 25969 25972 25975 25978 25981 25984 25987 25990 25992 25995 25998 26001 26004 26007 26010 26013 26016 26019 26021 26024 26027 26030 26033 26035 26038 26040 26043 26046 26048 26051 26053 26056 26059 26062 26065 26068 26071 26073 26076 26078 26080 26083 26086 26089 26092 26095 26098 26101 26104 26106 26109 26111 26114 26116 26119 26121 26124 26127 26130 26133 26136 26139 26142 26145 26148 26151 26154 26156 26159 26162 26165 26167 26170 26173 26176 26179 26182 26185 26188 26191 26193 26196 26199 26202 26205 26208 26211 26214 26217 26220 26222 26225 26228 26231 26234 26236 26239 26242 26244 26247 26250 26253 26256 26259 26262 26265 26268 26271 26273 26276 26279 26282 26284 26287 26290 26293 26296 26299 26302 26305 26308 26311 26314 26317 26320 26323 26326 26329 26332 26335 26338 26341 26343 26346 26349 26352 26355 26358 26361 26364 26367 26370 26373 26375 26378 26381 26384 26387 26390 26393 26396 26399 26402 26405 26408 26411 26414 26417 26420 26423 26426 26429 26432 26435 26438 26441 26444 26447 26450 26453 26456 26459 26462 26465 26468 26471 26474 26477 26480 26483 26486 26489 26492 26495 26498 26501 26504 26507 26510 26512 26514 26517 26520 26523 26526 26529 26532 26535 26538 26541 26544 26547 26550 26553 26555 26557 26560 26563 26566 26568 26571 26574 26576 26579 26582 26585 26587 26590 26593 26596 26598 26601 26604 26607 26610 26613 26616 26619 26622 26624 26627 26630 26632 26635 26637 26639 26642 26645 26648 26651 26654 26657 26659 26662 26664 26666 26668 26671 26674 26676 26679 26682 26684 26686 26689 26692 26695 26698 26701 26704 26707 26710 26713 26716 26719 26722 26725 26728 26731 26734 26737 26740 26743 26746 26749 26751 26754 26757 26760 26763 26766 26769 26772 26775 26778 26780 26783 26786 26789 26792 26795 26798 26801 26803 26805 26808 26811 26814 26817 26820 26823 26826 26829 26832 26835 26838 26841 26844 26847 26850 26853 26856 26859 26862 26865 26868 26871 26874 26876 26879 26881 26884 26887 26890 26893 26896 26899 26902 26904 26907 26910 26913 26915 26917 26920 26923 26925 26928 26931 26934 26937 26939 26942 26945 26948 26950 26953 26956 26959 26961 26964 26967 26970 26973 26976 26979 26982 26985 26988 26990 26992 26995 26998 27001 27004 27007 27009 27012 27015 27017 27019 27021 27024 27027 27030 27033 27036 27038 27041 27044 27047 27050 27053 27056 27059 27062 27065 27067 27070 27072 27075 27078 27081 27084 27087 27090 27093 27096 27099 27102 27105 27108 27111 27114 27117 27120 27123 27126 27129 27132 27135 27138 27141 27144 27146 27149 27152 27155 27158 27160 27162 27165 27168 27171 27173 27176 27179 27182 27185 27188 27191 27194 27197 27200 27203 27206 27209 27212 27215 27218 27221 27223 27226 27229 27232 27234 27237 27240 27242 27245 27248 27251 27254 27257 27260 27263 27266 27269 27272 27275 27278 27281 27283 27286 27289 27291 27294 27297 27300 27302 27305 27307 27310 27312 27315 27317 27319 27321 27324 27327 27330 27333 27336 27339 27342 27345 27347 27350 27353 27356 27359 27362 27365 27368 27371 27373 27376 27379 27381 27384 27387 27390 27393 27396 27399 27402 27405 27408 27411 27414 27417 27420 27423 27426 27429 27432 27435 27438 27441 27444 27446 27449 27452 27455 27458 27461 27464 27467 27470 27473 27476 27478 27481 27483 27486 27489 27491 27494 27496 27499 27501 27504 27507 27509 27512 27514 27517 27520 27522 27525 27528 27531 27533 27536 27539 27542 27545 27548 27551 27554 27557 27560 27563 27566 27569 27572 27575 27578 27581 27584 27587 27590 27593 27596 27599 27602 27605 27608 27611 27614 27617 27620 27623 27626 27629 27632 27635 27638 27641 27644 27647 27650 27653 27656 27659 27662 27665 27668 27671 27674 27677 27680 27683 27686 27689 27692 27695 27698 27701 27704 27707 27710 27713 27716 27718 27721 27724 27726 27729 27732 27735 27738 27741 27744 27746 27748 27751 27754 27757 27760 27763 27766 27769 27772 27775 27778 27781 27784 27787 27790 27793 27796 27799 27802 27804 27807 27810 27813 27815 27818 27821 27824 27827 27830 27833 27836 27839 27842 27845 27848 27851 27854 27857 27860 27863 27865 27868 27871 27874 27877 27880 27883 27886 27888 27891 27894 27897 27900 27903 27906 27909 27912 27914 27917 27919 27922 27925 27928 27931 27934 27937 27940 27943 27946 27949 27952 27955 27958 27961 27964 27967 27969 27972 27975 27978 27981 27984 27987 27990 27992 27995 27998 28001 28004 28006 28009 28012 28015 28018 28021 28024 28027 28029 28032 28035 28037 28039 28042 28045 28047 28050 28053 28056 28059 28062 28065 28067 28070 28073 28076 28079 28082 28085 28088 28091 28094 28096 28099 28102 28104 28107 28110 28112 28115 28118 28120 28123 28126 28129 28132 28135 28137 28140 28143 28146 28149 28152 28155 28158 28161 28163 28166 28169 28172 28175 28178 28181 28184 28186 28189 28192 28195 28198 28201 28204 28207 28210 28213 28216 28219 28222 28224 28227 28230 28233 28236 28239 28242 28245 28247 28249 28252 28254 28257 28259 28262 28265 28268 28271 28274 28277 28280 28283 28286 28289 28292 28295 28298 28301 28304 28306 28309 28311 28314 28317 28320 28323 28326 28329 28332 28335 28337 28340 28342 28345 28347 28350 28352 28355 28357 28360 28363 28365 28368 28371 28374 28377 28380 28382 28385 28388 28391 28394 28397 28400 28403 28406 28408 28411 28414 28417 28420 28423 28425 28428 28431 28433 28436 28438 28440 28443 28446 28449 28452 28455 28458 28461 28464 28466 28469 28472 28475 28478 28481 28484 28487 28490 28493 28496 28499 28502 28505 28507 28510 28513 28516 28519 28522 28525 28528 28530 28533 28536 28539 28541 28544 28547 28550 28553 28556 28559 28562 28565 28568 28571 28574 28577 28580 28583 28586 28589 28592 28594 28597 28600 28603 28606 28609 28612 28615 28617 28620 28623 28625 28628 28631 28634 28637 28640 28643 28646 28649 28652 28655 28658 28661 28664 28667 28670 28672 28675 28678 28681 28684 28686 28689 28692 28695 28698 28701 28704 28707 28710 28713 28716 28719 28722 28725 28728 28731 28734 28737 28740 28743 28746 28749 28752 28755 28758 28761 28763 28766 28769 28772 28775 28778 28781 28783 28786 28789 28792 28795 28798 28801 28804 28807 28810 28812 28814 28817 28820 28823 28825 28828 28830 28833 28836 28839 28842 28845 28848 28851 28854 28857 28860 28863 28866 28869 28872 28875 28877 28880 28883 28886 28889 28892 28895 28898 28901 28904 28907 28910 28913 28915 28917 28920 28923 28926 28929 28932 28935 28938 28941 28943 28946 28949 28951 28954 28957 28959 28961 28964 28967 28970 28973 28976 28979 28982 28984 28987 28990 28993 28996 28999 29002 29005 29008 29011 29013 29016 29019 29022 29024 29027 29030 29033 29036 29039 29041 29044 29047 29050 29053 29056 29059 29062 29065 29068 29071 29074 29077 29079 29082 29085 29088 29090 29093 29096 29099 29101 29104 29107 29110 29113 29116 29119 29122 29125 29128 29131 29134 29137 29140 29143 29146 29149 29152 29155 29158 29161 29164 29167 29170 29173 29176 29179 29182 29185 29188 29191 29194 29197 29199 29202 29205 29208 29211 29214 29217 29220 29223 29226 29229 29232 29235 29238 29241 29244 29247 29250 29253 29256 29259 29262 29265 29268 29271 29273 29276 29278 29281 29284 29286 29289 29292 29295 29298 29301 29304 29307 29310 29313 29315 29318 29321 29324 29327 29330 29333 29336 29339 29342 29345 29348 29351 29354 29357 29359 29362 29365 29368 29371 29373 29376 29379 29382 29384 29387 29390 29393 29396 29399 29402 29405 29408 29411 29414 29417 29420 29423 29426 29429 29432 29435 29438 29441 29444 29447 29450 29453 29456 29459 29462 29465 29468 29471 29474 29477 29480 29483 29486 29489 29492 29495 29498 29501 29504 29507 29510 29513 29516 29519 29522 29525 29528 29531 29534 29537 29540 29543 29546 29549 29552 29555 29558 29561 29564 29567 29570 29573 29576 29579 29582 29585 29588 29591 29594 29597 29600 29603 29606 29609 29612 29615 29618 29621 29624 29627 29630 29633 29636 29639 29642 29645 29648 29651 29654 29657 29660 29663 29666 29669 29672 29675 29678 29681 29684 29687 29690 29693 29696 29699 29702 29705 29708 29711 29714 29717 29720 29723 29726 29729 29732 29735 29738 29741 29744 29747 29750 29753 29756 29759 29762 29765 29768 29771 29774 29777 29780 29783 29786 29789 29792 29795 29798 29801 29804 29807 29810 29813 29816 29819 29822 29825 29828 29831 29834 29837 29840 29843 29846 29849 29852 29855 29858 29861 29864 29867 29870 29873 29876 29879 29882 29885 29888 29891 29894 29897 29900 29903 29906 29909 29912 29915 29918 29921 29924 29927 29930 29933 29936 29939 29942 29945 29948 29951 29953 29956 29959 29962 29965 29968 29971 29974 29977 29980 29983 29986 29989 29992 29995 29998 30001 30003 30006 30009 30012 30015 30018 30021 30024 30027 30029 30032 30035 30038 30041 30043 30046 30049 30052 30055 30058 30061 30064 30067 30070 30073 30076 30079 30082 30085 30088 30091 30094 30097 30100 30103 30106 30109 30111 30114 30117 30120 30123 30126 30129 30132 30135 30138 30141 30144 30147 30150 30152 30154 30157 30160 30163 30166 30169 30171 30174 30176 30179 30182 30185 30188 30191 30194 30197 30200 30203 30206 30209 30211 30214 30217 30220 30223 30226 30229 30232 30234 30237 30240 30243 30246 30249 30252 30255 30258 30261 30264 30267 30270 30273 30276 30279 30281 30283 30286 30289 30292 30295 30298 30301 30304 30307 30310 30313 30316 30319 30321 30324 30327 30330 30333 30336 30339 30342 30345 30348 30351 30354 30357 30360 30363 30366 30369 30371 30374 30377 30380 30383 30386 30389 30392 30394 30397 30400 30403 30406 30409 30412 30415 30418 30421 30424 30426 30428 30431 30434 30437 30440 30443 30446 30449 30452 30455 30458 30461 30464 30467 30470 30473 30476 30479 30482 30485 30488 30491 30494 30497 30500 30503 30506 30509 30512 30515 30518 30520 30523 30526 30529 30532 30535 30537 30540 30543 30546 30549 30552 30555 30558 30561 30564 30567 30569 30572 30575 30578 30581 30583 30586 30589 30592 30595 30598 30601 30604 30607 30610 30613 30615 30618 30620 30623 30626 30629 30632 30635 30638 30641 30644 30647 30650 30653 30656 30659 30662 30665 30668 30671 30674 30677 30680 30683 30686 30689 30692 30695 30698 30701 30704 30707 30710 30713 30715 30718 30721 30724 30727 30730 30732 30735 30738 30741 30744 30747 30750 30753 30756 30759 30762 30765 30768 30771 30774 30777 30780 30783 30786 30788 30791 30794 30796 30799 30802 30805 30807 30810 30813 30816 30819 30822 30824 30827 30830 30833 30836 30839 30842 30845 30848 30851 30854 30856 30859 30862 30865 30868 30871 30874 30876 30879 30882 30885 30888 30891 30893 30895 30898 30901 30903 30906 30909 30911 30914 30917 30920 30923 30926 30929 30932 30935 30938 30941 30943 30946 30949 30951 30954 30957 30959 30962 30965 30967 30970 30973 30975 30978 30981 30983 30986 30989 30992 30995 30998 31001 31003 31006 31009 31012 31015 31018 31021 31024 31027 31030 31033 31036 31038 31041 31044 31047 31050 31053 31056 31059 31061 31064 31067 31070 31073 31075 31078 31081 31084 31086 31089 31092 31095 31098 31101 31104 31107 31110 31113 31116 31119 31121 31124 31127 31130 31133 31136 31139 31142 31145 31148 31151 31154 31157 31160 31163 31166 31169 31172 31175 31178 31181 31184 31187 31190 31193 31195 31198 31201 31204 31207 31210 31212 31215 31218 31221 31224 31227 31230 31233 31236 31239 31242 31245 31248 31251 31254 31256 31259 31262 31264 31267 31269 31272 31275 31278 31281 31283 31286 31288 31290 31293 31295 31298 31301 31304 31307 31310 31313 31316 31318 31321 31323 31326 31329 31332 31335 31338 31341 31343 31346 31349 31352 31355 31358 31361 31363 31366 31369 31372 31375 31377 31380 31383 31386 31389 31392 31394 31397 31400 31402 31405 31408 31411 31414 31416 31419 31422 31425 31428 31430 31433 31436 31439 31442 31445 31448 31450 31453 31456 31459 31462 31465 31468 31471 31474 31477 31479 31482 31485 31488 31491 31494 31497 31499 31502 31505 31508 31511 31513 31516 31519 31522 31525 31528 31531 31534 31537 31540 31543 31546 31549 31552 31555 31558 31561 31563 31566 31569 31572 31574 31577 31580 31582 31585 31588 31591 31594 31597 31600 31603 31606 31609 31612 31615 31618 31621 31624 31627 31630 31632 31635 31637 31640 31643 31646 31649 31652 31655 31658 31661 31664 31667 31670 31673 31676 31679 31682 31685 31688 31691 31694 31697 31700 31703 31706 31709 31712 31715 31717 31720 31723 31725 31728 31731 31734 31737 31740 31743 31746 31749 31752 31755 31757 31760 31763 31766 31769 31771 31774 31777 31780 31783 31785 31788 31791 31794 31797 31800 31803 31806 31809 31812 31814 31817 31820 31823 31826 31829 31832 31835 31838 31841 31844 31847 31850 31853 31856 31859 31862 31865 31868 31871 31874 31877 31880 31883 31886 31889 31892 31895 31898 
</DataArray>
<DataArray type="UInt32" Name="types" format="ascii">
5 5 5 5 5 3 5 5 5 5 5 5 5 3 5 5 5 5 3 5 5 3 5 5 5 5 3 5 5 5 5 3 5 5 5 5 5 5 5 5 5 5 5 5 5 3 5 5 3 5 5 5 5 5 3 5 5 5 5 5 5 5 3 5 5 5 5 3 5 5 5 5 5 5 5 5 5 3 5 5 3 5 5 3 5 5 5 5 3 5 5 5 5 5 5 5 3 3 3 5 5 3 5 5 5 5 5 3 5 5 5 5 5 5 5 5 5 5 5 5 5 3 5 5 5 3 5 5 5 5 5 5 3 5 5 5 5 5 5 5 5 5 5 5 5 5 5 5 5 5 5 5 5 5 5 5 5 5 3 5 5 5 3 5 5 3 5 5 5 5 5 5 5 5 5 5 5 3 5 5 5 5 5 5 5 5 3 5 5 5 5 5 5 5 5 3 5 5 5 5 5 5 5 5 5 3 5 5 5 5 5 5 5 5 5 5 5 5 5 5 5 5 5 5 5 5 5 5 5 3 5 5 5 3 5 3 5 3 5 5 3 5 5 5 3 5 3 5 3 5 3 3 5 3 5 5 3 5 3 5 5 5 3 5 3 3 5 5 3 5 5 5 3 5 3 3 3 5 3 5 5 5 3 5 3 3 3 5 5 3 3 5 5 5 5 3 5 3 5 5 3 5 5 5 3 5 3 3 3 5 5 5 3 5 3 3 3 3 5 5 5 3 3 5 5 3 3 3 5 3 5 5 5 5 3 5 5 5 5 5 5 5 3 5 5 5 5 5 5 3 3 5 5 5 3 5 5 5 3 5 3 5 3 3 5 5 5 5 3 5 5 3 5 5 5 5 3 5 3 5 5 5 5 5 3 3 5 5 5 5 5 5 5 5 3 5 5 5 3 5 5 3 5 3 5 5 5 5 5 5 5 5 5 5 5 3 5 3 5 3 5 5 5 3 5 3 5 3 5 5 5 5 5 5 3 5 3 5 5 5 3 5 5 5 3 5 3 3 5 5 5 5 3 5 5 5 5 3 3 5 5 3 5 3 5 3 3 5 5 5 3 5 5 5 5 3 5 5 5 5 5 5 5 5 5 5 5 3 5 5 5 5 3 5 5 5 3 5 3 3 3 5 5 5 3 3 5 3 5 5 3 5 5 5 5 3 5 5 5 5 5 5 5 5 5 5 5 3 3 5 5 3 5 5 5 3 5 5 5 5 5 5 3 5 5 5 3 5 5 5 3 5 5 5 5 5 5 5 5 5 5 5 3 5 5 5 3 5 5 5 5 5 5 5 3 5 5 5 5 5 3 5 5 5 5 5 5 5 5 5 5 5 5 5 5 5 5 5 5 5 3 5 5 5 5 3 5 5 3 5 5 5 5 5 5 5 3 5 5 5 5 5 5 5 5 3 5 3 5 5 3 5 5 5 3 5 5 3 5 5 5 3 5 3 5 5 3 5 3 5 5 5 5 5 5 5 5 5 5 5 5 5 5 5 5 5 5 5 5 5 5 3 5 3 5 3 5 5 5 5 5 5 5 5 5 5 5 5 5 5 5 3 5 5 5 5 5 5 5 5 5 3 5 5 5 5 5 5 5 5 5 5 5 5 5 5 5 5 5 5 5 5 5 5 5 5 5 5 5 5 5 3 5 5 3 5 5 5 3 3 5 3 5 5 5 5 5 3 5 5 5 5 5 3 5 5 5 5 5 5 5 5 5 5 5 5 5 5 5 5 5 5 5 5 5 5 5 5 5 5 5 5 5 5 5 5 5 5 5 5 5 5 5 5 5 5 5 5 5 5 5 5 5 3 5 5 5 5 5 5 5 5 5 5 5 5 5 5 5 3 5 5 5 5 3 5 5 5 5 5 5 5 5 5 5 5 5 5 5 5 5 5 5 5 5 5 5 5 5 5 5 5 3 5 5 3 5 3 3 3 3 5 5 3 5 5 5 5 5 5 5 5 5 5 5 5 5 5 5 5 5 3 5 5 3 5 3 5 5 5 5 3 5 3 5 5 5 5 3 5 5 5 3 5 5 5 5 5 3 5 3 5 5 3 3 5 3 5 5 5 5 5 5 5 5 5 5 5 3 5 5 5 3 5 5 5 3 5 5 3 3 3 5 5 5 5 5 5 5 5 5 5 5 3 5 5 5 5 5 5 5 5 3 3 3 5 5 5 5 5 5 5 5 3 3 5 5 5 3 5 5 3 5 5 5 5 5 5 5 5 5 5 5 3 5 5 5 5 5 5 5 5 3 5 5 5 5 5 5 5 5 5 5 3 5 3 3 3 5 5 5 5 5 5 5 3 3 5 3 5 5 5 5 5 3 5 3 3 5 5 5 3 5 3 5 5 5 5 3 5 5 5 5 5 5 5 5 5 5 5 5 5 5 5 5 5 3 5 5 5 3 5 5 5 5 5 3 5 5 5 5 5 5 3 5 3 5 5 5 5 5 5 5 5 3 5 5 5 3 5 5 5 5 5 5 5 5 5 5 5 5 5 5 5 5 5 5 5 5 5 5 5 5 5 3 3 3 5 5 5 5 3 5 5 5 5 3 5 5 5 5 5 5 5 3 5 5 5 5 5 5 5 5 3 5 5 5 5 5 5 5 5 5 5 5 5 3 5 5 5 5 5 5 3 5 5 5 5 5 5 5 5 3 5 5 5 3 5 5 5 5 5 5 5 5 5 5 5 5 3 5 5 5 5 5 5 5 5 5 5 5 5 5 5 5 5 5 5 5 5 5 5 5 5 5 5 5 5 5 5 5 5 5 5 5 5 5 5 5 5 5 5 5 5 5 5 5 3 5 5 5 5 5 5 5 5 5 5 5 5 5 5 5 5 5 5 5 5 5 5 5 5 3 5 5 5 5 5 5 5 5 5 5 3 5 5 3 5 5 5 5 5 5 5 5 5 3 5 3 5 5 5 5 3 5 5 3 5 3 5 5 5 5 5 3 5 5 5 5 5 5 5 5 3 5 5 5 5 5 5 5 5 5 5 5 5 5 5 3 5 3 3 5 5 5 5 5 3 5 5 5 5 5 5 5 5 5 5 5 5 5 5 5 3 5 5 5 5 5 5 5 5 5 5 5 5 5 5 5 5 3 5 5 5 5 5 3 3 5 5 3 5 5 5 5 5 5 5 5 5 5 3 5 5 5 5 5 5 5 5 5 3 5 3 5 5 5 5 5 3 5 5 5 5 3 5 5 5 3 5 5 5 3 5 5 3 5 5 5 5 5 5 5 5 5 5 5 5 5 5 5 5 3 5 5 5 5 5 5 5 3 5 5 5 5 5 5 5 5 5 5 5 5 5 5 5 5 5 5 5 5 5 5 5 5 5 5 5 3 5 5 5 5 3 5 5 5 3 5 5 5 5 5 5 5 5 5 3 5 3 5 5 5 5 5 5 5 5 5 5 5 5 5 5 5 5 5 5 3 3 5 5 5 3 5 5 3 5 5 3 5 5 5 3 5 5 3 5 5 5 5 5 5 5 5 5 5 5 5 5 5 5 5 5 5 5 5 3 5 3 5 5 5 5 5 5 5 5 5 5 5 3 5 3 5 5 5 3 5 5 5 5 5 3 5 5 5 5 5 5 3 5 5 5 5 5 5 5 5 5 5 5 3 5 5 5 5 5 5 5 5 3 5 5 5 3 5 5 3 5 5 5 5 5 3 5 5 5 5 5 5 5 5 5 3 5 5 3 5 3 5 3 3 3 5 3 5 5 5 5 5 5 3 5 5 5 5 5 5 3 5 5 5 5 5 5 5 3 5 5 5 5 3 5 5 5 5 5 3 5 3 5 5 5 5 5 5 5 5 5 5 3 5 5 5 5 5 5 5 3 5 5 5 5 5 5 5 3 5 3 5 5 5 5 5 5 5 5 3 5 5 5 3 3 5 5 5 5 5 3 3 5 3 5 5 3 5 5 3 5 5 5 5 5 5 5 5 3 5 5 5 5 5 3 5 5 5 5 3 5 5 3 5 5 5 5 5 5 5 5 5 5 5 5 5 5 5 5 5 5 5 5 5 5 5 5 5 5 5 5 5 5 5 5 5 5 5 5 5 5 5 5 5 3 5 5 3 5 5 5 5 5 3 5 5 5 5 3 5 5 5 5 5 5 5 5 5 5 5 5 5 5 5 5 5 5 5 5 5 5 5 5 3 5 5 5 3 5 5 5 5 5 5 3 5 5 5 5 5 5 5 5 5 5 5 3 5 3 3 5 5 3 5 5 5 5 5 5 5 5 5 5 5 3 5 5 3 5 5 5 5 5 5 5 5 5 5 5 5 5 5 5 3 5 5 5 5 5 5 5 3 5 3 5 5 5 5 3 5 3 5 5 5 5 5 5 5 5 5 3 5 5 5 5 5 5 5 5 5 5 5 5 5 5 5 5 5 3 5 5 5 5 5 5 5 5 5 5 5 5 5 5 5 5 5 5 5 5 5 5 5 5 5 3 3 5 5 5 5 5 5 5 5 5 5 5 3 5 5 5 5 3 5 5 5 5 3 5 5 5 5 5 5 5 5 3 5 5 5 5 5 5 5 5 5 3 5 5 5 5 5 5 5 5 5 5 5 5 5 5 5 5 5 5 5 5 3 5 5 5 5 5 5 5 5 5 5 5 5 5 5 3 5 3 5 5 5 5 5 5 5 5 3 5 5 3 5 5 5 5 5 5 5 5 5 5 5 5 5 5 5 5 5 5 5 5 5 5 5 5 5 5 5 5 5 5 5 5 5 5 5 5 3 5 5 3 5 5 5 5 3 5 3 5 5 3 5 3 5 5 5 5 5 3 5 5 5 5 5 5 5 5 5 5 5 5 3 5 5 5 3 5 5 5 5 5 5 5 5 5 3 5 5 5 5 3 3 5 5 5 5 5 5 5 5 3 5 5 5 5 5 3 5 5 5 3 5 5 5 3 5 5 5 5 3 5 5 5 5 5 5 5 5 5 5 5 5 5 5 3 5 5 5 5 5 5 3 5 3 3 5 3 5 3 5 5 5 5 3 5 5 5 5 3 5 5 5 5 5 5 5 5 5 3 5 5 5 5 5 5 5 5 5 5 5 5 5 5 3 5 5 5 3 5 5 5 3 5 3 5 5 5 5 5 5 5 5 5 5 5 5 5 5 5 5 3 5 5 5 5 5 5 3 5 5 5 5 5 5 5 5 5 5 5 5 5 5 5 5 5 5 3 5 5 5 5 5 5 5 5 5 5 5 5 5 5 5 5 5 5 5 5 5 5 5 5 5 5 5 5 5 5 5 5 5 5 3 5 5 5 5 3 5 5 5 5 5 5 5 3 5 5 5 5 5 5 5 5 5 3 5 5 3 5 5 5 5 5 3 5 5 5 3 5 5 3 5 5 5 5 5 5 5 5 5 5 5 5 5 5 5 5 5 5 5 5 3 5 5 5 5 5 5 5 5 5 5 3 3 5 3 5 5 5 5 5 3 5 5 5 5 3 5 5 5 5 5 3 5 3 5 5 3 5 5 5 5 5 5 5 5 3 5 5 5 5 5 5 3 5 5 5 5 5 5 3 5 5 5 5 3 5 5 3 5 3 5 5 3 5 5 5 5 5 5 3 5 5 5 5 3 5 5 5 5 5 5 5 5 3 3 5 5 5 5 5 5 5 5 3 5 5 5 5 5 5 3 5 5 5 5 5 5 5 3 5 5 5 3 5 5 5 5 5 5 5 5 5 5 5 5 3 5 5 5 5 3 5 5 3 5 5 5 5 3 5 5 5 3 3 5 5 5 3 5 5 5 3 5 5 5 5 5 5 5 5 5 3 5 5 5 3 5 5 5 5 5 5 5 5 5 5 5 5 3 5 3 5 5 3 5 5 3 5 5 5 5 5 5 5 3 5 5 5 5 5 3 5 3 5 5 5 3 3 5 3 3 5 3 5 5 5 5 5 5 3 5 3 5 5 5 5 5 5 5 5 5 5 5 5 5 3 5 5 3 5 3 5 5 3 5 5 5 3 3 5 5 3 5 5 5 5 5 5 5 5 5 5 5 5 5 5 5 5 5 5 5 5 5 5 5 3 3 5 3 5 3 5 5 3 3 5 5 3 5 5 3 5 5 3 5 3 5 5 5 5 3 5 5 5 5 3 5 3 3 5 3 5 5 3 3 5 5 5 3 5 5 5 5 3 3 5 5 5 5 5 3 5 5 5 5 5 5 5 5 5 5 5 3 5 3 5 3 5 5 3 5 3 5 5 5 5 5 5 5 5 3 5 5 3 5 5 5 5 3 5 5 5 5 5 5 5 5 5 5 5 5 3 5 5 5 5 5 5 5 5 5 5 5 3 5 5 5 5 5 5 3 5 3 5 5 3 5 5 5 5 5 5 5 5 5 5 5 5 5 5 5 5 5 3 3 5 5 5 3 5 5 3 5 5 5 5 5 5 5 5 5 5 5 5 5 5 5 5 5 5 5 5 5 5 5 5 5 3 3 5 5 5 5 5 5 5 5 5 5 5 3 5 5 5 5 5 5 5 5 5 5 5 5 5 5 5 5 5 5 5 5 5 5 5 5 5 5 5 5 5 5 5 5 5 3 5 5 5 5 5 3 5 5 3 5 5 3 3 5 5 5 5 5 5 5 5 5 5 5 5 5 3 5 5 3 5 5 5 5 5 5 3 5 5 3 5 5 5 5 5 5 5 5 5 5 5 5 5 3 5 5 5 5 5 5 5 3 5 5 5 5 5 5 5 5 5 5 5 5 3 5 5 3 5 5 5 5 5 5 5 5 5 5 5 5 5 5 5 5 5 5 5 5 3 5 5 3 5 3 5 5 5 3 5 5 3 5 3 5 5 5 3 5 5 5 5 3 5 5 5 5 5 5 5 3 5 5 5 3 5 5 5 5 5 5 5 5 5 5 5 5 3 5 5 5 5 5 5 5 5 3 5 5 5 5 5 5 5 5 5 5 5 3 5 5 5 5 5 5 5 5 5 5 5 5 5 5 5 5 5 5 5 3 3 5 5 5 3 5 5 5 5 5 5 5 5 5 5 5 5 3 5 5 5 5 5 5 5 5 5 3 5 5 5 5 5 5 5 5 5 5 5 5 5 5 5 5 3 5 3 5 5 5 5 5 3 5 5 5 5 3 5 5 5 3 5 5 5 3 5 5 5 5 5 5 5 5 5 3 5 5 5 3 5 5 3 5 5 5 5 5 5 3 5 5 5 5 5 5 5 5 3 5 5 5 3 5 5 5 5 5 5 5 5 5 5 5 5 5 5 5 5 5 5 5 5 5 5 5 5 5 5 5 3 5 5 5 5 5 5 5 3 5 5 5 5 5 5 5 5 5 5 5 5 5 5 5 5 5 5 5 5 5 5 5 5 5 3 5 3 5 5 5 5 5 5 3 5 5 5 3 5 5 3 5 5 5 5 5 5 5 5 5 5 5 5 3 5 5 5 5 5 3 5 5 5 5 5 5 5 5 5 5 5 5 5 3 5 5 5 3 5 5 5 5 5 5 5 5 5 5 5 5 3 3 5 5 5 5 3 5 5 5 5 5 5 5 5 5 3 3 5 5 5 5 5 3 5 5 5 5 5 3 5 5 5 5 5 3 5 3 5 5 5 5 3 5 3 5 3 3 5 5 5 5 5 5 5 3 3 5 5 5 5 5 5 3 3 3 5 3 3 5 5 5 3 5 5 5 5 5 3 3 3 5 3 5 5 5 3 5 3 3 5 5 5 5 5 5 5 3 3 5 5 3 3 3 5 5 5 5 5 5 5 5 5 5 5 5 5 5 5 5 5 5 5 5 5 5 5 5 5 5 5 5 5 5 5 5 5 5 5 5 5 5 5 5 3 5 5 5 5 5 5 5 5 5 5 3 5 5 5 5 5 5 3 5 5 3 5 5 5 5 5 5 5 5 5 5 5 5 5 3 5 3 5 5 5 5 3 5 5 5 3 5 5 3 5 5 5 3 5 5 3 5 5 5 5 5 3 5 5 5 5 5 5 5 3 5 5 5 5 5 5 5 3 5 5 3 5 5 5 5 3 5 3 5 5 5 5 5 3 5 5 5 5 3 5 5 5 5 5 5 3 3 5 5 5 5 5 3 5 5 3 5 5 5 5 5 5 5 5 5 5 3 5 5 5 5 5 5 5 5 5 5 5 5 5 5 5 5 5 5 3 5 5 5 5 5 5 3 5 5 5 5 5 5 5 3 3 5 5 5 5 3 5 5 5 5 5 5 5 3 5 5 3 5 3 3 3 5 5 5 5 5 5 3 5 5 5 5 5 3 5 5 5 5 3 5 5 5 3 5 5 5 3 5 5 5 5 5 5 5 5 5 5 5 5 5 5 5 5 5 5 5 5 5 5 5 5 5 3 5 5 5 5 5 5 5 3 5 3 5 5 5 5 5 5 3 5 5 3 5 5 5 3 5 5 3 5 5 5 5 5 3 5 5 5 3 3 5 5 5 5 5 5 5 5 5 5 5 5 3 5 5 5 5 5 5 5 5 5 3 5 5 5 5 5 3 3 5 5 5 5 5 5 5 5 5 3 5 5 5 5 5 5 5 5 3 5 5 5 5 5 5 5 5 5 5 5 5 5 5 5 5 5 5 3 5 5 5 5 3 5 3 5 3 5 5 5 5 5 5 5 5 5 5 5 5 5 5 5 5 5 3 5 5 5 5 5 3 5 5 5 3 3 5 5 5 5 5 3 5 5 5 5 3 5 5 5 5 5 5 5 5 3 5 5 5 5 5 5 5 3 5 5 5 5 5 5 5 5 5 3 5 5 5 5 5 5 5 5 5 5 5 5 5 5 5 5 5 5 3 5 5 5 5 5 5 5 5 5 5 5 5 5 3 5 5 5 5 5 5 3 5 5 3 5 5 3 5 5 5 5 5 5 5 5 5 5 5 5 5 5 5 5 5 5 5 5 5 5 5 5 5 5 3 5 3 5 3 3 5 5 5 3 5 5 5 5 5 5 5 5 5 3 3 5 3 5 5 5 5 5 5 5 5 5 5 5 5 5 5 3 5 3 3 5 3 5 5 5 5 5 5 5 5 5 3 3 5 5 5 5 5 5 5 5 5 5 5 5 5 5 5 5 5 5 5 5 5 5 3 5 5 5 5 5 3 5 5 5 5 5 3 5 5 5 3 5 5 5 5 5 5 5 5 5 3 5 5 5 5 3 5 5 5 5 5 5 3 5 5 5 5 5 5 5 3 5 5 5 5 3 5 5 5 5 5 5 5 5 5 5 3 5 5 5 5 3 5 5 5 3 5 5 5 5 5 3 5 5 5 5 5 5 5 5 5 5 5 5 5 5 3 3 5 5 3 5 5 5 5 5 5 5 3 5 5 5 5 5 5 3 5 5 5 5 5 5 5 5 5 5 5 5 5 5 5 5 5 5 5 5 5 5 5 3 5 5 5 5 5 5 5 5 3 5 5 5 5 3 5 5 5 5 5 3 5 3 5 3 5 5 5 5 5 5 5 3 5 5 5 3 5 5 5 5 5 3 5 5 5 5 5 3 5 3 5 5 3 5 3 5 5 5 5 5 3 5 5 5 3 5 5 5 5 5 5 5 5 5 5 3 5 5 5 5 5 5 5 5 5 5 5 5 5 5 5 5 5 5 5 5 5 5 3 5 5 5 5 5 5 5 5 5 5 5 5 5 5 5 5 5 5 3 5 5 5 3 5 5 5 5 5 5 3 5 5 5 3 3 5 3 5 3 3 5 3 5 5 3 5 5 3 3 5 5 5 5 5 5 5 5 3 5 3 5 5 5 5 5 5 5 5 5 5 5 5 5 5 5 5 5 5 5 5 5 5 3 5 5 5 5 5 5 5 5 3 5 5 3 5 5 3 3 5 5 3 5 5 5 5 5 5 5 5 5 5 5 5 5 5 5 5 5 5 5 5 5 5 5 5 5 5 5 5 5 5 5 5 5 5 5 5 5 5 5 3 5 3 5 5 5 5 5 5 5 5 5 5 5 5 5 5 5 5 5 5 5 5 5 5 5 5 5 5 5 5 5 5 5 5 5 5 5 5 5 5 5 5 3 5 5 3 5 5 5 5 5 3 5 3 5 5 3 5 5 5 5 5 5 3 5 5 5 5 5 5 5 5 5 5 5 3 5 5 3 3 5 3 5 5 3 5 5 5 5 3 5 5 5 5 5 5 5 5 5 3 5 3 5 5 5 5 5 5 5 3 5 3 5 5 5 5 5 5 5 5 5 3 5 3 5 5 5 5 5 5 5 5 5 5 3 5 5 5 3 5 5 3 5 5 3 5 5 5 5 3 5 5 5 3 5 5 5 5 5 5 5 5 5 5 5 5 5 5 3 5 5 5 5 5 5 3 5 3 5 3 5 5 5 3 5 5 5 5 5 5 5 5 3 5 5 5 5 5 3 5 5 3 5 5 5 5 5 5 5 5 5 3 5 5 5 3 5 5 5 5 5 5 3 5 5 5 5 5 5 5 5 5 5 5 5 5 5 5 5 5 5 5 5 5 5 5 5 5 5 5 5 5 5 5 3 5 5 5 5 5 3 5 5 3 3 5 5 5 5 3 5 5 5 5 5 3 5 5 5 5 5 5 5 5 5 5 5 5 5 5 5 5 3 5 5 5 5 5 5 5 5 3 3 5 5 5 5 5 5 3 5 5 5 5 3 5 5 5 5 5 5 5 5 5 5 5 5 5 5 5 5 5 5 5 5 5 5 5 5 3 5 5 3 5 5 5 5 5 5 5 5 5 5 5 5 5 5 5 5 5 5 5 5 5 5 5 5 5 5 5 3 5 3 5 5 5 5 5 3 5 5 5 5 5 5 5 5 5 5 5 5 5 5 5 5 5 5 5 5 3 3 5 3 5 5 5 5 5 5 5 5 5 5 5 5 5 5 5 5 3 5 5 5 3 5 5 5 5 5 5 5 5 5 5 5 5 5 3 5 5 5 5 5 5 5 5 5 5 5 5 5 5 5 5 5 5 5 5 5 5 3 5 5 5 5 5 5 5 5 5 5 5 5 5 3 5 3 5 5 3 3 5 5 5 5 5 5 5 5 5 5 5 5 5 5 5 5 5 5 5 5 3 5 5 3 5 5 5 3 5 5 5 5 5 5 3 5 5 5 3 5 5 5 5 5 5 5 5 3 5 5 3 5 5 3 5 3 5 5 5 5 3 3 5 5 3 3 5 5 3 5 5 5 5 3 5 5 3 3 5 3 5 5 5 5 5 5 5 5 5 5 5 5 5 5 5 5 5 5 5 5 3 5 5 5 5 3 5 5 5 5 3 3 5 5 5 5 5 5 5 5 5 5 5 5 3 5 5 5 3 5 5 5 5 5 5 5 3 5 5 5 3 5 5 3 3 5 5 5 3 5 5 5 3 5 5 5 5 5 5 5 5 5 5 5 5 5 5 5 5 5 5 3 5 5 5 5 5 5 5 5 5 5 5 5 5 5 5 5 5 5 3 3 5 5 5 5 5 3 3 5 3 5 5 5 5 5 5 5 5 5 3 5 5 5 3 5 5 5 5 5 5 5 5 5 5 5 5 5 5 3 5 5 5 5 5 5 5 3 5 5 3 5 5 5 5 5 5 3 5 5 5 5 3 5 5 5 5 5 5 3 5 5 5 5 5 5 5 5 3 3 5 5 5 3 3 5 5 5 5 5 3 5 5 5 5 5 5 3 5 5 5 5 3 5 5 5 5 5 3 5 5 5 5 3 5 5 5 5 5 5 5 5 5 5 5 5 5 5 5 5 5 5 5 5 5 5 5 5 5 3 5 5 5 5 3 5 3 5 3 5 5 3 5 5 3 5 5 3 5 5 5 5 5 5 3 5 5 3 5 3 3 3 5 5 3 5 3 3 5 5 5 3 5 3 5 5 5 5 5 5 3 5 5 5 3 5 5 5 5 5 5 5 3 5 5 5 3 5 3 3 5 5 5 5 5 5 5 3 5 5 5 5 5 5 5 5 3 3 5 5 5 5 3 5 5 3 5 5 5 3 5 5 5 3 3 5 5 5 5 3 5 5 5 5 5 3 3 5 5 5 5 5 5 5 5 5 5 5 5 5 5 5 5 5 5 5 5 5 5 5 5 5 5 5 5 5 5 5 3 5 5 5 3 5 5 5 5 5 5 5 5 5 5 5 5 5 5 5 3 5 3 3 5 5 3 5 5 5 5 5 5 5 5 5 5 5 5 5 5 5 5 5 5 5 5 5 5 5 3 5 5 3 3 5 5 5 5 5 5 5 3 5 5 5 3 5 5 5 5 3 3 5 5 5 5 5 5 5 3 5 5 5 5 3 5 5 5 5 3 5 5 5 5 5 5 5 5 5 5 5 5 5 5 5 5 5 5 5 3 5 5 5 5 5 5 5 5 5 5 5 5 5 5 5 5 3 5 5 5 3 5 5 5 5 5 5 5 5 5 3 5 5 5 5 5 5 5 5 5 5 5 5 5 5 5 5 5 5 5 5 5 3 5 5 5 5 5 5 5 5 5 5 5 5 5 5 5 5 5 3 5 5 5 5 5 3 5 5 5 5 5 5 5 5 5 5 5 5 5 5 5 5 5 5 5 5 5 5 5 5 5 5 5 3 5 5 3 5 5 5 3 5 5 5 5 5 5 5 5 5 5 5 5 5 5 5 3 5 3 5 5 5 5 5 5 5 5 5 3 5 5 5 5 5 5 5 5 5 3 3 5 5 5 5 5 5 5 5 5 5 5 5 5 5 5 5 5 5 5 5 5 5 5 5 5 5 5 5 5 5 5 5 5 5 5 5 5 5 5 5 5 5 5 5 5 5 5 5 5 5 5 5 5 5 5 5 5 5 5 5 5 5 5 5 5 5 5 5 5 5 5 3 5 5 5 5 5 5 3 5 5 5 5 5 5 5 5 5 3 5 3 5 5 5 5 5 5 5 5 5 5 5 5 5 5 5 5 5 5 5 5 5 5 5 5 5 5 5 5 5 5 5 5 5 5 3 5 5 5 3 3 5 5 5 5 5 5 5 5 5 5 5 5 5 5 5 5 5 5 5 5 5 5 3 3 5 5 5 5 5 5 5 5 3 5 5 5 5 5 5 3 5 5 5 5 5 3 5 5 5 5 3 5 5 5 3 5 5 5 3 5 5 3 5 5 5 5 5 5 5 5 5 5 5 5 5 3 5 5 5 5 5 5 5 5 3 5 5 5 5 5 5 5 5 5 5 5 3 5 5 5 3 5 5 5 5 3 5 5 5 5 5 5 5 5 3 5 3 5 5 3 5 5 5 5 5 3 5 5 5 5 5 5 5 5 5 5 5 5 3 5 5 5 5 5 5 5 5 5 3 5 5 5 5 5 5 3 5 5 5 5 5 5 5 3 5 5 5 5 5 3 5 5 5 5 5 5 5 5 5 5 5 5 5 5 5 5 5 5 5 5 5 5 5 5 5 5 5 5 5 5 5 5 5 5 5 5 5 5 5 5 5 5 5 5 5 5 5 3 5 3 5 5 5 5 5 5 5 5 5 5 5 5 5 5 3 5 5 5 5 5 5 5 5 5 5 5 5 5 5 5 3 5 5 3 5 3 5 5 5 5 5 3 5 5 5 5 5 5 5 5 5 5 5 5 5 5 5 5 5 5 5 5 3 5 5 5 5 5 5 5 5 5 5 5 3 5 3 5 5 3 5 3 5 5 5 5 5 5 5 3 5 3 5 5 5 5 3 5 5 5 5 3 3 5 5 3 5 5 5 5 5 5 5 5 5 5 5 5 5 5 5 5 3 5 5 5 5 5 5 5 5 5 5 5 5 5 5 3 5 3 5 5 5 5 5 5 5 3 5 3 5 5 5 5 5 5 5 5 5 3 3 5 5 5 3 5 5 5 5 3 5 3 5 5 3 5 3 3 3 5 5 3 5 5 5 3 3 3 5 5 5 5 5 5 5 5 5 5 5 3 5 5 5 5 5 5 3 5 5 5 3 5 5 5 5 5 5 5 5 3 5 5 5 3 5 5 5 5 5 5 5 5 5 5 5 5 5 5 5 5 5 5 5 5 5 5 5 5 5 5 5 5 5 5 5 5 5 5 5 5 5 5 5 5 5 5 5 5 5 5 5 5 5 5 5 5 5 5 5 5 5 5 5 5 3 5 5 5 5 5 3 5 5 5 5 3 5 5 5 3 5 5 5 5 5 5 5 5 5 5 5 5 5 5 5 5 5 5 5 5 5 5 5 5 5 5 5 5 5 5 5 5 5 5 5 5 5 5 5 5 3 5 5 3 5 5 5 5 5 5 5 3 5 5 5 5 5 5 5 5 5 5 5 3 5 5 3 5 3 5 5 5 3 5 5 5 5 5 5 5 5 3 5 5 5 5 3 5 5 5 5 3 5 3 5 5 5 5 5 5 5 5 5 5 5 5 3 5 3 5 5 5 5 5 5 5 5 5 5 5 5 5 3 5 5 5 5 5 5 5 5 5 3 5 5 5 3 5 5 5 5 5 5 5 5 5 5 5 5 5 5 5 5 5 5 5 5 5 5 5 5 5 5 5 5 5 5 5 5 5 5 5 3 5 5 3 5 5 5 5 3 5 5 5 5 5 5 5 5 5 5 5 5 5 5 5 3 5 5 5 5 5 5 5 5 5 3 5 3 5 5 5 5 5 5 5 3 5 5 5 5 5 5 5 5 5 5 5 5 5 5 3 5 5 5 5 5 5 5 5 5 5 5 3 5 5 5 5 5 5 5 5 5 5 5 5 5 5 5 5 5 5 5 5 5 5 5 3 5 3 5 5 5 5 5 5 3 5 3 5 5 5 3 5 5 5 3 5 5 5 3 5 5 3 5 5 5 5 5 5 5 3 5 5 5 5 5 5 5 3 5 5 5 5 5 5 5 5 5 5 5 5 5 3 5 5 5 5 5 5 5 5 3 5 5 5 5 5 5 5 5 5 5 5 5 5 5 5 5 5 5 5 5 3 5 5 5 5 5 5 5 5 5 5 5 5 5 5 5 5 5 5 5 5 5 5 5 5 5 5 5 5 5 5 5 5 5 5 5 5 5 5 5 5 5 5 5 5 5 5 5 5 5 5 3 5 3 5 5 5 3 5 5 3 3 5 3 5 5 5 5 5 5 5 5 5 5 5 5 5 5 5 5 5 5 5 5 5 5 5 5 5 5 5 5 5 5 5 5 5 5 5 3 5 5 5 5 3 5 5 3 5 5 5 3 5 5 5 5 3 5 3 3 5 5 5 5 3 5 5 5 3 5 5 5 3 5 5 5 5 5 5 3 5 5 5 5 5 5 5 5 5 5 5 5 5 5 5 5 5 5 5 5 3 5 5 5 5 5 5 5 5 5 5 5 5 5 5 5 5 5 5 3 5 5 3 5 5 3 5 5 5 5 5 5 5 5 5 5 5 3 5 5 5 5 3 5 5 5 5 3 5 5 5 3 5 5 5 5 5 5 5 5 5 5 5 5 5 5 5 5 5 5 5 5 5 5 5 5 5 3 5 5 5 5 5 5 5 5 3 5 5 5 3 5 5 5 5 5 5 5 5 5 5 5 5 5 5 5 5 5 5 5 5 5 5 5 5 3 5 5 5 3 5 5 5 5 5 5 5 5 3 5 5 3 5 5 5 5 3 5 5 5 5 5 5 5 3 5 3 5 5 3 5 5 3 3 5 5 5 5 5 5 5 5 5 5 5 5 5 5 5 5 5 5 5 5 5 3 5 5 5 5 3 5 5 5 5 5 5 5 5 5 5 5 5 5 3 5 5 3 5 5 5 5 5 5 5 5 5 5 5 5 5 5 5 5 5 5 5 5 5 5 5 5 5 5 5 5 5 5 5 5 5 5 5 5 5 5 5 5 5 5 5 5 5 5 5 5 5 5 5 5 5 5 5 5 5 5 5 5 5 5 5 5 5 5 5 5 5 5 5 5 5 5 5 5 5 5 5 5 5 5 5 5 5 5 5 5 5 5 5 5 5 5 5 5 5 5 5 5 5 5 5 5 5 5 5 5 5 5 5 5 5 5 5 5 5 5 5 5 5 5 5 5 5 5 5 5 3 5 5 5 5 5 5 5 3 5 5 5 5 5 5 5 5 5 3 5 3 5 5 5 3 5 5 3 5 5 5 5 5 5 5 5 5 5 5 5 5 5 5 5 5 5 5 5 5 5 5 5 5 5 5 5 5 5 5 5 5 5 5 5 5 3 5 5 3 3 5 5 3 5 5 3 5 5 5 3 5 5 5 5 5 5 5 5 5 3 5 5 5 5 5 5 3 5 5 5 5 5 5 5 5 5 5 5 5 5 5 5 5 5 5 5 5 5 5 5 5 5 5 5 5 5 5 5 3 5 5 5 5 5 5 5 5 5 5 5 5 5 5 5 5 5 5 5 5 5 5 5 5 5 5 5 5 5 5 5 5 5 5 5 5 5 5 5 5 5 5 5 5 5 5 3 5 3 5 5 5 5 3 5 5 5 5 3 5 5 5 5 3 5 5 5 5 5 5 5 5 3 5 5 3 5 3 5 5 5 5 3 5 5 3 3 5 5 5 5 5 5 3 5 5 5 5 5 5 5 5 5 5 3 3 5 5 5 5 5 3 5 5 3 5 5 5 5 3 5 5 3 5 5 5 5 5 5 5 5 5 5 5 5 5 5 5 5 5 5 5 5 5 5 5 5 5 5 5 5 5 3 5 3 5 5 5 5 5 5 5 5 5 5 5 5 5 3 5 5 5 5 3 3 5 5 5 5 5 5 5 5 5 5 5 5 5 5 5 5 5 5 5 5 5 5 5 5 5 5 5 5 5 5 5 5 5 5 5 5 5 5 5 5 5 5 3 5 5 5 3 5 5 5 5 5 5 5 5 5 5 5 5 5 5 5 5 5 5 5 5 3 5 5 3 5 5 5 5 5 5 5 5 5 3 5 5 5 5 5 3 5 5 5 5 5 3 5 3 5 5 5 5 5 5 5 5 5 5 5 5 5 3 5 5 5 3 3 5 5 5 5 5 5 5 5 3 5 5 3 5 5 3 3 5 5 5 5 5 3 5 5 5 5 5 5 5 3 5 5 3 3 5 5 5 5 5 5 3 3 5 5 5 3 5 5 5 5 5 5 5 3 5 5 5 5 5 5 5 5 5 5 5 5 5 5 5 5 5 5 5 5 5 5 5 5 5 5 3 5 5 5 5 5 5 5 3 5 5 5 5 5 5 5 5 5 5 5 3 5 5 5 5 5 5 5 5 3 5 5 5 5 5 5 5 5 5 5 5 5 5 5 5 5 3 5 5 5 3 5 5 5 5 5 3 5 5 5 5 5 5 5 5 5 5 5 5 5 5 3 5 5 5 5 3 5 5 3 5 5 5 5 5 3 5 5 5 5 5 5 5 5 5 5 5 5 5 5 3 5 3 5 5 5 3 5 3 5 3 5 5 5 5 5 5 3 3 5 5 5 5 5 5 3 5 3 5 5 5 5 5 5 5 5 5 5 5 5 5 5 5 5 5 3 5 5 5 3 3 5 5 5 5 5 3 5 5 3 3 5 5 5 5 5 5 5 5 5 5 5 5 5 5 5 5 5 5 5 5 5 5 5 5 5 5 5 5 5 5 5 5 5 5 5 5 5 5 5 5 5 5 5 5 3 5 5 3 3 3 5 5 5 5 5 5 3 5 5 5 5 5 5 5 5 5 3 5 5 5 3 5 5 5 5 5 5 5 5 5 5 5 5 5 5 5 5 5 5 5 5 3 5 5 5 5 3 5 5 5 5 5 5 5 5 5 5 5 5 5 5 5 5 5 5 5 5 5 5 5 5 5 5 5 5 5 5 5 5 5 5 3 5 3 5 5 5 5 5 5 5 5 3 5 5 5 3 5 3 5 5 5 5 5 5 5 5 3 5 5 5 5 3 5 5 5 5 3 5 5 5 5 5 5 5 3 5 5 5 5 3 5 5 5 5 5 5 5 5 5 5 5 5 5 5 5 5 5 5 5 5 5 5 5 5 5 5 5 5 5 5 5 5 5 5 5 5 5 5 5 5 5 5 5 5 5 5 3 5 5 5 5 3 3 5 5 3 3 5 5 5 5 5 5 5 5 5 5 5 5 5 5 5 5 5 5 5 3 5 5 5 3 3 5 5 5 5 5 5 5 5 5 5 5 5 5 5 5 5 5 5 5 5 5 5 5 5 5 5 5 3 5 5 5 5 5 5 5 3 5 5 5 5 5 5 5 5 5 5 5 5 5 5 5 3 5 5 5 5 5 5 5 5 3 5 3 3 5 5 5 5 5 5 5 5 5 5 5 5 3 5 5 5 5 5 5 5 5 5 5 5 5 5 5 5 5 5 5 3 5 5 5 3 5 5 5 5 5 5 5 5 3 5 5 5 5 5 5 5 5 5 5 5 5 5 5 5 3 5 5 5 3 5 5 5 5 5 5 5 5 5 5 5 5 5 5 5 5 5 5 5 5 5 5 5 5 5 5 5 5 5 5 5 5 5 3 5 3 5 5 5 5 5 5 5 5 3 5 5 5 5 5 5 5 5 5 3 5 5 3 5 5 5 5 5 3 5 5 5 5 3 5 5 5 5 3 5 5 5 3 5 3 5 5 3 5 5 5 5 5 5 5 5 5 5 5 5 5 5 3 5 5 3 5 3 5 5 5 3 5 5 3 5 5 5 5 3 5 3 5 5 5 5 5 5 3 5 3 5 5 5 5 5 3 5 5 5 5 3 5 5 5 5 5 5 3 5 5 5 5 5 5 5 5 5 5 5 5 5 5 5 5 5 5 5 5 5 5 5 5 5 5 5 5 5 5 5 5 5 3 3 5 5 5 5 5 5 5 5 5 5 3 5 5 3 3 5 3 5 5 5 5 5 5 5 3 5 5 5 5 5 5 5 5 5 5 5 5 3 5 5 5 5 3 5 5 5 5 5 5 5 5 5 5 5 5 3 5 5 5 5 5 5 5 5 5 5 5 5 5 5 5 5 5 3 5 5 5 5 5 3 5 5 5 3 5 5 5 5 5 5 3 5 3 5 5 5 3 5 5 5 5 5 5 5 5 5 3 5 5 3 5 5 5 5 5 5 5 3 5 5 5 5 5 5 5 5 5 5 5 5 5 3 5 5 3 5 5 5 5 5 5 3 5 5 5 5 5 5 3 5 5 5 5 5 5 5 3 5 5 5 5 5 5 5 5 5 5 5 5 5 5 5 5 5 5 5 5 5 5 3 5 5 5 5 5 5 5 5 5 5 3 5 5 5 5 3 3 5 5 5 5 3 5 5 5 5 5 5 5 5 5 3 5 5 5 5 5 5 5 5 5 5 5 3 5 5 5 3 5 5 5 3 5 5 5 5 5 5 5 5 5 5 5 5 3 5 5 5 5 5 3 5 5 3 5 5 5 5 5 5 5 5 5 5 5 5 5 5 3 5 5 5 5 5 5 5 3 5 5 5 3 5 5 5 5 5 3 5 5 5 5 5 5 5 5 5 3 5 5 5 5 5 5 5 5 3 5 5 5 5 5 3 5 5 5 5 5 5 5 3 5 5 5 5 5 5 5 5 5 5 5 5 5 5 5 5 5 5 5 5 5 5 5 5 5 5 5 5 5 5 5 5 5 5 5 5 5 5 5 5 5 5 5 5 5 5 5 5 3 5 5 5 5 5 5 5 3 5 5 5 5 5 5 5 5 5 5 5 5 5 5 5 5 5 5 5 5 5 5 3 3 5 5 3 3 5 5 5 5 5 5 5 3 5 5 5 5 5 5 5 5 5 5 5 5 5 5 3 5 5 5 5 5 5 5 5 3 5 5 3 5 5 5 3 5 5 5 5 5 5 5 5 5 5 5 5 5 5 5 5 5 5 5 5 5 5 5 5 5 5 5 5 3 5 5 5 5 5 5 5 5 3 5 5 5 5 5 5 3 3 5 5 5 5 3 5 5 3 5 5 3 5 5 5 5 5 5 3 5 5 5 5 5 5 5 5 3 5 5 5 5 5 5 5 5 5 5 5 3 5 5 3 5 5 5 5 5 5 5 3 5 5 5 3 5 3 5 3 5 5 5 5 5 5 5 5 5 5 5 5 5 5 5 5 5 3 5 3 5 5 5 5 5 5 5 5 5 5 3 5 5 5 5 5 5 5 3 5 5 5 3 5 3 3 5 5 3 5 5 5 5 3 5 5 5 3 5 5 5 3 5 3 3 5 5 5 5 5 5 3 5 5 5 5 5 5 5 5 3 3 3 5 3 5 5 3 3 5 5 3 5 5 5 5 5 5 5 5 5 5 5 3 5 5 5 5 5 5 5 5 5 5 5 5 5 3 3 5 5 5 5 3 5 5 5 3 5 5 5 5 5 3 3 5 5 5 3 5 5 5 5 5 5 5 5 5 5 5 5 5 5 5 3 5 5 5 3 5 5 5 3 5 5 5 5 5 5 3 5 5 5 5 5 3 5 5 5 5 5 5 5 5 3 5 5 5 5 5 5 5 5 5 3 5 5 5 5 3 5 3 5 5 3 5 3 5 5 5 5 5 5 3 5 3 3 5 5 5 5 5 5 5 5 3 5 3 5 3 5 3 5 5 5 5 5 5 5 5 5 5 5 3 5 5 5 3 5 5 5 5 5 5 5 5 3 5 5 5 5 5 5 5 5 5 3 5 5 5 5 3 5 5 3 5 5 5 5 5 5 5 5 5 3 5 5 5 3 5 5 5 5 5 5 5 5 5 5 5 5 5 5 5 5 5 5 5 3 5 5 5 5 5 5 5 5 5 5 3 5 5 5 5 5 5 5 5 5 5 5 5 5 5 5 5 5 5 5 5 5 5 5 5 5 5 5 5 5 5 5 5 5 5 5 5 5 5 5 5 5 5 5 5 5 3 3 5 5 5 5 5 5 5 5 5 5 5 5 5 3 3 5 5 5 3 5 5 3 5 5 5 3 5 5 5 3 5 5 5 5 5 5 5 5 3 5 5 3 5 3 3 5 5 5 5 5 5 3 5 3 3 3 5 5 3 5 5 3 3 5 5 5 5 5 5 5 5 5 5 5 5 5 5 5 5 5 5 5 5 5 3 5 5 5 5 5 5 5 5 5 3 5 5 5 5 5 5 5 3 3 5 5 5 5 5 5 5 5 5 5 5 5 5 5 5 5 5 5 5 5 5 5 5 3 5 3 5 5 5 5 5 5 5 3 5 5 5 3 3 5 5 3 5 5 5 5 3 5 5 5 3 5 5 5 3 5 5 5 5 5 5 5 5 5 3 3 5 5 5 5 5 3 5 5 3 3 3 5 5 5 5 5 3 5 5 5 5 5 5 5 5 5 3 5 3 5 5 5 5 5 5 5 5 5 5 5 5 5 5 5 5 5 5 5 5 5 5 5 5 3 5 5 5 5 3 3 5 5 5 3 5 5 5 5 5 5 5 5 5 5 5 5 5 5 5 5 3 5 5 5 3 5 5 3 5 5 5 5 5 5 5 5 5 5 5 5 5 3 5 5 3 5 5 5 3 5 3 5 3 5 3 3 3 5 5 5 5 5 5 5 5 3 5 5 5 5 5 5 5 5 3 5 5 3 5 5 5 5 5 5 5 5 5 5 5 5 5 5 5 5 5 5 5 5 5 3 5 5 5 5 5 5 5 5 5 5 3 5 3 5 5 3 5 3 5 3 5 5 3 5 3 5 5 3 5 5 5 3 5 5 5 5 5 5 5 5 5 5 5 5 5 5 5 5 5 5 5 5 5 5 5 5 5 5 5 5 5 5 5 5 5 5 5 5 5 5 5 5 5 5 5 5 5 5 5 5 5 5 5 5 5 5 5 5 5 5 5 5 5 3 5 5 3 5 5 5 5 5 5 3 3 5 5 5 5 5 5 5 5 5 5 5 5 5 5 5 5 5 5 3 5 5 5 3 5 5 5 5 5 5 5 5 5 5 5 5 5 5 5 5 3 5 5 5 5 5 5 5 3 5 5 5 5 5 5 5 5 3 5 3 5 5 5 5 5 5 5 5 5 5 5 5 5 5 5 5 3 5 5 5 5 5 5 5 3 5 5 5 5 3 5 5 5 5 5 5 5 3 5 5 3 3 5 5 3 5 5 5 5 5 5 3 5 5 5 5 5 5 5 5 5 3 5 5 3 5 5 3 5 5 3 5 5 5 5 5 3 5 5 5 5 5 5 5 5 3 5 5 5 5 5 5 5 3 5 5 5 5 5 5 5 5 5 5 5 5 3 5 5 5 5 5 5 5 3 3 5 3 5 3 5 5 5 5 5 5 5 5 5 5 5 5 5 5 5 3 5 3 5 5 5 5 5 5 5 5 3 5 3 5 3 5 3 5 3 5 5 3 5 5 5 5 5 3 5 5 5 5 5 5 5 5 3 5 5 5 5 5 3 5 5 3 5 3 3 5 5 5 5 5 5 5 5 3 5 5 5 5 5 5 5 5 5 5 5 5 5 3 5 5 5 5 5 5 5 3 5 5 5 3 5 5 5 5 5 5 5 5 5 5 5 5 5 5 5 5 5 3 5 5 5 5 5 5 5 3 5 5 3 5 5 5 5 5 5 5 5 5 5 5 5 5 5 5 3 5 5 5 5 3 5 5 5 5 5 5 5 5 5 5 5 5 5 5 5 5 5 5 5 5 5 5 5 5 5 3 5 5 5 5 5 5 3 5 5 5 5 5 5 5 5 5 3 3 5 5 5 3 5 3 5 5 5 5 5 5 5 5 5 5 5 5 5 5 5 3 5 5 5 5 5 5 5 5 5 5 5 5 3 3 5 5 5 5 5 5 5 5 3 5 5 3 5 5 3 3 5 5 5 5 5 5 5 3 5 5 5 5 5 5 5 5 5 3 5 5 5 3 5 5 5 5 5 3 5 5 5 5 5 5 5 5 5 5 5 5 3 5 5 5 3 5 5 5 3 5 5 5 5 5 5 5 5 5 5 5 5 5 5 5 5 5 5 5 5 5 5 5 5 5 5 5 5 5 5 5 5 3 5 5 5 5 5 5 5 5 5 5 5 5 5 5 5 5 5 5 5 5 5 5 5 5 3 5 3 5 5 3 5 5 5 5 5 5 5 5 5 3 5 5 5 5 5 5 5 5 5 5 5 5 5 5 3 5 5 5 5 3 5 5 5 3 5 5 5 5 5 5 5 5 5 5 5 5 5 5 5 5 5 5 5 5 5 5 5 5 5 5 5 5 5 5 5 5 5 5 5 5 5 5 5 5 5 5 5 5 5 5 5 5 5 5 5 5 5 5 5 5 5 5 5 5 5 5 5 5 5 5 5 5 5 5 5 5 5 5 5 5 5 5 5 5 5 5 5 5 5 5 5 5 5 5 5 5 5 5 5 5 5 5 5 5 5 5 5 5 5 5 5 5 5 5 5 5 5 5 5 5 5 5 5 5 5 5 5 5 5 5 5 5 5 5 5 5 5 5 5 5 5 5 5 5 5 5 5 5 5 5 5 5 5 5 5 5 5 5 5 5 5 5 5 5 5 5 5 5 5 5 5 5 5 5 5 5 5 5 5 5 5 5 5 5 5 5 5 5 5 5 5 5 5 3 5 5 5 5 5 5 5 5 5 5 5 5 5 5 5 5 3 5 5 5 5 5 5 5 5 3 5 5 5 5 3 5 5 5 5 5 5 5 5 5 5 5 5 5 5 5 5 5 5 5 5 5 5 3 5 5 5 5 5 5 5 5 5 5 5 5 5 3 3 5 5 5 5 5 3 5 3 5 5 5 5 5 5 5 5 5 5 5 3 5 5 5 5 5 5 5 3 5 5 5 5 5 5 5 5 5 5 5 5 5 5 5 3 3 5 5 5 5 5 5 5 5 5 5 5 5 3 5 5 5 5 5 5 5 5 5 5 5 5 5 5 5 5 3 5 5 5 5 5 5 5 3 5 5 5 5 5 5 5 5 5 5 3 3 5 5 5 5 5 5 5 5 5 5 5 5 5 5 5 5 5 5 5 5 5 5 5 5 5 5 5 5 5 5 3 5 5 5 5 5 3 5 5 5 5 5 5 5 5 5 5 3 5 5 5 5 3 5 5 5 5 5 5 5 5 5 5 3 5 3 5 5 5 5 5 5 5 5 5 5 5 5 5 5 5 5 5 5 5 5 5 5 5 5 5 5 5 5 5 5 5 3 5 5 5 5 5 3 5 5 5 5 5 5 5 5 5 5 5 5 5 5 5 5 5 5 3 5 5 3 5 5 5 3 5 5 5 5 5 3 5 5 5 5 5 5 5 5 5 5 3 5 5 5 5 5 5 3 5 5 5 5 5 3 3 5 5 3 5 5 3 5 5 5 5 5 5 5 5 5 5 3 5 5 3 5 5 3 5 5 3 5 5 3 5 5 3 5 5 5 5 5 5 3 5 5 5 5 5 5 5 5 5 5 5 3 5 5 5 5 5 5 5 3 5 5 5 5 3 5 5 5 3 5 5 5 5 5 5 5 5 5 5 5 3 5 5 5 5 5 5 5 5 5 5 5 5 5 5 5 5 5 5 5 5 5 5 5 5 3 5 5 5 5 5 3 5 5 5 5 5 5 5 5 5 5 5 5 5 5 3 5 5 3 5 3 5 5 5 5 3 5 3 3 5 3 5 5 5 5 5 5 5 3 5 3 5 5 5 5 5 5 3 5 5 5 5 5 5 3 5 5 5 5 3 5 5 5 5 5 3 5 5 3 5 5 5 5 3 5 5 5 5 3 5 5 5 5 5 5 3 5 5 5 5 5 5 5 5 5 3 5 5 5 5 5 5 3 5 5 5 5 3 5 5 5 5 5 5 5 5 5 5 5 5 5 5 5 5 3 5 5 5 3 5 5 3 5 5 5 5 5 5 5 5 5 5 5 5 5 5 5 5 3 5 3 5 5 5 5 5 5 5 5 5 5 5 5 5 5 5 5 5 5 5 5 5 5 5 5 5 5 3 5 5 3 5 5 5 5 5 5 5 5 5 5 3 5 5 5 5 3 5 5 5 5 3 5 5 5 5 5 5 5 5 5 3 5 5 5 5 5 5 5 5 5 5 5 5 5 5 5 5 5 5 5 5 5 5 5 5 5 5 5 5 
</DataArray>
</Cells>
<PointData Scalars="" Vectors="displacement," Tensors="">
<DataArray type="Float64" Name="displacement" NumberOfComponents="3" format="ascii">
-0.034997136623191642 -2.7385394528657909e-07 0 -0.034121469519797568 -0.00018443487437009499 0 -0.034997662853679057 -7.5086345679050819e-07 0 -0.034997136623191642 -2.7385394528657909e-07 0 -0.033476898428452091 -0.00012528098487346915 0 -0.034121469519797568 -0.00018443487437009499 0 -0.034997136623191642 -2.7385394528657909e-07 0 -0.033476898428452091 -0.00012528098487346915 0 -0.031404217885526074 -2.8662082335055557e-07 0 -0.033476898428452091 -0.00012528098487346915 0 -0.031404217885526074 -2.8662082335055557e-07 0 -0.032868994973313373 5.4783918130274174e-05 0 -0.031404217885526074 -2.8662082335055557e-07 0 -0.032868994973313373 5.4783918130274174e-05 0 -0.031222024692074159 -6.7757384897694495e-05 0 -0.033231801704855124 0.00018156434808229514 0 -0.033430960880732712 0.00017753332740067155 0 -0.032868994973313373 5.4783918130274174e-05 0 -0.032370977264815678 0.00025975301583093107 0 -0.032323261578138821 8.308127203515162e-05 0 -0.032868994973313373 5.4783918130274174e-05 0 -0.032323261578138821 8.308127203515162e-05 0 -0.03232593809249211 1.7284175657692401e-05 0 -0.033476898428452091 -0.00012528098487346915 0 -0.032868994973313373 5.4783918130274174e-05 0 -0.034121469519797568 -0.00018443487437009499 0 -0.032868994973313373 5.4783918130274174e-05 0 -0.034121469519797568 -0.00018443487437009499 0 -0.034444354378684573 0.00025386586794217119 0 -0.034121469519797568 -0.00018443487437009499 0 -0.034880892300927842 -3.5490989841914733e-05 0 -0.034444354378684573 0.00025386586794217119 0 -0.034121469519797568 -0.00018443487437009499 0 -0.034997662853679057 -7.5086345679050819e-07 0 -0.034880892300927842 -3.5490989841914733e-05 0 -0.034999999533877536 4.3642645308603547e-11 0 -0.03499939401450898 -2.7677353372086338e-07 0 -0.034999999325003542 -3.5923442425128225e-10 0 -0.034999042963563397 3.6144103760757376e-07 0 -0.034525226314003961 0.00011002001887029256 0 -0.034999999325003542 -3.5923442425128225e-10 0 -0.034999276381574129 -4.6623297126331167e-07 0 -0.034999743438198658 -6.9602388879824293e-07 0 -0.034999999325003542 -3.5923442425128225e-10 0 -0.034999998636114658 -9.0329269761226212e-10 0 -0.034999743438198658 -6.9602388879824293e-07 0 -0.03499939401450898 -2.7677353372086338e-07 0 -0.034999999325003542 -3.5923442425128225e-10 0 -0.034999276381574129 -4.6623297126331167e-07 0 -0.03499939401450898 -2.7677353372086338e-07 0 -0.034999276381574129 -4.6623297126331167e-07 0 -0.034998443621192803 -4.5253919851064303e-07 0 -0.034525226314003961 0.00011002001887029256 0 -0.033794075045443843 0.00011540269222760947 0 -0.034999276381574129 -4.6623297126331167e-07 0 -0.034999145797698347 -5.3768464771504293e-07 0 -0.034998443621192803 -4.5253919851064303e-07 0 -0.034999276381574129 -4.6623297126331167e-07 0 -0.034999145797698347 -5.3768464771504293e-07 0 -0.034999743438198658 -6.9602388879824293e-07 0 -0.03436480760499868 3.1142055706758509e-05 0 -0.033794075045443843 0.00011540269222760947 0 -0.033951054932929187 8.5640779047093383e-05 0 -0.033780359608215321 0.00027725785129208938 0 -0.033542360090259217 0.00018038269961113306 0 -0.033951054932929187 8.5640779047093383e-05 0 -0.033780359608215321 0.00027725785129208938 0 -0.033988968938136077 0.00032191127596538724 0 -0.033780359608215321 0.00027725785129208938 0 -0.033542360090259217 0.00018038269961113306 0 -0.033733934243706853 0.00051915408588250063 0 -0.032171862627975702 0.00028233535859728483 0 -0.032101808145872442 0.00015895185681294799 0 -0.032245106189575962 0.00018098851464327701 0 -0.033794075045443843 0.00011540269222760947 0 -0.033039409374174655 0.00037334173196970687 0 -0.032101808145872442 0.00015895185681294799 0 -0.032245106189575962 0.00018098851464327701 0 -0.032208395588974328 0.00010572899796162789 0 -0.033733934243706853 0.00051915408588250063 0 -0.033988968938136077 0.00032191127596538724 0 -0.034052503934815306 0.00053398104725326282 0 -0.033780359608215321 0.00027725785129208938 0 -0.033733934243706853 0.00051915408588250063 0 -0.033988968938136077 0.00032191127596538724 0 -0.032171862627975702 0.00028233535859728483 0 -0.032370977264815678 0.00025975301583093107 0 -0.032245106189575962 0.00018098851464327701 0 -0.033794075045443843 0.00011540269222760947 0 -0.033430960880732712 0.00017753332740067155 0 -0.034880892300927842 -3.5490989841914733e-05 0 -0.035001446373837328 0.00022852183150564028 0 -0.034444354378684573 0.00025386586794217119 0 -0.032245106189575962 0.00018098851464327701 0 -0.032323261578138821 8.308127203515162e-05 0 -0.032279447555517975 0.00010964297770944049 0 -0.032245106189575962 0.00018098851464327701 0 -0.032279447555517975 0.00010964297770944049 0 -0.032208395588974328 0.00010572899796162789 0 -0.032370977264815678 0.00025975301583093107 0 -0.032245106189575962 0.00018098851464327701 0 -0.032323261578138821 8.308127203515162e-05 0 -0.032323261578138821 8.308127203515162e-05 0 -0.032325839799050578 7.3835210684175699e-05 0 -0.03232593809249211 1.7284175657692401e-05 0 -0.032325839799050578 7.3835210684175699e-05 0 -0.03232597202505208 0.00014884711422045703 0 -0.03232593809249211 1.7284175657692401e-05 0 -0.032325839799050578 7.3835210684175699e-05 0 -0.032322637746400283 8.1434300320616635e-05 0 -0.032330910188099415 0.0001079902108689888 0 -0.032325839799050578 7.3835210684175699e-05 0 -0.032313303077724002 8.1539359365211694e-05 0 -0.032322637746400283 8.1434300320616635e-05 0 -0.032323261578138821 8.308127203515162e-05 0 -0.032325839799050578 7.3835210684175699e-05 0 -0.032313303077724002 8.1539359365211694e-05 0 -0.032323261578138821 8.308127203515162e-05 0 -0.032279447555517975 0.00010964297770944049 0 -0.032313303077724002 8.1539359365211694e-05 0 -0.032279447555517975 0.00010964297770944049 0 -0.032313303077724002 8.1539359365211694e-05 0 -0.032290253781548768 7.6192251597538151e-05 0 -0.032279447555517975 0.00010964297770944049 0 -0.032290253781548768 7.6192251597538151e-05 0 -0.032208395588974328 0.00010572899796162789 0 -0.032290253781548768 7.6192251597538151e-05 0 -0.032208395588974328 0.00010572899796162789 0 -0.032209821937890869 3.3288876345206936e-05 0 -0.029065508596064406 0.00090695439934346169 0 -0.028960915150324045 0.0009742211769537643 0 -0.032290253781548768 7.6192251597538151e-05 0 -0.032318650759830973 7.0979767232111541e-05 0 -0.032302248633196882 3.902209459104655e-05 0 -0.032290253781548768 7.6192251597538151e-05 0 -0.032272229856900793 -3.130692899745697e-06 0 -0.032209821937890869 3.3288876345206936e-05 0 -0.029059192946732378 0.0010024004257348062 0 -0.028960915150324045 0.0009742211769537643 0 -0.032318650759830973 7.0979767232111541e-05 0 -0.032330910188099415 0.0001079902108689888 0 -0.032368005137930894 0.00011469268738779307 0 -0.032313303077724002 8.1539359365211694e-05 0 -0.032322637746400283 8.1434300320616635e-05 0 -0.032318650759830973 7.0979767232111541e-05 0 -0.032313303077724002 8.1539359365211694e-05 0 -0.032290253781548768 7.6192251597538151e-05 0 -0.032318650759830973 7.0979767232111541e-05 0 -0.032322637746400283 8.1434300320616635e-05 0 -0.032318650759830973 7.0979767232111541e-05 0 -0.032330910188099415 0.0001079902108689888 0 -0.032330910188099415 0.0001079902108689888 0 -0.032368005137930894 0.00011469268738779307 0 -0.032343680719969542 0.00016916708087261266 0 -0.028960915150324045 0.0009742211769537643 0 -0.028200252994446461 0.00081568282073603705 0 -0.032368005137930894 0.00011469268738779307 0 -0.032343680719969542 0.00016916708087261266 0 -0.032392131477075661 0.00023303311657542458 0 -0.032343680719969542 0.00016916708087261266 0 -0.03232597202505208 0.00014884711422045703 0 -0.032307827316527711 0.00024635270707687126 0 -0.03232597202505208 0.00014884711422045703 0 -0.032307827316527711 0.00024635270707687126 0 -0.032263004160434587 0.00022413542570222169 0 -0.032330910188099415 0.0001079902108689888 0 -0.032343680719969542 0.00016916708087261266 0 -0.03232597202505208 0.00014884711422045703 0 -0.032325839799050578 7.3835210684175699e-05 0 -0.032330910188099415 0.0001079902108689888 0 -0.03232597202505208 0.00014884711422045703 0 -0.032101808145872442 0.00015895185681294799 0 -0.032008575456445747 2.1673056554984346e-05 0 -0.032128797700413804 4.2173737684433582e-05 0 -0.033733934243706853 0.00051915408588250063 0 -0.033922697769875595 0.00085100997747862572 0 -0.034052503934815306 0.00053398104725326282 0 -0.033039409374174655 0.00037334173196970687 0 -0.032418309625923611 0.00079117009278372894 0 -0.032008575456445747 2.1673056554984346e-05 0 -0.032128797700413804 4.2173737684433582e-05 0 -0.032080282192317774 -2.8182539099546249e-05 0 -0.032101808145872442 0.00015895185681294799 0 -0.032128797700413804 4.2173737684433582e-05 0 -0.032208395588974328 0.00010572899796162789 0 -0.032128797700413804 4.2173737684433582e-05 0 -0.032208395588974328 0.00010572899796162789 0 -0.032209821937890869 3.3288876345206936e-05 0 -0.032272229856900793 -3.130692899745697e-06 0 -0.032160818174169922 -5.4448942285475183e-05 0 -0.032167008024405391 -0.00017721071947924671 0 -0.028960915150324045 0.0009742211769537643 0 -0.028324343982431586 0.0011563206527395527 0 -0.032128797700413804 4.2173737684433582e-05 0 -0.032209821937890869 3.3288876345206936e-05 0 -0.032160818174169922 -5.4448942285475183e-05 0 -0.032272229856900793 -3.130692899745697e-06 0 -0.032209821937890869 3.3288876345206936e-05 0 -0.032160818174169922 -5.4448942285475183e-05 0 -0.032128797700413804 4.2173737684433582e-05 0 -0.032160818174169922 -5.4448942285475183e-05 0 -0.032080282192317774 -2.8182539099546249e-05 0 -0.032160818174169922 -5.4448942285475183e-05 0 -0.032080282192317774 -2.8182539099546249e-05 0 -0.032023330689304991 -0.00012312805233523504 0 -0.032008575456445747 2.1673056554984346e-05 0 -0.032023330689304991 -0.00012312805233523504 0 -0.031919486388352007 -0.00012474873377571046 0 -0.032008575456445747 2.1673056554984346e-05 0 -0.032080282192317774 -2.8182539099546249e-05 0 -0.032023330689304991 -0.00012312805233523504 0 -0.032023330689304991 -0.00012312805233523504 0 -0.032052036948418912 -0.00022686624202321469 0 -0.032167008024405391 -0.00017721071947924671 0 -0.032023330689304991 -0.00012312805233523504 0 -0.032052036948418912 -0.00022686624202321469 0 -0.031958828140936396 -0.00023955643385754235 0 -0.032160818174169922 -5.4448942285475183e-05 0 -0.032023330689304991 -0.00012312805233523504 0 -0.032167008024405391 -0.00017721071947924671 0 -0.028324343982431586 0.0011563206527395527 0 -0.026584816332894185 0.0014151871896783206 0 -0.027633503936894156 0.0010377478275924172 0 -0.027713732886227006 0.0007421147094068849 0 -0.027465513928651628 0.00074597228283026552 0 -0.027633503936894156 0.0010377478275924172 0 -0.027713732886227006 0.0007421147094068849 0 -0.027757703751136141 0.0010358454983934219 0 -0.026592684140573117 0.00058270503965160674 0 -0.026584816332894185 0.0014151871896783206 0 -0.032057615532636065 -0.00036898064001518487 0 -0.031958828140936396 -0.00023955643385754235 0 -0.031906416061036474 -0.00036917804374795546 0 -0.032052036948418912 -0.00022686624202321469 0 -0.032057615532636065 -0.00036898064001518487 0 -0.031958828140936396 -0.00023955643385754235 0 -0.026584816332894185 0.0014151871896783206 0 -0.028280759446309325 0.0014217040724062327 0 -0.032052036948418912 -0.00022686624202321469 0 -0.032167008024405391 -0.00017721071947924671 0 -0.032057615532636065 -0.00036898064001518487 0 -0.027802373452340937 0.0013291987048644053 0 -0.027633503936894156 0.0010377478275924172 0 -0.027757703751136141 0.0010358454983934219 0 -0.032343680719969542 0.00016916708087261266 0 -0.032307827316527711 0.00024635270707687126 0 -0.032392131477075661 0.00023303311657542458 0 -0.03239650267351301 0.00032622293992321736 0 -0.032307827316527711 0.00024635270707687126 0 -0.032392131477075661 0.00023303311657542458 0 -0.026592684140573117 0.00058270503965160674 0 -0.028200252994446461 0.00081568282073603705 0 -0.03239650267351301 0.00032622293992321736 0 -0.032307827316527711 0.00024635270707687126 0 -0.032281143008418611 0.00032697495221192742 0 -0.032307827316527711 0.00024635270707687126 0 -0.032247938036449597 0.00026467408546974316 0 -0.032281143008418611 0.00032697495221192742 0 -0.032247938036449597 0.00026467408546974316 0 -0.032178067130795816 0.00032916224123472938 0 -0.032281143008418611 0.00032697495221192742 0 -0.032307827316527711 0.00024635270707687126 0 -0.032247938036449597 0.00026467408546974316 0 -0.032263004160434587 0.00022413542570222169 0 -0.032247938036449597 0.00026467408546974316 0 -0.032215993701792747 0.00023672303886950011 0 -0.032263004160434587 0.00022413542570222169 0 -0.031729213310280828 0.00065599845722823453 0 -0.029716970770119179 0.00075159732147858768 0 -0.031091711810036737 0.00023080172832769106 0 -0.023686495326426155 0.0017330805727749222 0 -0.023913418377489056 0.00088434991088407844 0 -0.024904192358698025 0.0010830992526177548 0 -0.028347070396984912 -0.00054276787206454524 0 -0.027409775502239678 -2.5810758149073e-05 0 -0.028347070396984912 -0.00054276787206454524 0 -0.028356388579046543 -0.00053919410663522658 0 -0.028347070396984912 -0.00054276787206454524 0 -0.027606011502646053 0.00019371550362532635 0 -0.032247938036449597 0.00026467408546974316 0 -0.032215993701792747 0.00023672303886950011 0 -0.032196102404746393 0.00027886478843518246 0 -0.032247938036449597 0.00026467408546974316 0 -0.032196102404746393 0.00027886478843518246 0 -0.032178067130795816 0.00032916224123472938 0 -0.027606011502646053 0.00019371550362532635 0 -0.026822493648374031 0.00068801904859113611 0 -0.023913418377489056 0.00088434991088407844 0 -0.024489782516886532 0.00057543986996012441 0 -0.024141682561331677 2.4037312913894205e-05 0 -0.024489782516886532 0.00057543986996012441 0 -0.024904192358698025 0.0010830992526177548 0 -0.024820461682485417 8.6795063696808707e-06 0 -0.024904192358698025 0.0010830992526177548 0 -0.025525675811707924 -0.00012730438039285614 0 -0.024820461682485417 8.6795063696808707e-06 0 -0.024489782516886532 0.00057543986996012441 0 -0.024820461682485417 8.6795063696808707e-06 0 -0.024141682561331677 2.4037312913894205e-05 0 -0.023913418377489056 0.00088434991088407844 0 -0.024489782516886532 0.00057543986996012441 0 -0.024904192358698025 0.0010830992526177548 0 -0.026667576395502792 2.2918940408023293e-07 0 -0.027409775502239678 -2.5810758149073e-05 0 -0.026663354259898471 1.8286984375525657e-06 0 -0.024904192358698025 0.0010830992526177548 0 -0.025525675811707924 -0.00012730438039285614 0 -0.026669744286870908 2.8497856015322065e-06 0 -0.029716970770119179 0.00075159732147858768 0 -0.028698743187514818 -4.8337829886707729e-07 0 -0.029716970770119179 0.00075159732147858768 0 -0.031091711810036737 0.00023080172832769106 0 -0.028698743187514818 -4.8337829886707729e-07 0 -0.031091711810036737 0.00023080172832769106 0 -0.028698743187514818 -4.8337829886707729e-07 0 -0.031222024692074159 -6.7757384897694495e-05 0 -0.031404217885526074 -2.8662082335055557e-07 0 -0.028698743187514818 -4.8337829886707729e-07 0 -0.031222024692074159 -6.7757384897694495e-05 0 -0.031091711810036737 0.00023080172832769106 0 -0.031222024692074159 -6.7757384897694495e-05 0 -0.031973123244368941 2.9682333861827098e-05 0 -0.032868994973313373 5.4783918130274174e-05 0 -0.031222024692074159 -6.7757384897694495e-05 0 -0.031973123244368941 2.9682333861827098e-05 0 -0.032868994973313373 5.4783918130274174e-05 0 -0.031973123244368941 2.9682333861827098e-05 0 -0.03232593809249211 1.7284175657692401e-05 0 -0.031973123244368941 2.9682333861827098e-05 0 -0.03232593809249211 1.7284175657692401e-05 0 -0.031997328627204058 0.0001642868308762542 0 -0.03232593809249211 1.7284175657692401e-05 0 -0.032263004160434587 0.00022413542570222169 0 -0.031997328627204058 0.0001642868308762542 0 -0.03232597202505208 0.00014884711422045703 0 -0.03232593809249211 1.7284175657692401e-05 0 -0.032263004160434587 0.00022413542570222169 0 -0.031769535142803104 0.00063164497878119997 0 -0.032263004160434587 0.00022413542570222169 0 -0.031791810829561284 0.00052402150281485903 0 -0.032263004160434587 0.00022413542570222169 0 -0.031791810829561284 0.00052402150281485903 0 -0.031997328627204058 0.0001642868308762542 0 -0.028347070396984912 -0.00054276787206454524 0 -0.029293538406502583 -0.00077465172963819633 0 -0.031091711810036737 0.00023080172832769106 0 -0.031791810829561284 0.00052402150281485903 0 -0.031997328627204058 0.0001642868308762542 0 -0.031729213310280828 0.00065599845722823453 0 -0.031091711810036737 0.00023080172832769106 0 -0.031791810829561284 0.00052402150281485903 0 -0.031091711810036737 0.00023080172832769106 0 -0.031973123244368941 2.9682333861827098e-05 0 -0.031997328627204058 0.0001642868308762542 0 -0.032296002689300121 0.00051997265714323875 0 -0.030827069746609526 0.00180834018781163 0 -0.034780742292893956 -0.00026592798272304162 0 -0.034821008494804379 -0.0012139015211395394 0 -0.034310995573533863 -0.00044353502497504786 0 -0.034944933450632751 4.3992370459349674e-05 0 -0.034939978264442402 3.3562002107491117e-05 0 -0.034943722438910051 5.0090364811738025e-05 0 -0.034944933450632751 4.3992370459349674e-05 0 -0.034940805427082285 5.7186788821951136e-05 0 -0.034943722438910051 5.0090364811738025e-05 0 -0.034944933450632751 4.3992370459349674e-05 0 -0.034940851106371268 6.5170772459588334e-05 0 -0.034940805427082285 5.7186788821951136e-05 0 -0.034944933450632751 4.3992370459349674e-05 0 -0.034940791427458581 2.9965329726045555e-05 0 -0.034958155766622173 2.8364251399838018e-05 0 -0.034944933450632751 4.3992370459349674e-05 0 -0.034940791427458581 2.9965329726045555e-05 0 -0.034939978264442402 3.3562002107491117e-05 0 -0.032296002689300121 0.00051997265714323875 0 -0.03274074174249321 0.0003383718667719974 0 -0.034940791427458581 2.9965329726045555e-05 0 -0.034939978264442402 3.3562002107491117e-05 0 -0.034893333409568572 4.675287437539233e-05 0 -0.034780742292893956 -0.00026592798272304162 0 -0.034893333409568572 4.675287437539233e-05 0 -0.034378068945606348 5.1042452042081878e-05 0 -0.034893333409568572 4.675287437539233e-05 0 -0.034999883964210235 1.0104752014332545e-07 0 -0.034962324659293949 2.8849425456480848e-05 0 -0.034893333409568572 4.675287437539233e-05 0 -0.034999883964210235 1.0104752014332545e-07 0 -0.034755521989927748 5.833332272516434e-05 0 -0.034999883964210235 1.0104752014332545e-07 0 -0.034962324659293949 2.8849425456480848e-05 0 -0.034999952970494269 -6.8275669182585589e-10 0 -0.034940791427458581 2.9965329726045555e-05 0 -0.034893333409568572 4.675287437539233e-05 0 -0.034962324659293949 2.8849425456480848e-05 0 -0.034940791427458581 2.9965329726045555e-05 0 -0.034962324659293949 2.8849425456480848e-05 0 -0.034958155766622173 2.8364251399838018e-05 0 -0.034958155766622173 2.8364251399838018e-05 0 -0.034976855001199021 9.1546123640792314e-06 0 -0.034959160114562848 2.0882530082571907e-05 0 -0.034962324659293949 2.8849425456480848e-05 0 -0.034958155766622173 2.8364251399838018e-05 0 -0.034976855001199021 9.1546123640792314e-06 0 -0.034999952970494269 -6.8275669182585589e-10 0 -0.034976855001199021 9.1546123640792314e-06 0 -0.034999960308668435 7.5388611333649166e-09 0 -0.034962324659293949 2.8849425456480848e-05 0 -0.034999952970494269 -6.8275669182585589e-10 0 -0.034976855001199021 9.1546123640792314e-06 0 -0.034976855001199021 9.1546123640792314e-06 0 -0.034999960308668435 7.5388611333649166e-09 0 -0.034971174211878134 -4.3319026961455292e-06 0 -0.034971174211878134 -4.3319026961455292e-06 0 -0.034959160114562848 2.0882530082571907e-05 0 -0.034917924564346843 1.5978959661506716e-05 0 -0.034976855001199021 9.1546123640792314e-06 0 -0.034971174211878134 -4.3319026961455292e-06 0 -0.034959160114562848 2.0882530082571907e-05 0 -0.034959160114562848 2.0882530082571907e-05 0 -0.034928655349957927 4.6424609264378133e-05 0 -0.034917924564346843 1.5978959661506716e-05 0 -0.034928655349957927 4.6424609264378133e-05 0 -0.03492423667247075 6.7189460062886912e-05 0 -0.034901504309120542 6.9085352851002031e-05 0 -0.034928655349957927 4.6424609264378133e-05 0 -0.034947484900979993 4.5392377062626221e-05 0 -0.03492423667247075 6.7189460062886912e-05 0 -0.034959160114562848 2.0882530082571907e-05 0 -0.034928655349957927 4.6424609264378133e-05 0 -0.034947484900979993 4.5392377062626221e-05 0 -0.034944933450632751 4.3992370459349674e-05 0 -0.034958155766622173 2.8364251399838018e-05 0 -0.034947484900979993 4.5392377062626221e-05 0 -0.034958155766622173 2.8364251399838018e-05 0 -0.034959160114562848 2.0882530082571907e-05 0 -0.034947484900979993 4.5392377062626221e-05 0 -0.034944933450632751 4.3992370459349674e-05 0 -0.034947484900979993 4.5392377062626221e-05 0 -0.034940851106371268 6.5170772459588334e-05 0 -0.034947484900979993 4.5392377062626221e-05 0 -0.034940851106371268 6.5170772459588334e-05 0 -0.03492423667247075 6.7189460062886912e-05 0 -0.034940851106371268 6.5170772459588334e-05 0 -0.03492423667247075 6.7189460062886912e-05 0 -0.034918337185224829 8.83883888372786e-05 0 -0.03492423667247075 6.7189460062886912e-05 0 -0.034892448376964556 8.730893136126819e-05 0 -0.034918337185224829 8.83883888372786e-05 0 -0.03492423667247075 6.7189460062886912e-05 0 -0.034901504309120542 6.9085352851002031e-05 0 -0.034892448376964556 8.730893136126819e-05 0 -0.032916744208839867 0.0011913787091055736 0 -0.03312612367325065 0.0010114903872566491 0 -0.034868637009278398 0.00010970950905969483 0 -0.034839746233181888 0.00011133279707322869 0 -0.034856031347351366 7.3247300917941103e-05 0 -0.034901504309120542 6.9085352851002031e-05 0 -0.034892448376964556 8.730893136126819e-05 0 -0.034856031347351366 7.3247300917941103e-05 0 -0.034718861208992022 0.00059626270829849317 0 -0.034664706161369407 0.00040311939987279543 0 -0.034836724888036803 4.7856476721112005e-05 0 -0.033013631525134535 0.0010725600625964688 0 -0.0335484407243287 0.0010013978336231039 0 -0.034718861208992022 0.00059626270829849317 0 -0.034664706161369407 0.00040311939987279543 0 -0.034467280113288458 0.00038442548917670699 0 -0.034664706161369407 0.00040311939987279543 0 -0.034836724888036803 4.7856476721112005e-05 0 -0.034710359086257636 0.00013700744771103795 0 -0.033013631525134535 0.0010725600625964688 0 -0.033670173894339725 0.00023686895372231043 0 -0.034839746233181888 0.00011133279707322869 0 -0.034836724888036803 4.7856476721112005e-05 0 -0.034856031347351366 7.3247300917941103e-05 0 -0.034664706161369407 0.00040311939987279543 0 -0.034632867272593688 0.00023554301630886998 0 -0.034534875121290935 0.00026669531077352324 0 -0.034664706161369407 0.00040311939987279543 0 -0.034632867272593688 0.00023554301630886998 0 -0.034710359086257636 0.00013700744771103795 0 -0.034632867272593688 0.00023554301630886998 0 -0.034595429149582919 0.00012697838345303221 0 -0.034534875121290935 0.00026669531077352324 0 -0.034632867272593688 0.00023554301630886998 0 -0.034595429149582919 0.00012697838345303221 0 -0.034710359086257636 0.00013700744771103795 0 -0.034836724888036803 4.7856476721112005e-05 0 -0.034891144343123105 5.3418626091613486e-05 0 -0.034917924564346843 1.5978959661506716e-05 0 -0.034836724888036803 4.7856476721112005e-05 0 -0.034856031347351366 7.3247300917941103e-05 0 -0.034891144343123105 5.3418626091613486e-05 0 -0.034928655349957927 4.6424609264378133e-05 0 -0.034901504309120542 6.9085352851002031e-05 0 -0.034891144343123105 5.3418626091613486e-05 0 -0.034901504309120542 6.9085352851002031e-05 0 -0.034856031347351366 7.3247300917941103e-05 0 -0.034891144343123105 5.3418626091613486e-05 0 -0.034928655349957927 4.6424609264378133e-05 0 -0.034891144343123105 5.3418626091613486e-05 0 -0.034917924564346843 1.5978959661506716e-05 0 -0.034971174211878134 -4.3319026961455292e-06 0 -0.034917924564346843 1.5978959661506716e-05 0 -0.034827316134969373 -6.1749913423874699e-05 0 -0.034879742660927679 -3.2460877508889273e-05 0 -0.034822147126602428 -2.8255917256835512e-05 0 -0.034971174211878134 -4.3319026961455292e-06 0 -0.034992717558144884 -8.372599978698273e-07 0 -0.035000297267372867 -5.9818884602177615e-06 0 -0.034836724888036803 4.7856476721112005e-05 0 -0.034917924564346843 1.5978959661506716e-05 0 -0.034827316134969373 -6.1749913423874699e-05 0 -0.034999960308668435 7.5388611333649166e-09 0 -0.035000007026654012 -2.362079677935973e-09 0 -0.034998191903311986 -5.1792261761126126e-07 0 -0.034999960308668435 7.5388611333649166e-09 0 -0.034992717558144884 -8.372599978698273e-07 0 -0.034998191903311986 -5.1792261761126126e-07 0 -0.034999960308668435 7.5388611333649166e-09 0 -0.034971174211878134 -4.3319026961455292e-06 0 -0.034992717558144884 -8.372599978698273e-07 0 -0.034992717558144884 -8.372599978698273e-07 0 -0.034998191903311986 -5.1792261761126126e-07 0 -0.035000297267372867 -5.9818884602177615e-06 0 -0.034998191903311986 -5.1792261761126126e-07 0 -0.035000297267372867 -5.9818884602177615e-06 0 -0.035000481845693654 -1.4247017341682837e-06 0 -0.035000007026654012 -2.362079677935973e-09 0 -0.034998191903311986 -5.1792261761126126e-07 0 -0.035000481845693654 -1.4247017341682837e-06 0 -0.034822147126602428 -2.8255917256835512e-05 0 -0.034647409144539322 -7.0500412652347276e-06 0 -0.035000297267372867 -5.9818884602177615e-06 0 -0.035000157309778672 -1.4627161930874116e-06 0 -0.035000481845693654 -1.4247017341682837e-06 0 -0.034595429149582919 0.00012697838345303221 0 -0.034827316134969373 -6.1749913423874699e-05 0 -0.034395422339646653 -1.4860922751279139e-05 0 -0.034836724888036803 4.7856476721112005e-05 0 -0.034710359086257636 0.00013700744771103795 0 -0.034827316134969373 -6.1749913423874699e-05 0 -0.034595429149582919 0.00012697838345303221 0 -0.034710359086257636 0.00013700744771103795 0 -0.034827316134969373 -6.1749913423874699e-05 0 -0.035000157309778672 -1.4627161930874116e-06 0 -0.035000481845693654 -1.4247017341682837e-06 0 -0.034999743438198658 -6.9602388879824293e-07 0 -0.035000007026654012 -2.362079677935973e-09 0 -0.035000481845693654 -1.4247017341682837e-06 0 -0.034999998636114658 -9.0329269761226212e-10 0 -0.035000481845693654 -1.4247017341682837e-06 0 -0.034999998636114658 -9.0329269761226212e-10 0 -0.034999743438198658 -6.9602388879824293e-07 0 -0.034999145797698347 -5.3768464771504293e-07 0 -0.035000157309778672 -1.4627161930874116e-06 0 -0.034999743438198658 -6.9602388879824293e-07 0 -0.03436480760499868 3.1142055706758509e-05 0 -0.034647409144539322 -7.0500412652347276e-06 0 -0.033951054932929187 8.5640779047093383e-05 0 -0.033988968938136077 0.00032191127596538724 0 -0.034208037441115072 0.00017709047959078045 0 -0.033951054932929187 8.5640779047093383e-05 0 -0.034395422339646653 -1.4860922751279139e-05 0 -0.034208037441115072 0.00017709047959078045 0 -0.033988968938136077 0.00032191127596538724 0 -0.034208037441115072 0.00017709047959078045 0 -0.034186056123835518 0.00036312625699065062 0 -0.034395422339646653 -1.4860922751279139e-05 0 -0.034208037441115072 0.00017709047959078045 0 -0.034429814313976792 0.00019148225302142448 0 -0.034595429149582919 0.00012697838345303221 0 -0.034395422339646653 -1.4860922751279139e-05 0 -0.034429814313976792 0.00019148225302142448 0 -0.034595429149582919 0.00012697838345303221 0 -0.034429814313976792 0.00019148225302142448 0 -0.034534875121290935 0.00026669531077352324 0 -0.034429814313976792 0.00019148225302142448 0 -0.034534875121290935 0.00026669531077352324 0 -0.034467280113288458 0.00038442548917670699 0 -0.034208037441115072 0.00017709047959078045 0 -0.034421357127777975 0.00038223640560361769 0 -0.034186056123835518 0.00036312625699065062 0 -0.034208037441115072 0.00017709047959078045 0 -0.034429814313976792 0.00019148225302142448 0 -0.034467280113288458 0.00038442548917670699 0 -0.033646692342705627 0.00092377863917149318 0 -0.0335484407243287 0.0010013978336231039 0 -0.034421357127777975 0.00038223640560361769 0 -0.034277415383587584 0.00047701857115934644 0 -0.034186056123835518 0.00036312625699065062 0 -0.034664706161369407 0.00040311939987279543 0 -0.034534875121290935 0.00026669531077352324 0 -0.034467280113288458 0.00038442548917670699 0 -0.034421357127777975 0.00038223640560361769 0 -0.034447120162344698 0.00049368236659694958 0 -0.034277415383587584 0.00047701857115934644 0 -0.03463766089195592 0.00057276949271859671 0 -0.034421357127777975 0.00038223640560361769 0 -0.034447120162344698 0.00049368236659694958 0 -0.034447120162344698 0.00049368236659694958 0 -0.034338861603332577 0.00059087062586690091 0 -0.034391548015632066 0.00071461480332654745 0 -0.034447120162344698 0.00049368236659694958 0 -0.034338861603332577 0.00059087062586690091 0 -0.034277415383587584 0.00047701857115934644 0 -0.034338861603332577 0.00059087062586690091 0 -0.034277415383587584 0.00047701857115934644 0 -0.034190198456559656 0.00068983688152854112 0 -0.034277415383587584 0.00047701857115934644 0 -0.034052503934815306 0.00053398104725326282 0 -0.034190198456559656 0.00068983688152854112 0 -0.033988968938136077 0.00032191127596538724 0 -0.034052503934815306 0.00053398104725326282 0 -0.034186056123835518 0.00036312625699065062 0 -0.034277415383587584 0.00047701857115934644 0 -0.034052503934815306 0.00053398104725326282 0 -0.034186056123835518 0.00036312625699065062 0 -0.033922697769875595 0.00085100997747862572 0 -0.034052503934815306 0.00053398104725326282 0 -0.034190198456559656 0.00068983688152854112 0 -0.033922697769875595 0.00085100997747862572 0 -0.034190198456559656 0.00068983688152854112 0 -0.034164163356150037 0.00092509596034240512 0 -0.034190198456559656 0.00068983688152854112 0 -0.034319484983537499 0.00086704053945898672 0 -0.034164163356150037 0.00092509596034240512 0 -0.034447120162344698 0.00049368236659694958 0 -0.034391548015632066 0.00071461480332654745 0 -0.0345848274520126 0.00082772533999012738 0 -0.034338861603332577 0.00059087062586690091 0 -0.034190198456559656 0.00068983688152854112 0 -0.034391548015632066 0.00071461480332654745 0 -0.034391548015632066 0.00071461480332654745 0 -0.034457926231227877 0.0008576026109088855 0 -0.034319484983537499 0.00086704053945898672 0 -0.034391548015632066 0.00071461480332654745 0 -0.034457926231227877 0.0008576026109088855 0 -0.0345848274520126 0.00082772533999012738 0 -0.034190198456559656 0.00068983688152854112 0 -0.034391548015632066 0.00071461480332654745 0 -0.034319484983537499 0.00086704053945898672 0 -0.034319484983537499 0.00086704053945898672 0 -0.034293527275689906 0.0010298221038549085 0 -0.034164163356150037 0.00092509596034240512 0 -0.034293527275689906 0.0010298221038549085 0 -0.034105336211766549 0.0011769600366333575 0 -0.034495821812602641 0.0011865299271622246 0 -0.034319484983537499 0.00086704053945898672 0 -0.034433457843697432 0.00095136686435109432 0 -0.034293527275689906 0.0010298221038549085 0 -0.034457926231227877 0.0008576026109088855 0 -0.034319484983537499 0.00086704053945898672 0 -0.034433457843697432 0.00095136686435109432 0 -0.034457926231227877 0.0008576026109088855 0 -0.034433457843697432 0.00095136686435109432 0 -0.034561202940501426 0.00092774642340270918 0 -0.032325913939497943 0.0016374075204884633 0 -0.032116202919225685 0.0016832892886680154 0 -0.034433457843697432 0.00095136686435109432 0 -0.034293527275689906 0.0010298221038549085 0 -0.034495821812602641 0.0011865299271622246 0 -0.034433457843697432 0.00095136686435109432 0 -0.034495821812602641 0.0011865299271622246 0 -0.034555867833125246 0.00092885863263958868 0 -0.033922697769875595 0.00085100997747862572 0 -0.034164163356150037 0.00092509596034240512 0 -0.034105336211766549 0.0011769600366333575 0 -0.032418309625923611 0.00079117009278372894 0 -0.03160463931854908 0.0014329607107623266 0 -0.034293527275689906 0.0010298221038549085 0 -0.034164163356150037 0.00092509596034240512 0 -0.034105336211766549 0.0011769600366333575 0 -0.031694173924696402 0.0013198346733171403 0 -0.03160463931854908 0.0014329607107623266 0 -0.032023330689304991 -0.00012312805233523504 0 -0.031894529404259075 -0.00012226500688671487 0 -0.031958828140936396 -0.00023955643385754235 0 -0.03160463931854908 0.0014329607107623266 0 -0.030337110392478803 0.0014083738122695746 0 -0.031894529404259075 -0.00012226500688671487 0 -0.031958828140936396 -0.00023955643385754235 0 -0.031822773650643205 -0.00024400500021714761 0 -0.031958828140936396 -0.00023955643385754235 0 -0.031822773650643205 -0.00024400500021714761 0 -0.031906416061036474 -0.00036917804374795546 0 -0.028280759446309325 0.0014217040724062327 0 -0.029006679761126569 0.0017047848795207138 0 -0.031822773650643205 -0.00024400500021714761 0 -0.031906416061036474 -0.00036917804374795546 0 -0.03175068979328604 -0.00036668842990384977 0 -0.030359635271685465 0.0016063379417571514 0 -0.030306541191691374 0.0015295943732237395 0 -0.030273207891257647 0.0016797156932951837 0 -0.029821263862383658 0.0022937052076941909 0 -0.029859917275228198 0.0021335275622696923 0 -0.029897066126545923 0.0022200852196350906 0 -0.029003029983921964 0.001794896275556688 0 -0.031215243398180933 0.0017021153274134929 0 -0.029026147927079991 0.001897430152214384 0 -0.028651541618458287 0.0019027860318372731 0 -0.029047622833571055 0.0018052949126477992 0 -0.029003029983921964 0.001794896275556688 0 -0.028715159542644912 0.0023264468698731399 0 -0.028844177868017004 0.0017638472755416314 0 -0.028850835142740061 0.0017637517099406753 0 -0.028846133884677209 0.0017553869208406314 0 -0.029003029983921964 0.001794896275556688 0 -0.029006679761126569 0.0017047848795207138 0 -0.030359635271685465 0.0016063379417571514 0 -0.030306541191691374 0.0015295943732237395 0 -0.030315490376723705 0.0015294596790093877 0 -0.030337110392478803 0.0014083738122695746 0 -0.029006679761126569 0.0017047848795207138 0 -0.03160463931854908 0.0014329607107623266 0 -0.031215243398180933 0.0017021153274134929 0 -0.030403640210859874 0.0016832746221320503 0 -0.030359635271685465 0.0016063379417571514 0 -0.030273207891257647 0.0016797156932951837 0 -0.031215243398180933 0.0017021153274134929 0 -0.03079680005828014 0.0022333244511583816 0 -0.029944177596214323 0.002136146428454039 0 -0.029897066126545923 0.0022200852196350906 0 -0.029989319577872809 0.002244063767369027 0 -0.029859917275228198 0.0021335275622696923 0 -0.029944177596214323 0.002136146428454039 0 -0.029897066126545923 0.0022200852196350906 0 -0.028715159542644912 0.0023264468698731399 0 -0.028883883846641839 0.0037110070551174741 0 -0.029897066126545923 0.0022200852196350906 0 -0.029870485148429601 0.0022930957540194955 0 -0.029989319577872809 0.002244063767369027 0 -0.028715159542644912 0.0023264468698731399 0 -0.029412354078889928 0.0030858688664314737 0 -0.029821263862383658 0.0022937052076941909 0 -0.029897066126545923 0.0022200852196350906 0 -0.029870485148429601 0.0022930957540194955 0 -0.029058623354612765 0.0030910320324315224 0 -0.028818214248223544 0.003095393965440845 0 -0.028853351290797077 0.0031772894623422528 0 -0.02942740633407076 0.0040855763222332996 0 -0.02949504558683811 0.0042432282907561188 0 -0.029089885155592899 0.0042392721071347738 0 -0.028883883846641839 0.0037110070551174741 0 -0.029412354078889928 0.0030858688664314737 0 -0.030321620261756502 0.002857062265603603 0 -0.030265620828706503 0.0027276482949679984 0 -0.030116958217991544 0.0028521442623765979 0 -0.03079680005828014 0.0022333244511583816 0 -0.029412354078889928 0.0030858688664314737 0 -0.03079680005828014 0.0022333244511583816 0 -0.030650274657265355 0.0030641867635720051 0 -0.031414772778436566 0.0022666085706336547 0 -0.031347735561937866 0.0023240916786496481 0 -0.031246356080761907 0.0022627785927241159 0 -0.031347735561937866 0.0023240916786496481 0 -0.031456845805586921 0.0023634435537311198 0 -0.031336866226045507 0.0023859893560882828 0 -0.0320063444813697 0.0017572937825583346 0 -0.03223535611530888 0.0018689368436694436 0 -0.031347735561937866 0.0023240916786496481 0 -0.031336866226045507 0.0023859893560882828 0 -0.031283860334907508 0.0023417345555999474 0 -0.031376401173634286 0.0020223076591185728 0 -0.031471140072459595 0.0018105098912617615 0 -0.031423972057708305 0.0018192658560237062 0 -0.031376401173634286 0.0020223076591185728 0 -0.031563281724981469 0.0020275046996173149 0 -0.031471140072459595 0.0018105098912617615 0 -0.03079680005828014 0.0022333244511583816 0 -0.0320063444813697 0.0017572937825583346 0 -0.031414772778436566 0.0022666085706336547 0 -0.031347735561937866 0.0023240916786496481 0 -0.031456845805586921 0.0023634435537311198 0 -0.031215243398180933 0.0017021153274134929 0 -0.032116202919225685 0.0016832892886680154 0 -0.032116202919225685 0.0016832892886680154 0 -0.032311338794249765 0.001576446892339821 0 -0.0320063444813697 0.0017572937825583346 0 -0.032311338794249765 0.001576446892339821 0 -0.032357342794088792 0.0018793654852595296 0 -0.03224864669487558 0.001899594550049014 0 -0.032290039216650891 0.0017218201922192642 0 -0.0320063444813697 0.0017572937825583346 0 -0.032116202919225685 0.0016832892886680154 0 -0.03463766089195592 0.00057276949271859671 0 -0.034447120162344698 0.00049368236659694958 0 -0.034578760860698193 0.00081549213736360206 0 -0.032644088004042664 0.0016471791891905512 0 -0.032687460947630032 0.0014598027391790084 0 -0.032400653343608289 0.0014420696431904985 0 -0.032659123005088907 0.0013939039527267976 0 -0.032687460947630032 0.0014598027391790084 0 -0.032400653343608289 0.0014420696431904985 0 -0.032661677280721155 0.0014067511386269577 0 -0.032311338794249765 0.001576446892339821 0 -0.034457926231227877 0.0008576026109088855 0 -0.034561202940501426 0.00092774642340270918 0 -0.0345848274520126 0.00082772533999012738 0 -0.033013631525134535 0.0010725600625964688 0 -0.032311338794249765 0.001576446892339821 0 -0.033013631525134535 0.0010725600625964688 0 -0.03223535611530888 0.0018689368436694436 0 -0.032916744208839867 0.0011913787091055736 0 -0.03224780918260671 0.0018169549985533105 0 -0.034868637009278398 0.00010970950905969483 0 -0.034839746233181888 0.00011133279707322869 0 -0.034870278798611508 0.00014149258950192292 0 -0.034868637009278398 0.00010970950905969483 0 -0.034870278798611508 0.00014149258950192292 0 -0.034878511663863222 0.0001401306674068867 0 -0.03223535611530888 0.0018689368436694436 0 -0.03224780918260671 0.0018169549985533105 0 -0.03224780918260671 0.0018169549985533105 0 -0.03200825941513006 0.0017630095849006547 0 -0.034892448376964556 8.730893136126819e-05 0 -0.034904529249984606 0.00011115279662687199 0 -0.034918337185224829 8.83883888372786e-05 0 -0.031477202724058621 0.0021016495938240599 0 -0.031458270463607461 0.0021050354225194213 0 -0.031472477797251562 0.0020924296381416995 0 -0.034904529249984606 0.00011115279662687199 0 -0.034918337185224829 8.83883888372786e-05 0 -0.034938198524540498 0.00010521809865678921 0 -0.034940851106371268 6.5170772459588334e-05 0 -0.034918337185224829 8.83883888372786e-05 0 -0.034938198524540498 0.00010521809865678921 0 -0.03200825941513006 0.0017630095849006547 0 -0.031909962927401836 0.001719909265620975 0 -0.030493025244828626 0.0033835869045293009 0 -0.030288741362194234 0.0031885592185449661 0 -0.030113508470150752 0.003453959953036892 0 -0.032272417822983145 0.0012570239420290116 0 -0.03200825941513006 0.0017630095849006547 0 -0.034940851106371268 6.5170772459588334e-05 0 -0.034939205370464001 6.3704537375309058e-05 0 -0.034940805427082285 5.7186788821951136e-05 0 -0.030493025244828626 0.0033835869045293009 0 -0.030288741362194234 0.0031885592185449661 0 -0.030530548833009232 0.0029851963559491025 0 -0.03200825941513006 0.0017630095849006547 0 -0.030967541241451894 0.0027073597110016594 0 -0.030288741362194234 0.0031885592185449661 0 -0.030310291714370625 0.0029991889970292932 0 -0.030530548833009232 0.0029851963559491025 0 -0.031163842108864706 0.0028373021488819461 0 -0.030969037125884037 0.0024217499517860583 0 -0.03082805091939787 0.0025546021342373504 0 -0.031458270463607461 0.0021050354225194213 0 -0.031472477797251562 0.0020924296381416995 0 -0.031459887433984687 0.0020826006168158414 0 -0.031614448899857643 0.0022522433516240343 0 -0.030967541241451894 0.0027073597110016594 0 -0.031347735561937866 0.0023240916786496481 0 -0.031283860334907508 0.0023417345555999474 0 -0.031246356080761907 0.0022627785927241159 0 -0.031614448899857643 0.0022522433516240343 0 -0.030650274657265355 0.0030641867635720051 0 -0.03223535611530888 0.0018689368436694436 0 -0.031614448899857643 0.0022522433516240343 0 -0.03224780918260671 0.0018169549985533105 0 -0.031614448899857643 0.0022522433516240343 0 -0.03190202626594462 0.00224963006662898 0 -0.031816265759026227 0.0022655931978454637 0 -0.031747991142997249 0.0021197539984395735 0 -0.030265620828706503 0.0027276482949679984 0 -0.030116958217991544 0.0028521442623765979 0 -0.03009217923764209 0.0027997253252316254 0 -0.030969037125884037 0.0024217499517860583 0 -0.030840887132739286 0.0024183161425906253 0 -0.03082805091939787 0.0025546021342373504 0 -0.030650274657265355 0.0030641867635720051 0 -0.030548946608959442 0.0032357045091782272 0 -0.030439557096212877 0.0031880928190658052 0 -0.030394036932901231 0.0030916300316523298 0 -0.030384773957558925 0.003186650478570017 0 -0.030650274657265355 0.0030641867635720051 0 -0.030251822820305741 0.0035493354748595109 0 -0.030251822820305741 0.0035493354748595109 0 -0.030548946608959442 0.0032357045091782272 0 -0.028883883846641839 0.0037110070551174741 0 -0.029094337830974423 0.0055742456979593277 0 -0.029412354078889928 0.0030858688664314737 0 -0.030251822820305741 0.0035493354748595109 0 -0.02949504558683811 0.0042432282907561188 0 -0.029015380875958771 0.0044414743201159684 0 -0.029089885155592899 0.0042392721071347738 0 -0.02942740633407076 0.0040855763222332996 0 -0.029089885155592899 0.0042392721071347738 0 -0.02904816679248666 0.0040920195748432994 0 -0.029015380875958771 0.0044414743201159684 0 -0.029089885155592899 0.0042392721071347738 0 -0.029042952556396003 0.0041430474631242008 0 -0.030251822820305741 0.0035493354748595109 0 -0.029157395114939803 0.005476087442352162 0 -0.029138906580276382 0.0054248434390335156 0 -0.029157395114939803 0.005476087442352162 0 -0.029089885155592899 0.0042392721071347738 0 -0.029043326792212446 0.0041429788348233566 0 -0.02904816679248666 0.0040920195748432994 0 -0.028965998640080402 0.0061599454283929878 0 -0.029027474227502518 0.0055162141278776566 0 -0.028658166938695422 0.0055215837618943818 0 -0.029157395114939803 0.005476087442352162 0 -0.0291006706535481 0.0057281574795361957 0 -0.029157395114939803 0.005476087442352162 0 -0.029094337830974423 0.0055742456979593277 0 -0.029094337830974423 0.0055742456979593277 0 -0.0291006706535481 0.0057281574795361957 0 -0.029212352654095199 0.005333615415903813 0 -0.029071315663271417 0.005463428089570609 0 -0.028983201969767194 0.0054469256664839514 0 -0.0291006706535481 0.0057281574795361957 0 -0.028330499282072433 0.0077265255106195464 0 -0.029212352654095199 0.005333615415903813 0 -0.028983201969767194 0.0054469256664839514 0 -0.028901408407598639 0.0053396430774796839 0 -0.029229556228379954 0.0053691515515093642 0 -0.029212352654095199 0.005333615415903813 0 -0.029146519680664063 0.0054434064563427401 0 -0.029212352654095199 0.005333615415903813 0 -0.029146519680664063 0.0054434064563427401 0 -0.029071315663271417 0.005463428089570609 0 -0.029210911071600273 0.0055773050407871066 0 -0.029229556228379954 0.0053691515515093642 0 -0.029146519680664063 0.0054434064563427401 0 -0.030251822820305741 0.0035493354748595109 0 -0.030268860697409233 0.0037802864824305663 0 -0.029208686724245942 0.0055781527909934498 0 -0.029146519680664063 0.0054434064563427401 0 -0.029102991491799648 0.0055471738811229366 0 -0.029146519680664063 0.0054434064563427401 0 -0.029071315663271417 0.005463428089570609 0 -0.029102991491799648 0.0055471738811229366 0 -0.029071315663271417 0.005463428089570609 0 -0.029023564662335195 0.0055249055563898457 0 -0.029102991491799648 0.0055471738811229366 0 -0.029023564662335195 0.0055249055563898457 0 -0.028945499524274231 0.0055773356624667118 0 -0.028983201969767194 0.0054469256664839514 0 -0.029071315663271417 0.005463428089570609 0 -0.029023564662335195 0.0055249055563898457 0 -0.028983201969767194 0.0054469256664839514 0 -0.029042290789592431 0.0055995856401206932 0 -0.029198830446669877 0.0056776839138876324 0 -0.028941201774267868 0.0056707019303564596 0 -0.029023564662335195 0.0055249055563898457 0 -0.029042290789592431 0.0055995856401206932 0 -0.028945499524274231 0.0055773356624667118 0 -0.030548946608959442 0.0032357045091782272 0 -0.029329021655496838 0.0043634228882389065 0 -0.030538970126822246 0.0029004924664662833 0 -0.030463504482352154 0.0029288883144187772 0 -0.030180966294423621 0.0028914111023524043 0 -0.029023564662335195 0.0055249055563898457 0 -0.029042290789592431 0.0055995856401206932 0 -0.029102991491799648 0.0055471738811229366 0 -0.029042290789592431 0.0055995856401206932 0 -0.029102991491799648 0.0055471738811229366 0 -0.029198830446669877 0.0056776839138876324 0 -0.029208686724245942 0.0055781527909934498 0 -0.029102991491799648 0.0055471738811229366 0 -0.029198830446669877 0.0056776839138876324 0 -0.030310291714370625 0.0029991889970292932 0 -0.030463504482352154 0.0029288883144187772 0 -0.030530548833009232 0.0029851963559491025 0 -0.030538970126822246 0.0029004924664662833 0 -0.030463504482352154 0.0029288883144187772 0 -0.030531203021092142 0.00298595920089436 0 -0.030548946608959442 0.0032357045091782272 0 -0.030967541241451894 0.0027073597110016594 0 -0.030959534388814894 0.0027060081219492764 0 -0.030967541241451894 0.0027073597110016594 0 -0.030310291714370625 0.0029991889970292932 0 -0.030463504482352154 0.0029288883144187772 0 -0.030180966294423621 0.0028914111023524043 0 -0.028945499524274231 0.0055773356624667118 0 -0.028847224984070826 0.0053570696892918535 0 -0.028695254083479966 0.005662716742980179 0 -0.028941201774267868 0.0056707019303564596 0 -0.028945499524274231 0.0055773356624667118 0 -0.028695254083479966 0.005662716742980179 0 -0.029329021655496838 0.0043634228882389065 0 -0.027793004591405959 0.0055084243179411973 0 -0.030180966294423621 0.0028914111023524043 0 -0.029823379621312769 0.0028827086494169095 0 -0.030039174181946814 0.0031235931961981858 0 -0.029042290789592431 0.0055995856401206932 0 -0.028941201774267868 0.0056707019303564596 0 -0.028945499524274231 0.0055773356624667118 0 -0.028945499524274231 0.0055773356624667118 0 -0.028847224984070826 0.0053570696892918535 0 -0.028902421156374248 0.0053565722759311776 0 -0.02830179889282846 0.0069542093827874218 0 -0.028330499282072433 0.0077265255106195464 0 -0.028945499524274231 0.0055773356624667118 0 -0.028983201969767194 0.0054469256664839514 0 -0.028901408407598639 0.0053396430774796839 0 -0.028089285423791788 0.0080199826387320136 0 -0.028330499282072433 0.0077265255106195464 0 -0.020969842298738543 0.01109563188082666 0 -0.023023540186551186 0.0097692867039956312 0 -0.022807691395584855 0.0073359496324393808 0 -0.028089285423791788 0.0080199826387320136 0 -0.027289932083011368 0.0095275828529868146 0 -0.028089285423791788 0.0080199826387320136 0 -0.027793004591405959 0.0055084243179411973 0 -0.020969842298738543 0.01109563188082666 0 -0.023023540186551186 0.0097692867039956312 0 -0.025132036497581001 0.01104816697825616 0 -0.023023540186551186 0.0097692867039956312 0 -0.024258183604233288 0.008431651951492293 0 -0.025132036497581001 0.01104816697825616 0 -0.023023540186551186 0.0097692867039956312 0 -0.024258183604233288 0.008431651951492293 0 -0.022807691395584855 0.0073359496324393808 0 -0.022305862797605127 0.0071663705971584529 0 -0.023700639311807239 0.0067588152243968375 0 -0.025878875077630554 0.0072281913313063237 0 -0.027793004591405959 0.0055084243179411973 0 -0.026879083915158784 0.0060306588239668361 0 -0.024258183604233288 0.008431651951492293 0 -0.022807691395584855 0.0073359496324393808 0 -0.025760535143162178 0.0073738693219711242 0 -0.022305862797605127 0.0071663705971584529 0 -0.023700639311807239 0.0067588152243968375 0 -0.023535301298782195 0.0046463778857651107 0 -0.027793004591405959 0.0055084243179411973 0 -0.02829944102754707 0.004070447980692931 0 -0.029823379621312769 0.0028827086494169095 0 -0.029701415552625912 0.00313230074161795 0 -0.030039174181946814 0.0031235931961981858 0 -0.029701415552625912 0.00313230074161795 0 -0.030039174181946814 0.0031235931961981858 0 -0.029897082248914825 0.0033083367316225775 0 -0.023453386070604314 0.0046989396469774977 0 -0.023736057131808045 0.0041020871592423016 0 -0.023042135939556806 0.0005097514290659436 0 -0.023700639311807239 0.0067588152243968375 0 -0.02348089015280698 0.0046708285014045708 0 -0.024533822719788771 0.0056623229093302379 0 -0.02809400429772085 0.0043610778599767535 0 -0.02829944102754707 0.004070447980692931 0 -0.02348089015280698 0.0046708285014045708 0 -0.023736057131808045 0.0041020871592423016 0 -0.024777341616802367 0.0042044359920120639 0 -0.02829944102754707 0.004070447980692931 0 -0.028267335429781312 0.0040965465417709436 0 -0.030288741362194234 0.0031885592185449661 0 -0.030039174181946814 0.0031235931961981858 0 -0.030113508470150752 0.003453959953036892 0 -0.030310291714370625 0.0029991889970292932 0 -0.030180966294423621 0.0028914111023524043 0 -0.030039174181946814 0.0031235931961981858 0 -0.030288741362194234 0.0031885592185449661 0 -0.030310291714370625 0.0029991889970292932 0 -0.030039174181946814 0.0031235931961981858 0 -0.030039174181946814 0.0031235931961981858 0 -0.030113508470150752 0.003453959953036892 0 -0.029897082248914825 0.0033083367316225775 0 -0.030113508470150752 0.003453959953036892 0 -0.029897082248914825 0.0033083367316225775 0 -0.029734500694428592 0.0035234108246513787 0 -0.02829944102754707 0.004070447980692931 0 -0.030827069746609526 0.00180834018781163 0 -0.031909962927401836 0.001719909265620975 0 -0.030827069746609526 0.00180834018781163 0 -0.029701415552625912 0.00313230074161795 0 -0.029897082248914825 0.0033083367316225775 0 -0.029734500694428592 0.0035234108246513787 0 -0.023736057131808045 0.0041020871592423016 0 -0.023042135939556806 0.0005097514290659436 0 -0.024262478651483288 0.0027752082226922977 0 -0.028791670425203694 0.011688495714507736 0 -0.028566504356978144 0.012143647518186728 0 -0.02916850580597731 0.011217699659792297 0 -0.028791670425203694 0.011688495714507736 0 -0.028468377806030402 0.011981116953271623 0 -0.028460571653875642 0.011588500481666993 0 -0.028791670425203694 0.011688495714507736 0 -0.028795169182616667 0.011407019862184248 0 -0.028460571653875642 0.011588500481666993 0 -0.028795169182616667 0.011407019862184248 0 -0.028735106448132763 0.011026308476610281 0 -0.028460571653875642 0.011588500481666993 0 -0.028791670425203694 0.011688495714507736 0 -0.028795169182616667 0.011407019862184248 0 -0.02916850580597731 0.011217699659792297 0 -0.030158076123871884 0.012731648834994776 0 -0.030728053152644645 0.011860525741887498 0 -0.03015075206539574 0.011317776012145267 0 -0.028936188699091332 0.011550166933504611 0 -0.028967934140211225 0.011475421581419204 0 -0.02965806745964901 0.012096225537254323 0 -0.02916850580597731 0.011217699659792297 0 -0.029254611350886001 0.010926982431893544 0 -0.030158076123871884 0.012731648834994776 0 -0.03015075206539574 0.011317776012145267 0 -0.029254611350886001 0.010926982431893544 0 -0.02958110255153483 0.012105274663628643 0 -0.02965806745964901 0.012096225537254323 0 -0.02916850580597731 0.011217699659792297 0 -0.029817173456528463 0.0090616164354843827 0 -0.030083585256220399 0.010454090738402626 0 -0.02958110255153483 0.012105274663628643 0 -0.029356712479766039 0.012459268679701005 0 -0.02916850580597731 0.011217699659792297 0 -0.029656170648204857 0.012091909477384942 0 -0.029356712479766039 0.012459268679701005 0 -0.029950381743057898 0.012755444719556846 0 -0.029817173456528463 0.0090616164354843827 0 -0.029262577505796746 0.008676375590051787 0 -0.02958110255153483 0.012105274663628643 0 -0.029656170648204857 0.012091909477384942 0 -0.029356712479766039 0.012459268679701005 0 -0.02981337610833204 0.0090670602709804135 0 -0.029817173456528463 0.0090616164354843827 0 -0.028566504356978144 0.012143647518186728 0 -0.028562038608157397 0.012010220369586331 0 -0.028445550703608651 0.012126646926858282 0 -0.028791670425203694 0.011688495714507736 0 -0.028566504356978144 0.012143647518186728 0 -0.028562038608157397 0.012010220369586331 0 -0.028791670425203694 0.011688495714507736 0 -0.028562038608157397 0.012010220369586331 0 -0.028468377806030402 0.011981116953271623 0 -0.028562038608157397 0.012010220369586331 0 -0.028468377806030402 0.011981116953271623 0 -0.028445550703608651 0.012126646926858282 0 -0.028468377806030402 0.011981116953271623 0 -0.028445550703608651 0.012126646926858282 0 -0.028269376125344838 0.012199743826348156 0 -0.028566504356978144 0.012143647518186728 0 -0.028445550703608651 0.012126646926858282 0 -0.028370752483912385 0.012092836525393606 0 -0.028445550703608651 0.012126646926858282 0 -0.028292410461118619 0.012103461255709172 0 -0.028269376125344838 0.012199743826348156 0 -0.028445550703608651 0.012126646926858282 0 -0.028370752483912385 0.012092836525393606 0 -0.028292410461118619 0.012103461255709172 0 -0.02827237993895821 0.012030740034699325 0 -0.028280597224635981 0.012018536503710925 0 -0.028215588330670005 0.011825643617366134 0 -0.028292410461118619 0.012103461255709172 0 -0.028280597224635981 0.012018536503710925 0 -0.028215588330670005 0.011825643617366134 0 -0.028370752483912385 0.012092836525393606 0 -0.028292410461118619 0.012103461255709172 0 -0.028280597224635981 0.012018536503710925 0 -0.028419064635118542 0.0086987435837398604 0 -0.029262577505796746 0.008676375590051787 0 -0.028552007576619513 0.0079905997545644206 0 -0.02897533033038073 0.0079844887149069926 0 -0.02886022976882055 0.007361585268573125 0 -0.028330499282072433 0.0077265255106195464 0 -0.028419064635118542 0.0086987435837398604 0 -0.02827237993895821 0.012030740034699325 0 -0.028280597224635981 0.012018536503710925 0 -0.028264903499543206 0.012037373762324437 0 -0.028089285423791788 0.0080199826387320136 0 -0.028419064635118542 0.0086987435837398604 0 -0.028370752483912385 0.012092836525393606 0 -0.028280597224635981 0.012018536503710925 0 -0.028264903499543206 0.012037373762324437 0 -0.028566504356978144 0.012143647518186728 0 -0.028370752483912385 0.012092836525393606 0 -0.028264903499543206 0.012037373762324437 0 -0.029356712479766039 0.012459268679701005 0 -0.029563308627328123 0.013530619128381514 0 -0.029950381743057898 0.012755444719556846 0 -0.028936188699091332 0.011550166933504611 0 -0.028419064635118542 0.0086987435837398604 0 -0.029115223821704197 0.0073597775255563359 0 -0.028704718833546739 0.0071414685798323113 0 -0.028999778111945995 0.0075957285584973651 0 -0.029262577505796746 0.008676375590051787 0 -0.029300403220125736 0.0085300396139376729 0 -0.029046904341311887 0.0073117851862273819 0 -0.029260139139223061 0.0073676062393775235 0 -0.029166743563982345 0.0075616266732493149 0 -0.0291006706535481 0.0057281574795361957 0 -0.029262577505796746 0.008676375590051787 0 -0.029046904341311887 0.0073117851862273819 0 -0.029249388782467779 0.0073103631215172393 0 -0.029260139139223061 0.0073676062393775235 0 -0.028785949337429999 0.0066752052506880866 0 -0.029115223821704197 0.0073597775255563359 0 -0.028704718833546739 0.0071414685798323113 0 -0.028748635388040254 0.0066756848871726985 0 -0.028785949337429999 0.0066752052506880866 0 -0.028704718833546739 0.0071414685798323113 0 -0.028750920777503186 0.0048102784608029759 0 -0.029130101705997842 0.0048056793610026759 0 -0.028997743575576836 0.0049768641428686537 0 -0.028750920777503186 0.0048102784608029759 0 -0.028997743575576836 0.0049768641428686537 0 -0.028905634935979831 0.0051730049509492552 0 -0.029130101705997842 0.0048056793610026759 0 -0.028997743575576836 0.0049768641428686537 0 -0.029095566190148268 0.0051705732834727248 0 -0.029094337830974423 0.0055742456979593277 0 -0.028806216926672772 0.0059780854450454729 0 -0.028997743575576836 0.0049768641428686537 0 -0.028905634935979831 0.0051730049509492552 0 -0.029095566190148268 0.0051705732834727248 0 -0.028476528101764355 0.0045690350954069496 0 -0.02850783268748731 0.0061518019053489921 0 -0.02699599372365356 0.0032887976851999198 0 -0.027301545833651471 0.0039964664933674014 0 -0.026904777707034387 0.0037836963630309057 0 -0.028704718833546739 0.0071414685798323113 0 -0.028662060094171923 0.0076056465655134822 0 -0.028999778111945995 0.0075957285584973651 0 -0.028905634935979831 0.0051730049509492552 0 -0.029095566190148268 0.0051705732834727248 0 -0.029061044211689917 0.0055369138114910715 0 -0.028806216926672772 0.0059780854450454729 0 -0.02850783268748731 0.0061518019053489921 0 -0.026960056673461227 0.004107563556283297 0 -0.027301545833651471 0.0039964664933674014 0 -0.026904777707034387 0.0037836963630309057 0 -0.026960056673461227 0.004107563556283297 0 -0.027301545833651471 0.0039964664933674014 0 -0.027255657235112713 0.0044850468302061021 0 -0.026960056673461227 0.004107563556283297 0 -0.027029042287421895 0.0045275628502883195 0 -0.027255657235112713 0.0044850468302061021 0 -0.02850783268748731 0.0061518019053489921 0 -0.028180910776269753 0.0066061117542381672 0 -0.027797476847512912 0.006385661584324384 0 -0.028120577676807781 0.0071409180129919682 0 -0.028200146351820471 0.0063100188397219028 0 -0.028735451212753397 0.0073460055900570883 0 -0.02850783268748731 0.0061518019053489921 0 -0.029817173456528463 0.0090616164354843827 0 -0.028735451212753397 0.0073460055900570883 0 -0.029320085455959821 0.0077910475770301899 0 -0.028785397505284815 0.0078908776942892816 0 -0.028999778111945995 0.0075957285584973651 0 -0.029320085455959821 0.0077910475770301899 0 -0.029113338895227131 0.0073643260692570801 0 -0.028999778111945995 0.0075957285584973651 0 -0.028785397505284815 0.0078908776942892816 0 -0.028662060094171923 0.0076056465655134822 0 -0.028999778111945995 0.0075957285584973651 0 -0.031645165685376279 0.012441963519550023 0 -0.030728053152644645 0.011860525741887498 0 -0.031205053212614787 0.011415709662194755 0 -0.028735451212753397 0.0073460055900570883 0 -0.029641934187565503 0.0087725015975474545 0 -0.030158076123871884 0.012731648834994776 0 -0.031645165685376279 0.012441963519550023 0 -0.030728053152644645 0.011860525741887498 0 -0.030728053152644645 0.011860525741887498 0 -0.031205053212614787 0.011415709662194755 0 -0.030647469133080994 0.011144102410365357 0 -0.030728053152644645 0.011860525741887498 0 -0.030647469133080994 0.011144102410365357 0 -0.03015075206539574 0.011317776012145267 0 -0.02344334723224141 0.0047939002354159908 0 -0.023413415287560694 0.0047584598218364926 0 -0.023358827308344883 0.0048323447346206565 0 -0.028157101469478807 0.0068067957063912641 0 -0.027167321544515316 0.0060326201090436012 0 -0.027167321544515316 0.0060326201090436012 0 -0.028180910776269753 0.0066061117542381672 0 -0.028039545457736001 0.0052261113927805783 0 -0.029660684550645022 0.0071160152451880858 0 -0.027826054300073535 0.007460428875143317 0 -0.029179178009706014 0.007246504710348281 0 -0.029468396831267143 0.0079194857066907324 0 -0.028872406778373248 0.0076201609040518281 0 -0.028735451212753397 0.0073460055900570883 0 -0.028180910776269753 0.0066061117542381672 0 -0.029179178009706014 0.007246504710348281 0 -0.028872406778373248 0.0076201609040518281 0 -0.028903036311910327 0.0072982777865708698 0 -0.028157101469478807 0.0068067957063912641 0 -0.028180910776269753 0.0066061117542381672 0 -0.023413415287560694 0.0047584598218364926 0 -0.023358827308344883 0.0048323447346206565 0 -0.023281308443247051 0.0047801303360726086 0 -0.027167321544515316 0.0060326201090436012 0 -0.024136374311840108 0.0047200934769994311 0 -0.024136374311840108 0.0047200934769994311 0 -0.019855445795201151 0.0035955542457021977 0 -0.026185097412243091 0.00465528055049883 0 -0.025650267979446025 0.003790670068872582 0 -0.025354512083186113 0.0048091753053355075 0 -0.026185097412243091 0.00465528055049883 0 -0.026361949856716832 0.0037424285577096089 0 -0.025650267979446025 0.003790670068872582 0 -0.026960056673461227 0.004107563556283297 0 -0.027029042287421895 0.0045275628502883195 0 -0.026361949856716832 0.0037424285577096089 0 -0.027167321544515316 0.0060326201090436012 0 -0.026518085905832451 0.0049549175717457658 0 -0.027008881792444758 0.0045016954374750354 0 -0.026185097412243091 0.00465528055049883 0 -0.026361949856716832 0.0037424285577096089 0 -0.026960056673461227 0.004107563556283297 0 -0.026904777707034387 0.0037836963630309057 0 -0.026361949856716832 0.0037424285577096089 0 -0.02699599372365356 0.0032887976851999198 0 -0.026904777707034387 0.0037836963630309057 0 -0.026361949856716832 0.0037424285577096089 0 -0.02699599372365356 0.0032887976851999198 0 -0.026361949856716832 0.0037424285577096089 0 -0.026130648493162236 0.0033653692003236865 0 -0.028883883846641839 0.0037110070551174741 0 -0.028476528101764355 0.0045690350954069496 0 -0.02669624779568942 0.0025895127943562813 0 -0.02699599372365356 0.0032887976851999198 0 -0.026252860137088736 0.0029396049364017753 0 -0.02699599372365356 0.0032887976851999198 0 -0.026252860137088736 0.0029396049364017753 0 -0.026130648493162236 0.0033653692003236865 0 -0.02580281475121525 0.0026028579575608228 0 -0.02669624779568942 0.0025895127943562813 0 -0.026252860137088736 0.0029396049364017753 0 -0.02580281475121525 0.0026028579575608228 0 -0.025759475813789848 0.0028756858298843789 0 -0.026252860137088736 0.0029396049364017753 0 -0.026252860137088736 0.0029396049364017753 0 -0.025737057631720107 0.0031671818680761629 0 -0.026130648493162236 0.0033653692003236865 0 -0.025759475813789848 0.0028756858298843789 0 -0.026252860137088736 0.0029396049364017753 0 -0.025737057631720107 0.0031671818680761629 0 -0.026361949856716832 0.0037424285577096089 0 -0.026130648493162236 0.0033653692003236865 0 -0.025650267979446025 0.003790670068872582 0 -0.025737057631720107 0.0031671818680761629 0 -0.026130648493162236 0.0033653692003236865 0 -0.025650267979446025 0.003790670068872582 0 -0.025737057631720107 0.0031671818680761629 0 -0.025650267979446025 0.003790670068872582 0 -0.025444420449463344 0.0032400527087799139 0 -0.025650267979446025 0.003790670068872582 0 -0.025145006700976066 0.0034083359358586963 0 -0.024890477608609934 0.0039923518944782301 0 -0.025650267979446025 0.003790670068872582 0 -0.025145006700976066 0.0034083359358586963 0 -0.025444420449463344 0.0032400527087799139 0 -0.028288349598478448 0.0019074615504094292 0 -0.028557963691296064 0.0019372884627135822 0 -0.025737057631720107 0.0031671818680761629 0 -0.025444420449463344 0.0032400527087799139 0 -0.025431870254701096 0.0028372873734041027 0 -0.026342952347130091 0.0010728444942214063 0 -0.027240391590477329 0.0010591848136372992 0 -0.027279066124939511 0.0012498995412521987 0 -0.025145006700976066 0.0034083359358586963 0 -0.025444420449463344 0.0032400527087799139 0 -0.025431870254701096 0.0028372873734041027 0 -0.02580281475121525 0.0026028579575608228 0 -0.025759475813789848 0.0028756858298843789 0 -0.025456629987086764 0.0027474009582507549 0 -0.028715159542644912 0.0023264468698731399 0 -0.028557963691296064 0.0019372884627135822 0 -0.028651541618458287 0.0019027860318372731 0 -0.029047622833571055 0.0018052949126477992 0 -0.029064922193866829 0.0017310372217385814 0 -0.027240391590477329 0.0010591848136372992 0 -0.027299087895705457 0.0011642678512992304 0 -0.027279066124939511 0.0012498995412521987 0 -0.025759475813789848 0.0028756858298843789 0 -0.025737057631720107 0.0031671818680761629 0 -0.025456629987086764 0.0027474009582507549 0 -0.029006679761126569 0.0017047848795207138 0 -0.02884149896115798 0.0017792361793614428 0 -0.025737057631720107 0.0031671818680761629 0 -0.025431870254701096 0.0028372873734041027 0 -0.025453481896353686 0.002746007249064986 0 -0.029003029983921964 0.001794896275556688 0 -0.02884149896115798 0.0017792361793614428 0 -0.02884149896115798 0.0017792361793614428 0 -0.028557963691296064 0.0019372884627135822 0 -0.028547868943748226 0.001950318190474278 0 -0.028557963691296064 0.0019372884627135822 0 -0.026342952347130091 0.0010728444942214063 0 -0.027279066124939511 0.0012498995412521987 0 -0.025871883665649027 0.0018344685993981515 0 -0.025145006700976066 0.0034083359358586963 0 -0.025431870254701096 0.0028372873734041027 0 -0.024423837499226768 0.0031727058849822334 0 -0.025431870254701096 0.0028372873734041027 0 -0.025453406939101367 0.002746340315300235 0 -0.024423837499226768 0.0031727058849822334 0 -0.028557963691296064 0.0019372884627135822 0 -0.023457300128837649 0.0015833492329425387 0 -0.021053524838360642 0.0026426225399747592 0 -0.023457300128837649 0.0015833492329425387 0 -0.025145006700976066 0.0034083359358586963 0 -0.024890477608609934 0.0039923518944782301 0 -0.024423837499226768 0.0031727058849822334 0 -0.021053524838360642 0.0026426225399747592 0 -0.019855445795201151 0.0035955542457021977 0 -0.013510011208340236 0.0030110768790611244 0 -0.01310274864341668 0.0022838531981589799 0 -0.013794403083560298 0.0026281057887887487 0 -0.025650267979446025 0.003790670068872582 0 -0.024890477608609934 0.0039923518944782301 0 -0.025354512083186113 0.0048091753053355075 0 -0.019855445795201151 0.0035955542457021977 0 -0.015864525927623864 0.0032095394257819748 0 -0.01310274864341668 0.0022838531981589799 0 -0.013793726101884415 0.0021490947503771613 0 -0.013794403083560298 0.0026281057887887487 0 -0.01408212190495811 0.0019106156692867938 0 -0.013807170682103834 0.0015629361916149229 0 -0.014247959669253648 0.0014178776018052884 0 -0.013642920726384882 0.0019737058139225327 0 -0.01408212190495811 0.0019106156692867938 0 -0.013807170682103834 0.0015629361916149229 0 -0.013642920726384882 0.0019737058139225327 0 -0.013807170682103834 0.0015629361916149229 0 -0.013361571720591372 0.0014297902591461995 0 -0.019855445795201151 0.0035955542457021977 0 -0.019273888436766799 0.0029102771645623821 0 -0.013807170682103834 0.0015629361916149229 0 -0.013913183928909388 0.0010778701137613366 0 -0.013361571720591372 0.0014297902591461995 0 -0.013807170682103834 0.0015629361916149229 0 -0.013913183928909388 0.0010778701137613366 0 -0.014247959669253648 0.0014178776018052884 0 -0.013913183928909388 0.0010778701137613366 0 -0.013876352262246266 0.00068664572662727966 0 -0.013564772065029337 0.00085930685782346613 0 -0.013913183928909388 0.0010778701137613366 0 -0.013876352262246266 0.00068664572662727966 0 -0.014066517739606552 0.00068226173835441209 0 -0.013876352262246266 0.00068664572662727966 0 -0.014006656206859652 0.00051647076999976197 0 -0.013915823221438797 0.00047658516658057737 0 -0.013876352262246266 0.00068664572662727966 0 -0.014066517739606552 0.00068226173835441209 0 -0.014006656206859652 0.00051647076999976197 0 -0.013876352262246266 0.00068664572662727966 0 -0.013564772065029337 0.00085930685782346613 0 -0.013774341213367677 0.0004866968162037006 0 -0.013564772065029337 0.00085930685782346613 0 -0.013774341213367677 0.0004866968162037006 0 -0.013369313587110871 0.00052908924225283786 0 -0.013913183928909388 0.0010778701137613366 0 -0.013564772065029337 0.00085930685782346613 0 -0.013361571720591372 0.0014297902591461995 0 -0.023318638713438061 0.005089056661409205 0 -0.023350132548511655 0.0050465963146998196 0 -0.023234430569812899 0.0049481266308390769 0 -0.013564772065029337 0.00085930685782346613 0 -0.013092216812961948 0.00091338251263288245 0 -0.013361571720591372 0.0014297902591461995 0 -0.019869097916243108 0.0028191901204727711 0 -0.019273888436766799 0.0029102771645623821 0 -0.019869097916243108 0.0028191901204727711 0 -0.016785506165111087 0.0026037439413407301 0 -0.013564772065029337 0.00085930685782346613 0 -0.013092216812961948 0.00091338251263288245 0 -0.013369313587110871 0.00052908924225283786 0 -0.018696782777285016 0.0024186783212544467 0 -0.018298978474979143 0.0029885672391225032 0 -0.018737234545506219 0.0031296973691652091 0 -0.019869097916243108 0.0028191901204727711 0 -0.023747298101752343 0.0052893549143869945 0 -0.023322930858520739 0.0050868179745491588 0 -0.023410242137099153 0.0050789340545323546 0 -0.023399818915588382 0.0052135257071447916 0 -0.018696782777285016 0.0024186783212544467 0 -0.018737234545506219 0.0031296973691652091 0 -0.019097871201430163 0.0031185748512438495 0 -0.023322930858520739 0.0050868179745491588 0 -0.023350132548511655 0.0050465963146998196 0 -0.023410242137099153 0.0050789340545323546 0 -0.019869097916243108 0.0028191901204727711 0 -0.019989808045096331 0.0028826243567816644 0 -0.023350132548511655 0.0050465963146998196 0 -0.023342548374909258 0.0049418979260200191 0 -0.023426325539741111 0.0049389318173334645 0 -0.023350132548511655 0.0050465963146998196 0 -0.023342548374909258 0.0049418979260200191 0 -0.023234430569812899 0.0049481266308390769 0 -0.023358827308344883 0.0048323447346206565 0 -0.023281308443247051 0.0047801303360726086 0 -0.023234430569812899 0.0049481266308390769 0 -0.023281308443247051 0.0047801303360726086 0 -0.023147582220444655 0.0048027614002036454 0 -0.023234430569812899 0.0049481266308390769 0 -0.023358827308344883 0.0048323447346206565 0 -0.023342548374909258 0.0049418979260200191 0 -0.023234430569812899 0.0049481266308390769 0 -0.023358827308344883 0.0048323447346206565 0 -0.023342548374909258 0.0049418979260200191 0 -0.023426325539741111 0.0049389318173334645 0 -0.028157101469478807 0.0068067957063912641 0 -0.02740707433368798 0.0071974123707944648 0 -0.02344334723224141 0.0047939002354159908 0 -0.023358827308344883 0.0048323447346206565 0 -0.023426325539741111 0.0049389318173334645 0 -0.033116417364987036 0.012412277877692142 0 -0.032562078272406168 0.011367421423133984 0 -0.033322694016401311 0.010395313803101327 0 -0.032562078272406168 0.011367421423133984 0 -0.032371580324857097 0.010665538584949256 0 -0.033322694016401311 0.010395313803101327 0 -0.028157101469478807 0.0068067957063912641 0 -0.030070921339201362 0.0092401631586500731 0 -0.033116417364987036 0.012412277877692142 0 -0.032562078272406168 0.011367421423133984 0 -0.031547267799897812 0.010695383162676665 0 -0.029468396831267143 0.0079194857066907324 0 -0.028872406778373248 0.0076201609040518281 0 -0.029757644184803395 0.0085928590886226678 0 -0.031205053212614787 0.011415709662194755 0 -0.030647469133080994 0.011144102410365357 0 -0.030755628797257791 0.010400735248621283 0 -0.029641934187565503 0.0087725015975474545 0 -0.030070921339201362 0.0092401631586500731 0 -0.030647469133080994 0.011144102410365357 0 -0.030755628797257791 0.010400735248621283 0 -0.030391996929342309 0.01073851635333312 0 -0.032562078272406168 0.011367421423133984 0 -0.032135764698239026 0.010777449977240856 0 -0.032371580324857097 0.010665538584949256 0 -0.032562078272406168 0.011367421423133984 0 -0.031547267799897812 0.010695383162676665 0 -0.032135764698239026 0.010777449977240856 0 -0.032135764698239026 0.010777449977240856 0 -0.032371580324857097 0.010665538584949256 0 -0.032001577869351747 0.010412795227833267 0 -0.031547267799897812 0.010695383162676665 0 -0.032135764698239026 0.010777449977240856 0 -0.032001577869351747 0.010412795227833267 0 -0.032001577869351747 0.010412795227833267 0 -0.032316865295131197 0.010127284197851083 0 -0.031594841623728283 0.0096725392081362001 0 -0.032371580324857097 0.010665538584949256 0 -0.032001577869351747 0.010412795227833267 0 -0.032316865295131197 0.010127284197851083 0 -0.031547267799897812 0.010695383162676665 0 -0.032001577869351747 0.010412795227833267 0 -0.031594841623728283 0.0096725392081362001 0 -0.032316865295131197 0.010127284197851083 0 -0.031594841623728283 0.0096725392081362001 0 -0.032361763245927301 0.0091766445694666104 0 -0.032316865295131197 0.010127284197851083 0 -0.033322694016401311 0.010395313803101327 0 -0.032361763245927301 0.0091766445694666104 0 -0.033322694016401311 0.010395313803101327 0 -0.03355086809337289 0.0083351510241116561 0 -0.032361763245927301 0.0091766445694666104 0 -0.02740707433368798 0.0071974123707944648 0 -0.026204036129432881 0.0064098390167342065 0 -0.032371580324857097 0.010665538584949256 0 -0.032316865295131197 0.010127284197851083 0 -0.033322694016401311 0.010395313803101327 0 -0.023350132548511655 0.0050465963146998196 0 -0.023426325539741111 0.0049389318173334645 0 -0.023410242137099153 0.0050789340545323546 0 -0.03355086809337289 0.0083351510241116561 0 -0.032235096806114714 0.007583301173353478 0 -0.032361763245927301 0.0091766445694666104 0 -0.026204036129432881 0.0064098390167342065 0 -0.023747298101752343 0.0052893549143869945 0 -0.03355086809337289 0.0083351510241116561 0 -0.032235096806114714 0.007583301173353478 0 -0.033775864956692721 0.0062317237594464829 0 -0.032235096806114714 0.007583301173353478 0 -0.031392707099684315 0.0084600417468592669 0 -0.030719592248403777 0.0069618206082623091 0 -0.032235096806114714 0.007583301173353478 0 -0.030719592248403777 0.0069618206082623091 0 -0.03236809066320008 0.0061484211492294875 0 -0.032235096806114714 0.007583301173353478 0 -0.031392707099684315 0.0084600417468592669 0 -0.032361763245927301 0.0091766445694666104 0 -0.031594841623728283 0.0096725392081362001 0 -0.031392707099684315 0.0084600417468592669 0 -0.032361763245927301 0.0091766445694666104 0 -0.031392707099684315 0.0084600417468592669 0 -0.030047055009312939 0.0088935463895920726 0 -0.030719592248403777 0.0069618206082623091 0 -0.031594841623728283 0.0096725392081362001 0 -0.031392707099684315 0.0084600417468592669 0 -0.030047055009312939 0.0088935463895920726 0 -0.029736329103153148 0.0087870436932539469 0 -0.029107757109319177 0.0080223039217900138 0 -0.030047055009312939 0.0088935463895920726 0 -0.030719592248403777 0.0069618206082623091 0 -0.028449691919025213 0.0071276523409987778 0 -0.029677600690663154 0.0089048753986711946 0 -0.0279629178491838 0.0086581582454786418 0 -0.028449691919025213 0.0071276523409987778 0 -0.029677600690663154 0.0089048753986711946 0 -0.028644907321996788 0.0098972555101590216 0 -0.0279629178491838 0.0086581582454786418 0 -0.029677600690663154 0.0089048753986711946 0 -0.028644907321996788 0.0098972555101590216 0 -0.029309231570138868 0.01016049272614265 0 -0.031547267799897812 0.010695383162676665 0 -0.031594841623728283 0.0096725392081362001 0 -0.030047055009312939 0.0088935463895920726 0 -0.030070921339201362 0.0092401631586500731 0 -0.029736329103153148 0.0087870436932539469 0 -0.029677600690663154 0.0089048753986711946 0 -0.029309231570138868 0.01016049272614265 0 -0.029982239024052643 0.010468464390243034 0 -0.030755628797257791 0.010400735248621283 0 -0.029677600690663154 0.0089048753986711946 0 -0.029982239024052643 0.010468464390243034 0 -0.029309231570138868 0.01016049272614265 0 -0.029982239024052643 0.010468464390243034 0 -0.02957738929955531 0.010608692879997418 0 -0.02957738929955531 0.010608692879997418 0 -0.030049322226366783 0.010775654080011191 0 -0.029765236295585404 0.010901812787824866 0 -0.029982239024052643 0.010468464390243034 0 -0.02957738929955531 0.010608692879997418 0 -0.030049322226366783 0.010775654080011191 0 -0.02957738929955531 0.010608692879997418 0 -0.029765236295585404 0.010901812787824866 0 -0.029254611350886001 0.010926982431893544 0 -0.030755628797257791 0.010400735248621283 0 -0.029982239024052643 0.010468464390243034 0 -0.030391996929342309 0.01073851635333312 0 -0.029982239024052643 0.010468464390243034 0 -0.030049322226366783 0.010775654080011191 0 -0.030391996929342309 0.01073851635333312 0 -0.030647469133080994 0.011144102410365357 0 -0.030391996929342309 0.01073851635333312 0 -0.03015075206539574 0.011317776012145267 0 -0.030049322226366783 0.010775654080011191 0 -0.030391996929342309 0.01073851635333312 0 -0.03015075206539574 0.011317776012145267 0 -0.030049322226366783 0.010775654080011191 0 -0.03015075206539574 0.011317776012145267 0 -0.029765236295585404 0.010901812787824866 0 -0.03015075206539574 0.011317776012145267 0 -0.029765236295585404 0.010901812787824866 0 -0.029254611350886001 0.010926982431893544 0 -0.028795169182616667 0.011407019862184248 0 -0.02916850580597731 0.011217699659792297 0 -0.028735106448132763 0.011026308476610281 0 -0.028644907321996788 0.0098972555101590216 0 -0.029309231570138868 0.01016049272614265 0 -0.028735106448132763 0.011026308476610281 0 -0.02916850580597731 0.011217699659792297 0 -0.029254611350886001 0.010926982431893544 0 -0.028735106448132763 0.011026308476610281 0 -0.029309231570138868 0.01016049272614265 0 -0.02957738929955531 0.010608692879997418 0 -0.029254611350886001 0.010926982431893544 0 -0.029309231570138868 0.01016049272614265 0 -0.029254611350886001 0.010926982431893544 0 -0.028735106448132763 0.011026308476610281 0 -0.024385047623272055 -0.00026937664949206483 0 -0.024792106987874162 -8.2092585430556029e-05 0 -0.024870738588818803 -0.00071763137219475986 0 -0.024385047623272055 -0.00026937664949206483 0 -0.024792106987874162 -8.2092585430556029e-05 0 -0.024065612382603314 0.00030182876264110388 0 -0.020960158276569683 0.0012302592276415998 0 -0.021168601634284023 0.0014657513108830428 0 -0.024792106987874162 -8.2092585430556029e-05 0 -0.024870738588818803 -0.00071763137219475986 0 -0.025468279938343757 -0.00037687247771517926 0 -0.016722273949909151 0.0028295999819499401 0 -0.016606185085703305 0.0022334505110362616 0 -0.015805311310105711 0.0023125269462308095 0 -0.016722273949909151 0.0028295999819499401 0 -0.016606185085703305 0.0022334505110362616 0 -0.017230206934483648 0.0018801978272482193 0 -0.016606185085703305 0.0022334505110362616 0 -0.017230206934483648 0.0018801978272482193 0 -0.016816036859328708 0.0013948528688774791 0 -0.020960158276569683 0.0012302592276415998 0 -0.021285092153889566 0.0007365114889873515 0 -0.016722273949909151 0.0028295999819499401 0 -0.017230206934483648 0.0018801978272482193 0 -0.018595490310201707 0.0021347933389079597 0 -0.024065612382603314 0.00030182876264110388 0 -0.023409828985224777 -4.5460360080166281e-05 0 -0.023968955787264722 -4.7898139087895181e-05 0 -0.021285092153889566 0.0007365114889873515 0 -0.021723886187354033 1.1921111609904721e-06 0 -0.023409828985224777 -4.5460360080166281e-05 0 -0.023371094159365197 -5.1958414814397216e-07 0 -0.021726815887863987 1.3566249550359088e-06 0 -0.024065612382603314 0.00030182876264110388 0 -0.023409828985224777 -4.5460360080166281e-05 0 -0.021726815887863987 1.3566249550359088e-06 0 -0.023409828985224777 -4.5460360080166281e-05 0 -0.024166727834444495 -0.00019741918244185869 0 -0.023371094159365197 -5.1958414814397216e-07 0 -0.024385047623272055 -0.00026937664949206483 0 -0.023968955787264722 -4.7898139087895181e-05 0 -0.024191123338715634 -0.00069013402153234938 0 -0.024166727834444495 -0.00019741918244185869 0 -0.023968955787264722 -4.7898139087895181e-05 0 -0.024550556745438795 -0.00026907707084945244 0 -0.023409828985224777 -4.5460360080166281e-05 0 -0.024166727834444495 -0.00019741918244185869 0 -0.023968955787264722 -4.7898139087895181e-05 0 -0.024385047623272055 -0.00026937664949206483 0 -0.024065612382603314 0.00030182876264110388 0 -0.023968955787264722 -4.7898139087895181e-05 0 -0.025526406954549257 2.6081029551888222e-05 0 -0.025862078406347858 6.6626920079976667e-05 0 -0.024166727834444495 -0.00019741918244185869 0 -0.024550556745438795 -0.00026907707084945244 0 -0.024845455583021484 -0.00018944090300082603 0 -0.024166727834444495 -0.00019741918244185869 0 -0.025019325151768666 -1.0661627358559669e-06 0 -0.024845455583021484 -0.00018944090300082603 0 -0.024166727834444495 -0.00019741918244185869 0 -0.023371094159365197 -5.1958414814397216e-07 0 -0.025019325151768666 -1.0661627358559669e-06 0 -0.026663354259898471 1.8286984375525657e-06 0 -0.025019325151768666 -1.0661627358559669e-06 0 -0.025525675811707924 -0.00012730438039285614 0 -0.025019325151768666 -1.0661627358559669e-06 0 -0.024845455583021484 -0.00018944090300082603 0 -0.025525675811707924 -0.00012730438039285614 0 -0.024550556745438795 -0.00026907707084945244 0 -0.024845455583021484 -0.00018944090300082603 0 -0.024820461682485417 8.6795063696808707e-06 0 -0.024550556745438795 -0.00026907707084945244 0 -0.024820461682485417 8.6795063696808707e-06 0 -0.024628554943361629 1.6921905641906408e-05 0 -0.024845455583021484 -0.00018944090300082603 0 -0.025525675811707924 -0.00012730438039285614 0 -0.024820461682485417 8.6795063696808707e-06 0 -0.026409769832763493 0.00065629028688855297 0 -0.026822493648374031 0.00068801904859113611 0 -0.024191123338715634 -0.00069013402153234938 0 -0.024371613261243468 -0.0013159085713796914 0 -0.024870738588818803 -0.00071763137219475986 0 -0.025862078406347858 6.6626920079976667e-05 0 -0.026822493648374031 0.00068801904859113611 0 -0.024385047623272055 -0.00026937664949206483 0 -0.024191123338715634 -0.00069013402153234938 0 -0.024870738588818803 -0.00071763137219475986 0 -0.024371613261243468 -0.0013159085713796914 0 -0.024870738588818803 -0.00071763137219475986 0 -0.025218649417330454 -0.0013209632224949082 0 -0.026822493648374031 0.00068801904859113611 0 -0.028220315390635128 0.0002912458439061691 0 -0.024870738588818803 -0.00071763137219475986 0 -0.025218649417330454 -0.0013209632224949082 0 -0.025641635411053843 -0.00092995874021993541 0 -0.026054112463256118 -0.0013278847831973539 0 -0.025218649417330454 -0.0013209632224949082 0 -0.025641635411053843 -0.00092995874021993541 0 -0.026054112463256118 -0.0013278847831973539 0 -0.025641635411053843 -0.00092995874021993541 0 -0.026147552565542433 -0.00066177016167358023 0 -0.026592684140573117 0.00058270503965160674 0 -0.028220315390635128 0.0002912458439061691 0 -0.025641635411053843 -0.00092995874021993541 0 -0.026147552565542433 -0.00066177016167358023 0 -0.025468279938343757 -0.00037687247771517926 0 -0.014698605427472615 0.0033256559696496595 0 -0.014714545125133873 0.0034299779234362561 0 -0.015593262233284213 0.0031383697581999349 0 -0.023167676373353242 0.00116968028630083 0 -0.021168601634284023 0.0014657513108830428 0 -0.024870738588818803 -0.00071763137219475986 0 -0.025641635411053843 -0.00092995874021993541 0 -0.025468279938343757 -0.00037687247771517926 0 -0.025125343338553437 0.0010209989000224736 0 -0.02518882247323698 0.0011346121736130234 0 -0.025002002469102988 0.0012119810408202565 0 -0.025446540329922714 0.0010869895206541687 0 -0.026342952347130091 0.0010728444942214063 0 -0.025871883665649027 0.0018344685993981515 0 -0.026584816332894185 0.0014151871896783206 0 -0.023457300128837649 0.0015833492329425387 0 -0.024976716067749507 0.0010229860714108916 0 -0.025125343338553437 0.0010209989000224736 0 -0.025002002469102988 0.0012119810408202565 0 -0.026592684140573117 0.00058270503965160674 0 -0.023167676373353242 0.00116968028630083 0 -0.014715619333241722 0.0034229259760740205 0 -0.014159860706928117 0.0032549515427124577 0 -0.014442481506303798 0.0031472115659587543 0 -0.014698605427472615 0.0033256559696496595 0 -0.014715619333241722 0.0034229259760740205 0 -0.014442481506303798 0.0031472115659587543 0 -0.023137991388027163 0.0011882018870224055 0 -0.023167676373353242 0.00116968028630083 0 -0.013510011208340236 0.0030110768790611244 0 -0.013927217600919856 0.0037389686088226078 0 -0.014159860706928117 0.0032549515427124577 0 -0.023457300128837649 0.0015833492329425387 0 -0.023167676373353242 0.00116968028630083 0 -0.013927217600919856 0.0037389686088226078 0 -0.014715619333241722 0.0034229259760740205 0 -0.014159860706928117 0.0032549515427124577 0 -0.013510011208340236 0.0030110768790611244 0 -0.013794403083560298 0.0026281057887887487 0 -0.014159860706928117 0.0032549515427124577 0 -0.013794403083560298 0.0026281057887887487 0 -0.014159860706928117 0.0032549515427124577 0 -0.01426602071155441 0.0026701900232700142 0 -0.014159860706928117 0.0032549515427124577 0 -0.01426602071155441 0.0026701900232700142 0 -0.014442481506303798 0.0031472115659587543 0 -0.014698605427472615 0.0033256559696496595 0 -0.014608259949696516 0.0028624779164111531 0 -0.01505133988864055 0.0026756650725823024 0 -0.01426602071155441 0.0026701900232700142 0 -0.014442481506303798 0.0031472115659587543 0 -0.014608259949696516 0.0028624779164111531 0 -0.01426602071155441 0.0026701900232700142 0 -0.014608259949696516 0.0028624779164111531 0 -0.014623023549454248 0.0024719119709422071 0 -0.014698605427472615 0.0033256559696496595 0 -0.014442481506303798 0.0031472115659587543 0 -0.014608259949696516 0.0028624779164111531 0 -0.014608259949696516 0.0028624779164111531 0 -0.014623023549454248 0.0024719119709422071 0 -0.01505133988864055 0.0026756650725823024 0 -0.01426602071155441 0.0026701900232700142 0 -0.014623023549454248 0.0024719119709422071 0 -0.014487148297091535 0.0019995913535488696 0 -0.014623023549454248 0.0024719119709422071 0 -0.015186766555072983 0.0018209651511898615 0 -0.014487148297091535 0.0019995913535488696 0 -0.013793726101884415 0.0021490947503771613 0 -0.01426602071155441 0.0026701900232700142 0 -0.014487148297091535 0.0019995913535488696 0 -0.013793726101884415 0.0021490947503771613 0 -0.013794403083560298 0.0026281057887887487 0 -0.01426602071155441 0.0026701900232700142 0 -0.015593262233284213 0.0031383697581999349 0 -0.01505133988864055 0.0026756650725823024 0 -0.015805311310105711 0.0023125269462308095 0 -0.016722273949909151 0.0028295999819499401 0 -0.015593262233284213 0.0031383697581999349 0 -0.015805311310105711 0.0023125269462308095 0 -0.014698605427472615 0.0033256559696496595 0 -0.015593262233284213 0.0031383697581999349 0 -0.01505133988864055 0.0026756650725823024 0 -0.01505133988864055 0.0026756650725823024 0 -0.015805311310105711 0.0023125269462308095 0 -0.015186766555072983 0.0018209651511898615 0 -0.014623023549454248 0.0024719119709422071 0 -0.01505133988864055 0.0026756650725823024 0 -0.015186766555072983 0.0018209651511898615 0 -0.015805311310105711 0.0023125269462308095 0 -0.015186766555072983 0.0018209651511898615 0 -0.0158870561056309 0.0014705171186963325 0 -0.015186766555072983 0.0018209651511898615 0 -0.015086672504650138 0.0012785688198450045 0 -0.014709008135715107 0.0015001036332696091 0 -0.015186766555072983 0.0018209651511898615 0 -0.015086672504650138 0.0012785688198450045 0 -0.0158870561056309 0.0014705171186963325 0 -0.015086672504650138 0.0012785688198450045 0 -0.0158870561056309 0.0014705171186963325 0 -0.015373407082853414 0.00089655725925885318 0 -0.015975240867287195 0.0012976970015357041 0 -0.015591162514800623 0.00067568417277063099 0 -0.016170630525386046 0.00084988902494654238 0 -0.015729746398908697 0.0003387505679002588 0 -0.016497114829641824 0.00033840977611133993 0 -0.015864525927623864 0.0032095394257819748 0 -0.01510532946294338 0.0028122273173448896 0 -0.01408212190495811 0.0019106156692867938 0 -0.014562393434069261 0.0018721523422709819 0 -0.014247959669253648 0.0014178776018052884 0 -0.015111003114734269 0.0026526172335727379 0 -0.01510532946294338 0.0028122273173448896 0 -0.015186766555072983 0.0018209651511898615 0 -0.014562393434069261 0.0018721523422709819 0 -0.014709008135715107 0.0015001036332696091 0 -0.014562393434069261 0.0018721523422709819 0 -0.014709008135715107 0.0015001036332696091 0 -0.014247959669253648 0.0014178776018052884 0 -0.015086672504650138 0.0012785688198450045 0 -0.014709008135715107 0.0015001036332696091 0 -0.014559036485954233 0.0011503892917642908 0 -0.014709008135715107 0.0015001036332696091 0 -0.014247959669253648 0.0014178776018052884 0 -0.014559036485954233 0.0011503892917642908 0 -0.013913183928909388 0.0010778701137613366 0 -0.014247959669253648 0.0014178776018052884 0 -0.014227710685930017 0.00090390024356841296 0 -0.014247959669253648 0.0014178776018052884 0 -0.014227710685930017 0.00090390024356841296 0 -0.014559036485954233 0.0011503892917642908 0 -0.013913183928909388 0.0010778701137613366 0 -0.014227710685930017 0.00090390024356841296 0 -0.014066517739606552 0.00068226173835441209 0 -0.015086672504650138 0.0012785688198450045 0 -0.014559036485954233 0.0011503892917642908 0 -0.014646456635714069 0.00075378383076622497 0 -0.014227710685930017 0.00090390024356841296 0 -0.014559036485954233 0.0011503892917642908 0 -0.014646456635714069 0.00075378383076622497 0 -0.014646456635714069 0.00075378383076622497 0 -0.014177311192238575 0.00052382497217355194 0 -0.014382589817536557 0.00037601577971590425 0 -0.014646456635714069 0.00075378383076622497 0 -0.014985490513648248 0.00031432203827230071 0 -0.014382589817536557 0.00037601577971590425 0 -0.014227710685930017 0.00090390024356841296 0 -0.014646456635714069 0.00075378383076622497 0 -0.014177311192238575 0.00052382497217355194 0 -0.014227710685930017 0.00090390024356841296 0 -0.014177311192238575 0.00052382497217355194 0 -0.014066517739606552 0.00068226173835441209 0 -0.014177311192238575 0.00052382497217355194 0 -0.014066517739606552 0.00068226173835441209 0 -0.014006656206859652 0.00051647076999976197 0 -0.015086672504650138 0.0012785688198450045 0 -0.014646456635714069 0.00075378383076622497 0 -0.015373407082853414 0.00089655725925885318 0 -0.015591162514800623 0.00067568417277063099 0 -0.01538568266612626 0.00038251364757430209 0 -0.014646456635714069 0.00075378383076622497 0 -0.015373407082853414 0.00089655725925885318 0 -0.014985490513648248 0.00031432203827230071 0 -0.015729746398908697 0.0003387505679002588 0 -0.016218883343832851 1.1503674618212516e-05 0 -0.014985490513648248 0.00031432203827230071 0 -0.016218883343832851 1.1503674618212516e-05 0 -0.017421591303553415 5.1780607388621287e-05 0 -0.017042553330252709 -0.00017294185868336126 0 -0.016218883343832851 1.1503674618212516e-05 0 -0.017421591303553415 5.1780607388621287e-05 0 -0.016497114829641824 0.00033840977611133993 0 -0.015729746398908697 0.0003387505679002588 0 -0.016218883343832851 1.1503674618212516e-05 0 -0.016497114829641824 0.00033840977611133993 0 -0.016170630525386046 0.00084988902494654238 0 -0.016497114829641824 0.00033840977611133993 0 -0.017448325169812949 0.00086289365170257504 0 -0.017421591303553415 5.1780607388621287e-05 0 -0.016497114829641824 0.00033840977611133993 0 -0.017448325169812949 0.00086289365170257504 0 -0.017230206934483648 0.0018801978272482193 0 -0.017448325169812949 0.00086289365170257504 0 -0.016816036859328708 0.0013948528688774791 0 -0.017230206934483648 0.0018801978272482193 0 -0.018595490310201707 0.0021347933389079597 0 -0.017448325169812949 0.00086289365170257504 0 -0.016234026281828705 0.0017742105239235738 0 -0.015975240867287195 0.0012976970015357041 0 -0.016606185085703305 0.0022334505110362616 0 -0.015805311310105711 0.0023125269462308095 0 -0.0158870561056309 0.0014705171186963325 0 -0.016606185085703305 0.0022334505110362616 0 -0.016170630525386046 0.00084988902494654238 0 -0.016816036859328708 0.0013948528688774791 0 -0.016170630525386046 0.00084988902494654238 0 -0.017448325169812949 0.00086289365170257504 0 -0.016816036859328708 0.0013948528688774791 0 -0.018595490310201707 0.0021347933389079597 0 -0.021719764570581071 4.826905758626011e-06 0 -0.019037832130861351 0.00017589812867234339 0 -0.018595490310201707 0.0021347933389079597 0 -0.017448325169812949 0.00086289365170257504 0 -0.019037832130861351 0.00017589812867234339 0 -0.017421591303553415 5.1780607388621287e-05 0 -0.017448325169812949 0.00086289365170257504 0 -0.019037832130861351 0.00017589812867234339 0 -0.019037832130861351 0.00017589812867234339 0 -0.019773732795372315 -1.3142163937068758e-06 0 -0.018186854935382989 -9.6834548338238275e-05 0 -0.021719764570581071 4.826905758626011e-06 0 -0.019037832130861351 0.00017589812867234339 0 -0.019773732795372315 -1.3142163937068758e-06 0 -0.019773732795372315 -1.3142163937068758e-06 0 -0.018186854935382989 -9.6834548338238275e-05 0 -0.017822858968821281 -1.9224890564756012e-07 0 -0.017421591303553415 5.1780607388621287e-05 0 -0.019037832130861351 0.00017589812867234339 0 -0.018186854935382989 -9.6834548338238275e-05 0 -0.017421591303553415 5.1780607388621287e-05 0 -0.018186854935382989 -9.6834548338238275e-05 0 -0.017042553330252709 -0.00017294185868336126 0 -0.018186854935382989 -9.6834548338238275e-05 0 -0.017042553330252709 -0.00017294185868336126 0 -0.017822858968821281 -1.9224890564756012e-07 0 -0.017822858968821281 -1.9224890564756012e-07 0 -0.016222020343764475 -0.0002566645616101903 0 -0.015873409527681466 -4.5684287654896741e-07 0 -0.017042553330252709 -0.00017294185868336126 0 -0.017822858968821281 -1.9224890564756012e-07 0 -0.016222020343764475 -0.0002566645616101903 0 -0.017042553330252709 -0.00017294185868336126 0 -0.016222020343764475 -0.0002566645616101903 0 -0.01617797500397835 -0.00030535414566146231 0 -0.016222020343764475 -0.0002566645616101903 0 -0.01617797500397835 -0.00030535414566146231 0 -0.015345302836764144 -0.00037952100598534759 0 -0.016222020343764475 -0.0002566645616101903 0 -0.015873409527681466 -4.5684287654896741e-07 0 -0.015345302836764144 -0.00037952100598534759 0 -0.016218883343832851 1.1503674618212516e-05 0 -0.01617797500397835 -0.00030535414566146231 0 -0.015624860037270002 -0.00012773179996596745 0 -0.016218883343832851 1.1503674618212516e-05 0 -0.017042553330252709 -0.00017294185868336126 0 -0.01617797500397835 -0.00030535414566146231 0 -0.01617797500397835 -0.00030535414566146231 0 -0.015790801261286343 -0.00040557363838746409 0 -0.015345302836764144 -0.00037952100598534759 0 -0.01617797500397835 -0.00030535414566146231 0 -0.015790801261286343 -0.00040557363838746409 0 -0.015624860037270002 -0.00012773179996596745 0 -0.015790801261286343 -0.00040557363838746409 0 -0.015702240613615883 -0.00028854788395975793 0 -0.015336817154175428 -0.00057735435986372202 0 -0.015790801261286343 -0.00040557363838746409 0 -0.015702240613615883 -0.00028854788395975793 0 -0.015345302836764144 -0.00037952100598534759 0 -0.015702240613615883 -0.00028854788395975793 0 -0.015345302836764144 -0.00037952100598534759 0 -0.015000315962445906 0.00020199977607266798 0 -0.015873409527681466 -4.5684287654896741e-07 0 -0.015345302836764144 -0.00037952100598534759 0 -0.013923314102904451 -1.2254100589540992e-06 0 -0.015345302836764144 -0.00037952100598534759 0 -0.013852868704922673 2.1193224608322211e-05 0 -0.015000315962445906 0.00020199977607266798 0 -0.015345302836764144 -0.00037952100598534759 0 -0.013923314102904451 -1.2254100589540992e-06 0 -0.013852868704922673 2.1193224608322211e-05 0 -0.013923314102904451 -1.2254100589540992e-06 0 -0.013852868704922673 2.1193224608322211e-05 0 -0.011975897222047335 2.6873802331680116e-06 0 -0.013852868704922673 2.1193224608322211e-05 0 -0.011975897222047335 2.6873802331680116e-06 0 -0.013173225341409486 0.00090864519197972327 0 -0.011972436298567783 2.9393379868573495e-07 0 -0.011881977234208056 4.2513637503626478e-05 0 -0.011970891246737407 1.0526105691171315e-10 0 -0.011546627522931207 -1.8475171165201202e-07 0 -0.011135442003748181 -6.166172731026721e-10 0 -0.009973982325779179 0.00075431008727109747 0 -0.011130638658542398 1.4333207104610541e-06 0 -0.0098797111402490669 0.00013311534575458133 0 -0.011881977234208056 4.2513637503626478e-05 0 -0.011135866777642833 1.0137057213565071e-06 0 -0.014663532782946746 0.00071179144795644074 0 -0.014305824103223067 0.00071797143901830779 0 -0.014247850090047023 0.00097357610718912257 0 -0.014663532782946746 0.00071179144795644074 0 -0.014305824103223067 0.00071797143901830779 0 -0.014309437132938975 0.0004458259376298948 0 -0.009973982325779179 0.00075431008727109747 0 -0.0098797111402490669 0.00013311534575458133 0 -0.008885158155411849 3.0434015231076105e-05 0 -0.011881977234208056 4.2513637503626478e-05 0 -0.011638255461713648 0.00023703690116358314 0 -0.011881977234208056 4.2513637503626478e-05 0 -0.013749942853569248 -4.0580664348313749e-05 0 -0.013852868704922673 2.1193224608322211e-05 0 -0.013173225341409486 0.00090864519197972327 0 -0.015000315962445906 0.00020199977607266798 0 -0.014264780137103639 7.1163506100952931e-05 0 -0.013749942853569248 -4.0580664348313749e-05 0 -0.013719419225424044 0.0011878860665300848 0 -0.014247850090047023 0.00097357610718912257 0 -0.014002848360909823 0.00073732752225028736 0 -0.013719419225424044 0.0011878860665300848 0 -0.014002848360909823 0.00073732752225028736 0 -0.013607684700065044 0.00095094607259795698 0 -0.014002848360909823 0.00073732752225028736 0 -0.013704687308838569 0.00061097246886190339 0 -0.013607684700065044 0.00095094607259795698 0 -0.014305824103223067 0.00071797143901830779 0 -0.014002848360909823 0.00073732752225028736 0 -0.014309437132938975 0.0004458259376298948 0 -0.014305824103223067 0.00071797143901830779 0 -0.014247850090047023 0.00097357610718912257 0 -0.014002848360909823 0.00073732752225028736 0 -0.011187314299381039 0.00028417997023247115 0 -0.011638255461713648 0.00023703690116358314 0 -0.0090376397557115802 -1.2523915854650474e-05 0 -0.0088328225200651079 -5.3893198353353071e-05 0 -0.008885158155411849 3.0434015231076105e-05 0 -0.014002848360909823 0.00073732752225028736 0 -0.014034078495646828 0.0001457083686433421 0 -0.014309437132938975 0.0004458259376298948 0 -0.014034078495646828 0.0001457083686433421 0 -0.013706577594511944 0.00012345222332245308 0 -0.013704687308838569 0.00061097246886190339 0 -0.014002848360909823 0.00073732752225028736 0 -0.014034078495646828 0.0001457083686433421 0 -0.013704687308838569 0.00061097246886190339 0 -0.014034078495646828 0.0001457083686433421 0 -0.013706577594511944 0.00012345222332245308 0 -0.01372086762450701 -0.00038030426370610219 0 -0.011187314299381039 0.00028417997023247115 0 -0.010297117571276861 0.0002753933163023403 0 -0.0090376397557115802 -1.2523915854650474e-05 0 -0.0088328225200651079 -5.3893198353353071e-05 0 -0.0089789910558831197 0.0001780842589388539 0 -0.0088328225200651079 -5.3893198353353071e-05 0 -0.0083153123830372357 0.0001335937234070014 0 -0.0093959575379073974 -6.269093587924156e-05 0 -0.0088328225200651079 -5.3893198353353071e-05 0 -0.0083153123830372357 0.0001335937234070014 0 -0.0089789910558831197 0.0001780842589388539 0 -0.0090675155444524848 -2.221765159533475e-07 0 -0.0083153123830372357 0.0001335937234070014 0 -0.0093959575379073974 -6.269093587924156e-05 0 -0.011130638658542398 1.4333207104610541e-06 0 -0.0090675155444524848 -2.221765159533475e-07 0 -0.0093959575379073974 -6.269093587924156e-05 0 -0.011130638658542398 1.4333207104610541e-06 0 -0.0093959575379073974 -6.269093587924156e-05 0 -0.0098797111402490669 0.00013311534575458133 0 -0.0093959575379073974 -6.269093587924156e-05 0 -0.0098797111402490669 0.00013311534575458133 0 -0.008885158155411849 3.0434015231076105e-05 0 -0.0088328225200651079 -5.3893198353353071e-05 0 -0.0093959575379073974 -6.269093587924156e-05 0 -0.008885158155411849 3.0434015231076105e-05 0 -0.013050469003778015 0.0006732015069570163 0 -0.012534474535093607 0.00073029790352753727 0 -0.012796074645510559 0.00016240378384855945 0 -0.012534474535093607 0.00073029790352753727 0 -0.012276663764695502 3.4886026229447631e-06 0 -0.012796074645510559 0.00016240378384855945 0 -0.013050469003778015 0.0006732015069570163 0 -0.012796074645510559 0.00016240378384855945 0 -0.01316526846721419 0.00015569693287010731 0 -0.012534474535093607 0.00073029790352753727 0 -0.012276663764695502 3.4886026229447631e-06 0 -0.011364563735961546 0.00017627375188825086 0 -0.012534474535093607 0.00073029790352753727 0 -0.0120925095377929 0.0012519715880798912 0 -0.011364563735961546 0.00017627375188825086 0 -0.012276663764695502 3.4886026229447631e-06 0 -0.011897373601352176 -0.00060578962793058494 0 -0.011364563735961546 0.00017627375188825086 0 -0.012276663764695502 3.4886026229447631e-06 0 -0.011897373601352176 -0.00060578962793058494 0 -0.01259971217861193 -0.0004401743672577947 0 -0.012276663764695502 3.4886026229447631e-06 0 -0.01259971217861193 -0.0004401743672577947 0 -0.012796074645510559 0.00016240378384855945 0 -0.012796074645510559 0.00016240378384855945 0 -0.012949156531140005 -0.00028414155695484353 0 -0.01316526846721419 0.00015569693287010731 0 -0.01259971217861193 -0.0004401743672577947 0 -0.012796074645510559 0.00016240378384855945 0 -0.012949156531140005 -0.00028414155695484353 0 -0.01259971217861193 -0.0004401743672577947 0 -0.012949156531140005 -0.00028414155695484353 0 -0.012911108176013923 -0.00062807572971627099 0 -0.012949156531140005 -0.00028414155695484353 0 -0.01325821874801952 -0.00023557613804146358 0 -0.013118794363823089 -0.00055425180046317888 0 -0.01325821874801952 -0.00023557613804146358 0 -0.013354448652565529 -0.00047344942118241574 0 -0.013118794363823089 -0.00055425180046317888 0 -0.01325821874801952 -0.00023557613804146358 0 -0.013428366609159343 6.6232980358773083e-05 0 -0.013496357651049801 -0.00020900692604004816 0 -0.01325821874801952 -0.00023557613804146358 0 -0.013496357651049801 -0.00020900692604004816 0 -0.013354448652565529 -0.00047344942118241574 0 -0.01325821874801952 -0.00023557613804146358 0 -0.013428366609159343 6.6232980358773083e-05 0 -0.01316526846721419 0.00015569693287010731 0 -0.012949156531140005 -0.00028414155695484353 0 -0.01325821874801952 -0.00023557613804146358 0 -0.01316526846721419 0.00015569693287010731 0 -0.013496357651049801 -0.00020900692604004816 0 -0.013706577594511944 0.00012345222332245308 0 -0.01372086762450701 -0.00038030426370610219 0 -0.013428366609159343 6.6232980358773083e-05 0 -0.013496357651049801 -0.00020900692604004816 0 -0.013706577594511944 0.00012345222332245308 0 -0.013706577594511944 0.00012345222332245308 0 -0.01341154800113808 0.00045754066550156086 0 -0.013704687308838569 0.00061097246886190339 0 -0.013428366609159343 6.6232980358773083e-05 0 -0.013706577594511944 0.00012345222332245308 0 -0.01341154800113808 0.00045754066550156086 0 -0.013050469003778015 0.0006732015069570163 0 -0.01316526846721419 0.00015569693287010731 0 -0.01341154800113808 0.00045754066550156086 0 -0.013428366609159343 6.6232980358773083e-05 0 -0.01316526846721419 0.00015569693287010731 0 -0.01341154800113808 0.00045754066550156086 0 -0.013050469003778015 0.0006732015069570163 0 -0.01341154800113808 0.00045754066550156086 0 -0.013325049479734299 0.00099445591317646022 0 -0.01341154800113808 0.00045754066550156086 0 -0.013325049479734299 0.00099445591317646022 0 -0.013704687308838569 0.00061097246886190339 0 -0.013325049479734299 0.00099445591317646022 0 -0.013704687308838569 0.00061097246886190339 0 -0.013607684700065044 0.00095094607259795698 0 -0.013719419225424044 0.0011878860665300848 0 -0.013607684700065044 0.00095094607259795698 0 -0.013390538191453812 0.0011257865274338604 0 -0.013325049479734299 0.00099445591317646022 0 -0.013607684700065044 0.00095094607259795698 0 -0.013390538191453812 0.0011257865274338604 0 -0.013325049479734299 0.00099445591317646022 0 -0.013225432426099927 0.0012441843338928304 0 -0.013390538191453812 0.0011257865274338604 0 -0.013225432426099927 0.0012441843338928304 0 -0.012863824703663857 0.0012050357685128904 0 -0.013003257974696739 0.0013868148570064748 0 -0.013325049479734299 0.00099445591317646022 0 -0.013225432426099927 0.0012441843338928304 0 -0.012863824703663857 0.0012050357685128904 0 -0.013225432426099927 0.0012441843338928304 0 -0.013003257974696739 0.0013868148570064748 0 -0.013293783420914975 0.0012066895750253699 0 -0.013050469003778015 0.0006732015069570163 0 -0.013325049479734299 0.00099445591317646022 0 -0.012863824703663857 0.0012050357685128904 0 -0.013050469003778015 0.0006732015069570163 0 -0.012534474535093607 0.00073029790352753727 0 -0.012863824703663857 0.0012050357685128904 0 -0.0120925095377929 0.0012519715880798912 0 -0.012606800496910913 0.0014868619804201803 0 -0.011742573429332872 0.0017856141043079735 0 -0.012863824703663857 0.0012050357685128904 0 -0.0120925095377929 0.0012519715880798912 0 -0.012606800496910913 0.0014868619804201803 0 -0.012534474535093607 0.00073029790352753727 0 -0.012863824703663857 0.0012050357685128904 0 -0.0120925095377929 0.0012519715880798912 0 -0.012606800496910913 0.0014868619804201803 0 -0.011742573429332872 0.0017856141043079735 0 -0.012670158662742648 0.0014389592394894618 0 -0.012863824703663857 0.0012050357685128904 0 -0.012606800496910913 0.0014868619804201803 0 -0.013003257974696739 0.0013868148570064748 0 -0.012606800496910913 0.0014868619804201803 0 -0.013003257974696739 0.0013868148570064748 0 -0.013093194059513555 0.0014741399186107408 0 -0.012606800496910913 0.0014868619804201803 0 -0.013093194059513555 0.0014741399186107408 0 -0.012670158662742648 0.0014389592394894618 0 -0.013255879539858798 0.0020738209859191342 0 -0.013150059121124802 0.0022992690401578827 0 -0.013093194059513555 0.0014741399186107408 0 -0.012538351246305694 0.0022764134267805273 0 -0.012670158662742648 0.0014389592394894618 0 -0.013093194059513555 0.0014741399186107408 0 -0.013470632010893978 0.0010581623605435972 0 -0.013944005992929128 0.00092516129406267783 0 -0.013470632010893978 0.0010581623605435972 0 -0.013706370656239433 0.00076683747818077441 0 -0.013944005992929128 0.00092516129406267783 0 -0.013470632010893978 0.0010581623605435972 0 -0.013293783420914975 0.0012066895750253699 0 -0.013629371464308657 0.00082467704610663479 0 -0.013093194059513555 0.0014741399186107408 0 -0.013470632010893978 0.0010581623605435972 0 -0.013293783420914975 0.0012066895750253699 0 -0.013003257974696739 0.0013868148570064748 0 -0.013093194059513555 0.0014741399186107408 0 -0.013293783420914975 0.0012066895750253699 0 -0.013225432426099927 0.0012441843338928304 0 -0.013293783420914975 0.0012066895750253699 0 -0.013494441295124639 0.001019953417755356 0 -0.013293783420914975 0.0012066895750253699 0 -0.013629371464308657 0.00082467704610663479 0 -0.013494441295124639 0.001019953417755356 0 -0.013629371464308657 0.00082467704610663479 0 -0.013826621193926015 0.00055040908883921655 0 -0.014103358711882457 0.00017045596382142325 0 -0.013629371464308657 0.00082467704610663479 0 -0.013494441295124639 0.001019953417755356 0 -0.014103358711882457 0.00017045596382142325 0 -0.013826621193926015 0.00055040908883921655 0 -0.013706370656239433 0.00076683747818077441 0 -0.013907944254190447 0.00057823347619199257 0 -0.013826621193926015 0.00055040908883921655 0 -0.013944310031606484 0.00040670326191257427 0 -0.013907944254190447 0.00057823347619199257 0 -0.013706370656239433 0.00076683747818077441 0 -0.013944005992929128 0.00092516129406267783 0 -0.013907944254190447 0.00057823347619199257 0 -0.013629371464308657 0.00082467704610663479 0 -0.013826621193926015 0.00055040908883921655 0 -0.013706370656239433 0.00076683747818077441 0 -0.013470632010893978 0.0010581623605435972 0 -0.013629371464308657 0.00082467704610663479 0 -0.013706370656239433 0.00076683747818077441 0 -0.014264780137103639 7.1163506100952931e-05 0 -0.014287647438208673 0.00013918461170752701 0 -0.013719419225424044 0.0011878860665300848 0 -0.013390538191453812 0.0011257865274338604 0 -0.013308002065619646 0.00099898388294279825 0 -0.013390538191453812 0.0011257865274338604 0 -0.013494441295124639 0.001019953417755356 0 -0.013308002065619646 0.00099898388294279825 0 -0.013225432426099927 0.0012441843338928304 0 -0.013390538191453812 0.0011257865274338604 0 -0.013494441295124639 0.001019953417755356 0 -0.013494441295124639 0.001019953417755356 0 -0.013308002065619646 0.00099898388294279825 0 -0.014103358711882457 0.00017045596382142325 0 -0.014287647438208673 0.00013918461170752701 0 -0.014244438718933035 0.00016114086038998947 0 -0.015790801261286343 -0.00040557363838746409 0 -0.015336817154175428 -0.00057735435986372202 0 -0.015624860037270002 -0.00012773179996596745 0 -0.015336817154175428 -0.00057735435986372202 0 -0.015624860037270002 -0.00012773179996596745 0 -0.014103358711882457 0.00017045596382142325 0 -0.015624860037270002 -0.00012773179996596745 0 -0.014985490513648248 0.00031432203827230071 0 -0.014103358711882457 0.00017045596382142325 0 -0.016218883343832851 1.1503674618212516e-05 0 -0.015624860037270002 -0.00012773179996596745 0 -0.014985490513648248 0.00031432203827230071 0 -0.013944310031606484 0.00040670326191257427 0 -0.014082790165627161 0.00035135981413849613 0 -0.013971845262041092 0.00040112755591146138 0 -0.013944310031606484 0.00040670326191257427 0 -0.013976947083128397 0.00045891758862434407 0 -0.013907944254190447 0.00057823347619199257 0 -0.013944310031606484 0.00040670326191257427 0 -0.013971845262041092 0.00040112755591146138 0 -0.013976947083128397 0.00045891758862434407 0 -0.014103358711882457 0.00017045596382142325 0 -0.014382589817536557 0.00037601577971590425 0 -0.014082790165627161 0.00035135981413849613 0 -0.013826621193926015 0.00055040908883921655 0 -0.013944310031606484 0.00040670326191257427 0 -0.014103358711882457 0.00017045596382142325 0 -0.013944310031606484 0.00040670326191257427 0 -0.014103358711882457 0.00017045596382142325 0 -0.014082790165627161 0.00035135981413849613 0 -0.014985490513648248 0.00031432203827230071 0 -0.014103358711882457 0.00017045596382142325 0 -0.014382589817536557 0.00037601577971590425 0 -0.014177311192238575 0.00052382497217355194 0 -0.014382589817536557 0.00037601577971590425 0 -0.014082790165627161 0.00035135981413849613 0 -0.014177311192238575 0.00052382497217355194 0 -0.014082790165627161 0.00035135981413849613 0 -0.014034644902872399 0.00041882938418047027 0 -0.014082790165627161 0.00035135981413849613 0 -0.014034644902872399 0.00041882938418047027 0 -0.013971845262041092 0.00040112755591146138 0 -0.014177311192238575 0.00052382497217355194 0 -0.014034644902872399 0.00041882938418047027 0 -0.014006656206859652 0.00051647076999976197 0 -0.014006656206859652 0.00051647076999976197 0 -0.013915823221438797 0.00047658516658057737 0 -0.013966715907869177 0.00041368227187095735 0 -0.014034644902872399 0.00041882938418047027 0 -0.014006656206859652 0.00051647076999976197 0 -0.013966715907869177 0.00041368227187095735 0 -0.013876352262246266 0.00068664572662727966 0 -0.013915823221438797 0.00047658516658057737 0 -0.013774341213367677 0.0004866968162037006 0 -0.013915823221438797 0.00047658516658057737 0 -0.013885320227295278 0.00043902871498847939 0 -0.013774341213367677 0.0004866968162037006 0 -0.013915823221438797 0.00047658516658057737 0 -0.013885320227295278 0.00043902871498847939 0 -0.013928593151152174 0.00041579040758798976 0 -0.013885320227295278 0.00043902871498847939 0 -0.013928593151152174 0.00041579040758798976 0 -0.013919319469654294 0.00038579547818309168 0 -0.013915823221438797 0.00047658516658057737 0 -0.013928593151152174 0.00041579040758798976 0 -0.013966715907869177 0.00041368227187095735 0 -0.013928593151152174 0.00041579040758798976 0 -0.013966715907869177 0.00041368227187095735 0 -0.013947533257550887 0.00040093372530852566 0 -0.013928593151152174 0.00041579040758798976 0 -0.013947533257550887 0.00040093372530852566 0 -0.013919319469654294 0.00038579547818309168 0 -0.014034644902872399 0.00041882938418047027 0 -0.013966715907869177 0.00041368227187095735 0 -0.013971845262041092 0.00040112755591146138 0 -0.013947533257550887 0.00040093372530852566 0 -0.013976947083128397 0.00045891758862434407 0 -0.014085066424655658 0.00054353443703477667 0 -0.013971845262041092 0.00040112755591146138 0 -0.013947533257550887 0.00040093372530852566 0 -0.013976947083128397 0.00045891758862434407 0 -0.013378413665356232 0.0021842210414689946 0 -0.013134815528556902 0.0025691672475480895 0 -0.013966715907869177 0.00041368227187095735 0 -0.013971845262041092 0.00040112755591146138 0 -0.013947533257550887 0.00040093372530852566 0 -0.013947533257550887 0.00040093372530852566 0 -0.013919319469654294 0.00038579547818309168 0 -0.014085066424655658 0.00054353443703477667 0 -0.013861070421380659 0.0030816265591242348 0 -0.012375022089960766 0.0034590783099840306 0 -0.013103326149437034 0.002863566343630582 0 -0.013283596019082359 0.0030794850339383303 0 -0.013387936575569175 0.0024528610197511319 0 -0.013861070421380659 0.0030816265591242348 0 -0.014391980025853056 0.0035215402549745897 0 -0.013861070421380659 0.0030816265591242348 0 -0.013134815528556902 0.0025691672475480895 0 -0.013861070421380659 0.0030816265591242348 0 -0.013378413665356232 0.0021842210414689946 0 -0.013861070421380659 0.0030816265591242348 0 -0.016785506165111087 0.0026037439413407301 0 -0.013666925770940187 0.00011217860125007426 0 -0.013808389643468404 0.00028134788567694394 0 -0.013774341213367677 0.0004866968162037006 0 -0.013666925770940187 0.00011217860125007426 0 -0.013774341213367677 0.0004866968162037006 0 -0.013369313587110871 0.00052908924225283786 0 -0.013378413665356232 0.0021842210414689946 0 -0.013421282561187615 0.0019554660753723957 0 -0.013885320227295278 0.00043902871498847939 0 -0.013919319469654294 0.00038579547818309168 0 -0.013774341213367677 0.0004866968162037006 0 -0.017885509700463428 0.0035777763897232038 0 -0.018298978474979143 0.0029885672391225032 0 -0.01841331076578652 0.003475390845145236 0 -0.018298978474979143 0.0029885672391225032 0 -0.018737234545506219 0.0031296973691652091 0 -0.01841331076578652 0.003475390845145236 0 -0.018884637205796431 0.0033683497746507776 0 -0.019047693355113571 0.0036142657087393768 0 -0.019097871201430163 0.0031185748512438495 0 -0.018737234545506219 0.0031296973691652091 0 -0.018689624925702381 0.0034027560985361756 0 -0.018884637205796431 0.0033683497746507776 0 -0.018737234545506219 0.0031296973691652091 0 -0.018689624925702381 0.0034027560985361756 0 -0.01841331076578652 0.003475390845145236 0 -0.018737234545506219 0.0031296973691652091 0 -0.018884637205796431 0.0033683497746507776 0 -0.019097871201430163 0.0031185748512438495 0 -0.019047693355113571 0.0036142657087393768 0 -0.01885814371836355 0.0038712078879542928 0 -0.019136790277129653 0.0041113921158324089 0 -0.018884637205796431 0.0033683497746507776 0 -0.019047693355113571 0.0036142657087393768 0 -0.018762639389588269 0.0036029265181824702 0 -0.018689624925702381 0.0034027560985361756 0 -0.018762639389588269 0.0036029265181824702 0 -0.01841331076578652 0.003475390845145236 0 -0.018689624925702381 0.0034027560985361756 0 -0.018884637205796431 0.0033683497746507776 0 -0.018762639389588269 0.0036029265181824702 0 -0.018762639389588269 0.0036029265181824702 0 -0.01885814371836355 0.0038712078879542928 0 -0.018582771240873774 0.0037890951471415586 0 -0.019047693355113571 0.0036142657087393768 0 -0.018762639389588269 0.0036029265181824702 0 -0.01885814371836355 0.0038712078879542928 0 -0.017885509700463428 0.0035777763897232038 0 -0.01841331076578652 0.003475390845145236 0 -0.018259386629955424 0.0038523895379307467 0 -0.013861332203182201 0.003497383610136125 0 -0.013468920124620918 0.0032062866091345735 0 -0.013350035975094054 0.0028810030328088381 0 -0.018762639389588269 0.0036029265181824702 0 -0.01841331076578652 0.003475390845145236 0 -0.018582771240873774 0.0037890951471415586 0 -0.01841331076578652 0.003475390845145236 0 -0.018582771240873774 0.0037890951471415586 0 -0.018259386629955424 0.0038523895379307467 0 -0.014391980025853056 0.0035215402549745897 0 -0.014049950843867185 0.0035391525081964995 0 -0.018582771240873774 0.0037890951471415586 0 -0.018259386629955424 0.0038523895379307467 0 -0.018620791824434543 0.0041439180389223149 0 -0.013468920124620918 0.0032062866091345735 0 -0.013350035975094054 0.0028810030328088381 0 -0.013089138723249308 0.0028970087521352113 0 -0.012375022089960766 0.0034590783099840306 0 -0.014049950843867185 0.0035391525081964995 0 -0.017277934616268826 0.0044494339856915015 0 -0.016635800403988543 0.004488696217938167 0 -0.016454696830568771 0.0037738969836404908 0 -0.014049950843867185 0.0035391525081964995 0 -0.01836757631129703 0.0037411613622038839 0 -0.0084815771999043922 0.005920738797704099 0 -0.0077779058762721971 0.0059657339110679329 0 -0.007125947160567362 0.0044641201474332655 0 -0.01885814371836355 0.0038712078879542928 0 -0.018620791824434543 0.0041439180389223149 0 -0.019136790277129653 0.0041113921158324089 0 -0.01885814371836355 0.0038712078879542928 0 -0.018582771240873774 0.0037890951471415586 0 -0.018620791824434543 0.0041439180389223149 0 -0.011127733589682286 0.0034778360180520913 0 -0.010670634077556496 0.0029473771376455969 0 -0.010564321173134708 0.0028850302137553348 0 -0.014049950843867185 0.0035391525081964995 0 -0.012127833108815479 0.0031577802878372334 0 -0.0077779058762721971 0.0059657339110679329 0 -0.007125947160567362 0.0044641201474332655 0 -0.0059301584495298531 0.0044749257483435887 0 -0.012375022089960766 0.0034590783099840306 0 -0.0096998910498666338 0.00294914975602595 0 -0.010661942698808409 0.002942657472791238 0 -0.010925344438113603 0.0027048677672901005 0 -0.01063657409098762 0.0026169562574364074 0 -0.010670634077556496 0.0029473771376455969 0 -0.010564321173134708 0.0028850302137553348 0 -0.010218621066728844 0.0024175837645309781 0 -0.011098453687040826 0.0034612045457555305 0 -0.011179325144055171 0.002952091055378349 0 -0.011618800847861469 0.0029851304582622774 0 -0.011098453687040826 0.0034612045457555305 0 -0.010661942698808409 0.002942657472791238 0 -0.011179325144055171 0.002952091055378349 0 -0.012375022089960766 0.0034590783099840306 0 -0.011440675320014602 0.002840836641143762 0 -0.010661942698808409 0.002942657472791238 0 -0.011179325144055171 0.002952091055378349 0 -0.010925344438113603 0.0027048677672901005 0 -0.011179325144055171 0.002952091055378349 0 -0.011448408946988103 0.0025124124669851848 0 -0.010925344438113603 0.0027048677672901005 0 -0.011179325144055171 0.002952091055378349 0 -0.011618800847861469 0.0029851304582622774 0 -0.011448408946988103 0.0025124124669851848 0 -0.012843504648540113 0.0026837360040427192 0 -0.011793317836610816 0.0026163310607815841 0 -0.011618800847861469 0.0029851304582622774 0 -0.012027257731846911 0.0034012550087890885 0 -0.012156017613599447 0.0026195192138433825 0 -0.012538351246305694 0.0022764134267805273 0 -0.012318803083095827 0.0013860762703445386 0 -0.012670158662742648 0.0014389592394894618 0 -0.012538351246305694 0.0022764134267805273 0 -0.012118941466736963 0.0026293088018464459 0 -0.012318803083095827 0.0013860762703445386 0 -0.012538351246305694 0.0022764134267805273 0 -0.012118941466736963 0.0026293088018464459 0 -0.012293511661946964 0.0026309609885101994 0 -0.012988519718342787 0.0028766004067812033 0 -0.012854269928543332 0.0028752050002574399 0 -0.013031098975772483 0.0026195510971023452 0 -0.012843504648540113 0.0026837360040427192 0 -0.012997426796165053 0.002605867258920311 0 -0.013944005992929128 0.00092516129406267783 0 -0.0140520766225616 0.00070640030685254049 0 -0.013907944254190447 0.00057823347619199257 0 -0.013150059121124802 0.0022992690401578827 0 -0.012997426796165053 0.002605867258920311 0 -0.0140520766225616 0.00070640030685254049 0 -0.013907944254190447 0.00057823347619199257 0 -0.014085066424655658 0.00054353443703477667 0 -0.013976947083128397 0.00045891758862434407 0 -0.013907944254190447 0.00057823347619199257 0 -0.014085066424655658 0.00054353443703477667 0 -0.012843504648540113 0.0026837360040427192 0 -0.013134815528556902 0.0025691672475480895 0 -0.012997426796165053 0.002605867258920311 0 -0.013134815528556902 0.0025691672475480895 0 -0.011098453687040826 0.0034612045457555305 0 -0.011618800847861469 0.0029851304582622774 0 -0.012027257731846911 0.0034012550087890885 0 -0.012375022089960766 0.0034590783099840306 0 -0.012843504648540113 0.0026837360040427192 0 -0.01310681430571938 0.0030191909092191385 0 -0.013169698167446581 0.0030149049598379471 0 -0.01316744293471557 0.0030290896386676396 0 -0.013144327253442941 0.0030629310037365029 0 -0.01310681430571938 0.0030191909092191385 0 -0.01316744293471557 0.0030290896386676396 0 -0.029518870751482133 0.0053023601372499916 0 -0.02920841836827787 0.0036330898915237888 0 -0.027511194380803152 0.0048566813322699024 0 -0.029518870751482133 0.0053023601372499916 0 -0.030744173123499339 0.0035847417614833258 0 -0.02920841836827787 0.0036330898915237888 0 -0.030719592248403777 0.0069618206082623091 0 -0.029518870751482133 0.0053023601372499916 0 -0.028449691919025213 0.0071276523409987778 0 -0.030719592248403777 0.0069618206082623091 0 -0.029518870751482133 0.0053023601372499916 0 -0.031413527182879049 0.0050785078520669928 0 -0.029518870751482133 0.0053023601372499916 0 -0.031413527182879049 0.0050785078520669928 0 -0.030744173123499339 0.0035847417614833258 0 -0.031413527182879049 0.0050785078520669928 0 -0.032262952064224443 0.0035064829415317289 0 -0.030744173123499339 0.0035847417614833258 0 -0.031413527182879049 0.0050785078520669928 0 -0.03236809066320008 0.0061484211492294875 0 -0.033024254971812925 0.0048736297104714351 0 -0.031413527182879049 0.0050785078520669928 0 -0.033024254971812925 0.0048736297104714351 0 -0.032262952064224443 0.0035064829415317289 0 -0.030719592248403777 0.0069618206082623091 0 -0.031413527182879049 0.0050785078520669928 0 -0.03236809066320008 0.0061484211492294875 0 -0.023747298101752343 0.0052893549143869945 0 -0.023978981870963475 0.0047531603709201784 0 -0.03236809066320008 0.0061484211492294875 0 -0.033775864956692721 0.0062317237594464829 0 -0.033024254971812925 0.0048736297104714351 0 -0.032235096806114714 0.007583301173353478 0 -0.03236809066320008 0.0061484211492294875 0 -0.033775864956692721 0.0062317237594464829 0 -0.019047693355113571 0.0036142657087393768 0 -0.019097871201430163 0.0031185748512438495 0 -0.019375662768977706 0.00359735113128146 0 -0.023978981870963475 0.0047531603709201784 0 -0.023243514174085149 0.0037800166467311419 0 -0.019047693355113571 0.0036142657087393768 0 -0.019375662768977706 0.00359735113128146 0 -0.019136790277129653 0.0041113921158324089 0 -0.019375662768977706 0.00359735113128146 0 -0.019136790277129653 0.0041113921158324089 0 -0.019654162650036399 0.0040784853114156144 0 -0.016635800403988543 0.004488696217938167 0 -0.016454696830568771 0.0037738969836404908 0 -0.015989486658604488 0.0045310062978940659 0 -0.01836757631129703 0.0037411613622038839 0 -0.023243514174085149 0.0037800166467311419 0 -0.016454696830568771 0.0037738969836404908 0 -0.015585208946977526 0.0038266343006708951 0 -0.015989486658604488 0.0045310062978940659 0 -0.031615283688681682 0.0016915881097446408 0 -0.032577679926910803 0.0034027752328743902 0 -0.030898211753490914 0.003511908251071315 0 -0.021280996644570276 0.0035925638325461622 0 -0.023243514174085149 0.0037800166467311419 0 -0.023243514174085149 0.0037800166467311419 0 -0.02781495398139756 0.0035598984103080776 0 -0.02781495398139756 0.0035598984103080776 0 -0.028558715336854525 0.0035331240828465984 0 -0.031615283688681682 0.0016915881097446408 0 -0.030898211753490914 0.003511908251071315 0 -0.029656876692379035 0.0019166143807262833 0 -0.031615283688681682 0.0016915881097446408 0 -0.029656876692379035 0.0019166143807262833 0 -0.0306426629526571 -3.4818432933989119e-05 0 -0.029656876692379035 0.0019166143807262833 0 -0.027946269423245511 0.0027724625305626375 0 -0.028294008445298089 0.0011649639861505486 0 -0.029656876692379035 0.0019166143807262833 0 -0.029130117486214215 0.00067668106295702137 0 -0.028294008445298089 0.0011649639861505486 0 -0.029656876692379035 0.0019166143807262833 0 -0.02920841836827787 0.0036330898915237888 0 -0.027946269423245511 0.0027724625305626375 0 -0.030898211753490914 0.003511908251071315 0 -0.029656876692379035 0.0019166143807262833 0 -0.02920841836827787 0.0036330898915237888 0 -0.029652075258299115 -0.001766143396638994 0 -0.029388019788913148 -0.0012035244369214518 0 -0.0306426629526571 -3.4818432933989119e-05 0 -0.028770625976943871 -0.0015897454978791726 0 -0.029388019788913148 -0.0012035244369214518 0 -0.02918425638968675 -0.0021486382032223864 0 -0.028770625976943871 -0.0015897454978791726 0 -0.029388019788913148 -0.0012035244369214518 0 -0.028693002041113334 -0.00086434841319729628 0 -0.028770625976943871 -0.0015897454978791726 0 -0.028693002041113334 -0.00086434841319729628 0 -0.028090633541667857 -0.0015179494125604719 0 -0.029652075258299115 -0.001766143396638994 0 -0.029388019788913148 -0.0012035244369214518 0 -0.029171025285776694 -0.0021470825350849553 0 -0.012819454827544789 0.0018684529428697029 0 -0.012116404965325822 0.0019979282096035844 0 -0.029388019788913148 -0.0012035244369214518 0 -0.029449256588667785 -0.00022879033178932839 0 -0.0306426629526571 -3.4818432933989119e-05 0 -0.029388019788913148 -0.0012035244369214518 0 -0.028693002041113334 -0.00086434841319729628 0 -0.029449256588667785 -0.00022879033178932839 0 -0.028693002041113334 -0.00086434841319729628 0 -0.028569954077597777 4.908256567220652e-05 0 -0.029449256588667785 -0.00022879033178932839 0 -0.029656876692379035 0.0019166143807262833 0 -0.029130117486214215 0.00067668106295702137 0 -0.0306426629526571 -3.4818432933989119e-05 0 -0.028569954077597777 4.908256567220652e-05 0 -0.029130117486214215 0.00067668106295702137 0 -0.029449256588667785 -0.00022879033178932839 0 -0.029130117486214215 0.00067668106295702137 0 -0.029449256588667785 -0.00022879033178932839 0 -0.0306426629526571 -3.4818432933989119e-05 0 -0.028569954077597777 4.908256567220652e-05 0 -0.029130117486214215 0.00067668106295702137 0 -0.028294008445298089 0.0011649639861505486 0 -0.015585208946977526 0.0038266343006708951 0 -0.015175075194828972 0.0031124934726277213 0 -0.015617726528402626 0.0030859780237466037 0 -0.021280996644570276 0.0035925638325461622 0 -0.018136084341141102 0.0031828970066527379 0 -0.012503123923746674 0.0021926242605372829 0 -0.011168515911023559 0.0023510485112397603 0 -0.012503123923746674 0.0021926242605372829 0 -0.018136084341141102 0.0031828970066527379 0 -0.014765453707264203 0.0023878768756545698 0 -0.015175075194828972 0.0031124934726277213 0 -0.015617726528402626 0.0030859780237466037 0 -0.0027364467677676802 0.0017500194575963545 0 -0.0037868053233154446 0.0019169748136198138 0 -0.00418021754052677 0.0030155800400162944 0 -0.0037868053233154446 0.0019169748136198138 0 -0.004819727623825939 0.0020936899291896746 0 -0.0039184447298554964 0.0012299691633197083 0 -0.004558643855474406 0.0020997029883242872 0 -0.0053923813063822112 0.0019364108009653955 0 -0.0045854068885056807 0.0013416077938846096 0 -0.004819727623825939 0.0020936899291896746 0 -0.00418021754052677 0.0030155800400162944 0 -0.0050319218246835627 0.0029398221580339561 0 -0.0037868053233154446 0.0019169748136198138 0 -0.004819727623825939 0.0020936899291896746 0 -0.00418021754052677 0.0030155800400162944 0 -0.016454696830568771 0.0037738969836404908 0 -0.015585208946977526 0.0038266343006708951 0 -0.015617726528402626 0.0030859780237466037 0 -0.0059301584495298531 0.0044749257483435887 0 -0.00418021754052677 0.0030155800400162944 0 -0.0050319218246835627 0.0029398221580339561 0 -0.012127833108815479 0.0031577802878372334 0 -0.011168515911023559 0.0023510485112397603 0 -0.0072269438001095268 0.0021516546581447416 0 -0.0075016843936031282 0.0021524477889266818 0 -0.007125947160567362 0.0044641201474332655 0 -0.0059301584495298531 0.0044749257483435887 0 -0.0058034952986441204 0.0030484585823661878 0 -0.0059301584495298531 0.0044749257483435887 0 -0.0050319218246835627 0.0029398221580339561 0 -0.0058034952986441204 0.0030484585823661878 0 -0.010564321173134708 0.0028850302137553348 0 -0.010014944663284436 0.0022918154289946306 0 -0.010218621066728844 0.0024175837645309781 0 -0.0096998910498666338 0.00294914975602595 0 -0.0075016843936031282 0.0021524477889266818 0 -0.0053271627755143028 0.0031017716472398833 0 -0.0053923813063822112 0.0019364108009653955 0 -0.0062435234921417631 0.0024051611233600724 0 -0.004558643855474406 0.0020997029883242872 0 -0.0053271627755143028 0.0031017716472398833 0 -0.0053923813063822112 0.0019364108009653955 0 -0.0062623307741008442 0.0016079351949126962 0 -0.0075016843936031282 0.0021524477889266818 0 -0.004819727623825939 0.0020936899291896746 0 -0.0050319218246835627 0.0029398221580339561 0 -0.0057369073968805339 0.0030423002778282152 0 -0.0051936025068031058 0.0009172560381312941 0 -0.0062431277053530245 0.0014211620017665681 0 -0.0059390654948713976 0.00014768907040333269 0 -0.0053923813063822112 0.0019364108009653955 0 -0.0051936025068031058 0.0009172560381312941 0 -0.0062431277053530245 0.0014211620017665681 0 -0.0053923813063822112 0.0019364108009653955 0 -0.0051936025068031058 0.0009172560381312941 0 -0.0045854068885056807 0.0013416077938846096 0 -0.0051936025068031058 0.0009172560381312941 0 -0.0050003123282269394 0.00010374110288840465 0 -0.0059390654948713976 0.00014768907040333269 0 -0.0050003123282269394 0.00010374110288840465 0 -0.0059390654948713976 0.00014768907040333269 0 -0.0053141959705508748 -0.00057830321164567566 0 -0.0050003123282269394 0.00010374110288840465 0 -0.0042298945471504115 0.000448595633501457 0 -0.0044560415531386529 -0.00048403184707995219 0 -0.0051936025068031058 0.0009172560381312941 0 -0.0050003123282269394 0.00010374110288840465 0 -0.0042298945471504115 0.000448595633501457 0 -0.0042298945471504115 0.000448595633501457 0 -0.0045854068885056807 0.0013416077938846096 0 -0.0039184447298554964 0.0012299691633197083 0 -0.0051936025068031058 0.0009172560381312941 0 -0.0042298945471504115 0.000448595633501457 0 -0.0045854068885056807 0.0013416077938846096 0 -0.004558643855474406 0.0020997029883242872 0 -0.0045854068885056807 0.0013416077938846096 0 -0.0039184447298554964 0.0012299691633197083 0 -0.0062623307741008442 0.0016079351949126962 0 -0.005790062852665089 0.0013387665695104671 0 -0.0027364467677676802 0.0017500194575963545 0 -0.0037868053233154446 0.0019169748136198138 0 -0.003359248475541381 0.0012946404788123634 0 -0.0037868053233154446 0.0019169748136198138 0 -0.0039184447298554964 0.0012299691633197083 0 -0.003359248475541381 0.0012946404788123634 0 -0.0027364467677676802 0.0017500194575963545 0 -0.003359248475541381 0.0012946404788123634 0 -0.0028451281847760783 0.0010819936412253765 0 -0.003359248475541381 0.0012946404788123634 0 -0.0031560458875644166 0.00062848972717785513 0 -0.0028451281847760783 0.0010819936412253765 0 -0.003359248475541381 0.0012946404788123634 0 -0.0036390200802869014 0.00073902188648697321 0 -0.0031560458875644166 0.00062848972717785513 0 -0.0039184447298554964 0.0012299691633197083 0 -0.003359248475541381 0.0012946404788123634 0 -0.0036390200802869014 0.00073902188648697321 0 -0.0042298945471504115 0.000448595633501457 0 -0.0039184447298554964 0.0012299691633197083 0 -0.0036390200802869014 0.00073902188648697321 0 -0.0042298945471504115 0.000448595633501457 0 -0.0036390200802869014 0.00073902188648697321 0 -0.0033166873165382678 0.00017713208373939374 0 -0.0033020261953972539 0.00023637222017106353 0 -0.0028983904951319149 -5.3400757265297009e-05 0 -0.0042298945471504115 0.000448595633501457 0 -0.0033166873165382678 0.00017713208373939374 0 -0.0033623084150547749 -0.000694017934482015 0 -0.0033166873165382678 0.00017713208373939374 0 -0.0028757365039634311 0.00024655886806043714 0 -0.0028332393277886599 -0.00018636001764857975 0 -0.0033166873165382678 0.00017713208373939374 0 -0.0028332393277886599 -0.00018636001764857975 0 -0.0033623084150547749 -0.000694017934482015 0 -0.0033166873165382678 0.00017713208373939374 0 -0.0031560458875644166 0.00062848972717785513 0 -0.0028757365039634311 0.00024655886806043714 0 -0.0036390200802869014 0.00073902188648697321 0 -0.0033166873165382678 0.00017713208373939374 0 -0.0031560458875644166 0.00062848972717785513 0 -0.0031560458875644166 0.00062848972717785513 0 -0.0026309830238231261 0.00053479181886614509 0 -0.0028757365039634311 0.00024655886806043714 0 -0.0026309830238231261 0.00053479181886614509 0 -0.0028757365039634311 0.00024655886806043714 0 -0.0024470503175870041 8.7521049464125549e-05 0 -0.0028332393277886599 -0.00018636001764857975 0 -0.0024470503175870041 8.7521049464125549e-05 0 -0.0025545731498416201 -0.00060235082188870822 0 -0.0028757365039634311 0.00024655886806043714 0 -0.0028332393277886599 -0.00018636001764857975 0 -0.0024470503175870041 8.7521049464125549e-05 0 -0.0024470503175870041 8.7521049464125549e-05 0 -0.0022339488701097455 0.00017084842031951403 0 -0.0025545731498416201 -0.00060235082188870822 0 -0.0069958688997335469 0.0019283246653010104 0 -0.007093393458077653 0.0019139327724609545 0 -0.0087132439214928983 0.0016129633090596455 0 -0.0087326008448237024 0.0016949309713214776 0 -0.0086893386496304133 0.0016222623833853339 0 -0.007093393458077653 0.0019139327724609545 0 -0.0099876915581807498 0.0017760324203901238 0 -0.007093393458077653 0.0019139327724609545 0 -0.0070153426621905003 0.001935528624757631 0 -0.0099876915581807498 0.0017760324203901238 0 -0.0070153426621905003 0.001935528624757631 0 -0.0026309830238231261 0.00053479181886614509 0 -0.0022149545479209125 0.00017693121259331442 0 -0.002367223385083946 0.0010137660070638212 0 -0.0026309830238231261 0.00053479181886614509 0 -0.0024470503175870041 8.7521049464125549e-05 0 -0.0022149545479209125 0.00017693121259331442 0 -0.010412329001577004 0.0011641251168569686 0 -0.01059337023791255 0.0020131649379055536 0 -0.0084386894806400478 0.00026094291851021083 0 -0.0031560458875644166 0.00062848972717785513 0 -0.0026309830238231261 0.00053479181886614509 0 -0.0028451281847760783 0.0010819936412253765 0 -0.0026309830238231261 0.00053479181886614509 0 -0.002367223385083946 0.0010137660070638212 0 -0.0028451281847760783 0.0010819936412253765 0 -0.01122513640319491 0.0024624799487948834 0 -0.010973465270203563 0.0020226855783631497 0 -0.011035149012575372 0.0023091375230794567 0 -0.0027364467677676802 0.0017500194575963545 0 -0.002367223385083946 0.0010137660070638212 0 -0.0028451281847760783 0.0010819936412253765 0 -0.012503123923746674 0.0021926242605372829 0 -0.0099876915581807498 0.0017760324203901238 0 -0.012503123923746674 0.0021926242605372829 0 -0.012116404965325822 0.0019979282096035844 0 -0.028770625976943871 -0.0015897454978791726 0 -0.02918425638968675 -0.0021486382032223864 0 -0.028208108633433353 -0.0022016794948344479 0 -0.0099876915581807498 0.0017760324203901238 0 -0.012116404965325822 0.0019979282096035844 0 -0.010222295043270411 0.0026666772019855217 0 -0.0089818012996115172 0.0016384021278343802 0 -0.010636351963449727 0.0011739548756864204 0 -0.010222295043270411 0.0026666772019855217 0 -0.0089818012996115172 0.0016384021278343802 0 -0.0088875232196041053 0.0037845239712016782 0 -0.010222295043270411 0.0026666772019855217 0 -0.011742573429332872 0.0017856141043079735 0 -0.010636351963449727 0.0011739548756864204 0 -0.0120925095377929 0.0012519715880798912 0 -0.011742573429332872 0.0017856141043079735 0 -0.010636351963449727 0.0011739548756864204 0 -0.010222295043270411 0.0026666772019855217 0 -0.011742573429332872 0.0017856141043079735 0 -0.01129161482914119 0.0042594367755618683 0 -0.011836484403891208 0.0023117168187204353 0 -0.011793317836610816 0.0026163310607815841 0 -0.011742573429332872 0.0017856141043079735 0 -0.012623294649790404 0.0014671946502984048 0 -0.012670158662742648 0.0014389592394894618 0 -0.011793317836610816 0.0026163310607815841 0 -0.011836610224549078 0.0025998832219679205 0 -0.011793317836610816 0.0026163310607815841 0 -0.01032594773112999 0.0026490252458186633 0 -0.011618800847861469 0.0029851304582622774 0 -0.012156017613599447 0.0026195192138433825 0 -0.011448408946988103 0.0025124124669851848 0 -0.010222295043270411 0.0026666772019855217 0 -0.01129161482914119 0.0042594367755618683 0 -0.0088875232196041053 0.0037845239712016782 0 -0.0088875232196041053 0.0037845239712016782 0 -0.0069562097851899587 0.0034677673464607105 0 -0.0074096963836491059 0.0021561522354316405 0 -0.01032594773112999 0.0026490252458186633 0 -0.0089287987308681246 0.0024892211007182807 0 -0.011448408946988103 0.0025124124669851848 0 -0.010925344438113603 0.0027048677672901005 0 -0.010738098079885542 0.0024022079317973784 0 -0.0075016843936031282 0.0021524477889266818 0 -0.0089287987308681246 0.0024892211007182807 0 -0.010014944663284436 0.0022918154289946306 0 -0.010218621066728844 0.0024175837645309781 0 -0.010738098079885542 0.0024022079317973784 0 -0.0053271627755143028 0.0031017716472398833 0 -0.0069562097851899587 0.0034677673464607105 0 -0.0062435234921417631 0.0024051611233600724 0 -0.010661942698808409 0.002942657472791238 0 -0.010218621066728844 0.0024175837645309781 0 -0.01063657409098762 0.0026169562574364074 0 -0.010218621066728844 0.0024175837645309781 0 -0.01063657409098762 0.0026169562574364074 0 -0.010738098079885542 0.0024022079317973784 0 -0.011440675320014602 0.002840836641143762 0 -0.011113830950736535 0.0025999613603129752 0 -0.010925344438113603 0.0027048677672901005 0 -0.01063657409098762 0.0026169562574364074 0 -0.010738098079885542 0.0024022079317973784 0 -0.0069562097851899587 0.0034677673464607105 0 -0.0062435234921417631 0.0024051611233600724 0 -0.0074096963836491059 0.0021561522354316405 0 -0.0062435234921417631 0.0024051611233600724 0 -0.0074096963836491059 0.0021561522354316405 0 -0.0062431277053530245 0.0014211620017665681 0 -0.0053923813063822112 0.0019364108009653955 0 -0.0062435234921417631 0.0024051611233600724 0 -0.0062431277053530245 0.0014211620017665681 0 -0.0089818012996115172 0.0016384021278343802 0 -0.0088875232196041053 0.0037845239712016782 0 -0.0074096963836491059 0.0021561522354316405 0 -0.0089818012996115172 0.0016384021278343802 0 -0.0074096963836491059 0.0021561522354316405 0 -0.0074879672799944477 0.00084982045675996139 0 -0.0074879672799944477 0.00084982045675996139 0 -0.0062431277053530245 0.0014211620017665681 0 -0.0059390654948713976 0.00014768907040333269 0 -0.0074096963836491059 0.0021561522354316405 0 -0.0074879672799944477 0.00084982045675996139 0 -0.0062431277053530245 0.0014211620017665681 0 -0.0074879672799944477 0.00084982045675996139 0 -0.0059390654948713976 0.00014768907040333269 0 -0.0074770359189605716 -0.00045047767703494429 0 -0.0074879672799944477 0.00084982045675996139 0 -0.0074770359189605716 -0.00045047767703494429 0 -0.0093865858451423097 0.0003664945755828549 0 -0.0074770359189605716 -0.00045047767703494429 0 -0.0093865858451423097 0.0003664945755828549 0 -0.010159664444123338 -0.0012723960631501703 0 -0.0089818012996115172 0.0016384021278343802 0 -0.0093865858451423097 0.0003664945755828549 0 -0.010636351963449727 0.0011739548756864204 0 -0.0089818012996115172 0.0016384021278343802 0 -0.0074879672799944477 0.00084982045675996139 0 -0.0093865858451423097 0.0003664945755828549 0 -0.0093865858451423097 0.0003664945755828549 0 -0.010636351963449727 0.0011739548756864204 0 -0.011364563735961546 0.00017627375188825086 0 -0.0120925095377929 0.0012519715880798912 0 -0.010636351963449727 0.0011739548756864204 0 -0.011364563735961546 0.00017627375188825086 0 -0.011897373601352176 -0.00060578962793058494 0 -0.011364563735961546 0.00017627375188825086 0 -0.010159664444123338 -0.0012723960631501703 0 -0.0093865858451423097 0.0003664945755828549 0 -0.011364563735961546 0.00017627375188825086 0 -0.010159664444123338 -0.0012723960631501703 0 -0.0089179313555708978 -0.00088181000440860284 0 -0.0092678206875790262 -0.00099272536847473929 0 -0.0080158914111557577 -0.00063868765083155085 0 -0.0082181774814108089 -0.0010734818407788097 0 -0.0088722256371404264 -0.00087742523747925147 0 -0.011897373601352176 -0.00060578962793058494 0 -0.010159664444123338 -0.0012723960631501703 0 -0.011897152796196572 -0.0013108071526457604 0 -0.0082181774814108089 -0.0010734818407788097 0 -0.0079058902200234253 -0.0015663564467746612 0 -0.008797758193211852 -0.0013165038976580504 0 -0.0055696930689626252 -0.0012548513922755998 0 -0.0060433432281703434 -0.0010251215025488716 0 -0.0030969856444069957 -0.0011281208849016977 0 -0.0027844334098765366 -0.0010237570887963283 0 -0.0028539499401874107 -0.00072912010433257067 0 -0.0079058902200234253 -0.0015663564467746612 0 -0.0074969931108034528 -0.00097522764727842666 0 -0.0065852182428044895 -0.0018466294356258637 0 -0.0082181774814108089 -0.0010734818407788097 0 -0.0079058902200234253 -0.0015663564467746612 0 -0.0074969931108034528 -0.00097522764727842666 0 -0.0080158914111557577 -0.00063868765083155085 0 -0.0082181774814108089 -0.0010734818407788097 0 -0.0074969931108034528 -0.00097522764727842666 0 -0.0074770359189605716 -0.00045047767703494429 0 -0.0080158914111557577 -0.00063868765083155085 0 -0.0074969931108034528 -0.00097522764727842666 0 -0.0084163887381728322 -0.00073758916842014456 0 -0.0089179313555708978 -0.00088181000440860284 0 -0.0074770359189605716 -0.00045047767703494429 0 -0.0074969931108034528 -0.00097522764727842666 0 -0.0064414746715789157 -0.00086146227072335336 0 -0.0059390654948713976 0.00014768907040333269 0 -0.0074770359189605716 -0.00045047767703494429 0 -0.0064414746715789157 -0.00086146227072335336 0 -0.0059390654948713976 0.00014768907040333269 0 -0.0064414746715789157 -0.00086146227072335336 0 -0.0053141959705508748 -0.00057830321164567566 0 -0.0064414746715789157 -0.00086146227072335336 0 -0.0054215201798743611 -0.0011432475122172328 0 -0.0053141959705508748 -0.00057830321164567566 0 -0.0064414746715789157 -0.00086146227072335336 0 -0.0054215201798743611 -0.0011432475122172328 0 -0.0065852182428044895 -0.0018466294356258637 0 -0.0074969931108034528 -0.00097522764727842666 0 -0.0064414746715789157 -0.00086146227072335336 0 -0.0065852182428044895 -0.0018466294356258637 0 -0.0055696930689626252 -0.0012548513922755998 0 -0.005235211901544648 -0.0014024226874026417 0 -0.0030969856444069957 -0.0011281208849016977 0 -0.0035382915883183726 -0.0014298573482889089 0 -0.0033524290039642093 -0.0010499075113793988 0 -0.005235211901544648 -0.0014024226874026417 0 -0.0050376379942566581 -0.0014514995792354332 0 -0.0035382915883183726 -0.0014298573482889089 0 -0.0033524290039642093 -0.0010499075113793988 0 -0.0044486828137261809 -0.0015116313223254385 0 -0.0054215201798743611 -0.0011432475122172328 0 -0.0065852182428044895 -0.0018466294356258637 0 -0.0044486828137261809 -0.0015116313223254385 0 -0.0033524290039642093 -0.0010499075113793988 0 -0.0044486828137261809 -0.0015116313223254385 0 -0.003641764008000016 -0.00096016977516093476 0 -0.0033524290039642093 -0.0010499075113793988 0 -0.0030230621398893145 -0.00086134627235302059 0 -0.0030522538179080221 -0.00079416842842568321 0 -0.0030230621398893145 -0.00086134627235302059 0 -0.0030522538179080221 -0.00079416842842568321 0 -0.0029091778458274335 -0.00066404914650780328 0 -0.0030230621398893145 -0.00086134627235302059 0 -0.0029091778458274335 -0.00066404914650780328 0 -0.0028539499401874107 -0.00072912010433257067 0 -0.0030969856444069957 -0.0011281208849016977 0 -0.0030230621398893145 -0.00086134627235302059 0 -0.0028539499401874107 -0.00072912010433257067 0 -0.0030969856444069957 -0.0011281208849016977 0 -0.0033524290039642093 -0.0010499075113793988 0 -0.0030230621398893145 -0.00086134627235302059 0 -0.0020910831405214852 -0.00017667841600147759 0 -0.0028983904951319149 -5.3400757265297009e-05 0 -0.0025632010607163705 -0.0017898231146276596 0 -0.0025545731498416201 -0.00060235082188870822 0 -0.0019840148786750686 -0.0011043309656563291 0 -0.0022339488701097455 0.00017084842031951403 0 -0.0025545731498416201 -0.00060235082188870822 0 -0.0019840148786750686 -0.0011043309656563291 0 -0.0025632010607163705 -0.0017898231146276596 0 -0.0025545731498416201 -0.00060235082188870822 0 -0.0033623084150547749 -0.000694017934482015 0 -0.007093393458077653 0.0019139327724609545 0 -0.0036549267196212504 0.00057601241567354277 0 -0.0028332393277886599 -0.00018636001764857975 0 -0.0025545731498416201 -0.00060235082188870822 0 -0.0033623084150547749 -0.000694017934482015 0 -0.0035525404785642341 -0.00094944883227262363 0 -0.0037680615625403217 -0.00048902449690160711 0 -0.0037861139259840024 -0.0010909047219661574 0 -0.0037680615625403217 -0.00048902449690160711 0 -0.0041188648171210105 -0.0010649943150578321 0 -0.0037861139259840024 -0.0010909047219661574 0 -0.0041188648171210105 -0.0010649943150578321 0 -0.0046621780291868 -0.00099144750465274506 0 -0.0044486828137261809 -0.0015116313223254385 0 -0.0041188648171210105 -0.0010649943150578321 0 -0.0044560415531386529 -0.00048403184707995219 0 -0.0046621780291868 -0.00099144750465274506 0 -0.0042298945471504115 0.000448595633501457 0 -0.0037680615625403217 -0.00048902449690160711 0 -0.0044560415531386529 -0.00048403184707995219 0 -0.0037680615625403217 -0.00048902449690160711 0 -0.0041188648171210105 -0.0010649943150578321 0 -0.0044560415531386529 -0.00048403184707995219 0 -0.0044560415531386529 -0.00048403184707995219 0 -0.0053141959705508748 -0.00057830321164567566 0 -0.0046621780291868 -0.00099144750465274506 0 -0.0050003123282269394 0.00010374110288840465 0 -0.0044560415531386529 -0.00048403184707995219 0 -0.0053141959705508748 -0.00057830321164567566 0 -0.0054215201798743611 -0.0011432475122172328 0 -0.0046621780291868 -0.00099144750465274506 0 -0.0044486828137261809 -0.0015116313223254385 0 -0.0054215201798743611 -0.0011432475122172328 0 -0.0053141959705508748 -0.00057830321164567566 0 -0.0046621780291868 -0.00099144750465274506 0 -0.0044486828137261809 -0.0015116313223254385 0 -0.0040845684262047089 -0.0011796402566263485 0 -0.0040689984611108317 -0.0012652010428119628 0 -0.0044486828137261809 -0.0015116313223254385 0 -0.0040845684262047089 -0.0011796402566263485 0 -0.003641764008000016 -0.00096016977516093476 0 -0.0040845684262047089 -0.0011796402566263485 0 -0.0040689984611108317 -0.0012652010428119628 0 -0.0038756988421178172 -0.0011169894791007722 0 -0.0040689984611108317 -0.0012652010428119628 0 -0.0037534539394583921 -0.0011928776407529929 0 -0.0038756988421178172 -0.0011169894791007722 0 -0.0041188648171210105 -0.0010649943150578321 0 -0.0044486828137261809 -0.0015116313223254385 0 -0.0040689984611108317 -0.0012652010428119628 0 -0.0041188648171210105 -0.0010649943150578321 0 -0.0040689984611108317 -0.0012652010428119628 0 -0.0037861139259840024 -0.0010909047219661574 0 -0.0040689984611108317 -0.0012652010428119628 0 -0.0037861139259840024 -0.0010909047219661574 0 -0.0037534539394583921 -0.0011928776407529929 0 -0.0037861139259840024 -0.0010909047219661574 0 -0.0037534539394583921 -0.0011928776407529929 0 -0.003604923679270683 -0.0011309023294396451 0 -0.0037534539394583921 -0.0011928776407529929 0 -0.0035267153163777271 -0.0011933395440241303 0 -0.0035207036177322452 -0.0011592390497928973 0 -0.0037534539394583921 -0.0011928776407529929 0 -0.0035267153163777271 -0.0011933395440241303 0 -0.003604923679270683 -0.0011309023294396451 0 -0.0035267153163777271 -0.0011933395440241303 0 -0.003604923679270683 -0.0011309023294396451 0 -0.0034519062259220981 -0.0011474704691767765 0 -0.0035267153163777271 -0.0011933395440241303 0 -0.003443867558791665 -0.0012233577188603638 0 -0.0034519062259220981 -0.0011474704691767765 0 -0.0035525404785642341 -0.00094944883227262363 0 -0.003604923679270683 -0.0011309023294396451 0 -0.0034519062259220981 -0.0011474704691767765 0 -0.0035525404785642341 -0.00094944883227262363 0 -0.0037861139259840024 -0.0010909047219661574 0 -0.003604923679270683 -0.0011309023294396451 0 -0.0020910831405214852 -0.00017667841600147759 0 -0.0012556470478186854 0.00094393394965547827 0 0.00032356932487701511 0.0032404151836708871 0 -0.0002281819292093462 0.0024720999861075578 0 -0.00070634591713978636 0.0018046094238213205 0 -0.00063701951920022194 0.0019820636074734453 0 0.0014147445453669579 0.005313544709489664 0 0.0019421138141625988 0.006005921682762632 0 0.0022441571867456806 0.0074932271059257073 0 -0.0001472047029804583 0.0028109435638680011 0 -8.8039094096695213e-06 0.0034808732136410521 0 -0.0002929760847127556 0.0024318575280815129 0 -0.0031333363013540221 -0.0011238678703529318 0 -0.0032934855654868775 -0.001201826768174694 0 -0.003443867558791665 -0.0012233577188603638 0 0.0014147445453669579 0.005313544709489664 0 0.0019421138141625988 0.006005921682762632 0 0.0016452051543492786 0.0044814978986594377 0 2.9438127955503335e-05 0.0032099937474015096 0 0.00032356932487701511 0.0032404151836708871 0 -0.0031333363013540221 -0.0011238678703529318 0 -0.0030045042418000325 -0.0012420075451342414 0 -0.0023496343567102553 -0.00065231800523535765 0 -0.0030045042418000325 -0.0012420075451342414 0 -0.0032934855654868775 -0.001201826768174694 0 -0.0033312332522817661 -0.0011666435758244497 0 -0.0031333363013540221 -0.0011238678703529318 0 -0.0030045042418000325 -0.0012420075451342414 0 -0.0032934855654868775 -0.001201826768174694 0 -0.0034303925641819251 -0.0011917764240809484 0 -0.0032934855654868775 -0.001201826768174694 0 -0.003443867558791665 -0.0012233577188603638 0 2.9438127955503335e-05 0.0032099937474015096 0 -0.00063701951920022194 0.0019820636074734453 0 -0.0035267153163777271 -0.0011933395440241303 0 -0.0034303925641819251 -0.0011917764240809484 0 -0.003443867558791665 -0.0012233577188603638 0 -0.0035267153163777271 -0.0011933395440241303 0 -0.0034303925641819251 -0.0011917764240809484 0 -0.0035207036177322452 -0.0011592390497928973 0 -0.0034303925641819251 -0.0011917764240809484 0 -0.0032934855654868775 -0.001201826768174694 0 -0.0035207036177322452 -0.0011592390497928973 0 -0.0032934855654868775 -0.001201826768174694 0 -0.0035207036177322452 -0.0011592390497928973 0 -0.0033312332522817661 -0.0011666435758244497 0 -0.0035207036177322452 -0.0011592390497928973 0 -0.0035441547917411664 -0.0011285860475784414 0 -0.0033312332522817661 -0.0011666435758244497 0 -0.0035207036177322452 -0.0011592390497928973 0 -0.0035441547917411664 -0.0011285860475784414 0 -0.0038756988421178172 -0.0011169894791007722 0 -0.0037534539394583921 -0.0011928776407529929 0 -0.0035207036177322452 -0.0011592390497928973 0 -0.0038756988421178172 -0.0011169894791007722 0 -0.0028934703188931788 -0.00086771158612467458 0 -0.0027681891677905218 -0.00076774902155953429 0 -0.0030045042418000325 -0.0012420075451342414 0 -0.0013649813921777917 -0.00063607558298217452 0 -0.0023496343567102553 -0.00065231800523535765 0 -0.0030045042418000325 -0.0012420075451342414 0 -0.0035441547917411664 -0.0011285860475784414 0 -0.0038998656259478502 -0.0011290291531967699 0 -0.0030045042418000325 -0.0012420075451342414 0 -0.0035441547917411664 -0.0011285860475784414 0 -0.0033312332522817661 -0.0011666435758244497 0 -0.0035441547917411664 -0.0011285860475784414 0 -0.0038998656259478502 -0.0011290291531967699 0 -0.0038756988421178172 -0.0011169894791007722 0 -0.0038998656259478502 -0.0011290291531967699 0 -0.0038756988421178172 -0.0011169894791007722 0 -0.0039095657195641021 -0.0009858808535023007 0 -0.0040845684262047089 -0.0011796402566263485 0 -0.0039095657195641021 -0.0009858808535023007 0 -0.003641764008000016 -0.00096016977516093476 0 -0.0040845684262047089 -0.0011796402566263485 0 -0.0038756988421178172 -0.0011169894791007722 0 -0.0039095657195641021 -0.0009858808535023007 0 -0.0038998656259478502 -0.0011290291531967699 0 -0.0039095657195641021 -0.0009858808535023007 0 -0.0036936435592843657 -0.00062647311090096203 0 -0.0027681891677905218 -0.00076774902155953429 0 -0.0027097213571067569 -0.00060793758497161977 0 -0.0013649813921777917 -0.00063607558298217452 0 -0.0014087043720955653 -0.00038462140854240154 0 -0.0017849063081915512 -0.00014915395026054811 0 -0.0014087043720955653 -0.00038462140854240154 0 -0.0016403652429830325 -0.00044803852394147321 0 -0.0017849063081915512 -0.00014915395026054811 0 -0.0014087043720955653 -0.00038462140854240154 0 -0.0016403652429830325 -0.00044803852394147321 0 -0.0013144289840148948 -0.00027803356655214294 0 -0.0016403652429830325 -0.00044803852394147321 0 -0.0013144289840148948 -0.00027803356655214294 0 -0.001387091570401027 -0.00044845412642665022 0 -0.0014087043720955653 -0.00038462140854240154 0 -0.0013144289840148948 -0.00027803356655214294 0 -0.0015627980484511368 -0.00031166977971491106 0 -0.0013144289840148948 -0.00027803356655214294 0 -0.001209906565684327 -0.00010881302153122466 0 -0.001003038158724146 -0.00025430686091136172 0 -0.0013144289840148948 -0.00027803356655214294 0 -0.0015627980484511368 -0.00031166977971491106 0 -0.001209906565684327 -0.00010881302153122466 0 -0.0013649813921777917 -0.00063607558298217452 0 -0.0014087043720955653 -0.00038462140854240154 0 -0.0015627980484511368 -0.00031166977971491106 0 -0.0013649813921777917 -0.00063607558298217452 0 -0.0023496343567102553 -0.00065231800523535765 0 -0.0015627980484511368 -0.00031166977971491106 0 -0.0023496343567102553 -0.00065231800523535765 0 -0.0018663998745281044 -0.00031107448428743334 0 -0.0020137933651586844 -0.0001258427738301216 0 -0.0023496343567102553 -0.00065231800523535765 0 -0.0018663998745281044 -0.00031107448428743334 0 -0.0015627980484511368 -0.00031166977971491106 0 -0.0015627980484511368 -0.00031166977971491106 0 -0.0016519959905102869 -0.00021530205373740459 0 -0.001209906565684327 -0.00010881302153122466 0 -0.00083790927448329597 0.0011523689945314832 0 -0.00092274525822081592 0.00066870125794137459 0 -0.001209906565684327 -0.00010881302153122466 0 -0.0020137933651586844 -0.0001258427738301216 0 -0.00051661488563602956 3.8693868787287544e-05 0 -0.0018663998745281044 -0.00031107448428743334 0 -0.0015627980484511368 -0.00031166977971491106 0 -0.0016519959905102869 -0.00021530205373740459 0 -0.0016519959905102869 -0.00021530205373740459 0 -0.001209906565684327 -0.00010881302153122466 0 -0.0020137933651586844 -0.0001258427738301216 0 -0.0018663998745281044 -0.00031107448428743334 0 -0.0016519959905102869 -0.00021530205373740459 0 -0.0020137933651586844 -0.0001258427738301216 0 0.0012502476132773242 0.0032266468518757493 0 0.0014528164420156179 0.0023139225114071566 0 0.00081197778958814646 0.00093186337749553993 0 0.00047801492765494832 0.0030169404151881873 0 0.0013050465274436808 0.0031415006103799408 0 0.00081197778958814646 0.00093186337749553993 0 0.00071643513223107469 0.0032168612182168787 0 0.00064835224667105027 0.0026311472951763572 0 0.0016880255519659006 0.0018418326078518913 0 0.0014528164420156179 0.0023139225114071566 0 0.00081197778958814646 0.00093186337749553993 0 0.0018932183933065565 0.0025834643876474885 0 0.0023178352315904828 0.003012555826043655 0 0.002355906594162223 0.0021287382316922169 0 0.0016880255519659006 0.0018418326078518913 0 0.0018932183933065565 0.0025834643876474885 0 0.002355906594162223 0.0021287382316922169 0 0.0016880255519659006 0.0018418326078518913 0 0.0014528164420156179 0.0023139225114071566 0 0.0018932183933065565 0.0025834643876474885 0 0.0014528164420156179 0.0023139225114071566 0 0.0018932183933065565 0.0025834643876474885 0 0.001693598623940566 0.0028390127043961891 0 0.0018932183933065565 0.0025834643876474885 0 0.001693598623940566 0.0028390127043961891 0 0.0023178352315904828 0.003012555826043655 0 0.0012502476132773242 0.0032266468518757493 0 0.001693598623940566 0.0028390127043961891 0 0.0023178352315904828 0.003012555826043655 0 0.0012502476132773242 0.0032266468518757493 0 0.0014528164420156179 0.0023139225114071566 0 0.001693598623940566 0.0028390127043961891 0 0.00071643513223107469 0.0032168612182168787 0 0.00032356932487701511 0.0032404151836708871 0 0.0014147445453669579 0.005313544709489664 0 0.00047801492765494832 0.0030169404151881873 0 0.0016452051543492786 0.0044814978986594377 0 0.00035742740449851645 0.0032031358179290146 0 0.00030811255034343123 0.0030148675678485525 0 7.3175729123146153e-05 0.0030453269322388817 0 -0.0031333363013540221 -0.0011238678703529318 0 -0.0023496343567102553 -0.00065231800523535765 0 -0.0020137933651586844 -0.0001258427738301216 0 -0.00070634591713978636 0.0018046094238213205 0 -0.00083790927448329597 0.0011523689945314832 0 0.00047801492765494832 0.0030169404151881873 0 0.0013050465274436808 0.0031415006103799408 0 0.0016452051543492786 0.0044814978986594377 0 -0.0029070574948229276 -0.0006104813400466555 0 -0.0031824767342138807 -0.00075038487302251722 0 -0.0028111733300626345 -0.00038607109250211327 0 -0.0029070574948229276 -0.0006104813400466555 0 -0.0028111733300626345 -0.00038607109250211327 0 -0.0028537293884345126 -0.00056869145763770656 0 -0.0029070574948229276 -0.0006104813400466555 0 -0.0028537293884345126 -0.00056869145763770656 0 -0.002912785507681473 -0.00059422577237421914 0 -0.0029091778458274335 -0.00066404914650780328 0 -0.0029070574948229276 -0.0006104813400466555 0 -0.002912785507681473 -0.00059422577237421914 0 -0.0030522538179080221 -0.00079416842842568321 0 -0.0029091778458274335 -0.00066404914650780328 0 -0.0029070574948229276 -0.0006104813400466555 0 -0.0030522538179080221 -0.00079416842842568321 0 -0.0029070574948229276 -0.0006104813400466555 0 -0.0031824767342138807 -0.00075038487302251722 0 -0.0033524290039642093 -0.0010499075113793988 0 -0.0030522538179080221 -0.00079416842842568321 0 -0.0031824767342138807 -0.00075038487302251722 0 -0.0033524290039642093 -0.0010499075113793988 0 -0.0031824767342138807 -0.00075038487302251722 0 -0.003641764008000016 -0.00096016977516093476 0 -0.0031824767342138807 -0.00075038487302251722 0 -0.003641764008000016 -0.00096016977516093476 0 -0.0036936435592843657 -0.00062647311090096203 0 -0.0039095657195641021 -0.0009858808535023007 0 -0.003641764008000016 -0.00096016977516093476 0 -0.0036936435592843657 -0.00062647311090096203 0 -0.0031824767342138807 -0.00075038487302251722 0 -0.0036936435592843657 -0.00062647311090096203 0 -0.0028111733300626345 -0.00038607109250211327 0 -0.0027097213571067569 -0.00060793758497161977 0 -0.0027097830887764861 -0.00054972563578982989 0 -0.0017849063081915512 -0.00014915395026054811 0 -0.0023136907526573208 -0.00069898628516198991 0 -0.0028111733300626345 -0.00038607109250211327 0 -0.0016403652429830325 -0.00044803852394147321 0 -0.0017849063081915512 -0.00014915395026054811 0 -0.0023136907526573208 -0.00069898628516198991 0 -0.0016403652429830325 -0.00044803852394147321 0 -0.0023136907526573208 -0.00069898628516198991 0 -0.0016698899889278449 -0.00076038858717730902 0 -0.0023136907526573208 -0.00069898628516198991 0 -0.0027173084156974004 -0.00075176700896341343 0 -0.0028111733300626345 -0.00038607109250211327 0 -0.0027173084156974004 -0.00075176700896341343 0 -0.0028111733300626345 -0.00038607109250211327 0 -0.0028537293884345126 -0.00056869145763770656 0 -0.0027173084156974004 -0.00075176700896341343 0 -0.0028537293884345126 -0.00056869145763770656 0 -0.0028414598759355482 -0.0007422120595733788 0 -0.0028414598759355482 -0.0007422120595733788 0 -0.0030633467889361336 -0.00067376326379071266 0 -0.0029770276813855974 -0.0006101632850894895 0 -0.0028414598759355482 -0.0007422120595733788 0 -0.0030633467889361336 -0.00067376326379071266 0 -0.002832872158931821 -0.00090364778962050672 0 -0.0030633467889361336 -0.00067376326379071266 0 -0.0029770276813855974 -0.0006101632850894895 0 -0.0031421001221240722 -0.00060143981568451543 0 -0.0028537293884345126 -0.00056869145763770656 0 -0.0028414598759355482 -0.0007422120595733788 0 -0.0029770276813855974 -0.0006101632850894895 0 -0.0029770276813855974 -0.0006101632850894895 0 -0.0030241762208972093 -0.00057524528690234482 0 -0.002912785507681473 -0.00059422577237421914 0 -0.0028537293884345126 -0.00056869145763770656 0 -0.0029770276813855974 -0.0006101632850894895 0 -0.002912785507681473 -0.00059422577237421914 0 -0.0029770276813855974 -0.0006101632850894895 0 -0.0030241762208972093 -0.00057524528690234482 0 -0.0031421001221240722 -0.00060143981568451543 0 -0.0030241762208972093 -0.00057524528690234482 0 -0.0029603046237067564 -0.00057455127091679179 0 -0.003098752979604625 -0.00049562972726955082 0 -0.0030241762208972093 -0.00057524528690234482 0 -0.002912785507681473 -0.00059422577237421914 0 -0.0029603046237067564 -0.00057455127091679179 0 -0.0029091778458274335 -0.00066404914650780328 0 -0.002912785507681473 -0.00059422577237421914 0 -0.0029603046237067564 -0.00057455127091679179 0 -0.0033597547551859281 -0.00052540240405489263 0 -0.0033487930035394566 -0.00057432182335512576 0 -0.0036040880913673873 -0.00049855056573005856 0 -0.0033597547551859281 -0.00052540240405489263 0 -0.0032111310429590056 -0.00055426387774690396 0 -0.0032800199483221768 -0.00043166084319743315 0 -0.0033597547551859281 -0.00052540240405489263 0 -0.0036040880913673873 -0.00049855056573005856 0 -0.0035374332872342663 -0.00025091474243893903 0 -0.0032111310429590056 -0.00055426387774690396 0 -0.003098752979604625 -0.00049562972726955082 0 -0.0032800199483221768 -0.00043166084319743315 0 -0.0030241762208972093 -0.00057524528690234482 0 -0.0032111310429590056 -0.00055426387774690396 0 -0.003098752979604625 -0.00049562972726955082 0 -0.0030241762208972093 -0.00057524528690234482 0 -0.0032111310429590056 -0.00055426387774690396 0 -0.0031421001221240722 -0.00060143981568451543 0 -0.0032111310429590056 -0.00055426387774690396 0 -0.0033487930035394566 -0.00057432182335512576 0 -0.0031421001221240722 -0.00060143981568451543 0 -0.0033597547551859281 -0.00052540240405489263 0 -0.0032111310429590056 -0.00055426387774690396 0 -0.0033487930035394566 -0.00057432182335512576 0 -0.0033487930035394566 -0.00057432182335512576 0 -0.0032275149878667271 -0.00060568371853537864 0 -0.0032849013056812518 -0.00055893745814640755 0 -0.0033487930035394566 -0.00057432182335512576 0 -0.0032275149878667271 -0.00060568371853537864 0 -0.0031421001221240722 -0.00060143981568451543 0 -0.0030633467889361336 -0.00067376326379071266 0 -0.0032275149878667271 -0.00060568371853537864 0 -0.0031421001221240722 -0.00060143981568451543 0 -0.0030633467889361336 -0.00067376326379071266 0 -0.0032275149878667271 -0.00060568371853537864 0 -0.0032091106533965108 -0.00066429574090099851 0 -0.0032275149878667271 -0.00060568371853537864 0 -0.003207549399657594 -0.00053313154974846838 0 -0.0032091106533965108 -0.00066429574090099851 0 -0.003207549399657594 -0.00053313154974846838 0 -0.0028684552057780077 -0.00045502043439742693 0 -0.0031155735578616501 -0.00044806771118403236 0 -0.0028684552057780077 -0.00045502043439742693 0 -0.0031155735578616501 -0.00044806771118403236 0 -0.0029199190367822621 -0.00034662469214472903 0 -0.003207549399657594 -0.00053313154974846838 0 -0.0031155735578616501 -0.00044806771118403236 0 -0.0033612180125692582 -0.00051370280393484534 0 -0.0031155735578616501 -0.00044806771118403236 0 -0.0033577556472791795 -0.00042109818959308468 0 -0.0031577368929805757 -0.00029961560898612486 0 -0.0031155735578616501 -0.00044806771118403236 0 -0.0033577556472791795 -0.00042109818959308468 0 -0.0033612180125692582 -0.00051370280393484534 0 -0.0033487930035394566 -0.00057432182335512576 0 -0.0033612180125692582 -0.00051370280393484534 0 -0.0032849013056812518 -0.00055893745814640755 0 -0.0032275149878667271 -0.00060568371853537864 0 -0.003207549399657594 -0.00053313154974846838 0 -0.0032849013056812518 -0.00055893745814640755 0 -0.003207549399657594 -0.00053313154974846838 0 -0.0033612180125692582 -0.00051370280393484534 0 -0.0032849013056812518 -0.00055893745814640755 0 -0.00080410595128761872 5.3929264302268096e-07 0 -0.00048963002108987715 1.4613557837117038e-05 0 0.0011199415439701575 -6.2723894808929957e-05 0 -0.0029149645110429175 -0.00031182603352818687 0 -0.0026733428624016497 -0.00038139939211566918 0 -0.0029199190367822621 -0.00034662469214472903 0 -0.0029149645110429175 -0.00031182603352818687 0 -0.0029199190367822621 -0.00034662469214472903 0 -0.0029777415380345612 -0.00019931959657196294 0 -0.0028684552057780077 -0.00045502043439742693 0 -0.0026733428624016497 -0.00038139939211566918 0 -0.0029199190367822621 -0.00034662469214472903 0 -0.0031155735578616501 -0.00044806771118403236 0 -0.0029199190367822621 -0.00034662469214472903 0 -0.0031577368929805757 -0.00029961560898612486 0 -0.0031577368929805757 -0.00029961560898612486 0 -0.0029777415380345612 -0.00019931959657196294 0 -0.0031474880269078132 -0.00021311107966860734 0 -0.0029199190367822621 -0.00034662469214472903 0 -0.0031577368929805757 -0.00029961560898612486 0 -0.0029777415380345612 -0.00019931959657196294 0 -0.00080410595128761872 5.3929264302268096e-07 0 -0.00048963002108987715 1.4613557837117038e-05 0 -0.0026187118707954806 -3.0651726109482472e-05 0 -0.0029149645110429175 -0.00031182603352818687 0 -0.0029777415380345612 -0.00019931959657196294 0 -0.0026187118707954806 -3.0651726109482472e-05 0 -0.00080410595128761872 5.3929264302268096e-07 0 -0.0028709257475359258 -6.8676993799554624e-07 0 -0.0026187118707954806 -3.0651726109482472e-05 0 -0.00076109452250208687 -0.00040607336098560768 0 -0.0010296251411012613 -0.0004775854218565911 0 -0.0029777415380345612 -0.00019931959657196294 0 -0.0026187118707954806 -3.0651726109482472e-05 0 -0.0031474880269078132 -0.00021311107966860734 0 -0.0028709257475359258 -6.8676993799554624e-07 0 -0.0032599924234954464 -0.00018467660360620562 0 -0.0040251524665871922 -0.00021142389266835893 0 -0.0028709257475359258 -6.8676993799554624e-07 0 -0.0026187118707954806 -3.0651726109482472e-05 0 -0.0032599924234954464 -0.00018467660360620562 0 -0.0026187118707954806 -3.0651726109482472e-05 0 -0.0032599924234954464 -0.00018467660360620562 0 -0.0031474880269078132 -0.00021311107966860734 0 -0.0032599924234954464 -0.00018467660360620562 0 -0.0035110587424917444 -0.00034149500086943976 0 -0.0040251524665871922 -0.00021142389266835893 0 -0.0032599924234954464 -0.00018467660360620562 0 -0.0035110587424917444 -0.00034149500086943976 0 -0.0031474880269078132 -0.00021311107966860734 0 -0.0031577368929805757 -0.00029961560898612486 0 -0.0035110587424917444 -0.00034149500086943976 0 -0.0031474880269078132 -0.00021311107966860734 0 -0.0033577556472791795 -0.00042109818959308468 0 -0.0031577368929805757 -0.00029961560898612486 0 -0.0035110587424917444 -0.00034149500086943976 0 -0.0035110587424917444 -0.00034149500086943976 0 -0.0040272376785338883 -0.00039395394252982692 0 -0.0035990911140211059 -0.00046482041535622366 0 -0.0035110587424917444 -0.00034149500086943976 0 -0.0040272376785338883 -0.00039395394252982692 0 -0.0040251524665871922 -0.00021142389266835893 0 -0.0040272376785338883 -0.00039395394252982692 0 -0.0040251524665871922 -0.00021142389266835893 0 -0.0046147156494507043 -0.00023441063226786399 0 -0.0028709257475359258 -6.8676993799554624e-07 0 -0.0040251524665871922 -0.00021142389266835893 0 -0.004936131947817445 -5.6054007113101361e-07 0 -0.0033487930035394566 -0.00057432182335512576 0 -0.0033612180125692582 -0.00051370280393484534 0 -0.0035180647123890844 -0.00051930188451344904 0 -0.0033487930035394566 -0.00057432182335512576 0 -0.0035180647123890844 -0.00051930188451344904 0 -0.0036040880913673873 -0.00049855056573005856 0 -0.0033612180125692582 -0.00051370280393484534 0 -0.0035180647123890844 -0.00051930188451344904 0 -0.0035990911140211059 -0.00046482041535622366 0 -0.0033577556472791795 -0.00042109818959308468 0 -0.0033612180125692582 -0.00051370280393484534 0 -0.0035990911140211059 -0.00046482041535622366 0 -0.0033577556472791795 -0.00042109818959308468 0 -0.0035110587424917444 -0.00034149500086943976 0 -0.0035990911140211059 -0.00046482041535622366 0 -0.0035180647123890844 -0.00051930188451344904 0 -0.0035990911140211059 -0.00046482041535622366 0 -0.0037966333299274085 -0.00045696302569603868 0 -0.0040272376785338883 -0.00039395394252982692 0 -0.0037966333299274085 -0.00045696302569603868 0 -0.0041242792046157035 -0.00036627337944868918 0 -0.0040272376785338883 -0.00039395394252982692 0 -0.0035990911140211059 -0.00046482041535622366 0 -0.0037966333299274085 -0.00045696302569603868 0 -0.0037966333299274085 -0.00045696302569603868 0 -0.0036040880913673873 -0.00049855056573005856 0 -0.0041242792046157035 -0.00036627337944868918 0 -0.0035180647123890844 -0.00051930188451344904 0 -0.0037966333299274085 -0.00045696302569603868 0 -0.0036040880913673873 -0.00049855056573005856 0 -0.0036040880913673873 -0.00049855056573005856 0 -0.0041242792046157035 -0.00036627337944868918 0 -0.0035374332872342663 -0.00025091474243893903 0 -0.0041242792046157035 -0.00036627337944868918 0 -0.0055222692656555312 -4.724065960349723e-05 0 -0.0040236601744336282 0.00025716517601202213 0 -0.0053235414687290454 -2.8507133315291606e-05 0 -0.005210961735495916 -4.9361585887445381e-06 0 -0.0041242792046157035 -0.00036627337944868918 0 -0.0040236601744336282 0.00025716517601202213 0 -0.0035374332872342663 -0.00025091474243893903 0 -0.0040236601744336282 0.00025716517601202213 0 -0.0034623532811539396 0.00011746892276913654 0 -0.0035374332872342663 -0.00025091474243893903 0 -0.0040251524665871922 -0.00021142389266835893 0 -0.004936131947817445 -5.6054007113101361e-07 0 -0.0046147156494507043 -0.00023441063226786399 0 -0.0040272376785338883 -0.00039395394252982692 0 -0.0041242792046157035 -0.00036627337944868918 0 -0.0046147156494507043 -0.00023441063226786399 0 -0.0041242792046157035 -0.00036627337944868918 0 -0.0046147156494507043 -0.00023441063226786399 0 -0.0055222692656555312 -4.724065960349723e-05 0 -0.004936131947817445 -5.6054007113101361e-07 0 -0.0046147156494507043 -0.00023441063226786399 0 -0.0055222692656555312 -4.724065960349723e-05 0 -0.004936131947817445 -5.6054007113101361e-07 0 -0.0055222692656555312 -4.724065960349723e-05 0 -0.0070012300940099472 -2.4981766251428029e-08 0 -0.0055222692656555312 -4.724065960349723e-05 0 -0.0070012300940099472 -2.4981766251428029e-08 0 -0.0067627772621641647 -7.608777213248175e-05 0 -0.0055222692656555312 -4.724065960349723e-05 0 -0.0067627772621641647 -7.608777213248175e-05 0 -0.0061023289042811298 -0.00011843502677375604 0 -0.0083153123830372357 0.0001335937234070014 0 -0.0067627772621641647 -7.608777213248175e-05 0 -0.0061439651422577667 0.00031889062499552246 0 -0.0078059967963997187 8.881227061618635e-05 0 -0.0076520719039889912 4.6290330324184793e-05 0 -0.0083153123830372357 0.0001335937234070014 0 -0.0070012300940099472 -2.4981766251428029e-08 0 -0.0067627772621641647 -7.608777213248175e-05 0 -0.0090675155444524848 -2.221765159533475e-07 0 -0.0083153123830372357 0.0001335937234070014 0 -0.0070012300940099472 -2.4981766251428029e-08 0 -0.005210961735495916 -4.9361585887445381e-06 0 -0.0053405837541907614 -5.738779124415853e-05 0 -0.0059801104064513147 1.9433410498532744e-05 0 -0.0058079518989801859 0.00012582849292603642 0 -0.0057442081237496787 -4.5538691529739515e-05 0 -0.0059801104064513147 1.9433410498532744e-05 0 -0.0060733080331187633 -8.7170878694484355e-05 0 -0.0057442081237496787 -4.5538691529739515e-05 0 -0.0055222692656555312 -4.724065960349723e-05 0 -0.0060733080331187633 -8.7170878694484355e-05 0 -0.0061023289042811298 -0.00011843502677375604 0 -0.0059801104064513147 1.9433410498532744e-05 0 -0.0060733080331187633 -8.7170878694484355e-05 0 -0.0061023289042811298 -0.00011843502677375604 0 -0.0067627772621641647 -7.608777213248175e-05 0 -0.0061023289042811298 -0.00011843502677375604 0 -0.0061439651422577667 0.00031889062499552246 0 -0.0059801104064513147 1.9433410498532744e-05 0 -0.0061023289042811298 -0.00011843502677375604 0 -0.0061439651422577667 0.00031889062499552246 0 -0.0090376397557115802 -1.2523915854650474e-05 0 -0.0089789910558831197 0.0001780842589388539 0 -0.0091938344064744423 0.0002108257044630802 0 -0.0059801104064513147 1.9433410498532744e-05 0 -0.0061439651422577667 0.00031889062499552246 0 -0.0058079518989801859 0.00012582849292603642 0 -0.0090376397557115802 -1.2523915854650474e-05 0 -0.0092462006751420512 0.00012974348419397114 0 -0.0091938344064744423 0.0002108257044630802 0 -0.0076520719039889912 4.6290330324184793e-05 0 -0.0075788833911210338 -7.9206872443746005e-05 0 -0.0092462006751420512 0.00012974348419397114 0 -0.0091938344064744423 0.0002108257044630802 0 -0.0094345527159921967 0.00025897921596190114 0 -0.0075788833911210338 -7.9206872443746005e-05 0 -0.0075455594398865867 -0.00036538846895831832 0 -0.013496357651049801 -0.00020900692604004816 0 -0.01372086762450701 -0.00038030426370610219 0 -0.013354448652565529 -0.00047344942118241574 0 -0.0058079518989801859 0.00012582849292603642 0 -0.0057442081237496787 -4.5538691529739515e-05 0 -0.0055161556482364238 4.7778182714408655e-05 0 -0.0034623532811539396 0.00011746892276913654 0 -0.0032502592208774861 -0.00010021669359981943 0 -0.0031362141176846212 2.4419419921874739e-05 0 -0.0057442081237496787 -4.5538691529739515e-05 0 -0.0054870337088450015 2.7279549169344193e-05 0 -0.0055161556482364238 4.7778182714408655e-05 0 -0.0053405837541907614 -5.738779124415853e-05 0 -0.0070099472506375965 -0.00050171149391134082 0 -0.0032502592208774861 -0.00010021669359981943 0 -0.0031362141176846212 2.4419419921874739e-05 0 -0.0031108838616797745 -0.00019094074817072319 0 -0.013131981586882443 -0.0011499950006761009 0 -0.01301542596684044 -0.0010854141925293931 0 -0.012956291604183318 -0.001219646779204791 0 -0.0075455594398865867 -0.00036538846895831832 0 -0.0073312601883095329 -0.00055181927287485807 0 -0.0069350050243191493 -0.00065278225302883028 0 -0.0069157150433515838 -0.00066566900932735478 0 -0.0069525693466136324 -0.00065816198399657128 0 -0.0070099472506375965 -0.00050171149391134082 0 -0.0075455594398865867 -0.00036538846895831832 0 -0.01372086762450701 -0.00038030426370610219 0 -0.013237360191981804 -0.0007884283336706125 0 -0.013354448652565529 -0.00047344942118241574 0 -0.013131981586882443 -0.0011499950006761009 0 -0.013090185518736501 -0.00098514858108128913 0 -0.013237360191981804 -0.0007884283336706125 0 -0.013090185518736501 -0.00098514858108128913 0 -0.01301542596684044 -0.0010854141925293931 0 -0.012975597743743105 -0.00092064913668968231 0 -0.01372086762450701 -0.00038030426370610219 0 -0.013131981586882443 -0.0011499950006761009 0 -0.013237360191981804 -0.0007884283336706125 0 -0.013131981586882443 -0.0011499950006761009 0 -0.013090185518736501 -0.00098514858108128913 0 -0.01301542596684044 -0.0010854141925293931 0 -0.010297117571276861 0.0002753933163023403 0 -0.0075455594398865867 -0.00036538846895831832 0 -0.013090185518736501 -0.00098514858108128913 0 -0.013237360191981804 -0.0007884283336706125 0 -0.012975597743743105 -0.00092064913668968231 0 -0.013118794363823089 -0.00055425180046317888 0 -0.012911108176013923 -0.00062807572971627099 0 -0.012975597743743105 -0.00092064913668968231 0 -0.013237360191981804 -0.0007884283336706125 0 -0.013118794363823089 -0.00055425180046317888 0 -0.012975597743743105 -0.00092064913668968231 0 -0.013237360191981804 -0.0007884283336706125 0 -0.013354448652565529 -0.00047344942118241574 0 -0.013118794363823089 -0.00055425180046317888 0 -0.01259971217861193 -0.0004401743672577947 0 -0.012911108176013923 -0.00062807572971627099 0 -0.012720580726064353 -0.00080261363835179697 0 -0.012691040481051387 -0.0010717361549057915 0 -0.011897152796196572 -0.0013108071526457604 0 -0.012956291604183318 -0.001219646779204791 0 -0.012949156531140005 -0.00028414155695484353 0 -0.013118794363823089 -0.00055425180046317888 0 -0.012911108176013923 -0.00062807572971627099 0 -0.012405059776485433 -0.00092756871156027796 0 -0.012691040481051387 -0.0010717361549057915 0 -0.011897152796196572 -0.0013108071526457604 0 -0.0092678206875790262 -0.00099272536847473929 0 -0.0073312601883095329 -0.00055181927287485807 0 -0.012911108176013923 -0.00062807572971627099 0 -0.012720580726064353 -0.00080261363835179697 0 -0.012975597743743105 -0.00092064913668968231 0 -0.01259971217861193 -0.0004401743672577947 0 -0.012720580726064353 -0.00080261363835179697 0 -0.012405059776485433 -0.00092756871156027796 0 -0.012720580726064353 -0.00080261363835179697 0 -0.012405059776485433 -0.00092756871156027796 0 -0.012691040481051387 -0.0010717361549057915 0 -0.01301542596684044 -0.0010854141925293931 0 -0.012910100969466123 -0.0010765146780552552 0 -0.012956291604183318 -0.001219646779204791 0 -0.01301542596684044 -0.0010854141925293931 0 -0.012910100969466123 -0.0010765146780552552 0 -0.012975597743743105 -0.00092064913668968231 0 -0.012691040481051387 -0.0010717361549057915 0 -0.012910100969466123 -0.0010765146780552552 0 -0.012975597743743105 -0.00092064913668968231 0 -0.012691040481051387 -0.0010717361549057915 0 -0.012910100969466123 -0.0010765146780552552 0 -0.012956291604183318 -0.001219646779204791 0 -0.012720580726064353 -0.00080261363835179697 0 -0.012691040481051387 -0.0010717361549057915 0 -0.012975597743743105 -0.00092064913668968231 0 -0.011897373601352176 -0.00060578962793058494 0 -0.012405059776485433 -0.00092756871156027796 0 -0.011897152796196572 -0.0013108071526457604 0 -0.011897373601352176 -0.00060578962793058494 0 -0.01259971217861193 -0.0004401743672577947 0 -0.012405059776485433 -0.00092756871156027796 0 -0.0088722256371404264 -0.00087742523747925147 0 -0.008797758193211852 -0.0013165038976580504 0 -0.0096811562674088587 -0.0011077207848300529 0 -0.0027844334098765366 -0.0010237570887963283 0 -0.0026028960725037009 -0.00092666149056293355 0 -0.0028539499401874107 -0.00072912010433257067 0 -0.0082181774814108089 -0.0010734818407788097 0 -0.0088722256371404264 -0.00087742523747925147 0 -0.008797758193211852 -0.0013165038976580504 0 -0.0027844334098765366 -0.0010237570887963283 0 -0.0024058038453590959 -0.0010973983347986258 0 -0.0026028960725037009 -0.00092666149056293355 0 -0.0060433432281703434 -0.0010251215025488716 0 -0.0073312601883095329 -0.00055181927287485807 0 -0.0023716415183452763 -0.0010873707845055903 0 -0.0024058038453590959 -0.0010973983347986258 0 -0.0026028960725037009 -0.00092666149056293355 0 -0.0070099472506375965 -0.00050171149391134082 0 -0.0073312601883095329 -0.00055181927287485807 0 -0.0070099472506375965 -0.00050171149391134082 0 -0.0047957001697074789 -0.0012006729888920373 0 -0.0031362141176846212 2.4419419921874739e-05 0 -0.0029559001837754415 -0.00025560506932468245 0 -0.0031108838616797745 -0.00019094074817072319 0 -0.0031108838616797745 -0.00019094074817072319 0 -0.0030015222758664533 -0.00044286806697688689 0 -0.003187574972946321 -0.00029905899124517345 0 -0.0029559001837754415 -0.00025560506932468245 0 -0.0031108838616797745 -0.00019094074817072319 0 -0.0030015222758664533 -0.00044286806697688689 0 -0.0029559001837754415 -0.00025560506932468245 0 -0.0030015222758664533 -0.00044286806697688689 0 -0.0028539499401874107 -0.00072912010433257067 0 -0.0030015222758664533 -0.00044286806697688689 0 -0.0028539499401874107 -0.00072912010433257067 0 -0.0029141512859810139 -0.00060851926110094357 0 -0.0047957001697074789 -0.0012006729888920373 0 -0.0042739887354484906 -0.0013186081750571307 0 -0.0030015222758664533 -0.00044286806697688689 0 -0.0029603046237067564 -0.00057455127091679179 0 -0.0029141512859810139 -0.00060851926110094357 0 -0.0029091778458274335 -0.00066404914650780328 0 -0.0028539499401874107 -0.00072912010433257067 0 -0.0029141512859810139 -0.00060851926110094357 0 -0.0029091778458274335 -0.00066404914650780328 0 -0.0029603046237067564 -0.00057455127091679179 0 -0.0029141512859810139 -0.00060851926110094357 0 -0.0030015222758664533 -0.00044286806697688689 0 -0.003098752979604625 -0.00049562972726955082 0 -0.003187574972946321 -0.00029905899124517345 0 -0.0030015222758664533 -0.00044286806697688689 0 -0.0029603046237067564 -0.00057455127091679179 0 -0.003098752979604625 -0.00049562972726955082 0 -0.0032800199483221768 -0.00043166084319743315 0 -0.003349286625402975 -0.00019258779390493512 0 -0.003187574972946321 -0.00029905899124517345 0 -0.003098752979604625 -0.00049562972726955082 0 -0.0032800199483221768 -0.00043166084319743315 0 -0.003187574972946321 -0.00029905899124517345 0 -0.0032800199483221768 -0.00043166084319743315 0 -0.0035374332872342663 -0.00025091474243893903 0 -0.003349286625402975 -0.00019258779390493512 0 -0.0033597547551859281 -0.00052540240405489263 0 -0.0032800199483221768 -0.00043166084319743315 0 -0.0035374332872342663 -0.00025091474243893903 0 -0.0034623532811539396 0.00011746892276913654 0 -0.0035374332872342663 -0.00025091474243893903 0 -0.003349286625402975 -0.00019258779390493512 0 -0.0034623532811539396 0.00011746892276913654 0 -0.0032502592208774861 -0.00010021669359981943 0 -0.003349286625402975 -0.00019258779390493512 0 -0.0032502592208774861 -0.00010021669359981943 0 -0.003349286625402975 -0.00019258779390493512 0 -0.003187574972946321 -0.00029905899124517345 0 -0.0032502592208774861 -0.00010021669359981943 0 -0.0031108838616797745 -0.00019094074817072319 0 -0.003187574972946321 -0.00029905899124517345 0 -0.0046693375949332545 0.0040708734836570823 0 -0.0042426378943016575 0.0027525395562648415 0 -0.005795135492565039 0.0025653946197021996 0 -0.0046693375949332545 0.0040708734836570823 0 -0.0029323130080449429 0.0030810135690093926 0 -0.0042426378943016575 0.0027525395562648415 0 -0.0084932792033592715 0.0031791479755933776 0 -0.009172437629600046 0.0036905342815988632 0 -0.0046693375949332545 0.0040708734836570823 0 -0.0064338453832801104 0.0042808106147826453 0 -0.005795135492565039 0.0025653946197021996 0 -0.0064338453832801104 0.0042808106147826453 0 -0.005795135492565039 0.0025653946197021996 0 -0.0077035941816711757 0.0040103287179999048 0 -0.0046693375949332545 0.0040708734836570823 0 -0.0056264525070915897 0.0048833279355950812 0 -0.0064338453832801104 0.0042808106147826453 0 -0.0056264525070915897 0.0048833279355950812 0 -0.0064338453832801104 0.0042808106147826453 0 -0.0063287934628405706 0.005480385952096517 0 -0.0064338453832801104 0.0042808106147826453 0 -0.0063287934628405706 0.005480385952096517 0 -0.0077103734490293289 0.0050138345660160856 0 -0.0064338453832801104 0.0042808106147826453 0 -0.0077035941816711757 0.0040103287179999048 0 -0.0077103734490293289 0.0050138345660160856 0 -0.0063287934628405706 0.005480385952096517 0 -0.0077103734490293289 0.0050138345660160856 0 -0.0071493456131253115 0.0062201138758627254 0 -0.0056264525070915897 0.0048833279355950812 0 -0.0063287934628405706 0.005480385952096517 0 -0.0051005900172898765 0.0059121179807491535 0 -0.0063287934628405706 0.005480385952096517 0 -0.0051005900172898765 0.0059121179807491535 0 -0.0060153207289089369 0.0065940775706866813 0 -0.0046693375949332545 0.0040708734836570823 0 -0.0051005900172898765 0.0059121179807491535 0 -0.0030341506746181233 0.0056141370841314544 0 -0.0046693375949332545 0.0040708734836570823 0 -0.0056264525070915897 0.0048833279355950812 0 -0.0051005900172898765 0.0059121179807491535 0 -0.00374157141051686 0.0068797206779207341 0 -0.0020862308383631308 0.0063494566883911755 0 -0.0029323130080449429 0.0030810135690093926 0 -0.00374157141051686 0.0068797206779207341 0 -0.0020862308383631308 0.0063494566883911755 0 -0.0025096862440019472 0.0082258373691127505 0 -0.00085474164104699772 0.005320976220991089 0 -0.0020862308383631308 0.0063494566883911755 0 -0.00021909100794984541 0.0074803328138009374 0 -0.00085474164104699772 0.005320976220991089 0 -0.00098918822697407214 0.003435506118554912 0 -0.0029323130080449429 0.0030810135690093926 0 -0.00085474164104699772 0.005320976220991089 0 -0.0020862308383631308 0.0063494566883911755 0 -0.0029323130080449429 0.0030810135690093926 0 -0.0031688740908234823 0.006512046583228401 0 -0.0029652092868862122 0.0049309952312120344 0 -0.0046693375949332545 0.0040708734836570823 0 -0.0030341506746181233 0.0056141370841314544 0 -0.0029323130080449429 0.0030810135690093926 0 -0.0029323130080449429 0.0030810135690093926 0 -0.00085705051546659838 0.0019454884477244194 0 -0.0036040516742157193 0.0012966131119606097 0 -0.0029323130080449429 0.0030810135690093926 0 -0.0036040516742157193 0.0012966131119606097 0 -0.0042426378943016575 0.0027525395562648415 0 -0.00098918822697407214 0.003435506118554912 0 -0.0029323130080449429 0.0030810135690093926 0 -0.00085705051546659838 0.0019454884477244194 0 -0.00085705051546659838 0.0019454884477244194 0 -0.0036040516742157193 0.0012966131119606097 0 -0.0011911407838586354 -0.00050687970910556367 0 -0.0073667042207510875 0.0023740727888226904 0 -0.0060072906251390744 0.0013989591660197353 0 -0.011905912584347906 0.0033529396000093977 0 -0.01211263384021859 0.0032423394048629178 0 -0.011297285817971294 0.00359860686988323 0 -0.011158196416123646 0.0036042510930193307 0 -0.011290370790683443 0.0035925338420210499 0 -0.011297285817971294 0.00359860686988323 0 -0.010893846881423343 0.0033422918472053309 0 -0.011158196416123646 0.0036042510930193307 0 -0.0073667042207510875 0.0023740727888226904 0 -0.0084932792033592715 0.0031791479755933776 0 -0.0036040516742157193 0.0012966131119606097 0 -0.0042426378943016575 0.0027525395562648415 0 -0.005795135492565039 0.0025653946197021996 0 -0.010893846881423343 0.0033422918472053309 0 -0.010576322475288939 0.003546682900415109 0 -0.011158196416123646 0.0036042510930193307 0 -0.010893846881423343 0.0033422918472053309 0 -0.010576322475288939 0.003546682900415109 0 -0.010126240755382949 0.0035631324448400399 0 -0.010576322475288939 0.003546682900415109 0 -0.011158196416123646 0.0036042510930193307 0 -0.010569380569794255 0.0037841838073879451 0 -0.011158196416123646 0.0036042510930193307 0 -0.010569380569794255 0.0037841838073879451 0 -0.011870987842949651 0.0038335163276017044 0 -0.011463271220488918 0.0036157220526810813 0 -0.011145187290540273 0.0036595577720466075 0 -0.011009031258781667 0.003567015131478812 0 -0.011463271220488918 0.0036157220526810813 0 -0.011145187290540273 0.0036595577720466075 0 -0.011263679434569844 0.0038172096813469608 0 -0.010873006667306504 0.0037441061799493745 0 -0.010848387766503438 0.0039888660287043303 0 -0.011190205101841105 0.0040413881546012961 0 -0.010872290622920297 0.0036473474963538894 0 -0.011145187290540273 0.0036595577720466075 0 -0.011263679434569844 0.0038172096813469608 0 -0.010872290622920297 0.0036473474963538894 0 -0.010873006667306504 0.0037441061799493745 0 -0.011190205101841105 0.0040413881546012961 0 -0.011257686891556934 0.0036848812661793274 0 -0.011434803022755177 0.0038142416698787583 0 -0.010873006667306504 0.0037441061799493745 0 -0.010571057276697368 0.0039025045144165135 0 -0.010848387766503438 0.0039888660287043303 0 -0.010872290622920297 0.0036473474963538894 0 -0.011145187290540273 0.0036595577720466075 0 -0.011009031258781667 0.003567015131478812 0 -0.010872290622920297 0.0036473474963538894 0 -0.010873006667306504 0.0037441061799493745 0 -0.010840131157393235 0.0034915586645415256 0 -0.010872290622920297 0.0036473474963538894 0 -0.011009031258781667 0.003567015131478812 0 -0.010840131157393235 0.0034915586645415256 0 -0.011009031258781667 0.003567015131478812 0 -0.010935704213901939 0.0034537310250735889 0 -0.010840131157393235 0.0034915586645415256 0 -0.011463271220488918 0.0036157220526810813 0 -0.011009031258781667 0.003567015131478812 0 -0.010935704213901939 0.0034537310250735889 0 -0.010576322475288939 0.003546682900415109 0 -0.010569380569794255 0.0037841838073879451 0 -0.010218677384657997 0.0035551872294106329 0 -0.010569380569794255 0.0037841838073879451 0 -0.0099187810246901924 0.0034956000720327836 0 -0.010218677384657997 0.0035551872294106329 0 -0.0099187810246901924 0.0034956000720327836 0 -0.010218677384657997 0.0035551872294106329 0 -0.0099324408402198024 0.0035618363427469373 0 -0.010968612787079172 0.0036623345540330535 0 -0.010766308983398656 0.0036170227520131016 0 -0.010576322475288939 0.003546682900415109 0 -0.010218677384657997 0.0035551872294106329 0 -0.010126240755382949 0.0035631324448400399 0 0.0027732619825354653 0.0055424223456675996 0 0.003014998310754996 0.0059988148481996545 0 -0.010176817123212311 0.0039411065244841434 0 -0.010398785971005409 0.0035560384984688344 0 -0.010006163023397008 0.0032990303668977029 0 -0.010176817123212311 0.0039411065244841434 0 -0.010006163023397008 0.0032990303668977029 0 -0.0096153255228049531 0.0040497905607147821 0 -0.010176817123212311 0.0039411065244841434 0 -0.010398785971005409 0.0035560384984688344 0 -0.010571057276697368 0.0039025045144165135 0 -0.010873006667306504 0.0037441061799493745 0 -0.010571057276697368 0.0039025045144165135 0 -0.0106145874099453 0.0035841083669316785 0 -0.010398785971005409 0.0035560384984688344 0 -0.010571057276697368 0.0039025045144165135 0 -0.0106145874099453 0.0035841083669316785 0 -0.0035635320354933373 0.0056364729405874187 0 -0.0022182597071110847 0.0056627310829988195 0 -0.010398785971005409 0.0035560384984688344 0 -0.010613076983894838 0.0031189251695504807 0 -0.010006163023397008 0.0032990303668977029 0 -0.010873006667306504 0.0037441061799493745 0 -0.0106145874099453 0.0035841083669316785 0 -0.010613076983894838 0.0031189251695504807 0 -0.010398785971005409 0.0035560384984688344 0 -0.0106145874099453 0.0035841083669316785 0 -0.010613076983894838 0.0031189251695504807 0 0.016772572343174679 0.0069691796249650101 0 0.016800954807850071 0.0066715172364461423 0 0.016480877387151652 0.0065333949990238971 0 0.0027732619825354653 0.0055424223456675996 0 0.0022916180546071942 0.0056903130098929031 0 0.016772572343174679 0.0069691796249650101 0 0.016800954807850071 0.0066715172364461423 0 0.017046852553270535 0.0067757888053342503 0 0.016800954807850071 0.0066715172364461423 0 0.016743293948672071 0.0064404836836979684 0 0.016930866202172948 0.006540780370105588 0 0.016800954807850071 0.0066715172364461423 0 0.016480877387151652 0.0065333949990238971 0 0.016743293948672071 0.0064404836836979684 0 -0.0022182597071110847 0.0056627310829988195 0 0.0022916180546071942 0.0056903130098929031 0 -0.010840131157393235 0.0034915586645415256 0 -0.010785681949567093 0.003816513549545228 0 -0.010685347322828189 0.0038513307445422517 0 -0.010613076983894838 0.0031189251695504807 0 -0.010006163023397008 0.0032990303668977029 0 -0.010389076353711942 0.0025305896693220645 0 0.015921190071571514 0.0075722623464969151 0 0.015348821084174406 0.0064359074399035349 0 0.016288823584747633 0.0065831366222639104 0 0.0022916180546071942 0.0056903130098929031 0 0.0010717724374726156 0.0087596215497818316 0 -0.010685347322828189 0.0038513307445422517 0 -0.010327190072695782 0.0040018521167979985 0 -0.010329445851563288 0.0049065101320468329 0 -0.010785681949567093 0.003816513549545228 0 -0.010685347322828189 0.0038513307445422517 0 -0.010329445851563288 0.0049065101320468329 0 0.0022916180546071942 0.0056903130098929031 0 0.0078697805253851397 0.0044793701901641933 0 0.016480877387151652 0.0065333949990238971 0 0.016743293948672071 0.0064404836836979684 0 0.016571866436651563 0.0061175665815730246 0 0.016743293948672071 0.0064404836836979684 0 0.016571866436651563 0.0061175665815730246 0 0.0169679540666017 0.0063327161297809494 0 0.016743293948672071 0.0064404836836979684 0 0.016930866202172948 0.006540780370105588 0 0.0169679540666017 0.0063327161297809494 0 -0.010893846881423343 0.0033422918472053309 0 -0.010126240755382949 0.0035631324448400399 0 -0.0093647511774416943 0.0038665415817388045 0 -0.005795135492565039 0.0025653946197021996 0 -0.0077035941816711757 0.0040103287179999048 0 -0.0093647511774416943 0.0038665415817388045 0 -0.0097860806010529912 0.0036744218704609496 0 -0.010126240755382949 0.0035631324448400399 0 -0.0093647511774416943 0.0038665415817388045 0 -0.0097860806010529912 0.0036744218704609496 0 -0.0096604939799081642 0.0037646644082873944 0 -0.0098216066225270387 0.0037258007042000729 0 -0.0096604939799081642 0.0037646644082873944 0 -0.0096438019759263107 0.0038489610785163359 0 -0.0098216066225270387 0.0037258007042000729 0 -0.0096604939799081642 0.0037646644082873944 0 -0.0096438019759263107 0.0038489610785163359 0 -0.0093647511774416943 0.0038665415817388045 0 -0.0097860806010529912 0.0036744218704609496 0 -0.0096604939799081642 0.0037646644082873944 0 -0.0093647511774416943 0.0038665415817388045 0 -0.0097860806010529912 0.0036744218704609496 0 -0.0099324408402198024 0.0035618363427469373 0 -0.0098216066225270387 0.0037258007042000729 0 -0.0097860806010529912 0.0036744218704609496 0 -0.010126240755382949 0.0035631324448400399 0 -0.0099324408402198024 0.0035618363427469373 0 -0.010218677384657997 0.0035551872294106329 0 -0.010126240755382949 0.0035631324448400399 0 -0.0099324408402198024 0.0035618363427469373 0 -0.0099187810246901924 0.0034956000720327836 0 -0.0099460402052017338 0.0036156146859984447 0 -0.010162855819860026 0.0037437589155460754 0 -0.010935704213901939 0.0034537310250735889 0 -0.010840131157393235 0.0034915586645415256 0 -0.010685347322828189 0.0038513307445422517 0 -0.0099187810246901924 0.0034956000720327836 0 -0.010685347322828189 0.0038513307445422517 0 -0.010162855819860026 0.0037437589155460754 0 -0.010766308983398656 0.0036170227520131016 0 -0.010797202373098263 0.0037162794558028411 0 -0.0099324408402198024 0.0035618363427469373 0 -0.0099460402052017338 0.0036156146859984447 0 -0.0098216066225270387 0.0037258007042000729 0 -0.0099187810246901924 0.0034956000720327836 0 -0.0099324408402198024 0.0035618363427469373 0 -0.0099460402052017338 0.0036156146859984447 0 -0.010685347322828189 0.0038513307445422517 0 -0.010162855819860026 0.0037437589155460754 0 -0.010327190072695782 0.0040018521167979985 0 -0.010162855819860026 0.0037437589155460754 0 -0.0098216066225270387 0.0037258007042000729 0 -0.010005346037042461 0.0040505858433720282 0 -0.0099460402052017338 0.0036156146859984447 0 -0.010162855819860026 0.0037437589155460754 0 -0.0098216066225270387 0.0037258007042000729 0 -0.0098216066225270387 0.0037258007042000729 0 -0.0097698772621125363 0.0039164794173127074 0 -0.010005346037042461 0.0040505858433720282 0 -0.0096438019759263107 0.0038489610785163359 0 -0.0098216066225270387 0.0037258007042000729 0 -0.0097698772621125363 0.0039164794173127074 0 -0.0021943465342617453 0.0088707108173276487 0 0.0010717724374726156 0.0087596215497818316 0 -0.0097698772621125363 0.0039164794173127074 0 -0.010005346037042461 0.0040505858433720282 0 -0.0095759122036209749 0.0040844316284322935 0 -0.010005346037042461 0.0040505858433720282 0 -0.010327190072695782 0.0040018521167979985 0 -0.010329445851563288 0.0049065101320468329 0 -0.0095759122036209749 0.0040844316284322935 0 -0.0096206530770822953 0.0060759280158206794 0 -0.011263018977629304 0.006918069851012917 0 -0.010005346037042461 0.0040505858433720282 0 -0.0095759122036209749 0.0040844316284322935 0 -0.010329445851563288 0.0049065101320468329 0 -0.010162855819860026 0.0037437589155460754 0 -0.010005346037042461 0.0040505858433720282 0 -0.010327190072695782 0.0040018521167979985 0 -0.0088996618617840605 0.0055286426154708829 0 -0.0095759122036209749 0.0040844316284322935 0 -0.0096206530770822953 0.0060759280158206794 0 -0.0088996618617840605 0.0055286426154708829 0 -0.0090151604430662759 0.0045604794322106146 0 -0.0085270404551008247 0.0050033893698125395 0 -0.0088996618617840605 0.0055286426154708829 0 -0.0090151604430662759 0.0045604794322106146 0 -0.0095759122036209749 0.0040844316284322935 0 -0.0090151604430662759 0.0045604794322106146 0 -0.0084711268105995708 0.004499097873586811 0 -0.0085270404551008247 0.0050033893698125395 0 -0.0090151604430662759 0.0045604794322106146 0 -0.0093647511774416943 0.0038665415817388045 0 -0.0084711268105995708 0.004499097873586811 0 -0.0096438019759263107 0.0038489610785163359 0 -0.0093647511774416943 0.0038665415817388045 0 -0.0095759122036209749 0.0040844316284322935 0 -0.0090151604430662759 0.0045604794322106146 0 -0.0093647511774416943 0.0038665415817388045 0 -0.0095759122036209749 0.0040844316284322935 0 -0.0096438019759263107 0.0038489610785163359 0 -0.0097698772621125363 0.0039164794173127074 0 -0.0095759122036209749 0.0040844316284322935 0 -0.0077035941816711757 0.0040103287179999048 0 -0.0084711268105995708 0.004499097873586811 0 -0.0077103734490293289 0.0050138345660160856 0 -0.0077035941816711757 0.0040103287179999048 0 -0.0093647511774416943 0.0038665415817388045 0 -0.0084711268105995708 0.004499097873586811 0 -0.0084711268105995708 0.004499097873586811 0 -0.0077103734490293289 0.0050138345660160856 0 -0.0085270404551008247 0.0050033893698125395 0 -0.0077103734490293289 0.0050138345660160856 0 -0.0081277529131539867 0.0057343177402961543 0 -0.0071493456131253115 0.0062201138758627254 0 -0.0077103734490293289 0.0050138345660160856 0 -0.0085270404551008247 0.0050033893698125395 0 -0.0081277529131539867 0.0057343177402961543 0 -0.0088996618617840605 0.0055286426154708829 0 -0.0085270404551008247 0.0050033893698125395 0 -0.0081277529131539867 0.0057343177402961543 0 -0.0081277529131539867 0.0057343177402961543 0 -0.0082236021084091757 0.0068025544455242353 0 -0.0071493456131253115 0.0062201138758627254 0 -0.0088996618617840605 0.0055286426154708829 0 -0.0081277529131539867 0.0057343177402961543 0 -0.0082236021084091757 0.0068025544455242353 0 -0.0082236021084091757 0.0068025544455242353 0 -0.0078753798047626247 0.0086449589590755702 0 -0.0066410967052662482 0.0076279397285945495 0 -0.0082236021084091757 0.0068025544455242353 0 -0.0092189152082329355 0.0075821993608667908 0 -0.0078753798047626247 0.0086449589590755702 0 -0.0082236021084091757 0.0068025544455242353 0 -0.0092189152082329355 0.0075821993608667908 0 -0.0096206530770822953 0.0060759280158206794 0 -0.0088996618617840605 0.0055286426154708829 0 -0.0082236021084091757 0.0068025544455242353 0 -0.0096206530770822953 0.0060759280158206794 0 -0.0092189152082329355 0.0075821993608667908 0 -0.0096206530770822953 0.0060759280158206794 0 -0.011263018977629304 0.006918069851012917 0 -0.0092189152082329355 0.0075821993608667908 0 -0.011263018977629304 0.006918069851012917 0 -0.0096328982176267699 0.0098079320054669673 0 0.0010717724374726156 0.0087596215497818316 0 -9.7832093480689994e-05 0.012263544243070761 0 0.0057953907019397998 0.021559018872001456 0 0.0044382414345225099 0.018949423714838234 0 0.0060351279238311482 0.018822117479231657 0 -0.0092189152082329355 0.0075821993608667908 0 -0.0096328982176267699 0.0098079320054669673 0 -0.0078753798047626247 0.0086449589590755702 0 -0.0096328982176267699 0.0098079320054669673 0 -0.0078753798047626247 0.0086449589590755702 0 -0.007479610912643435 0.010517492156382893 0 0.016571866436651563 0.0061175665815730246 0 0.017056980906174576 0.0061025951729083826 0 0.01702245654500854 0.0057762959506001176 0 0.0078697805253851397 0.0044793701901641933 0 0.0094857203926695371 0.0041909275978873652 0 0.016571866436651563 0.0061175665815730246 0 0.0169679540666017 0.0063327161297809494 0 0.017056980906174576 0.0061025951729083826 0 0.015348821084174406 0.0064359074399035349 0 0.016288823584747633 0.0065831366222639104 0 0.016082462758637974 0.005524554362622669 0 0.0057953907019397998 0.021559018872001456 0 0.007456035906137466 0.019401200950190146 0 0.0060351279238311482 0.018822117479231657 0 0.0010717724374726156 0.0087596215497818316 0 0.0074265275121286247 0.0096416069299256821 0 0.016288823584747633 0.0065831366222639104 0 0.016082462758637974 0.005524554362622669 0 0.016646116370898842 0.0055984554629920774 0 0.016571866436651563 0.0061175665815730246 0 0.016646116370898842 0.0055984554629920774 0 0.01702245654500854 0.0057762959506001176 0 0.016082462758637974 0.005524554362622669 0 0.016646116370898842 0.0055984554629920774 0 0.016608804473190828 0.0052544760711131303 0 0.016646116370898842 0.0055984554629920774 0 0.016840780280365474 0.0052752566937001623 0 0.016608804473190828 0.0052544760711131303 0 0.016646116370898842 0.0055984554629920774 0 0.016840780280365474 0.0052752566937001623 0 0.016915579166160578 0.0055177794403798008 0 0.016646116370898842 0.0055984554629920774 0 0.016915579166160578 0.0055177794403798008 0 0.01702245654500854 0.0057762959506001176 0 0.007456035906137466 0.019401200950190146 0 0.0091596013853537123 0.01724693339900964 0 0.0089764950277563191 0.017342536517524321 0 0.016082462758637974 0.005524554362622669 0 0.016685724262949616 0.00479993104193043 0 0.016608804473190828 0.0052544760711131303 0 0.007456035906137466 0.019401200950190146 0 0.0089764950277563191 0.017342536517524321 0 0.0071688700454457972 0.01749033591515331 0 0.0074265275121286247 0.0096416069299256821 0 0.011230413510582932 0.0097355850361610478 0 0.0091667567091164234 0.017250609521487745 0 0.0089764950277563191 0.017342536517524321 0 0.009029457777839249 0.016800712805002092 0 0.011230413510582932 0.0097355850361610478 0 0.011209608854426879 0.0097548338303550322 0 0.016685724262949616 0.00479993104193043 0 0.016759015196950444 0.0050787767626086777 0 0.016968587131218026 0.0049472277003312125 0 0.016759015196950444 0.0050787767626086777 0 0.016840780280365474 0.0052752566937001623 0 0.016968587131218026 0.0049472277003312125 0 0.016685724262949616 0.00479993104193043 0 0.016759015196950444 0.0050787767626086777 0 0.016608804473190828 0.0052544760711131303 0 0.016759015196950444 0.0050787767626086777 0 0.016840780280365474 0.0052752566937001623 0 0.016608804473190828 0.0052544760711131303 0 0.0089764950277563191 0.017342536517524321 0 0.0071688700454457972 0.01749033591515331 0 0.0084584750066220311 0.016498918148023747 0 0.007456035906137466 0.019401200950190146 0 0.0071688700454457972 0.01749033591515331 0 0.0060351279238311482 0.018822117479231657 0 0.0071688700454457972 0.01749033591515331 0 0.0060351279238311482 0.018822117479231657 0 0.0054220590834781748 0.017064806973923308 0 0.0070049703508309981 0.016097280923727558 0 0.0081324745194351986 0.015326210340921874 0 0.005767379117442642 0.015014800291432272 0 0.0070049703508309981 0.016097280923727558 0 0.0054220590834781748 0.017064806973923308 0 0.005767379117442642 0.015014800291432272 0 0.0071688700454457972 0.01749033591515331 0 0.0070049703508309981 0.016097280923727558 0 0.0054220590834781748 0.017064806973923308 0 0.0071688700454457972 0.01749033591515331 0 0.0070049703508309981 0.016097280923727558 0 0.0084584750066220311 0.016498918148023747 0 0.0084584750066220311 0.016498918148023747 0 0.0081324745194351986 0.015326210340921874 0 0.0093033575863062708 0.016063482254343165 0 0.0070049703508309981 0.016097280923727558 0 0.0084584750066220311 0.016498918148023747 0 0.0081324745194351986 0.015326210340921874 0 0.0081324745194351986 0.015326210340921874 0 0.0093033575863062708 0.016063482254343165 0 0.0096752488203206751 0.015043205339010171 0 0.0093033575863062708 0.016063482254343165 0 0.009029457777839249 0.016800712805002092 0 0.0095282255057428274 0.01682921056802102 0 0.0084584750066220311 0.016498918148023747 0 0.0093033575863062708 0.016063482254343165 0 0.009029457777839249 0.016800712805002092 0 0.0089764950277563191 0.017342536517524321 0 0.0084584750066220311 0.016498918148023747 0 0.009029457777839249 0.016800712805002092 0 0.0091667567091164234 0.017250609521487745 0 0.009029457777839249 0.016800712805002092 0 0.0095282255057428274 0.01682921056802102 0 0.011230413510582932 0.0097355850361610478 0 0.011108218662269062 0.0099393939700849927 0 -9.7832093480689994e-05 0.012263544243070761 0 -0.00070582860168297745 0.012845221493468156 0 -0.0096328982176267699 0.0098079320054669673 0 -0.007479610912643435 0.010517492156382893 0 -0.0079668676687683678 0.012917350324941184 0 0.0044382414345225099 0.018949423714838234 0 0.0060351279238311482 0.018822117479231657 0 0.0054220590834781748 0.017064806973923308 0 0.0044382414345225099 0.018949423714838234 0 0.0054220590834781748 0.017064806973923308 0 0.0030651100585401109 0.016310807825404509 0 -0.00070582860168297745 0.012845221493468156 0 0.0036863295521929072 0.013095150515040004 0 0.0054220590834781748 0.017064806973923308 0 0.0030651100585401109 0.016310807825404509 0 0.005767379117442642 0.015014800291432272 0 0.0012664153043110697 0.017179993640615666 0 0.0050212551922938792 0.015356752508052719 0 0.0021374647567487283 0.014410333559793776 0 -0.00070582860168297745 0.012845221493468156 0 -0.00093132494494867679 0.012627807234840274 0 -0.0026870163370868311 0.01104174938942225 0 -0.0025962424163115234 0.011064283914473009 0 -0.0024666755630174809 0.011180378110476846 0 -0.0025962424163115234 0.011064283914473009 0 -0.0029338834380395352 0.011086835978111796 0 -0.0028314070842957034 0.010976410687380131 0 -0.00070582860168297745 0.012845221493468156 0 -0.0021851718337227276 0.01278290209491101 0 -0.0026870163370868311 0.01104174938942225 0 -0.0025962424163115234 0.011064283914473009 0 -0.0028314070842957034 0.010976410687380131 0 -0.0029338834380395352 0.011086835978111796 0 -0.0027186194146169621 0.010970765901665271 0 -0.0023485189427840374 0.011167936290209138 0 -0.0025962424163115234 0.011064283914473009 0 -0.0029338834380395352 0.011086835978111796 0 -0.0023485189427840374 0.011167936290209138 0 -0.0034286399671861574 0.010002522908032377 0 -0.0033868009136915787 0.008929449114009726 0 -0.0029338834380395352 0.011086835978111796 0 -0.0034699856404390148 0.010523725763267785 0 -0.0028314070842957034 0.010976410687380131 0 -0.0029338834380395352 0.011086835978111796 0 -0.0034699856404390148 0.010523725763267785 0 -0.0032209377977705893 0.0093171613260433529 0 -0.0024012280011097647 0.012629426108120217 0 -0.0021851718337227276 0.01278290209491101 0 -0.0034699856404390148 0.010523725763267785 0 -0.0059001253825747262 0.011924297207834772 0 -0.0059684764044155908 0.0093817322249179561 0 -0.007479610912643435 0.010517492156382893 0 -0.0059001253825747262 0.011924297207834772 0 -0.0059684764044155908 0.0093817322249179561 0 -0.007479610912643435 0.010517492156382893 0 -0.0079668676687683678 0.012917350324941184 0 -0.0059001253825747262 0.011924297207834772 0 -0.0078753798047626247 0.0086449589590755702 0 -0.007479610912643435 0.010517492156382893 0 -0.0059684764044155908 0.0093817322249179561 0 -0.0078753798047626247 0.0086449589590755702 0 -0.0059684764044155908 0.0093817322249179561 0 -0.0066410967052662482 0.0076279397285945495 0 -0.0059684764044155908 0.0093817322249179561 0 -0.0048654451188600879 0.0077646356745840863 0 -0.0066410967052662482 0.0076279397285945495 0 -0.0034699856404390148 0.010523725763267785 0 -0.0059684764044155908 0.0093817322249179561 0 -0.0043347639181291328 0.0092788116298488203 0 -0.0034699856404390148 0.010523725763267785 0 -0.0043347639181291328 0.0092788116298488203 0 -0.0032209377977705893 0.0093171613260433529 0 -0.0043347639181291328 0.0092788116298488203 0 -0.0048654451188600879 0.0077646356745840863 0 -0.0032209377977705893 0.0093171613260433529 0 -0.0059684764044155908 0.0093817322249179561 0 -0.0043347639181291328 0.0092788116298488203 0 -0.0048654451188600879 0.0077646356745840863 0 -0.0051005900172898765 0.0059121179807491535 0 -0.0030341506746181233 0.0056141370841314544 0 -0.0048654451188600879 0.0077646356745840863 0 -0.0030341506746181233 0.0056141370841314544 0 -0.0048654451188600879 0.0077646356745840863 0 -0.0032209377977705893 0.0093171613260433529 0 -0.0051005900172898765 0.0059121179807491535 0 -0.0048654451188600879 0.0077646356745840863 0 -0.0060153207289089369 0.0065940775706866813 0 -0.0082236021084091757 0.0068025544455242353 0 -0.0071493456131253115 0.0062201138758627254 0 -0.0066410967052662482 0.0076279397285945495 0 -0.0060153207289089369 0.0065940775706866813 0 -0.0071493456131253115 0.0062201138758627254 0 -0.0066410967052662482 0.0076279397285945495 0 -0.0063287934628405706 0.005480385952096517 0 -0.0060153207289089369 0.0065940775706866813 0 -0.0071493456131253115 0.0062201138758627254 0 -0.0048654451188600879 0.0077646356745840863 0 -0.0060153207289089369 0.0065940775706866813 0 -0.0066410967052662482 0.0076279397285945495 0 -0.0020862308383631308 0.0063494566883911755 0 -0.0025096862440019472 0.0082258373691127505 0 -0.00021909100794984541 0.0074803328138009374 0 -0.0025096862440019472 0.0082258373691127505 0 -0.00021909100794984541 0.0074803328138009374 0 -0.00033179292421115538 0.010361931304816637 0 -0.00374157141051686 0.0068797206779207341 0 -0.0025096862440019472 0.0082258373691127505 0 -0.00364234293411244 0.0098376408985039378 0 -0.0031688740908234823 0.006512046583228401 0 -0.0033868009136915787 0.008929449114009726 0 -0.0025096862440019472 0.0082258373691127505 0 -0.00364234293411244 0.0098376408985039378 0 -0.0027272819023847813 0.0098535552702685159 0 -0.0013327148985079126 0.0084956013638937278 0 -0.00037959275155486537 0.0091131103632303319 0 -0.0025096862440019472 0.0082258373691127505 0 -0.0027272819023847813 0.0098535552702685159 0 -0.0022069715585813767 0.010262269684838206 0 -0.0027012144252918278 0.010685287679516859 0 -0.0025957679445799734 0.01068366616052378 0 -0.0022069715585813767 0.010262269684838206 0 -0.0027272819023847813 0.0098535552702685159 0 -0.0027012144252918278 0.010685287679516859 0 -0.0022069715585813767 0.010262269684838206 0 -0.0029338834380395352 0.011086835978111796 0 -0.00364234293411244 0.0098376408985039378 0 -0.0027012144252918278 0.010685287679516859 0 -0.00364234293411244 0.0098376408985039378 0 -0.0027272819023847813 0.0098535552702685159 0 -0.0027012144252918278 0.010685287679516859 0 -0.0027012144252918278 0.010685287679516859 0 -0.0027186194146169621 0.010970765901665271 0 -0.0027196455153964557 0.010803521414477303 0 -0.0029338834380395352 0.011086835978111796 0 -0.0027012144252918278 0.010685287679516859 0 -0.0027186194146169621 0.010970765901665271 0 -0.0027012144252918278 0.010685287679516859 0 -0.0025957679445799734 0.01068366616052378 0 -0.0027196455153964557 0.010803521414477303 0 -0.0025957679445799734 0.01068366616052378 0 -0.0027797476746483254 0.010673079014569604 0 -0.0027196455153964557 0.010803521414477303 0 0.0017254452645084353 0.012656010046820368 0 0.0034690584407918129 0.010211540655455539 0 -0.00033179292421115538 0.010361931304816637 0 -0.0025957679445799734 0.01068366616052378 0 -0.0028817239288496011 0.010784253755657483 0 -0.0027797476746483254 0.010673079014569604 0 0.001591909507170107 0.0092886582872172378 0 -0.00037959275155486537 0.0091131103632303319 0 -0.0025957679445799734 0.01068366616052378 0 -0.0028817239288496011 0.010784253755657483 0 -0.0022069715585813767 0.010262269684838206 0 0.001591909507170107 0.0092886582872172378 0 0.0046401534526923673 0.0071666431572467038 0 0.0017254452645084353 0.012656010046820368 0 0.0049454179339964346 0.01296937164718792 0 0.0037862422901799218 0.014992013526310032 0 0.0095934624010764885 0.0031280713924071611 0 0.0081403225467196506 0.0026058212108825687 0 0.0085027356293017314 0.004880926547863213 0 0.0095934624010764885 0.0031280713924071611 0 0.0081403225467196506 0.0026058212108825687 0 0.0097116803607117837 0.0020096663473261308 0 0.0054606624224890514 0.0070277291120653118 0 0.0055149749904440338 0.006595446936469785 0 0.0049454179339964346 0.01296937164718792 0 0.0034690584407918129 0.010211540655455539 0 0.0061210421113272705 0.010929179627318722 0 0.0017254452645084353 0.012656010046820368 0 0.0049454179339964346 0.01296937164718792 0 0.0034690584407918129 0.010211540655455539 0 0.0034690584407918129 0.010211540655455539 0 0.005311798853772913 0.0093098607716082058 0 0.0061210421113272705 0.010929179627318722 0 0.0034690584407918129 0.010211540655455539 0 0.005311798853772913 0.0093098607716082058 0 0.0043448390678975501 0.007221205080930296 0 0.005311798853772913 0.0093098607716082058 0 0.0043448390678975501 0.007221205080930296 0 0.0073140745941119439 0.0088609037399116335 0 0.0056476595294411231 0.0063387343149552966 0 0.0050453338535289662 0.0053492700574948055 0 0.0034690584407918129 0.010211540655455539 0 0.0043448390678975501 0.007221205080930296 0 0.0018230669138734374 0.0082412938942942968 0 0.0043448390678975501 0.007221205080930296 0 0.0018230669138734374 0.0082412938942942968 0 0.0018692319057224743 0.0059053868563268431 0 0.0018230669138734374 0.0082412938942942968 0 -0.00021909100794984541 0.0074803328138009374 0 0.0018692319057224743 0.0059053868563268431 0 0.0034690584407918129 0.010211540655455539 0 0.0018230669138734374 0.0082412938942942968 0 -0.00033179292421115538 0.010361931304816637 0 0.0018230669138734374 0.0082412938942942968 0 -0.00021909100794984541 0.0074803328138009374 0 -0.00033179292421115538 0.010361931304816637 0 0.00030811255034343123 0.0030148675678485525 0 7.3175729123146153e-05 0.0030453269322388817 0 0.00014138011799987913 0.0028681524008669734 0 0.00071643513223107469 0.0032168612182168787 0 0.001797590978425303 0.0037518137185383366 0 0.0012502476132773242 0.0032266468518757493 0 0.0033926345501231179 0.0044262348414318706 0 0.0023178352315904828 0.003012555826043655 0 0.0033926345501231179 0.0044262348414318706 0 0.0032388552783003469 0.0026075032316539275 0 0.0042478807244501855 0.002905383569950785 0 0.0033926345501231179 0.0044262348414318706 0 0.0023178352315904828 0.003012555826043655 0 0.0032388552783003469 0.0026075032316539275 0 0.0023178352315904828 0.003012555826043655 0 0.002355906594162223 0.0021287382316922169 0 0.0032388552783003469 0.0026075032316539275 0 0.002355906594162223 0.0021287382316922169 0 0.0032388552783003469 0.0026075032316539275 0 0.0029214000661517241 0.0015792801656424515 0 0.0032388552783003469 0.0026075032316539275 0 0.0029214000661517241 0.0015792801656424515 0 0.0038584968235584084 0.0017559238702171145 0 0.0032388552783003469 0.0026075032316539275 0 0.0042478807244501855 0.002905383569950785 0 0.0038584968235584084 0.0017559238702171145 0 0.0042478807244501855 0.002905383569950785 0 0.0052512029698806974 0.0021223817854895076 0 0.0053172051438918049 0.0039267383379013076 0 0.0042478807244501855 0.002905383569950785 0 0.0052512029698806974 0.0021223817854895076 0 0.0038584968235584084 0.0017559238702171145 0 0.0033926345501231179 0.0044262348414318706 0 0.0042478807244501855 0.002905383569950785 0 0.0053172051438918049 0.0039267383379013076 0 0.0033926345501231179 0.0044262348414318706 0 0.0053172051438918049 0.0039267383379013076 0 0.0054253120492525056 0.0055979708121251413 0 0.001797590978425303 0.0037518137185383366 0 0.0030105492206939262 0.0043493618498418561 0 0.0053172051438918049 0.0039267383379013076 0 0.0068024919471636504 0.0048517913162986707 0 0.0054253120492525056 0.0055979708121251413 0 0.0053172051438918049 0.0039267383379013076 0 0.0068024919471636504 0.0048517913162986707 0 0.0067020276713774356 0.0032293667797236017 0 0.0052512029698806974 0.0021223817854895076 0 0.0053172051438918049 0.0039267383379013076 0 0.0067020276713774356 0.0032293667797236017 0 0.0052512029698806974 0.0021223817854895076 0 0.0067020276713774356 0.0032293667797236017 0 0.0062916257855493768 0.0010939130285090878 0 0.0067020276713774356 0.0032293667797236017 0 0.0081403225467196506 0.0026058212108825687 0 0.0062916257855493768 0.0010939130285090878 0 0.0067020276713774356 0.0032293667797236017 0 0.0081403225467196506 0.0026058212108825687 0 0.0085027356293017314 0.004880926547863213 0 0.0068024919471636504 0.0048517913162986707 0 0.0067020276713774356 0.0032293667797236017 0 0.0085027356293017314 0.004880926547863213 0 0.005311798853772913 0.0093098607716082058 0 0.0061210421113272705 0.010929179627318722 0 0.0073140745941119439 0.0088609037399116335 0 0.0055149749904440338 0.006595446936469785 0 0.0050453338535289662 0.0053492700574948055 0 0.0068024919471636504 0.0048517913162986707 0 0.0085027356293017314 0.004880926547863213 0 0.0074403910650815497 0.006716281481723407 0 0.007099023388468787 0.0086746216859227461 0 0.0084095628814370802 0.006352765904877997 0 0.0066717019685482073 0.0068971439622092998 0 0.0043448390678975501 0.007221205080930296 0 0.007099023388468787 0.0086746216859227461 0 0.0066717019685482073 0.0068971439622092998 0 0.0050453338535289662 0.0053492700574948055 0 0.0038765680077301064 0.0040997538013207808 0 -0.00047840190272249435 0.0027345303351367532 0 -0.00018447094052449802 0.0026079821623607967 0 -0.00030793011971848088 0.0024263003949851103 0 -0.00047840190272249435 0.0027345303351367532 0 -0.00020559330737994271 0.0028877417436272723 0 -0.00018447094052449802 0.0026079821623607967 0 0.0050453338535289662 0.0053492700574948055 0 0.0030105492206939262 0.0043493618498418561 0 0.0068024919471636504 0.0048517913162986707 0 0.0074403910650815497 0.006716281481723407 0 0.0054253120492525056 0.0055979708121251413 0 -0.00020559330737994271 0.0028877417436272723 0 -1.3820701350951355e-05 0.0027546805862279965 0 -0.00018447094052449802 0.0026079821623607967 0 7.3175729123146153e-05 0.0030453269322388817 0 -0.00020559330737994271 0.0028877417436272723 0 -1.3820701350951355e-05 0.0027546805862279965 0 -1.3820701350951355e-05 0.0027546805862279965 0 -0.00018447094052449802 0.0026079821623607967 0 -1.2522934022144397e-05 0.0025118131844896665 0 -1.2522934022144397e-05 0.0025118131844896665 0 0.00021379363138801844 0.0026693786159910594 0 0.00013085280801450525 0.0023632863324043333 0 -0.0002281819292093462 0.0024720999861075578 0 -0.00084505184802254074 0.0015578891079496384 0 -0.00028523172525586805 0.0021408875199317103 0 -0.0002929760847127556 0.0024318575280815129 0 -0.00053996498815759469 0.0015090248414346317 0 -1.3820701350951355e-05 0.0027546805862279965 0 -1.2522934022144397e-05 0.0025118131844896665 0 0.00021379363138801844 0.0026693786159910594 0 -0.0001472047029804583 0.0028109435638680011 0 -0.00028523172525586805 0.0021408875199317103 0 -0.0002929760847127556 0.0024318575280815129 0 -1.3820701350951355e-05 0.0027546805862279965 0 0.00021379363138801844 0.0026693786159910594 0 0.00014138011799987913 0.0028681524008669734 0 7.3175729123146153e-05 0.0030453269322388817 0 -1.3820701350951355e-05 0.0027546805862279965 0 0.00014138011799987913 0.0028681524008669734 0 0.00030811255034343123 0.0030148675678485525 0 0.00021379363138801844 0.0026693786159910594 0 0.00014138011799987913 0.0028681524008669734 0 -0.0025632010607163705 -0.0017898231146276596 0 -0.0016934064181568038 -0.0023456528975845975 0 -0.0017981393873177072 -0.0028666459075930603 0 8.6104511326422922e-05 0.0021554274087103313 0 4.2642703641716449e-05 0.0021510710133177072 0 4.6814878955546892e-05 0.0020004680075094449 0 4.2642703641716449e-05 0.0021510710133177072 0 0.00010048216603915846 0.0023297253313931433 0 -8.8591497939038668e-05 0.0023397760634022097 0 -0.00086064409863736394 0.0015742718857753664 0 -0.00099023193152682296 0.0013085695426198393 0 4.2642703641716449e-05 0.0021510710133177072 0 0.00010357997350558096 0.0022522941856638582 0 7.8956614060811891e-05 0.0022868885582398367 0 8.6104511326422922e-05 0.0021554274087103313 0 4.2642703641716449e-05 0.0021510710133177072 0 0.00010357997350558096 0.0022522941856638582 0 -0.0016630078465744305 0.00057239994290449268 0 -0.0012556470478186854 0.00094393394965547827 0 -0.00094919287602291617 0.0018496463081819463 0 -0.0010568872315227529 0.0013158076141224393 0 -0.0010979049373792261 0.0014774426955607538 0 -0.00063701951920022194 0.0019820636074734453 0 -0.0012556470478186854 0.00094393394965547827 0 -0.0010568872315227529 0.0013158076141224393 0 -0.0010979049373792261 0.0014774426955607538 0 -0.0011176425141341338 0.0014026652843016679 0 -0.0012556470478186854 0.00094393394965547827 0 -0.00099023193152682296 0.0013085695426198393 0 -0.00084505184802254074 0.0015578891079496384 0 -0.00099023193152682296 0.0013085695426198393 0 -0.00063701951920022194 0.0019820636074734453 0 -0.00084505184802254074 0.0015578891079496384 0 -1.2522934022144397e-05 0.0025118131844896665 0 0.00013085280801450525 0.0023632863324043333 0 0.00011942880195725264 0.0023208646361976191 0 -0.0009372380728664522 0.0014871923758474812 0 -0.00099023193152682296 0.0013085695426198393 0 -8.8591497939038668e-05 0.0023397760634022097 0 -0.00013925028111825364 0.002128584565297268 0 -0.00030793011971848088 0.0024263003949851103 0 -0.00018447094052449802 0.0026079821623607967 0 -1.2522934022144397e-05 0.0025118131844896665 0 -8.8591497939038668e-05 0.0023397760634022097 0 -0.00018447094052449802 0.0026079821623607967 0 -8.8591497939038668e-05 0.0023397760634022097 0 -0.00030793011971848088 0.0024263003949851103 0 -1.2522934022144397e-05 0.0025118131844896665 0 0.00010048216603915846 0.0023297253313931433 0 -8.8591497939038668e-05 0.0023397760634022097 0 4.2642703641716449e-05 0.0021510710133177072 0 -8.8591497939038668e-05 0.0023397760634022097 0 -0.00013925028111825364 0.002128584565297268 0 4.2642703641716449e-05 0.0021510710133177072 0 -0.00013925028111825364 0.002128584565297268 0 4.6814878955546892e-05 0.0020004680075094449 0 0.0028323535330214062 0.0023002054389086634 0 0.0038765680077301064 0.0040997538013207808 0 0.0096900110913148967 0.004004525727703199 0 0.0080051308947039577 0.0046139643340278123 0 0.0073393163149624166 0.0030041457738268955 0 0.0096900110913148967 0.004004525727703199 0 0.0080051308947039577 0.0046139643340278123 0 0.0084095628814370802 0.006352765904877997 0 0.0080051308947039577 0.0046139643340278123 0 0.0084095628814370802 0.006352765904877997 0 0.006582961344553287 0.0050970737694630893 0 0.0084095628814370802 0.006352765904877997 0 0.0066717019685482073 0.0068971439622092998 0 0.006582961344553287 0.0050970737694630893 0 0.006582961344553287 0.0050970737694630893 0 0.0073393163149624166 0.0030041457738268955 0 0.0044431993590935233 0.0040253889342590264 0 0.0080051308947039577 0.0046139643340278123 0 0.006582961344553287 0.0050970737694630893 0 0.0073393163149624166 0.0030041457738268955 0 0.0052271466451928941 0.0026314280510467839 0 0.0040080193433948341 0.0019690937225354428 0 0.0077516501273842426 0.00070830381070302747 0 0.0052698107926373722 0.001294821375609679 0 0.005981511950981914 -0.00077779573214294627 0 0.0073393163149624166 0.0030041457738268955 0 0.0077516501273842426 0.00070830381070302747 0 0.0052698107926373722 0.001294821375609679 0 0.0077516501273842426 0.00070830381070302747 0 0.0090710393280525811 0.0021287729037134514 0 0.0094289115037430715 0.00083225003222405609 0 0.0077516501273842426 0.00070830381070302747 0 0.0094289115037430715 0.00083225003222405609 0 0.0090022354705363468 -0.0003231766057691608 0 0.0096900110913148967 0.004004525727703199 0 0.0073393163149624166 0.0030041457738268955 0 0.0090710393280525811 0.0021287729037134514 0 0.0073393163149624166 0.0030041457738268955 0 0.0077516501273842426 0.00070830381070302747 0 0.0090710393280525811 0.0021287729037134514 0 -0.00013925028111825364 0.002128584565297268 0 3.3636432698426847e-06 0.0018792538690544471 0 4.6814878955546892e-05 0.0020004680075094449 0 0.0028323535330214062 0.0023002054389086634 0 0.00034800641842397211 0.0006796301517120924 0 0.0096900110913148967 0.004004525727703199 0 0.0090710393280525811 0.0021287729037134514 0 0.01096243929175714 0.0016855326069731477 0 0.0094289115037430715 0.00083225003222405609 0 0.01096243929175714 0.0016855326069731477 0 0.010299302193695193 1.0443949353521866e-06 0 0.0090710393280525811 0.0021287729037134514 0 0.0094289115037430715 0.00083225003222405609 0 0.01096243929175714 0.0016855326069731477 0 0.00015379699450640332 0.001680251792851261 0 9.8570680510947181e-05 0.0017815649076213464 0 0.00012162974391501585 0.0019011582339942593 0 0.00034800641842397211 0.0006796301517120924 0 -0.0070153426621905003 0.001935528624757631 0 3.3636432698426847e-06 0.0018792538690544471 0 9.8570680510947181e-05 0.0017815649076213464 0 0.00011547273818152003 0.001665840332970117 0 0.01096243929175714 0.0016855326069731477 0 0.012242065810217606 -0.00061434065848682074 0 0.010299302193695193 1.0443949353521866e-06 0 3.3636432698426847e-06 0.0018792538690544471 0 9.8570680510947181e-05 0.0017815649076213464 0 0.00012162974391501585 0.0019011582339942593 0 -0.0025632010607163705 -0.0017898231146276596 0 -0.0016934064181568038 -0.0023456528975845975 0 -0.0019840148786750686 -0.0011043309656563291 0 7.4666096007856429e-05 0.0021331692882994792 0 0.00012162974391501585 0.0019011582339942593 0 4.6814878955546892e-05 0.0020004680075094449 0 -0.0016630078465744305 0.00057239994290449268 0 -0.0036549267196212504 0.00057601241567354277 0 3.3636432698426847e-06 0.0018792538690544471 0 0.00012162974391501585 0.0019011582339942593 0 4.6814878955546892e-05 0.0020004680075094449 0 -0.0016630078465744305 0.00057239994290449268 0 -0.0014848969677774089 0.00097445252775524662 0 0.0018692319057224743 0.0059053868563268431 0 0.0044431993590935233 0.0040253889342590264 0 0.0011392863040772889 0.0032291330651162734 0 -0.00085474164104699772 0.005320976220991089 0 -0.00098918822697407214 0.003435506118554912 0 0.0011392863040772889 0.0032291330651162734 0 -0.00085474164104699772 0.005320976220991089 0 0.0018692319057224743 0.0059053868563268431 0 0.0011392863040772889 0.0032291330651162734 0 -0.00085474164104699772 0.005320976220991089 0 -0.00021909100794984541 0.0074803328138009374 0 0.0018692319057224743 0.0059053868563268431 0 0.0043448390678975501 0.007221205080930296 0 0.0018692319057224743 0.0059053868563268431 0 0.0044431993590935233 0.0040253889342590264 0 0.0043448390678975501 0.007221205080930296 0 0.006582961344553287 0.0050970737694630893 0 0.0044431993590935233 0.0040253889342590264 0 0.0043448390678975501 0.007221205080930296 0 0.0066717019685482073 0.0068971439622092998 0 0.006582961344553287 0.0050970737694630893 0 0.0044431993590935233 0.0040253889342590264 0 0.0030974195096659914 0.0016724465276867263 0 0.0011392863040772889 0.0032291330651162734 0 0.0073393163149624166 0.0030041457738268955 0 0.0044431993590935233 0.0040253889342590264 0 0.0053886407148033867 0.0011861989447708504 0 0.0044431993590935233 0.0040253889342590264 0 0.0053886407148033867 0.0011861989447708504 0 0.0030974195096659914 0.0016724465276867263 0 0.0040080193433948341 0.0019690937225354428 0 0.0011988685071431155 0.00094341097520662313 0 0.0053886407148033867 0.0011861989447708504 0 0.0030974195096659914 0.0016724465276867263 0 0.0033540654510240079 -0.00064463166060737729 0 0.0030974195096659914 0.0016724465276867263 0 0.0011635150492816477 0.00055609961503024223 0 0.0033540654510240079 -0.00064463166060737729 0 0.0030974195096659914 0.0016724465276867263 0 0.0011635150492816477 0.00055609961503024223 0 0.0011392863040772889 0.0032291330651162734 0 -0.00085705051546659838 0.0019454884477244194 0 0.0011635150492816477 0.00055609961503024223 0 0.0011392863040772889 0.0032291330651162734 0 -0.00098918822697407214 0.003435506118554912 0 -0.00085705051546659838 0.0019454884477244194 0 0.0011392863040772889 0.0032291330651162734 0 -0.00085705051546659838 0.0019454884477244194 0 0.0011635150492816477 0.00055609961503024223 0 -0.0011911407838586354 -0.00050687970910556367 0 0.0011635150492816477 0.00055609961503024223 0 0.0013169339683002013 -0.0024137817759010576 0 -0.0011911407838586354 -0.00050687970910556367 0 -0.0038201084107298577 -0.00020899214652070176 0 -0.0060072906251390744 0.0013989591660197353 0 -0.011010120848338321 0.0034723028908656183 0 -0.010993424635453709 0.0034857529761008078 0 -0.011180324618843267 0.0035964033064912119 0 -0.011109145831295171 0.0034466409666348212 0 -0.011010120848338321 0.0034723028908656183 0 -0.011180324618843267 0.0035964033064912119 0 -0.011109145831295171 0.0034466409666348212 0 -0.011010120848338321 0.0034723028908656183 0 -0.011030427044160405 0.0034268393907855134 0 -0.010984790238290557 0.0034425271053236616 0 -0.010990035996446162 0.0034890879983722881 0 -0.010932073969521861 0.0034065849206563535 0 -0.01100364351136727 0.0034359474988647971 0 -0.011010120848338321 0.0034723028908656183 0 -0.011030427044160405 0.0034268393907855134 0 -0.010984790238290557 0.0034425271053236616 0 -0.01100364351136727 0.0034359474988647971 0 -0.011010120848338321 0.0034723028908656183 0 -0.010984790238290557 0.0034425271053236616 0 -0.011010120848338321 0.0034723028908656183 0 -0.010990035996446162 0.0034890879983722881 0 -0.003866888086117994 -0.00021626204142348294 0 -0.0038201084107298577 -0.00020899214652070176 0 0.0011635150492816477 0.00055609961503024223 0 0.0013169339683002013 -0.0024137817759010576 0 0.0033540654510240079 -0.00064463166060737729 0 -0.0038201084107298577 -0.00020899214652070176 0 0.0011988685071431155 0.00094341097520662313 0 0.003217245386924117 -0.00045101801131012495 0 0.0046071594982958217 -0.0021219075334483564 0 0.005981511950981914 -0.00077779573214294627 0 0.0052698107926373722 0.001294821375609679 0 0.003217245386924117 -0.00045101801131012495 0 0.005981511950981914 -0.00077779573214294627 0 0.0046071594982958217 -0.0021219075334483564 0 0.0035928608424895046 -0.0040605062203568857 0 0.0065289972297299537 -0.0029074055944721686 0 0.0046071594982958217 -0.0021219075334483564 0 0.005981511950981914 -0.00077779573214294627 0 0.0065289972297299537 -0.0029074055944721686 0 0.0046071594982958217 -0.0021219075334483564 0 0.0032097867026314236 -0.0022345015242225146 0 0.0035928608424895046 -0.0040605062203568857 0 0.0011712944838416536 -0.0022167114379712826 0 0.003217245386924117 -0.00045101801131012495 0 0.0032097867026314236 -0.0022345015242225146 0 0.0011712944838416536 -0.0022167114379712826 0 0.0032097867026314236 -0.0022345015242225146 0 0.0035928608424895046 -0.0040605062203568857 0 0.003217245386924117 -0.00045101801131012495 0 0.0046071594982958217 -0.0021219075334483564 0 0.0032097867026314236 -0.0022345015242225146 0 -0.009773325778202455 0.00084954845442717351 0 -0.012799887627410996 0.0009323244787002576 0 -0.010807528785356693 0.0033545160815262234 0 -0.010932073969521861 0.0034065849206563535 0 -0.010936856648257696 0.0033054753306622415 0 -0.020793860391356535 -0.0010587814604708804 0 -0.022013515245465118 -0.00014421458574604825 0 -0.023151793226200115 -0.0007409511340018978 0 -0.020793860391356535 -0.0010587814604708804 0 -0.023298990203376658 -0.0020278961585069267 0 -0.023151793226200115 -0.0007409511340018978 0 -0.009773325778202455 0.00084954845442717351 0 -0.0092660418186254305 -0.00028091663011708387 0 -0.009773325778202455 0.00084954845442717351 0 -0.012596695984171262 0.0019518360325946062 0 -0.022013515245465118 -0.00014421458574604825 0 -0.020625713964081135 0.00044646097794703301 0 -0.022427918869111729 0.0012258354136522416 0 -0.020834998760697759 -0.0010550344973860113 0 -0.022013515245465118 -0.00014421458574604825 0 -0.020625713964081135 0.00044646097794703301 0 -0.020834998760697759 -0.0010550344973860113 0 -0.020625713964081135 0.00044646097794703301 0 -0.019435592011208463 -0.00052067678459434921 0 -0.020625713964081135 0.00044646097794703301 0 -0.019435592011208463 -0.00052067678459434921 0 -0.018994909645039273 0.0010377946616190489 0 -0.018052949863250074 1.2420455055210191e-05 0 -0.019435592011208463 -0.00052067678459434921 0 -0.018994909645039273 0.0010377946616190489 0 -0.013692163212117298 0.001522092265657083 0 -0.012799887627410996 0.0009323244787002576 0 -0.013692163212117298 0.001522092265657083 0 -0.014568441821972568 0.0018899868460593142 0 -0.017923960849916282 -0.00012505371913355712 0 -0.017596576995486956 0.0018729997322148226 0 -0.015901188865479886 0.00068962106822532043 0 -0.013692163212117298 0.001522092265657083 0 -0.01385228787911535 0.0015089856894059963 0 -0.011109145831295171 0.0034466409666348212 0 -0.011039187985031713 0.0033690505513370322 0 -0.011203934751859773 0.0034402907161748828 0 -0.011062618022621033 0.0032605454346413074 0 -0.011039187985031713 0.0033690505513370322 0 -0.011203934751859773 0.0034402907161748828 0 -0.013692163212117298 0.001522092265657083 0 -0.012490568017960465 0.0026287268385913401 0 -0.011109145831295171 0.0034466409666348212 0 -0.011039187985031713 0.0033690505513370322 0 -0.011030427044160405 0.0034268393907855134 0 -0.011039187985031713 0.0033690505513370322 0 -0.011030427044160405 0.0034268393907855134 0 -0.010989403546727205 0.0034016469165724468 0 -0.0038201084107298577 -0.00020899214652070176 0 -0.009773325778202455 0.00084954845442717351 0 -0.010990035996446162 0.0034890879983722881 0 -0.010807528785356693 0.0033545160815262234 0 -0.010932073969521861 0.0034065849206563535 0 -0.01100364351136727 0.0034359474988647971 0 -0.011030427044160405 0.0034268393907855134 0 -0.010989403546727205 0.0034016469165724468 0 -0.010984790238290557 0.0034425271053236616 0 -0.01100364351136727 0.0034359474988647971 0 -0.010989403546727205 0.0034016469165724468 0 -0.010984790238290557 0.0034425271053236616 0 -0.010989403546727205 0.0034016469165724468 0 -0.010932073969521861 0.0034065849206563535 0 -0.010989403546727205 0.0034016469165724468 0 -0.010932073969521861 0.0034065849206563535 0 -0.010936856648257696 0.0033054753306622415 0 -0.011062618022621033 0.0032605454346413074 0 -0.011039187985031713 0.0033690505513370322 0 -0.010936856648257696 0.0033054753306622415 0 -0.011039187985031713 0.0033690505513370322 0 -0.010989403546727205 0.0034016469165724468 0 -0.010936856648257696 0.0033054753306622415 0 -0.02918425638968675 -0.0021486382032223864 0 -0.028208108633433353 -0.0022016794948344479 0 -0.027379762334915271 -0.003607026151282174 0 -0.012116404965325822 0.0019979282096035844 0 -0.010340717423214983 0.0013614718876250541 0 -0.027488082252885786 -0.0021489389511451743 0 -0.027379762334915271 -0.003607026151282174 0 -0.026440055417282074 -0.0020769874553770436 0 -0.028208108633433353 -0.0022016794948344479 0 -0.027488082252885786 -0.0021489389511451743 0 -0.028090633541667857 -0.0015179494125604719 0 -0.028208108633433353 -0.0022016794948344479 0 -0.027488082252885786 -0.0021489389511451743 0 -0.027379762334915271 -0.003607026151282174 0 -0.010412329001577004 0.0011641251168569686 0 -0.0096321470207802965 -0.00020405177411029574 0 -0.0084386894806400478 0.00026094291851021083 0 0.012242065810217606 -0.00061434065848682074 0 0.011144912489376954 -0.001048343104102646 0 0.010299302193695193 1.0443949353521866e-06 0 -0.0070153426621905003 0.001935528624757631 0 -0.010340717423214983 0.0013614718876250541 0 0.00015379699450640332 0.001680251792851261 0 9.8570680510947181e-05 0.0017815649076213464 0 0.00011547273818152003 0.001665840332970117 0 0.010299302193695193 1.0443949353521866e-06 0 0.0094199415891976484 -0.0017464642989657776 0 0.0090022354705363468 -0.0003231766057691608 0 0.011144912489376954 -0.001048343104102646 0 0.010299302193695193 1.0443949353521866e-06 0 0.0094199415891976484 -0.0017464642989657776 0 0.0094289115037430715 0.00083225003222405609 0 0.010299302193695193 1.0443949353521866e-06 0 0.0090022354705363468 -0.0003231766057691608 0 -0.010340717423214983 0.0013614718876250541 0 -0.009504285355639552 0.00024413486994177919 0 -0.025830776614828681 -0.003004423367818857 0 -0.026440055417282074 -0.0020769874553770436 0 -0.025226950374667025 -0.0011742201621466706 0 -0.027379762334915271 -0.003607026151282174 0 -0.025830776614828681 -0.003004423367818857 0 -0.026440055417282074 -0.0020769874553770436 0 -0.009504285355639552 0.00024413486994177919 0 -0.0092660418186254305 -0.00028091663011708387 0 0.0094199415891976484 -0.0017464642989657776 0 0.0077480750436215492 -0.0010168972194933607 0 0.0065289972297299537 -0.0029074055944721686 0 -0.025830776614828681 -0.003004423367818857 0 -0.023298990203376658 -0.0020278961585069267 0 -0.025226950374667025 -0.0011742201621466706 0 0.0094199415891976484 -0.0017464642989657776 0 0.0077480750436215492 -0.0010168972194933607 0 0.0090022354705363468 -0.0003231766057691608 0 0.0077516501273842426 0.00070830381070302747 0 0.0077480750436215492 -0.0010168972194933607 0 0.0090022354705363468 -0.0003231766057691608 0 0.0077516501273842426 0.00070830381070302747 0 0.0077480750436215492 -0.0010168972194933607 0 0.005981511950981914 -0.00077779573214294627 0 0.0077480750436215492 -0.0010168972194933607 0 0.005981511950981914 -0.00077779573214294627 0 0.0065289972297299537 -0.0029074055944721686 0 -0.023151793226200115 -0.0007409511340018978 0 -0.023965023106710739 0.00027658416305260941 0 -0.025226950374667025 -0.0011742201621466706 0 -0.023298990203376658 -0.0020278961585069267 0 -0.023151793226200115 -0.0007409511340018978 0 -0.025226950374667025 -0.0011742201621466706 0 -0.022013515245465118 -0.00014421458574604825 0 -0.023151793226200115 -0.0007409511340018978 0 -0.023965023106710739 0.00027658416305260941 0 -0.022013515245465118 -0.00014421458574604825 0 -0.023965023106710739 0.00027658416305260941 0 -0.022427918869111729 0.0012258354136522416 0 -0.023965023106710739 0.00027658416305260941 0 -0.025414484499799665 0.00015556341333595349 0 -0.025226950374667025 -0.0011742201621466706 0 -0.023965023106710739 0.00027658416305260941 0 -0.024648051741212384 0.001128067941942885 0 -0.023764493666094885 0.0014182473433851143 0 -0.023965023106710739 0.00027658416305260941 0 -0.025414484499799665 0.00015556341333595349 0 -0.024648051741212384 0.001128067941942885 0 -0.025414484499799665 0.00015556341333595349 0 -0.025707981942453922 0.0014261928107077732 0 -0.024648051741212384 0.001128067941942885 0 -0.026440055417282074 -0.0020769874553770436 0 -0.025226950374667025 -0.0011742201621466706 0 -0.026224528348724484 -0.00072964113357652848 0 -0.026440055417282074 -0.0020769874553770436 0 -0.026224528348724484 -0.00072964113357652848 0 -0.027178010483675727 -0.001237382822217575 0 -0.027488082252885786 -0.0021489389511451743 0 -0.026440055417282074 -0.0020769874553770436 0 -0.027178010483675727 -0.001237382822217575 0 -0.026224528348724484 -0.00072964113357652848 0 -0.026745806844337069 0.00012457259225105981 0 -0.027178010483675727 -0.001237382822217575 0 -0.025414484499799665 0.00015556341333595349 0 -0.025226950374667025 -0.0011742201621466706 0 -0.026224528348724484 -0.00072964113357652848 0 -0.025414484499799665 0.00015556341333595349 0 -0.026224528348724484 -0.00072964113357652848 0 -0.026745806844337069 0.00012457259225105981 0 -0.025414484499799665 0.00015556341333595349 0 -0.026745806844337069 0.00012457259225105981 0 -0.025707981942453922 0.0014261928107077732 0 -0.026745806844337069 0.00012457259225105981 0 -0.027712726901783953 0.00039435002000731689 0 -0.02698751119520882 0.0016726140020487119 0 -0.026745806844337069 0.00012457259225105981 0 -0.027712726901783953 0.00039435002000731689 0 -0.027870670791262393 -0.00063854151427358125 0 -0.028569954077597777 4.908256567220652e-05 0 -0.027712726901783953 0.00039435002000731689 0 -0.028294008445298089 0.0011649639861505486 0 -0.028569954077597777 4.908256567220652e-05 0 -0.027712726901783953 0.00039435002000731689 0 -0.027870670791262393 -0.00063854151427358125 0 -0.028693002041113334 -0.00086434841319729628 0 -0.028569954077597777 4.908256567220652e-05 0 -0.027870670791262393 -0.00063854151427358125 0 -0.028693002041113334 -0.00086434841319729628 0 -0.027870670791262393 -0.00063854151427358125 0 -0.028090633541667857 -0.0015179494125604719 0 -0.026745806844337069 0.00012457259225105981 0 -0.027870670791262393 -0.00063854151427358125 0 -0.027178010483675727 -0.001237382822217575 0 -0.027870670791262393 -0.00063854151427358125 0 -0.027178010483675727 -0.001237382822217575 0 -0.028090633541667857 -0.0015179494125604719 0 -0.027488082252885786 -0.0021489389511451743 0 -0.027178010483675727 -0.001237382822217575 0 -0.028090633541667857 -0.0015179494125604719 0 -0.028770625976943871 -0.0015897454978791726 0 -0.028208108633433353 -0.0022016794948344479 0 -0.028090633541667857 -0.0015179494125604719 0 -0.027946269423245511 0.0027724625305626375 0 -0.02698751119520882 0.0016726140020487119 0 -0.026668625371132813 0.0033518952716896475 0 -0.02920841836827787 0.0036330898915237888 0 -0.027946269423245511 0.0027724625305626375 0 -0.027511194380803152 0.0048566813322699024 0 -0.027946269423245511 0.0027724625305626375 0 -0.026668625371132813 0.0033518952716896475 0 -0.027511194380803152 0.0048566813322699024 0 -0.027946269423245511 0.0027724625305626375 0 -0.028294008445298089 0.0011649639861505486 0 -0.02698751119520882 0.0016726140020487119 0 -0.027712726901783953 0.00039435002000731689 0 -0.028294008445298089 0.0011649639861505486 0 -0.02698751119520882 0.0016726140020487119 0 -0.026745806844337069 0.00012457259225105981 0 -0.02698751119520882 0.0016726140020487119 0 -0.025707981942453922 0.0014261928107077732 0 -0.02698751119520882 0.0016726140020487119 0 -0.025707981942453922 0.0014261928107077732 0 -0.025792641592708165 0.0026403055045180587 0 -0.026668625371132813 0.0033518952716896475 0 -0.025792641592708165 0.0026403055045180587 0 -0.025223876626089992 0.0046577667491475468 0 -0.02698751119520882 0.0016726140020487119 0 -0.026668625371132813 0.0033518952716896475 0 -0.025792641592708165 0.0026403055045180587 0 -0.025687652521856855 0.0012085887197669845 0 -0.023970076818257444 0.0026048733928218781 0 -0.026172217066654502 0.0036963904245026539 0 -0.024906606396716033 0.0029193237383556584 0 -0.025505162219350948 0.0043528608873779993 0 -0.025792641592708165 0.0026403055045180587 0 -0.024655393501805598 0.0023743829365041867 0 -0.025223876626089992 0.0046577667491475468 0 -0.025707981942453922 0.0014261928107077732 0 -0.025792641592708165 0.0026403055045180587 0 -0.024655393501805598 0.0023743829365041867 0 -0.025144631994692419 0.0026482174822597751 0 -0.024906606396716033 0.0029193237383556584 0 -0.025707981942453922 0.0014261928107077732 0 -0.024648051741212384 0.001128067941942885 0 -0.024517134896530644 0.0022558292897662349 0 -0.024648051741212384 0.001128067941942885 0 -0.024517134896530644 0.0022558292897662349 0 -0.023764493666094885 0.0014182473433851143 0 -0.023965023106710739 0.00027658416305260941 0 -0.023764493666094885 0.0014182473433851143 0 -0.022427918869111729 0.0012258354136522416 0 -0.024517134896530644 0.0022558292897662349 0 -0.023764493666094885 0.0014182473433851143 0 -0.023367853770463944 0.0022419253521031796 0 -0.023764493666094885 0.0014182473433851143 0 -0.023367853770463944 0.0022419253521031796 0 -0.022427918869111729 0.0012258354136522416 0 -0.024906606396716033 0.0029193237383556584 0 -0.023648162861412657 0.0034469493779968356 0 -0.023367853770463944 0.0022419253521031796 0 -0.022923977970631143 0.0034185983253511498 0 -0.022190359179273134 0.0023846769388706601 0 -0.024517134896530644 0.0022558292897662349 0 -0.023367853770463944 0.0022419253521031796 0 -0.022923977970631143 0.0034185983253511498 0 -0.023970076818257444 0.0026048733928218781 0 -0.024572743827896839 0.004599065172968775 0 -0.026172217066654502 0.0036963904245026539 0 -0.024572743827896839 0.004599065172968775 0 -0.026618899763206898 0.0061657473767812573 0 -0.023796944816643253 0.00648081210678568 0 -0.025505162219350948 0.0043528608873779993 0 -0.026090589462433051 0.0063724955778367513 0 -0.024572743827896839 0.004599065172968775 0 -0.026172217066654502 0.0036963904245026539 0 -0.026618899763206898 0.0061657473767812573 0 -0.026668625371132813 0.0033518952716896475 0 -0.025223876626089992 0.0046577667491475468 0 -0.027511194380803152 0.0048566813322699024 0 -0.025223876626089992 0.0046577667491475468 0 -0.027511194380803152 0.0048566813322699024 0 -0.025847927328170293 0.0068592898447325749 0 -0.027511194380803152 0.0048566813322699024 0 -0.028449691919025213 0.0071276523409987778 0 -0.025847927328170293 0.0068592898447325749 0 -0.029518870751482133 0.0053023601372499916 0 -0.027511194380803152 0.0048566813322699024 0 -0.028449691919025213 0.0071276523409987778 0 -0.019469101680704905 0.0026406778485852183 0 -0.019642281869795747 0.0042798337051520386 0 -0.01785671158425866 0.0037551655166963172 0 -0.019469101680704905 0.0026406778485852183 0 -0.017596576995486956 0.0018729997322148226 0 -0.01785671158425866 0.0037551655166963172 0 -0.017596576995486956 0.0018729997322148226 0 -0.01785671158425866 0.0037551655166963172 0 -0.015297589156864499 0.0030743535247226752 0 -0.017923960849916282 -0.00012505371913355712 0 -0.017596576995486956 0.0018729997322148226 0 -0.018994909645039273 0.0010377946616190489 0 -0.019469101680704905 0.0026406778485852183 0 -0.018994909645039273 0.0010377946616190489 0 -0.020091177364436573 0.0014313109608774623 0 -0.019469101680704905 0.0026406778485852183 0 -0.017596576995486956 0.0018729997322148226 0 -0.018994909645039273 0.0010377946616190489 0 -0.019469101680704905 0.0026406778485852183 0 -0.020091177364436573 0.0014313109608774623 0 -0.021127227139023704 0.0019217469706568281 0 -0.020625713964081135 0.00044646097794703301 0 -0.018994909645039273 0.0010377946616190489 0 -0.020091177364436573 0.0014313109608774623 0 -0.020625713964081135 0.00044646097794703301 0 -0.020091177364436573 0.0014313109608774623 0 -0.021127227139023704 0.0019217469706568281 0 -0.020625713964081135 0.00044646097794703301 0 -0.021127227139023704 0.0019217469706568281 0 -0.022427918869111729 0.0012258354136522416 0 -0.021127227139023704 0.0019217469706568281 0 -0.022427918869111729 0.0012258354136522416 0 -0.022190359179273134 0.0023846769388706601 0 -0.023367853770463944 0.0022419253521031796 0 -0.022427918869111729 0.0012258354136522416 0 -0.022190359179273134 0.0023846769388706601 0 -0.022923977970631143 0.0034185983253511498 0 -0.022190359179273134 0.0023846769388706601 0 -0.021120206156540422 0.0032131837372626165 0 -0.021127227139023704 0.0019217469706568281 0 -0.022190359179273134 0.0023846769388706601 0 -0.021120206156540422 0.0032131837372626165 0 -0.019469101680704905 0.0026406778485852183 0 -0.021120206156540422 0.0032131837372626165 0 -0.019642281869795747 0.0042798337051520386 0 -0.019469101680704905 0.0026406778485852183 0 -0.021127227139023704 0.0019217469706568281 0 -0.021120206156540422 0.0032131837372626165 0 -0.021416020908851783 0.0045507843421407719 0 -0.020187491774059717 0.0055820549071107202 0 -0.019642281869795747 0.0042798337051520386 0 -0.021120206156540422 0.0032131837372626165 0 -0.021416020908851783 0.0045507843421407719 0 -0.019642281869795747 0.0042798337051520386 0 -0.022923977970631143 0.0034185983253511498 0 -0.021120206156540422 0.0032131837372626165 0 -0.021416020908851783 0.0045507843421407719 0 -0.023648162861412657 0.0034469493779968356 0 -0.022275565917098679 0.0043189318962584917 0 -0.023970076818257444 0.0026048733928218781 0 -0.024572743827896839 0.004599065172968775 0 -0.022209313478668714 0.0039990578763273912 0 -0.024572743827896839 0.004599065172968775 0 -0.022209313478668714 0.0039990578763273912 0 -0.023796944816643253 0.00648081210678568 0 -0.022209313478668714 0.0039990578763273912 0 -0.023796944816643253 0.00648081210678568 0 -0.021754450999177149 0.0067743776126936934 0 -0.022275565917098679 0.0043189318962584917 0 -0.021544112064048451 0.0048407217997937192 0 -0.022209313478668714 0.0039990578763273912 0 -0.020187491774059717 0.0055820549071107202 0 -0.021754450999177149 0.0067743776126936934 0 -0.020187491774059717 0.0055820549071107202 0 -0.019642281869795747 0.0042798337051520386 0 -0.018062796440276419 0.0057265236689881304 0 -0.019642281869795747 0.0042798337051520386 0 -0.01785671158425866 0.0037551655166963172 0 -0.018062796440276419 0.0057265236689881304 0 -0.01785671158425866 0.0037551655166963172 0 -0.018062796440276419 0.0057265236689881304 0 -0.016490223343368512 0.004728165195773495 0 -0.018062796440276419 0.0057265236689881304 0 -0.015727743509278903 0.0064153857687001435 0 -0.016490223343368512 0.004728165195773495 0 -0.015727743509278903 0.0064153857687001435 0 -0.014960588984542968 0.0047616641631252855 0 -0.016490223343368512 0.004728165195773495 0 -0.014190870795865049 0.0058649675256883258 0 -0.013437506442985914 0.0068676100225905628 0 -0.015727743509278903 0.0064153857687001435 0 -0.014960588984542968 0.0047616641631252855 0 -0.013676988810068973 0.0067053288369853985 0 -0.014960588984542968 0.0047616641631252855 0 -0.015297589156864499 0.0030743535247226752 0 -0.014296919402963116 0.0034339505166446414 0 -0.014960588984542968 0.0047616641631252855 0 -0.013602934993345247 0.003804325158107363 0 -0.014296919402963116 0.0034339505166446414 0 -0.014960588984542968 0.0047616641631252855 0 -0.016490223343368512 0.004728165195773495 0 -0.015297589156864499 0.0030743535247226752 0 -0.01785671158425866 0.0037551655166963172 0 -0.016490223343368512 0.004728165195773495 0 -0.015297589156864499 0.0030743535247226752 0 -0.012807369896097575 0.005008298704855277 0 -0.011052377986948754 0.0060092525300079139 0 -0.011999112202328636 0.0071968651837972398 0 -0.012807369896097575 0.005008298704855277 0 -0.011999112202328636 0.0071968651837972398 0 -0.01340522995203141 0.0067487258697133566 0 -0.014960588984542968 0.0047616641631252855 0 -0.012807369896097575 0.005008298704855277 0 -0.01340522995203141 0.0067487258697133566 0 -0.014960588984542968 0.0047616641631252855 0 -0.013602934993345247 0.003804325158107363 0 -0.012807369896097575 0.005008298704855277 0 -0.013602934993345247 0.003804325158107363 0 -0.012807369896097575 0.005008298704855277 0 -0.012604209694886619 0.0037640003867172485 0 -0.012807369896097575 0.005008298704855277 0 -0.011546053075247774 0.0034498691792690613 0 -0.011052377986948754 0.0060092525300079139 0 -0.011931049210407871 0.0057602817476883209 0 -0.011995723549751711 0.006833701666924351 0 -0.012807369896097575 0.005008298704855277 0 -0.012604209694886619 0.0037640003867172485 0 -0.011546053075247774 0.0034498691792690613 0 -0.011840375935144521 0.0053216110966566189 0 -0.012293310661862931 0.005487325599981328 0 -0.011931049210407871 0.0057602817476883209 0 -0.012293310661862931 0.005487325599981328 0 -0.012169640626867101 0.0056530699598108924 0 -0.012198170015493857 0.0055214050872232738 0 -0.011956675962804079 0.0055776833700812121 0 -0.012604209694886619 0.0037640003867172485 0 -0.011546053075247774 0.0034498691792690613 0 -0.013390575457191583 0.0029594447500842329 0 -0.011840375935144521 0.0053216110966566189 0 -0.011931049210407871 0.0057602817476883209 0 -0.011550877521707466 0.0063038160671298098 0 -0.011492945115736768 0.0065784509098466559 0 -0.011291554312760254 0.0063671560743015481 0 -0.013003669671317969 0.0024892006417306595 0 -0.013390575457191583 0.0029594447500842329 0 -0.013307365154067293 0.0023138333591571666 0 -0.013602934993345247 0.003804325158107363 0 -0.012604209694886619 0.0037640003867172485 0 -0.013390575457191583 0.0029594447500842329 0 -0.013602934993345247 0.003804325158107363 0 -0.013390575457191583 0.0029594447500842329 0 -0.014296919402963116 0.0034339505166446414 0 -0.013390575457191583 0.0029594447500842329 0 -0.013307365154067293 0.0023138333591571666 0 -0.013861940427258964 0.0026803740532614609 0 -0.013390575457191583 0.0029594447500842329 0 -0.014296919402963116 0.0034339505166446414 0 -0.013861940427258964 0.0026803740532614609 0 -0.013307365154067293 0.0023138333591571666 0 -0.013184218072611139 0.0023916668447146608 0 -0.013291442756748843 0.0023460173142142685 0 -0.013307365154067293 0.0023138333591571666 0 -0.013493824880137343 0.0018949127034610747 0 -0.013184218072611139 0.0023916668447146608 0 -0.013307365154067293 0.0023138333591571666 0 -0.013861940427258964 0.0026803740532614609 0 -0.013493824880137343 0.0018949127034610747 0 -0.013003669671317969 0.0024892006417306595 0 -0.013307365154067293 0.0023138333591571666 0 -0.013291442756748843 0.0023460173142142685 0 -0.011821589688447112 0.0063729599674381809 0 -0.011955565294444973 0.0057586700886289727 0 -0.011506198824057616 0.0058684389899749901 0 -0.011840375935144521 0.0053216110966566189 0 -0.012169459928939462 0.0044284235317425683 0 -0.015297589156864499 0.0030743535247226752 0 -0.014296919402963116 0.0034339505166446414 0 -0.013861940427258964 0.0026803740532614609 0 -0.015297589156864499 0.0030743535247226752 0 -0.013861940427258964 0.0026803740532614609 0 -0.013493824880137343 0.0018949127034610747 0 -0.013750514863148679 0.0015757014089654835 0 -0.01385228787911535 0.0015089856894059963 0 -0.015297589156864499 0.0030743535247226752 0 -0.013493824880137343 0.0018949127034610747 0 -0.015901188865479886 0.00068962106822532043 0 -0.017596576995486956 0.0018729997322148226 0 -0.015297589156864499 0.0030743535247226752 0 -0.015901188865479886 0.00068962106822532043 0 -0.012050464748045048 0.0022824323282506875 0 -0.012651388268827468 0.0027932629836412443 0 -0.012061536619405832 0.0035065289070862469 0 -0.011239036092868753 0.0025992913169410356 0 -0.012050464748045048 0.0022824323282506875 0 -0.012061536619405832 0.0035065289070862469 0 -0.012453406110197733 0.0033168758376759901 0 -0.012651388268827468 0.0027932629836412443 0 -0.012061536619405832 0.0035065289070862469 0 -0.012453406110197733 0.0033168758376759901 0 -0.012771274986079743 0.003028271345464783 0 -0.012568818922966938 0.0034708338536688084 0 -0.012453406110197733 0.0033168758376759901 0 -0.012651388268827468 0.0027932629836412443 0 -0.012771274986079743 0.003028271345464783 0 -0.012651388268827468 0.0027932629836412443 0 -0.013184218072611139 0.0023916668447146608 0 -0.012771274986079743 0.003028271345464783 0 -0.013493824880137343 0.0018949127034610747 0 -0.012050464748045048 0.0022824323282506875 0 -0.012651388268827468 0.0027932629836412443 0 -0.013493824880137343 0.0018949127034610747 0 -0.012651388268827468 0.0027932629836412443 0 -0.013184218072611139 0.0023916668447146608 0 -0.013184218072611139 0.0023916668447146608 0 -0.013291442756748843 0.0023460173142142685 0 -0.013102164194237547 0.0028701919496767103 0 -0.013184218072611139 0.0023916668447146608 0 -0.012771274986079743 0.003028271345464783 0 -0.013102164194237547 0.0028701919496767103 0 -0.011955565294444973 0.0057586700886289727 0 -0.011808917959364935 0.0053375861780341942 0 -0.01209047532346102 0.0051428766111954521 0 -0.013291442756748843 0.0023460173142142685 0 -0.013252266806900809 0.0030471156514598101 0 -0.013102164194237547 0.0028701919496767103 0 -0.011955565294444973 0.0057586700886289727 0 -0.011510187658515299 0.0053888694353148052 0 -0.011506198824057616 0.0058684389899749901 0 -0.012169459928939462 0.0044284235317425683 0 -0.01224539151096291 0.0040948050799564642 0 -0.011955565294444973 0.0057586700886289727 0 -0.011808917959364935 0.0053375861780341942 0 -0.011510187658515299 0.0053888694353148052 0 -0.01209047532346102 0.0051428766111954521 0 -0.011679207858770212 0.0050595353092909587 0 -0.011649615388903812 0.0045987154680280137 0 -0.011808917959364935 0.0053375861780341942 0 -0.011679207858770212 0.0050595353092909587 0 -0.011510187658515299 0.0053888694353148052 0 -0.011808917959364935 0.0053375861780341942 0 -0.01209047532346102 0.0051428766111954521 0 -0.011679207858770212 0.0050595353092909587 0 -0.013147941294327349 0.0031851898019118878 0 -0.012779778945421027 0.0033135698306156615 0 -0.012254411738844468 0.0038460507747416391 0 -0.012771274986079743 0.003028271345464783 0 -0.013102164194237547 0.0028701919496767103 0 -0.012779778945421027 0.0033135698306156615 0 -0.013147941294327349 0.0031851898019118878 0 -0.013102164194237547 0.0028701919496767103 0 -0.012779778945421027 0.0033135698306156615 0 -0.01224539151096291 0.0040948050799564642 0 -0.012244170118767777 0.0040513020049878709 0 -0.012771274986079743 0.003028271345464783 0 -0.012779778945421027 0.0033135698306156615 0 -0.012568818922966938 0.0034708338536688084 0 -0.01224539151096291 0.0040948050799564642 0 -0.012293103979863067 0.0039110249919251019 0 -0.012254411738844468 0.0038460507747416391 0 -0.011870987842949651 0.0038335163276017044 0 -0.012411048715017853 0.003683965484675793 0 -0.012568818922966938 0.0034708338536688084 0 -0.012254411738844468 0.0038460507747416391 0 -0.012411048715017853 0.003683965484675793 0 -0.012779778945421027 0.0033135698306156615 0 -0.012568818922966938 0.0034708338536688084 0 -0.012254411738844468 0.0038460507747416391 0 -0.01214307505784552 0.0043662164229811094 0 -0.012254411738844468 0.0038460507747416391 0 -0.011661578360752503 0.0039225980899761301 0 -0.01224539151096291 0.0040948050799564642 0 -0.011823959547381999 0.0040375946818859516 0 -0.012254411738844468 0.0038460507747416391 0 -0.011870987842949651 0.0038335163276017044 0 -0.011661578360752503 0.0039225980899761301 0 -0.010968612787079172 0.0036623345540330535 0 -0.011176426280599191 0.0037590899614242147 0 -0.011463271220488918 0.0036157220526810813 0 -0.011870987842949651 0.0038335163276017044 0 -0.011568176037324933 0.0038052033976644258 0 -0.011870987842949651 0.0038335163276017044 0 -0.011568176037324933 0.0038052033976644258 0 -0.011661578360752503 0.0039225980899761301 0 -0.011158196416123646 0.0036042510930193307 0 -0.011870987842949651 0.0038335163276017044 0 -0.012305757576937861 0.0037758352727515218 0 -0.011870987842949651 0.0038335163276017044 0 -0.012305757576937861 0.0037758352727515218 0 -0.012411048715017853 0.003683965484675793 0 -0.011297285817971294 0.00359860686988323 0 -0.011290370790683443 0.0035925338420210499 0 -0.011180324618843267 0.0035964033064912119 0 -0.011290370790683443 0.0035925338420210499 0 -0.011180324618843267 0.0035964033064912119 0 -0.011203934751859773 0.0034402907161748828 0 -0.011109145831295171 0.0034466409666348212 0 -0.011180324618843267 0.0035964033064912119 0 -0.011203934751859773 0.0034402907161748828 0 -0.012305757576937861 0.0037758352727515218 0 -0.012061536619405832 0.0035065289070862469 0 -0.012411048715017853 0.003683965484675793 0 -0.012453406110197733 0.0033168758376759901 0 -0.012061536619405832 0.0035065289070862469 0 -0.012411048715017853 0.003683965484675793 0 -0.01211263384021859 0.0032423394048629178 0 -0.012490568017960465 0.0026287268385913401 0 -0.012453406110197733 0.0033168758376759901 0 -0.012568818922966938 0.0034708338536688084 0 -0.012411048715017853 0.003683965484675793 0 -0.010401426414043692 0.0045852703418415176 0 -0.010710603562489278 0.0047726848714828617 0 -0.010488617721882863 0.005074157313692128 0 -0.010401426414043692 0.0045852703418415176 0 -0.010724205051758621 0.0042629365082511731 0 -0.010710603562489278 0.0047726848714828617 0 -0.010401426414043692 0.0045852703418415176 0 -0.010172493222882212 0.0048342241601117084 0 -0.010488617721882863 0.005074157313692128 0 -0.0099933310306366489 0.0044710393929170301 0 -0.0098492236777783949 0.0049715763211687566 0 -0.0096387902667098603 0.0046748984294497468 0 -0.010172493222882212 0.0048342241601117084 0 -0.0099933310306366489 0.0044710393929170301 0 -0.0098492236777783949 0.0049715763211687566 0 -0.010401426414043692 0.0045852703418415176 0 -0.010172493222882212 0.0048342241601117084 0 -0.0099933310306366489 0.0044710393929170301 0 -0.010176817123212311 0.0039411065244841434 0 -0.0099933310306366489 0.0044710393929170301 0 -0.0096153255228049531 0.0040497905607147821 0 -0.0099933310306366489 0.0044710393929170301 0 -0.0096153255228049531 0.0040497905607147821 0 -0.0096387902667098603 0.0046748984294497468 0 -0.010176817123212311 0.0039411065244841434 0 -0.0099933310306366489 0.0044710393929170301 0 -0.010385762758694997 0.0042585554887182653 0 -0.010176817123212311 0.0039411065244841434 0 -0.010571057276697368 0.0039025045144165135 0 -0.010385762758694997 0.0042585554887182653 0 -0.010401426414043692 0.0045852703418415176 0 -0.0099933310306366489 0.0044710393929170301 0 -0.010385762758694997 0.0042585554887182653 0 -0.010401426414043692 0.0045852703418415176 0 -0.010385762758694997 0.0042585554887182653 0 -0.010724205051758621 0.0042629365082511731 0 -0.010571057276697368 0.0039025045144165135 0 -0.010848387766503438 0.0039888660287043303 0 -0.010724205051758621 0.0042629365082511731 0 -0.010571057276697368 0.0039025045144165135 0 -0.010385762758694997 0.0042585554887182653 0 -0.010724205051758621 0.0042629365082511731 0 -0.010848387766503438 0.0039888660287043303 0 -0.010724205051758621 0.0042629365082511731 0 -0.011190205101841105 0.0040413881546012961 0 -0.010724205051758621 0.0042629365082511731 0 -0.011190205101841105 0.0040413881546012961 0 -0.01104863364802899 0.0046094964886242559 0 -0.011434803022755177 0.0038142416698787583 0 -0.011823959547381999 0.0040375946818859516 0 -0.011190205101841105 0.0040413881546012961 0 -0.011649615388903812 0.0045987154680280137 0 -0.01104863364802899 0.0046094964886242559 0 -0.011568176037324933 0.0038052033976644258 0 -0.011263679434569844 0.0038172096813469608 0 -0.011661578360752503 0.0039225980899761301 0 -0.011463271220488918 0.0036157220526810813 0 -0.011568176037324933 0.0038052033976644258 0 -0.011263679434569844 0.0038172096813469608 0 -0.011649615388903812 0.0045987154680280137 0 -0.01104863364802899 0.0046094964886242559 0 -0.011348362509893033 0.0049357599887742938 0 -0.011679207858770212 0.0050595353092909587 0 -0.011649615388903812 0.0045987154680280137 0 -0.011348362509893033 0.0049357599887742938 0 -0.010710603562489278 0.0047726848714828617 0 -0.01104863364802899 0.0046094964886242559 0 -0.010997653172503032 0.0051522552818620013 0 -0.010724205051758621 0.0042629365082511731 0 -0.010710603562489278 0.0047726848714828617 0 -0.01104863364802899 0.0046094964886242559 0 -0.01104863364802899 0.0046094964886242559 0 -0.010997653172503032 0.0051522552818620013 0 -0.011348362509893033 0.0049357599887742938 0 -0.010710603562489278 0.0047726848714828617 0 -0.010997653172503032 0.0051522552818620013 0 -0.010488617721882863 0.005074157313692128 0 -0.010997653172503032 0.0051522552818620013 0 -0.010672476138935485 0.0054596583989918075 0 -0.010488617721882863 0.005074157313692128 0 -0.010997653172503032 0.0051522552818620013 0 -0.011348362509893033 0.0049357599887742938 0 -0.011510187658515299 0.0053888694353148052 0 -0.011679207858770212 0.0050595353092909587 0 -0.011348362509893033 0.0049357599887742938 0 -0.011510187658515299 0.0053888694353148052 0 -0.010997653172503032 0.0051522552818620013 0 -0.011510187658515299 0.0053888694353148052 0 -0.011074656133306705 0.0056767909203843305 0 -0.011510187658515299 0.0053888694353148052 0 -0.011074656133306705 0.0056767909203843305 0 -0.011506198824057616 0.0058684389899749901 0 -0.011074656133306705 0.0056767909203843305 0 -0.010672476138935485 0.0054596583989918075 0 -0.010512894474050287 0.0059139704606058392 0 -0.010997653172503032 0.0051522552818620013 0 -0.011074656133306705 0.0056767909203843305 0 -0.010672476138935485 0.0054596583989918075 0 -0.010672476138935485 0.0054596583989918075 0 -0.010203670350747839 0.0055059808926521793 0 -0.010512894474050287 0.0059139704606058392 0 -0.010488617721882863 0.005074157313692128 0 -0.010135048336301241 0.0051450506237206107 0 -0.010203670350747839 0.0055059808926521793 0 -0.010672476138935485 0.0054596583989918075 0 -0.010488617721882863 0.005074157313692128 0 -0.010203670350747839 0.0055059808926521793 0 -0.010172493222882212 0.0048342241601117084 0 -0.010488617721882863 0.005074157313692128 0 -0.010135048336301241 0.0051450506237206107 0 -0.0098492236777783949 0.0049715763211687566 0 -0.0098367675852926457 0.0052616230447280104 0 -0.009524990394128947 0.0051023243319204261 0 -0.0098492236777783949 0.0049715763211687566 0 -0.010135048336301241 0.0051450506237206107 0 -0.0098367675852926457 0.0052616230447280104 0 -0.010172493222882212 0.0048342241601117084 0 -0.0098492236777783949 0.0049715763211687566 0 -0.010135048336301241 0.0051450506237206107 0 -0.010135048336301241 0.0051450506237206107 0 -0.0098367675852926457 0.0052616230447280104 0 -0.010203670350747839 0.0055059808926521793 0 -0.010203670350747839 0.0055059808926521793 0 -0.0098708735472284575 0.0056739234137508964 0 -0.010512894474050287 0.0059139704606058392 0 -0.01041090356323735 0.0055851552414703303 0 -0.010704031550674618 0.0056253326224752235 0 -0.0083050184005528035 0.006237240558528619 0 -0.006550469044995632 0.0064105230240419806 0 -0.010203670350747839 0.0055059808926521793 0 -0.0098708735472284575 0.0056739234137508964 0 -0.0095494699373618215 0.0055000001974578215 0 -0.0098367675852926457 0.0052616230447280104 0 -0.010203670350747839 0.0055059808926521793 0 -0.0095071017625483149 0.0055412976920771332 0 -0.0098708735472284575 0.0056739234137508964 0 -0.009889387040736412 0.0059369821884828677 0 -0.010508077153292701 0.0059036142758790589 0 -0.0098708735472284575 0.0056739234137508964 0 -0.009889387040736412 0.0059369821884828677 0 -0.0095772910843781329 0.0058347579189917094 0 -0.009889387040736412 0.0059369821884828677 0 -0.010007293501890909 0.0061731559680967101 0 -0.010508077153292701 0.0059036142758790589 0 -0.009889387040736412 0.0059369821884828677 0 -0.010007293501890909 0.0061731559680967101 0 -0.0094701499545350124 0.00610862885469748 0 -0.010007293501890909 0.0061731559680967101 0 -0.010338134809086337 0.0062210588220498377 0 -0.010125964286839735 0.0063981463280184782 0 -0.010508077153292701 0.0059036142758790589 0 -0.010338134809086337 0.0062210588220498377 0 -0.010610648754053285 0.0064639104862752005 0 -0.010007293501890909 0.0061731559680967101 0 -0.010508077153292701 0.0059036142758790589 0 -0.010338134809086337 0.0062210588220498377 0 -0.010338134809086337 0.0062210588220498377 0 -0.010610648754053285 0.0064639104862752005 0 -0.010125964286839735 0.0063981463280184782 0 -0.010610648754053285 0.0064639104862752005 0 -0.010152561388030144 0.0065684752501867149 0 -0.010422847172087937 0.0066336972819896582 0 -0.010084895640167665 0.0066221769912345367 0 -0.0096169966456412861 0.0067579886742841298 0 -0.010610648754053285 0.0064639104862752005 0 -0.010809665296701469 0.0067256946242931449 0 -0.010422847172087937 0.0066336972819896582 0 -0.010610648754053285 0.0064639104862752005 0 -0.0098991242151626243 0.0067131424485949798 0 -0.010125964286839735 0.0063981463280184782 0 -0.010007293501890909 0.0061731559680967101 0 -0.010125964286839735 0.0063981463280184782 0 -0.0097647236978013266 0.0064178336041337018 0 -0.0098991242151626243 0.0067131424485949798 0 -0.010125964286839735 0.0063981463280184782 0 -0.0097647236978013266 0.0064178336041337018 0 -0.011840375935144521 0.0053216110966566189 0 -0.01125975832767572 0.005600118303792239 0 -0.011821589688447112 0.0063729599674381809 0 -0.011506198824057616 0.0058684389899749901 0 -0.011168551005136017 0.0061439567479828448 0 -0.011550877521707466 0.0063038160671298098 0 -0.011049377816378554 0.0061203109415526062 0 -0.011291554312760254 0.0063671560743015481 0 -0.011074656133306705 0.0056767909203843305 0 -0.011506198824057616 0.0058684389899749901 0 -0.011168551005136017 0.0061439567479828448 0 -0.011074656133306705 0.0056767909203843305 0 -0.010512894474050287 0.0059139704606058392 0 -0.011168551005136017 0.0061439567479828448 0 -0.010704031550674618 0.0056253326224752235 0 -0.01125975832767572 0.005600118303792239 0 -0.010508077153292701 0.0059036142758790589 0 -0.010610648754053285 0.0064639104862752005 0 -0.011049377816378554 0.0061203109415526062 0 -0.010610648754053285 0.0064639104862752005 0 -0.011073349951697082 0.0064683965713562492 0 -0.010809665296701469 0.0067256946242931449 0 -0.010610648754053285 0.0064639104862752005 0 -0.011049377816378554 0.0061203109415526062 0 -0.011073349951697082 0.0064683965713562492 0 -0.011492945115736768 0.0065784509098466559 0 -0.011073349951697082 0.0064683965713562492 0 -0.010809665296701469 0.0067256946242931449 0 -0.011492945115736768 0.0065784509098466559 0 -0.011073349951697082 0.0064683965713562492 0 -0.011291554312760254 0.0063671560743015481 0 -0.011049377816378554 0.0061203109415526062 0 -0.011073349951697082 0.0064683965713562492 0 -0.011291554312760254 0.0063671560743015481 0 -0.011871453277151427 0.0064481108530711805 0 -0.01153342547542683 0.0067969220761337551 0 -0.01169537676522025 0.0072540707540851151 0 -0.011871453277151427 0.0064481108530711805 0 -0.01153342547542683 0.0067969220761337551 0 -0.011074930959170035 0.0066362578526042359 0 -0.011931049210407871 0.0057602817476883209 0 -0.010998167324035803 0.0063329868294781022 0 -0.01153342547542683 0.0067969220761337551 0 -0.011074930959170035 0.0066362578526042359 0 -0.011241115280970031 0.0070951356423367166 0 -0.011074930959170035 0.0066362578526042359 0 -0.011241115280970031 0.0070951356423367166 0 -0.010777498160803756 0.0071702166098306661 0 -0.011241115280970031 0.0070951356423367166 0 -0.010777498160803756 0.0071702166098306661 0 -0.011121446822677175 0.0076131614518047848 0 -0.011241115280970031 0.0070951356423367166 0 -0.01169537676522025 0.0072540707540851151 0 -0.011121446822677175 0.0076131614518047848 0 -0.01153342547542683 0.0067969220761337551 0 -0.011241115280970031 0.0070951356423367166 0 -0.01169537676522025 0.0072540707540851151 0 -0.010256614619391192 0.0068376276327688787 0 -0.0099423225495578749 0.0068261647577042084 0 -0.010023328035998719 0.0071221028423384021 0 -0.010152561388030144 0.0065684752501867149 0 -0.010256614619391192 0.0068376276327688787 0 -0.0099423225495578749 0.0068261647577042084 0 -0.010152561388030144 0.0065684752501867149 0 -0.010256614619391192 0.0068376276327688787 0 -0.010422847172087937 0.0066336972819896582 0 -0.010809665296701469 0.0067256946242931449 0 -0.010256614619391192 0.0068376276327688787 0 -0.010422847172087937 0.0066336972819896582 0 -0.010998167324035803 0.0063329868294781022 0 -0.010602213483170475 0.0065191744888398019 0 -0.011074930959170035 0.0066362578526042359 0 -0.010256614619391192 0.0068376276327688787 0 -0.010777498160803756 0.0071702166098306661 0 -0.010256614619391192 0.0068376276327688787 0 -0.010777498160803756 0.0071702166098306661 0 -0.010365119861046927 0.0072271945755074509 0 -0.010777498160803756 0.0071702166098306661 0 -0.010365119861046927 0.0072271945755074509 0 -0.010568682809336033 0.007671483571057164 0 -0.010256614619391192 0.0068376276327688787 0 -0.010365119861046927 0.0072271945755074509 0 -0.010023328035998719 0.0071221028423384021 0 -0.010365119861046927 0.0072271945755074509 0 -0.010141310269342049 0.0074723749986796064 0 -0.010023328035998719 0.0071221028423384021 0 -0.010141310269342049 0.0074723749986796064 0 -0.010568682809336033 0.007671483571057164 0 -0.010104917496774011 0.0079284349596225011 0 -0.010365119861046927 0.0072271945755074509 0 -0.010141310269342049 0.0074723749986796064 0 -0.010568682809336033 0.007671483571057164 0 -0.010568682809336033 0.007671483571057164 0 -0.010796337143970757 0.0080261916518836497 0 -0.011121446822677175 0.0076131614518047848 0 -0.010777498160803756 0.0071702166098306661 0 -0.010568682809336033 0.007671483571057164 0 -0.011121446822677175 0.0076131614518047848 0 -0.010568682809336033 0.007671483571057164 0 -0.010796337143970757 0.0080261916518836497 0 -0.010501116460255576 0.0081734762125740112 0 -0.010796337143970757 0.0080261916518836497 0 -0.010501116460255576 0.0081734762125740112 0 -0.010920473209317992 0.0083307980685580207 0 -0.010501116460255576 0.0081734762125740112 0 -0.010104917496774011 0.0079284349596225011 0 -0.010111006480462153 0.0085490717762903169 0 -0.010568682809336033 0.007671483571057164 0 -0.010501116460255576 0.0081734762125740112 0 -0.010104917496774011 0.0079284349596225011 0 -0.010501116460255576 0.0081734762125740112 0 -0.010111006480462153 0.0085490717762903169 0 -0.010628369128353828 0.0085796241134424613 0 -0.010501116460255576 0.0081734762125740112 0 -0.010628369128353828 0.0085796241134424613 0 -0.010920473209317992 0.0083307980685580207 0 -0.010628369128353828 0.0085796241134424613 0 -0.010951721182866258 0.0087579371744352184 0 -0.010920473209317992 0.0083307980685580207 0 -0.010628369128353828 0.0085796241134424613 0 -0.010656940794270223 0.0090850126687116138 0 -0.010951721182866258 0.0087579371744352184 0 -0.010656940794270223 0.0090850126687116138 0 -0.011041611058410819 0.0090747981295039581 0 -0.010951721182866258 0.0087579371744352184 0 -0.027265219494753874 -0.00035739984155187685 0 -0.026797181648175381 -0.00081820417952945034 0 -0.027433230477576075 -0.00083749787126010419 0 -0.010111006480462153 0.0085490717762903169 0 -0.010628369128353828 0.0085796241134424613 0 -0.010656940794270223 0.0090850126687116138 0 -0.018563810163448612 0.0042971692009278629 0 -0.018600645738820563 0.0047337619209658838 0 -0.010699451825823237 0.011181554955941139 0 -0.010177196664686172 0.011096273553993978 0 -0.01061584294739948 0.010666493749876117 0 -0.011502230976398726 0.0108313078540919 0 -0.011097930162971356 0.011491763401785262 0 -0.011812932091662466 0.011558340419874082 0 -0.010699451825823237 0.011181554955941139 0 -0.011502230976398726 0.0108313078540919 0 -0.011097930162971356 0.011491763401785262 0 -0.010699451825823237 0.011181554955941139 0 -0.01061584294739948 0.010666493749876117 0 -0.011502230976398726 0.0108313078540919 0 -0.011097930162971356 0.011491763401785262 0 -0.011812932091662466 0.011558340419874082 0 -0.011080988502108985 0.012170630796417784 0 -0.010699451825823237 0.011181554955941139 0 -0.010177196664686172 0.011096273553993978 0 -0.010457693232167194 0.011818715838499826 0 -0.011097930162971356 0.011491763401785262 0 -0.010457693232167194 0.011818715838499826 0 -0.011080988502108985 0.012170630796417784 0 -0.010699451825823237 0.011181554955941139 0 -0.011097930162971356 0.011491763401785262 0 -0.010457693232167194 0.011818715838499826 0 -0.011357105486390769 0.0088380504895006068 0 -0.011041611058410819 0.0090747981295039581 0 -0.010951721182866258 0.0087579371744352184 0 -0.011357105486390769 0.0088380504895006068 0 -0.010951721182866258 0.0087579371744352184 0 -0.011131023024270839 0.008546151795028616 0 -0.010951721182866258 0.0087579371744352184 0 -0.011131023024270839 0.008546151795028616 0 -0.010920473209317992 0.0083307980685580207 0 -0.011357105486390769 0.0088380504895006068 0 -0.011131023024270839 0.008546151795028616 0 -0.011235920638667258 0.0083340308187458967 0 -0.011131023024270839 0.008546151795028616 0 -0.010920473209317992 0.0083307980685580207 0 -0.011235920638667258 0.0083340308187458967 0 -0.011357105486390769 0.0088380504895006068 0 -0.011235920638667258 0.0083340308187458967 0 -0.011521831204665801 0.0080518630990555496 0 -0.014141679837479163 0.0096775202983058559 0 -0.012463489830373757 0.0084503864515589593 0 -0.01061584294739948 0.010666493749876117 0 -0.010599496356444374 0.008538511965848157 0 -0.01196373404044185 0.0086843946139845887 0 -0.011412851023219886 0.0095540605164295949 0 -0.0121770563896995 0.0085414578982212237 0 -0.010177196664686172 0.011096273553993978 0 -0.01061584294739948 0.010666493749876117 0 -0.010599496356444374 0.008538511965848157 0 -0.01061584294739948 0.010666493749876117 0 -0.011502230976398726 0.0108313078540919 0 -0.012210462749971075 0.0086705566500567335 0 -0.010796337143970757 0.0080261916518836497 0 -0.011131049000102389 0.0080560821156914 0 -0.011121446822677175 0.0076131614518047848 0 -0.011521831204665801 0.0080518630990555496 0 -0.011131049000102389 0.0080560821156914 0 -0.011121446822677175 0.0076131614518047848 0 -0.010920473209317992 0.0083307980685580207 0 -0.011235920638667258 0.0083340308187458967 0 -0.011131049000102389 0.0080560821156914 0 -0.010796337143970757 0.0080261916518836497 0 -0.010920473209317992 0.0083307980685580207 0 -0.011131049000102389 0.0080560821156914 0 -0.011235920638667258 0.0083340308187458967 0 -0.011521831204665801 0.0080518630990555496 0 -0.011131049000102389 0.0080560821156914 0 -0.011052377986948754 0.0060092525300079139 0 -0.010599496356444374 0.008538511965848157 0 -0.011999112202328636 0.0071968651837972398 0 -0.011995723549751711 0.006833701666924351 0 -0.012463489830373757 0.0084503864515589593 0 -0.01169537676522025 0.0072540707540851151 0 -0.011521831204665801 0.0080518630990555496 0 -0.011121446822677175 0.0076131614518047848 0 -0.011999112202328636 0.0071968651837972398 0 -0.01340522995203141 0.0067487258697133566 0 -0.01196373404044185 0.0086843946139845887 0 -0.013437506442985914 0.0068676100225905628 0 -0.0121770563896995 0.0085414578982212237 0 -0.013676988810068973 0.0067053288369853985 0 -0.013628441151646442 0.0085259240100625088 0 -0.014993602917765886 0.0081196380289339717 0 -0.013628441151646442 0.0085259240100625088 0 -0.014993602917765886 0.0081196380289339717 0 -0.01414930521512169 0.0095541522117101943 0 -0.013676988810068973 0.0067053288369853985 0 -0.013628441151646442 0.0085259240100625088 0 -0.012210462749971075 0.0086705566500567335 0 -0.010599496356444374 0.008538511965848157 0 -0.011999112202328636 0.0071968651837972398 0 -0.01196373404044185 0.0086843946139845887 0 -0.013628441151646442 0.0085259240100625088 0 -0.012210462749971075 0.0086705566500567335 0 -0.013115185848830653 0.0096008269963332744 0 -0.018062796440276419 0.0057265236689881304 0 -0.015727743509278903 0.0064153857687001435 0 -0.017086877730586699 0.007726509507905815 0 -0.015727743509278903 0.0064153857687001435 0 -0.017086877730586699 0.007726509507905815 0 -0.014993602917765886 0.0081196380289339717 0 -0.015727743509278903 0.0064153857687001435 0 -0.013676988810068973 0.0067053288369853985 0 -0.014993602917765886 0.0081196380289339717 0 -0.014993602917765886 0.0081196380289339717 0 -0.016005932468996734 0.0098555059820273194 0 -0.01414930521512169 0.0095541522117101943 0 -0.017086877730586699 0.007726509507905815 0 -0.016005932468996734 0.0098555059820273194 0 -0.017976071238430071 0.0095484884962763732 0 -0.017086877730586699 0.007726509507905815 0 -0.014993602917765886 0.0081196380289339717 0 -0.016005932468996734 0.0098555059820273194 0 -0.016005932468996734 0.0098555059820273194 0 -0.017976071238430071 0.0095484884962763732 0 -0.017625186265359635 0.011794457967085841 0 -0.016005932468996734 0.0098555059820273194 0 -0.014533764863705782 0.010712111021267314 0 -0.01414930521512169 0.0095541522117101943 0 -0.015386129801819541 0.011620712666261839 0 -0.014533764863705782 0.010712111021267314 0 -0.013883007495845515 0.011653545586538425 0 -0.015386129801819541 0.011620712666261839 0 -0.013883007495845515 0.011653545586538425 0 -0.01439311350358574 0.012638153801625021 0 -0.016005932468996734 0.0098555059820273194 0 -0.015386129801819541 0.011620712666261839 0 -0.014533764863705782 0.010712111021267314 0 -0.016005932468996734 0.0098555059820273194 0 -0.015386129801819541 0.011620712666261839 0 -0.017625186265359635 0.011794457967085841 0 -0.011502230976398726 0.0108313078540919 0 -0.012210462749971075 0.0086705566500567335 0 -0.012420597344029847 0.010504994362649643 0 -0.012210462749971075 0.0086705566500567335 0 -0.012420597344029847 0.010504994362649643 0 -0.013115185848830653 0.0096008269963332744 0 -0.012420597344029847 0.010504994362649643 0 -0.013115185848830653 0.0096008269963332744 0 -0.013379715690228212 0.010764636892628774 0 -0.013628441151646442 0.0085259240100625088 0 -0.013115185848830653 0.0096008269963332744 0 -0.01414930521512169 0.0095541522117101943 0 -0.014533764863705782 0.010712111021267314 0 -0.01414930521512169 0.0095541522117101943 0 -0.013379715690228212 0.010764636892628774 0 -0.013115185848830653 0.0096008269963332744 0 -0.01414930521512169 0.0095541522117101943 0 -0.013379715690228212 0.010764636892628774 0 -0.013379715690228212 0.010764636892628774 0 -0.013883007495845515 0.011653545586538425 0 -0.012705234180835308 0.011505744739368233 0 -0.014533764863705782 0.010712111021267314 0 -0.013379715690228212 0.010764636892628774 0 -0.013883007495845515 0.011653545586538425 0 -0.013883007495845515 0.011653545586538425 0 -0.012705234180835308 0.011505744739368233 0 -0.012911789781681185 0.012392076371617659 0 -0.012705234180835308 0.011505744739368233 0 -0.012230853760479559 0.012182543416471171 0 -0.012911789781681185 0.012392076371617659 0 -0.012420597344029847 0.010504994362649643 0 -0.013379715690228212 0.010764636892628774 0 -0.012705234180835308 0.011505744739368233 0 -0.012420597344029847 0.010504994362649643 0 -0.012705234180835308 0.011505744739368233 0 -0.011812932091662466 0.011558340419874082 0 -0.011502230976398726 0.0108313078540919 0 -0.012420597344029847 0.010504994362649643 0 -0.011812932091662466 0.011558340419874082 0 -0.012705234180835308 0.011505744739368233 0 -0.011812932091662466 0.011558340419874082 0 -0.012230853760479559 0.012182543416471171 0 -0.011812932091662466 0.011558340419874082 0 -0.011642523069732387 0.01237945953351996 0 -0.012230853760479559 0.012182543416471171 0 -0.011642523069732387 0.01237945953351996 0 -0.012230853760479559 0.012182543416471171 0 -0.012084404613448133 0.01307419188683917 0 -0.011642523069732387 0.01237945953351996 0 -0.012084404613448133 0.01307419188683917 0 -0.011200709908348275 0.013152292718745101 0 -0.012084404613448133 0.01307419188683917 0 -0.012757102098263386 0.013265634431283814 0 -0.012911789781681185 0.012392076371617659 0 -0.012230853760479559 0.012182543416471171 0 -0.012084404613448133 0.01307419188683917 0 -0.012911789781681185 0.012392076371617659 0 -0.016837018179295761 0.012447509471831463 0 -0.017251750282923476 0.012427440592911275 0 -0.013883007495845515 0.011653545586538425 0 -0.01439311350358574 0.012638153801625021 0 -0.013766278519398075 0.013204032271423286 0 -0.013883007495845515 0.011653545586538425 0 -0.012911789781681185 0.012392076371617659 0 -0.013611417093842355 0.013282514149390986 0 -0.016953399549992716 0.012606466434251177 0 -0.017251750282923476 0.012427440592911275 0 -0.012757102098263386 0.013265634431283814 0 -0.012911789781681185 0.012392076371617659 0 -0.013611417093842355 0.013282514149390986 0 -0.01439311350358574 0.012638153801625021 0 -0.013941106367206184 0.013097209758392504 0 -0.014223447874745759 0.014189902066182165 0 -0.013941106367206184 0.013097209758392504 0 -0.014223447874745759 0.014189902066182165 0 -0.013732979694090422 0.014811405516167461 0 -0.019371151191661263 0.011091312382004849 0 -0.020116629294469883 0.01043357427883043 0 -0.019556389260097562 0.0098656817492085505 0 -0.017251750282923476 0.012427440592911275 0 -0.019289305603162755 0.011642031173308108 0 -0.012421304570201365 0.014310471163907502 0 -0.011245839136556714 0.015340124595222255 0 -0.011258338373011859 0.014208467155341284 0 -0.017985919702731338 0.010974227121955466 0 -0.020619884943688344 0.0078741243223949819 0 -0.012084404613448133 0.01307419188683917 0 -0.012421304570201365 0.014310471163907502 0 -0.011258338373011859 0.014208467155341284 0 -0.012757102098263386 0.013265634431283814 0 -0.013611417093842355 0.013282514149390986 0 -0.012421304570201365 0.014310471163907502 0 -0.017251750282923476 0.012427440592911275 0 -0.017985919702731338 0.010974227121955466 0 -0.012084404613448133 0.01307419188683917 0 -0.012757102098263386 0.013265634431283814 0 -0.012421304570201365 0.014310471163907502 0 -0.016416570680932833 0.012687396195497866 0 -0.018203850134717939 0.011440445524373719 0 -0.015386129801819541 0.011620712666261839 0 -0.015715434531737613 0.013045788515635476 0 -0.017625186265359635 0.011794457967085841 0 -0.016554834558681786 0.012509046292808683 0 -0.017600999368339882 0.013637039055712936 0 -0.018759483361311977 0.011057107709895276 0 -0.015386129801819541 0.011620712666261839 0 -0.01439311350358574 0.012638153801625021 0 -0.015715434531737613 0.013045788515635476 0 -0.014223447874745759 0.014189902066182165 0 -0.016554834558681786 0.012509046292808683 0 -0.016168835436003219 0.014390689968624727 0 -0.01439311350358574 0.012638153801625021 0 -0.014223447874745759 0.014189902066182165 0 -0.015715434531737613 0.013045788515635476 0 -0.015439221126884419 0.013386285243789679 0 -0.016416570680932833 0.012687396195497866 0 -0.016554834558681786 0.012509046292808683 0 -0.016168835436003219 0.014390689968624727 0 -0.017600999368339882 0.013637039055712936 0 -0.017600999368339882 0.013637039055712936 0 -0.017914513055276828 0.015511357115166645 0 -0.019134455111164361 0.013732261280320956 0 -0.016168835436003219 0.014390689968624727 0 -0.017914513055276828 0.015511357115166645 0 -0.016150310042931569 0.016056881244951526 0 -0.016168835436003219 0.014390689968624727 0 -0.017600999368339882 0.013637039055712936 0 -0.017914513055276828 0.015511357115166645 0 -0.016168835436003219 0.014390689968624727 0 -0.016150310042931569 0.016056881244951526 0 -0.014974770280543795 0.015196248928199959 0 -0.014223447874745759 0.014189902066182165 0 -0.016168835436003219 0.014390689968624727 0 -0.014974770280543795 0.015196248928199959 0 -0.016150310042931569 0.016056881244951526 0 -0.014974770280543795 0.015196248928199959 0 -0.014782918159224872 0.016250371478420091 0 -0.016150310042931569 0.016056881244951526 0 -0.015826565345612345 0.017509712557071174 0 -0.017531202716799935 0.017352040157820024 0 -0.016150310042931569 0.016056881244951526 0 -0.015826565345612345 0.017509712557071174 0 -0.014782918159224872 0.016250371478420091 0 -0.017914513055276828 0.015511357115166645 0 -0.017531202716799935 0.017352040157820024 0 -0.018840331855989961 0.017161170758687894 0 -0.017914513055276828 0.015511357115166645 0 -0.016150310042931569 0.016056881244951526 0 -0.017531202716799935 0.017352040157820024 0 -0.020067675900918843 0.0096803404664817742 0 -0.019556389260097562 0.0098656817492085505 0 -0.019740743267939034 0.0086463680137293629 0 -0.022639584735975774 0.0088195690448028049 0 -0.020619884943688344 0.0078741243223949819 0 -0.020067675900918843 0.0096803404664817742 0 -0.019740743267939034 0.0086463680137293629 0 -0.020857111876397067 0.0097776382962266803 0 -0.020116629294469883 0.01043357427883043 0 -0.020067675900918843 0.0096803404664817742 0 -0.020857111876397067 0.0097776382962266803 0 -0.020116629294469883 0.01043357427883043 0 -0.020067675900918843 0.0096803404664817742 0 -0.019556389260097562 0.0098656817492085505 0 -0.019289305603162755 0.011642031173308108 0 -0.022639584735975774 0.0088195690448028049 0 -0.013732979694090422 0.014811405516167461 0 -0.014782918159224872 0.016250371478420091 0 -0.013416047802362489 0.0170127096301597 0 -0.014223447874745759 0.014189902066182165 0 -0.013732979694090422 0.014811405516167461 0 -0.014974770280543795 0.015196248928199959 0 -0.013732979694090422 0.014811405516167461 0 -0.014974770280543795 0.015196248928199959 0 -0.014782918159224872 0.016250371478420091 0 -0.015826565345612345 0.017509712557071174 0 -0.014782918159224872 0.016250371478420091 0 -0.013416047802362489 0.0170127096301597 0 -0.027298362004861017 0.0041352980790025197 0 -0.027730485119980986 0.0041346249543614674 0 -0.02770463667206598 0.0045444180759785912 0 -0.027298362004861017 0.0041352980790025197 0 -0.027730485119980986 0.0041346249543614674 0 -0.027526408786646361 0.003909995286290267 0 -0.027730485119980986 0.0041346249543614674 0 -0.02770463667206598 0.0045444180759785912 0 -0.027981602926847864 0.0042952795751605008 0 -0.027730485119980986 0.0041346249543614674 0 -0.027981599254930902 0.004029175622611055 0 -0.027846694977003428 0.0038652701279582409 0 -0.027730485119980986 0.0041346249543614674 0 -0.027981602926847864 0.0042952795751605008 0 -0.027981599254930902 0.004029175622611055 0 -0.020619884943688344 0.0078741243223949819 0 -0.023542480565628045 0.0053225165679532081 0 -0.021403089895178903 0.0061195121111560667 0 -0.022047176599988304 0.0063210473388349616 0 -0.022102695345066752 0.0055008552018348828 0 -0.027753854738499322 0.0034458120834489933 0 -0.027974310675193934 0.003405014564621044 0 -0.027673098817470397 0.0037839910281302 0 -0.022047176599988304 0.0063210473388349616 0 -0.02258103556403478 0.0059030394153017996 0 -0.022356126323597056 0.0069198197396776505 0 -0.022047176599988304 0.0063210473388349616 0 -0.02258103556403478 0.0059030394153017996 0 -0.022102695345066752 0.0055008552018348828 0 -0.023542480565628045 0.0053225165679532081 0 -0.025085286615393609 0.0037534993612458618 0 -0.023066833244093646 0.0046079214793567575 0 -0.025085286615393609 0.0037534993612458618 0 -0.02258103556403478 0.0059030394153017996 0 -0.022102695345066752 0.0055008552018348828 0 -0.022807174110446232 0.0048799650973687051 0 -0.027981602926847864 0.0042952795751605008 0 -0.027981599254930902 0.004029175622611055 0 -0.028240698356836718 0.004050174813522431 0 -0.027829658229171494 0.0031184813408915986 0 -0.02796025803152127 0.0030931286915093273 0 -0.028026123172100733 0.0031990329638754327 0 -0.027829658229171494 0.0031184813408915986 0 -0.028026123172100733 0.0031990329638754327 0 -0.027974310675193934 0.003405014564621044 0 -0.028026123172100733 0.0031990329638754327 0 -0.028195530478732325 0.0033594039982017257 0 -0.028073448748303392 0.0029379286226286351 0 -0.027753854738499322 0.0034458120834489933 0 -0.027829658229171494 0.0031184813408915986 0 -0.027974310675193934 0.003405014564621044 0 -0.02796025803152127 0.0030931286915093273 0 -0.028026123172100733 0.0031990329638754327 0 -0.028073448748303392 0.0029379286226286351 0 -0.028026123172100733 0.0031990329638754327 0 -0.028195530478732325 0.0033594039982017257 0 -0.027974310675193934 0.003405014564621044 0 -0.027885972755174033 0.0032338798475517599 0 -0.02776995900914668 0.0031057704338118275 0 -0.028255301930796214 0.0031817822753909507 0 -0.028195530478732325 0.0033594039982017257 0 -0.028175501950581005 0.0030607745462862394 0 -0.028320140190325152 0.0031585447751183494 0 -0.028255301930796214 0.0031817822753909507 0 -0.028336786850281105 0.0032974879219431876 0 -0.028255301930796214 0.0031817822753909507 0 -0.028336786850281105 0.0032974879219431876 0 -0.028195530478732325 0.0033594039982017257 0 -0.028336786850281105 0.0032974879219431876 0 -0.028145739227401344 0.0035370956862744969 0 -0.028514142474665435 0.0033230004281667065 0 -0.028336786850281105 0.0032974879219431876 0 -0.028195530478732325 0.0033594039982017257 0 -0.028145739227401344 0.0035370956862744969 0 -0.026886495859996272 0.0020140645134696599 0 -0.028676421487869211 0.0011815059904181102 0 -0.028145739227401344 0.0035370956862744969 0 -0.027974310675193934 0.003405014564621044 0 -0.027673098817470397 0.0037839910281302 0 -0.028195530478732325 0.0033594039982017257 0 -0.028145739227401344 0.0035370956862744969 0 -0.027974310675193934 0.003405014564621044 0 -0.026979806330454648 -0.0016694136931884058 0 -0.026726890845171006 -0.0012656882782726244 0 -0.026338179037064417 -0.0013403076643247671 0 -0.026886495859996272 0.0020140645134696599 0 -0.02025481510268029 0.0059033423723224947 0 -0.026979806330454648 -0.0016694136931884058 0 -0.027193463630892013 -0.0012224532545087887 0 -0.027455085302997138 -0.0015137068618218123 0 -0.026979806330454648 -0.0016694136931884058 0 -0.026726890845171006 -0.0012656882782726244 0 -0.027193463630892013 -0.0012224532545087887 0 -0.026797181648175381 -0.00081820417952945034 0 -0.027193463630892013 -0.0012224532545087887 0 -0.027433230477576075 -0.00083749787126010419 0 -0.018600645738820563 0.0047337619209658838 0 -0.019396496490443629 0.0064369346789120091 0 -0.026797181648175381 -0.00081820417952945034 0 -0.026726890845171006 -0.0012656882782726244 0 -0.027193463630892013 -0.0012224532545087887 0 -0.026797181648175381 -0.00081820417952945034 0 -0.026726890845171006 -0.0012656882782726244 0 -0.026324941075825982 -0.0012789814357801841 0 -0.011357105486390769 0.0088380504895006068 0 -0.011041611058410819 0.0090747981295039581 0 -0.011199957607389394 0.0096177585798559676 0 -0.010177196664686172 0.011096273553993978 0 -0.010457693232167194 0.011818715838499826 0 -0.0096400235077576842 0.013724884325843827 0 -0.014141679837479163 0.0096775202983058559 0 -0.019396496490443629 0.0064369346789120091 0 -0.010656940794270223 0.0090850126687116138 0 -0.011041611058410819 0.0090747981295039581 0 -0.011199957607389394 0.0096177585798559676 0 -0.010457693232167194 0.011818715838499826 0 -0.010481661488995498 0.012499055390659052 0 -0.0096400235077576842 0.013724884325843827 0 -0.010457693232167194 0.011818715838499826 0 -0.010481661488995498 0.012499055390659052 0 -0.011080988502108985 0.012170630796417784 0 -0.010481661488995498 0.012499055390659052 0 -0.011080988502108985 0.012170630796417784 0 -0.010893836625874079 0.012653729862869114 0 -0.011642523069732387 0.01237945953351996 0 -0.010893836625874079 0.012653729862869114 0 -0.011200709908348275 0.013152292718745101 0 -0.011812932091662466 0.011558340419874082 0 -0.011642523069732387 0.01237945953351996 0 -0.011080988502108985 0.012170630796417784 0 -0.011642523069732387 0.01237945953351996 0 -0.011080988502108985 0.012170630796417784 0 -0.010893836625874079 0.012653729862869114 0 -0.010481661488995498 0.012499055390659052 0 -0.010527347063551122 0.0131184558262598 0 -0.0096400235077576842 0.013724884325843827 0 -0.010893836625874079 0.012653729862869114 0 -0.011200709908348275 0.013152292718745101 0 -0.010527347063551122 0.0131184558262598 0 -0.010481661488995498 0.012499055390659052 0 -0.010893836625874079 0.012653729862869114 0 -0.010527347063551122 0.0131184558262598 0 -0.011200709908348275 0.013152292718745101 0 -0.010762125006967048 0.013412929733645223 0 -0.010527347063551122 0.0131184558262598 0 -0.010762125006967048 0.013412929733645223 0 -0.010527347063551122 0.0131184558262598 0 -0.010298428891550344 0.013594254274483041 0 -0.021403089895178903 0.0061195121111560667 0 -0.022047176599988304 0.0063210473388349616 0 -0.0222490306322355 0.0069744694602242429 0 -0.010298428891550344 0.013594254274483041 0 -0.011258338373011859 0.014208467155341284 0 -0.0097778136243750462 0.013860011521882333 0 -0.020619884943688344 0.0078741243223949819 0 -0.019502193126212739 0.006459206718014936 0 -0.010762125006967048 0.013412929733645223 0 -0.010298428891550344 0.013594254274483041 0 -0.011258338373011859 0.014208467155341284 0 -0.011245839136556714 0.015340124595222255 0 -0.011258338373011859 0.014208467155341284 0 -0.0097778136243750462 0.013860011521882333 0 -0.012084404613448133 0.01307419188683917 0 -0.011200709908348275 0.013152292718745101 0 -0.011258338373011859 0.014208467155341284 0 -0.011200709908348275 0.013152292718745101 0 -0.010762125006967048 0.013412929733645223 0 -0.011258338373011859 0.014208467155341284 0 -0.022047176599988304 0.0063210473388349616 0 -0.022356126323597056 0.0069198197396776505 0 -0.0222490306322355 0.0069744694602242429 0 -0.026726890845171006 -0.0012656882782726244 0 -0.026324941075825982 -0.0012789814357801841 0 -0.026338179037064417 -0.0013403076643247671 0 -0.023066833244093646 0.0046079214793567575 0 -0.02025481510268029 0.0059033423723224947 0 -0.010527347063551122 0.0131184558262598 0 -0.010298428891550344 0.013594254274483041 0 -0.0096400235077576842 0.013724884325843827 0 -0.019396496490443629 0.0064369346789120091 0 -0.019502193126212739 0.006459206718014936 0 -0.018851470434992232 0.0068318763573270297 0 -0.019502193126212739 0.006459206718014936 0 -0.010298428891550344 0.013594254274483041 0 -0.0096400235077576842 0.013724884325843827 0 -0.0097756036887369953 0.013860645315243916 0 -0.019396496490443629 0.0064369346789120091 0 -0.02025481510268029 0.0059033423723224947 0 -0.01849219417993541 0.0048928099851100445 0 -0.017297333910624473 0.010409521815822066 0 -0.021717864592336746 0.0081533108066830541 0 -0.02025481510268029 0.0059033423723224947 0 -0.019502193126212739 0.006459206718014936 0 -0.028644907321996788 0.0098972555101590216 0 -0.028735106448132763 0.011026308476610281 0 -0.028213092216227836 0.010957995188652996 0 -0.028213092216227836 0.010957995188652996 0 -0.027307237552893372 0.010517686768845064 0 -0.027886741217258003 0.011703759323503942 0 -0.028644907321996788 0.0098972555101590216 0 -0.028213092216227836 0.010957995188652996 0 -0.027307237552893372 0.010517686768845064 0 -0.028735106448132763 0.011026308476610281 0 -0.028213092216227836 0.010957995188652996 0 -0.028460571653875642 0.011588500481666993 0 -0.026807929651629786 0.0091617406691720752 0 -0.026572563712148643 0.0082148814136704922 0 -0.027307237552893372 0.010517686768845064 0 -0.0279629178491838 0.0086581582454786418 0 -0.026520879610955658 0.008814073888554241 0 -0.027307237552893372 0.010517686768845064 0 -0.027035272489253821 0.0084554432450821004 0 -0.025972976169792675 0.010030167060330809 0 -0.028644907321996788 0.0098972555101590216 0 -0.027307237552893372 0.010517686768845064 0 -0.0279629178491838 0.0086581582454786418 0 -0.0279629178491838 0.0086581582454786418 0 -0.028449691919025213 0.0071276523409987778 0 -0.025847927328170293 0.0068592898447325749 0 -0.026572563712148643 0.0082148814136704922 0 -0.026090589462433051 0.0063724955778367513 0 -0.0279629178491838 0.0086581582454786418 0 -0.026520879610955658 0.008814073888554241 0 -0.025847927328170293 0.0068592898447325749 0 -0.027035272489253821 0.0084554432450821004 0 -0.026618899763206898 0.0061657473767812573 0 -0.024849494477256019 0.0085740989988741748 0 -0.026618899763206898 0.0061657473767812573 0 -0.023796944816643253 0.00648081210678568 0 -0.024849494477256019 0.0085740989988741748 0 -0.024849494477256019 0.0085740989988741748 0 -0.025972976169792675 0.010030167060330809 0 -0.024383756933013864 0.01055853910930688 0 -0.025972976169792675 0.010030167060330809 0 -0.024383756933013864 0.01055853910930688 0 -0.026920080058473232 0.012312451043952122 0 -0.027307237552893372 0.010517686768845064 0 -0.025972976169792675 0.010030167060330809 0 -0.026920080058473232 0.012312451043952122 0 -0.027035272489253821 0.0084554432450821004 0 -0.024849494477256019 0.0085740989988741748 0 -0.025972976169792675 0.010030167060330809 0 -0.024383756933013864 0.01055853910930688 0 -0.022343071169823894 0.010936292990060126 0 -0.024194362373046587 0.012134365668928667 0 -0.022343071169823894 0.010936292990060126 0 -0.020768831476734164 0.0097792930548998118 0 -0.020801165306031533 0.012178907623186965 0 -0.021005133192632926 0.0094874215327688076 0 -0.020002606814595987 0.010194282881601921 0 -0.022343071169823894 0.010936292990060126 0 -0.022286556995008429 0.0086970927402428688 0 -0.020768831476734164 0.0097792930548998118 0 -0.024849494477256019 0.0085740989988741748 0 -0.024383756933013864 0.01055853910930688 0 -0.022286556995008429 0.0086970927402428688 0 -0.024383756933013864 0.01055853910930688 0 -0.022343071169823894 0.010936292990060126 0 -0.022286556995008429 0.0086970927402428688 0 -0.023796944816643253 0.00648081210678568 0 -0.024849494477256019 0.0085740989988741748 0 -0.022286556995008429 0.0086970927402428688 0 -0.023796944816643253 0.00648081210678568 0 -0.021754450999177149 0.0067743776126936934 0 -0.022286556995008429 0.0086970927402428688 0 -0.020187491774059717 0.0055820549071107202 0 -0.021754450999177149 0.0067743776126936934 0 -0.019570698251178555 0.0078059544987317203 0 -0.022286556995008429 0.0086970927402428688 0 -0.019570698251178555 0.0078059544987317203 0 -0.019756634516431518 0.010445267632755391 0 -0.021754450999177149 0.0067743776126936934 0 -0.022286556995008429 0.0086970927402428688 0 -0.019570698251178555 0.0078059544987317203 0 -0.020187491774059717 0.0055820549071107202 0 -0.018062796440276419 0.0057265236689881304 0 -0.019570698251178555 0.0078059544987317203 0 -0.018062796440276419 0.0057265236689881304 0 -0.017086877730586699 0.007726509507905815 0 -0.019570698251178555 0.0078059544987317203 0 -0.017086877730586699 0.007726509507905815 0 -0.019570698251178555 0.0078059544987317203 0 -0.017976071238430071 0.0095484884962763732 0 -0.017976071238430071 0.0095484884962763732 0 -0.019756634516431518 0.010445267632755391 0 -0.017625186265359635 0.011794457967085841 0 -0.019570698251178555 0.0078059544987317203 0 -0.017976071238430071 0.0095484884962763732 0 -0.019756634516431518 0.010445267632755391 0 -0.020768831476734164 0.0097792930548998118 0 -0.018759483361311977 0.011057107709895276 0 -0.020801165306031533 0.012178907623186965 0 -0.020002606814595987 0.010194282881601921 0 -0.018203850134717939 0.011440445524373719 0 -0.017600999368339882 0.013637039055712936 0 -0.018759483361311977 0.011057107709895276 0 -0.019134455111164361 0.013732261280320956 0 -0.018759483361311977 0.011057107709895276 0 -0.020801165306031533 0.012178907623186965 0 -0.019134455111164361 0.013732261280320956 0 -0.020801165306031533 0.012178907623186965 0 -0.019134455111164361 0.013732261280320956 0 -0.021076257837371135 0.014355253372391696 0 -0.023793964632488743 0.013665764196032788 0 -0.024865407136439907 0.013704939557759824 0 -0.017914513055276828 0.015511357115166645 0 -0.019134455111164361 0.013732261280320956 0 -0.019647651673190557 0.016043635623559309 0 -0.017914513055276828 0.015511357115166645 0 -0.019647651673190557 0.016043635623559309 0 -0.018840331855989961 0.017161170758687894 0 -0.019647651673190557 0.016043635623559309 0 -0.018840331855989961 0.017161170758687894 0 -0.020266811923899206 0.018190878514354591 0 -0.024865407136439907 0.013704939557759824 0 -0.027779953274282825 0.011685950184935751 0 -0.019638108253048091 0.015798575075451779 0 -0.021356988977799033 0.016383408141417959 0 -0.020227446679980141 0.017782089240219973 0 -0.025362377727701748 0.014243541371415449 0 -0.027779953274282825 0.011685950184935751 0 -0.021356988977799033 0.016383408141417959 0 -0.021662047047016072 0.017616151864922734 0 -0.020219958005990264 0.017807915384654982 0 -0.019134455111164361 0.013732261280320956 0 -0.019638108253048091 0.015798575075451779 0 -0.021076257837371135 0.014355253372391696 0 -0.019638108253048091 0.015798575075451779 0 -0.021076257837371135 0.014355253372391696 0 -0.021356988977799033 0.016383408141417959 0 -0.021076257837371135 0.014355253372391696 0 -0.022324119455126797 0.015216364381176363 0 -0.021356988977799033 0.016383408141417959 0 -0.021356988977799033 0.016383408141417959 0 -0.02299469009937358 0.017181356781865786 0 -0.021662047047016072 0.017616151864922734 0 -0.022324119455126797 0.015216364381176363 0 -0.021356988977799033 0.016383408141417959 0 -0.02299469009937358 0.017181356781865786 0 -0.02299469009937358 0.017181356781865786 0 -0.024019818648559229 0.015129211152741394 0 -0.024799665760035672 0.01673248167303322 0 -0.022324119455126797 0.015216364381176363 0 -0.02299469009937358 0.017181356781865786 0 -0.024019818648559229 0.015129211152741394 0 -0.022324119455126797 0.015216364381176363 0 -0.024019818648559229 0.015129211152741394 0 -0.022746715498705133 0.013369624365363243 0 -0.024019818648559229 0.015129211152741394 0 -0.022746715498705133 0.013369624365363243 0 -0.024835547809866219 0.013563940947343815 0 -0.022746715498705133 0.013369624365363243 0 -0.024194362373046587 0.012134365668928667 0 -0.024835547809866219 0.013563940947343815 0 -0.020801165306031533 0.012178907623186965 0 -0.021076257837371135 0.014355253372391696 0 -0.022746715498705133 0.013369624365363243 0 -0.021076257837371135 0.014355253372391696 0 -0.022324119455126797 0.015216364381176363 0 -0.022746715498705133 0.013369624365363243 0 -0.022343071169823894 0.010936292990060126 0 -0.020801165306031533 0.012178907623186965 0 -0.022746715498705133 0.013369624365363243 0 -0.022343071169823894 0.010936292990060126 0 -0.022746715498705133 0.013369624365363243 0 -0.024194362373046587 0.012134365668928667 0 -0.024383756933013864 0.01055853910930688 0 -0.024194362373046587 0.012134365668928667 0 -0.026920080058473232 0.012312451043952122 0 -0.027561854098013053 0.012661509976916114 0 -0.027632282137790242 0.013046093750930672 0 -0.026920080058473232 0.012312451043952122 0 -0.024835547809866219 0.013563940947343815 0 -0.026559830704034098 0.014933357748355747 0 -0.026920080058473232 0.012312451043952122 0 -0.028464611964552404 0.012431749058322976 0 -0.027955332841490037 0.012332817523588632 0 -0.024194362373046587 0.012134365668928667 0 -0.026920080058473232 0.012312451043952122 0 -0.024835547809866219 0.013563940947343815 0 -0.024019818648559229 0.015129211152741394 0 -0.024799665760035672 0.01673248167303322 0 -0.026559830704034098 0.014933357748355747 0 -0.024019818648559229 0.015129211152741394 0 -0.024835547809866219 0.013563940947343815 0 -0.026559830704034098 0.014933357748355747 0 -0.024799665760035672 0.01673248167303322 0 -0.026279171050574347 0.017189225071023311 0 -0.026559830704034098 0.014933357748355747 0 -0.027747644664177507 0.013221370980691909 0 -0.027632282137790242 0.013046093750930672 0 -0.030155784015256207 0.011550551117250731 0 -0.028464611964552404 0.012431749058322976 0 -0.028896398490443547 0.011927782929692489 0 -0.030155784015256207 0.011550551117250731 0 -0.028896398490443547 0.011927782929692489 0 -0.029086299802300177 0.011079800581336072 0 -0.028464611964552404 0.012431749058322976 0 -0.028374318053766126 0.012147274272711159 0 -0.027955332841490037 0.012332817523588632 0 -0.028464611964552404 0.012431749058322976 0 -0.028374318053766126 0.012147274272711159 0 -0.028896398490443547 0.011927782929692489 0 -0.028374318053766126 0.012147274272711159 0 -0.028896398490443547 0.011927782929692489 0 -0.028606202940667319 0.011761060254662802 0 -0.028896398490443547 0.011927782929692489 0 -0.028606202940667319 0.011761060254662802 0 -0.029086299802300177 0.011079800581336072 0 -0.028374318053766126 0.012147274272711159 0 -0.028606202940667319 0.011761060254662802 0 -0.028215588330670005 0.011825643617366134 0 -0.028292410461118619 0.012103461255709172 0 -0.028374318053766126 0.012147274272711159 0 -0.028215588330670005 0.011825643617366134 0 -0.028374318053766126 0.012147274272711159 0 -0.028269376125344838 0.012199743826348156 0 -0.027955332841490037 0.012332817523588632 0 -0.028292410461118619 0.012103461255709172 0 -0.028374318053766126 0.012147274272711159 0 -0.028269376125344838 0.012199743826348156 0 -0.028468377806030402 0.011981116953271623 0 -0.028269376125344838 0.012199743826348156 0 -0.028200872343070574 0.012014900077679858 0 -0.028468377806030402 0.011981116953271623 0 -0.028200872343070574 0.012014900077679858 0 -0.028460571653875642 0.011588500481666993 0 -0.028269376125344838 0.012199743826348156 0 -0.028200872343070574 0.012014900077679858 0 -0.027955332841490037 0.012332817523588632 0 -0.026920080058473232 0.012312451043952122 0 -0.027955332841490037 0.012332817523588632 0 -0.027886741217258003 0.011703759323503942 0 -0.028200872343070574 0.012014900077679858 0 -0.027955332841490037 0.012332817523588632 0 -0.027886741217258003 0.011703759323503942 0 -0.027307237552893372 0.010517686768845064 0 -0.026920080058473232 0.012312451043952122 0 -0.027886741217258003 0.011703759323503942 0 -0.028213092216227836 0.010957995188652996 0 -0.027886741217258003 0.011703759323503942 0 -0.028460571653875642 0.011588500481666993 0 -0.028200872343070574 0.012014900077679858 0 -0.027886741217258003 0.011703759323503942 0 -0.028460571653875642 0.011588500481666993 0 -0.030827069746609526 0.00180834018781163 0 -0.030787308875862767 0.0010179324805879907 0 -0.023042135939556806 0.0005097514290659436 0 -0.025481998951667108 0.0022703680437637899 0 -0.027022303750097672 -0.00031368360074820637 0 -0.025481998951667108 0.0022703680437637899 0 -0.027420293252476566 0.002395400652736978 0 -0.026279969648539962 0.0040781398495630932 0 -0.023042135939556806 0.0005097514290659436 0 -0.025481998951667108 0.0022703680437637899 0 -0.024262478651483288 0.0027752082226922977 0 -0.025481998951667108 0.0022703680437637899 0 -0.027420293252476566 0.002395400652736978 0 -0.027022303750097672 -0.00031368360074820637 0 -0.028899691825406533 0.001234797302329398 0 -0.027420293252476566 0.002395400652736978 0 -0.027022303750097672 -0.00031368360074820637 0 -0.028899691825406533 0.001234797302329398 0 -0.031829863054548185 -0.00066644058482655092 0 -0.027022303750097672 -0.00031368360074820637 0 -0.028899691825406533 0.001234797302329398 0 -0.030595801116001829 0.001046656590977521 0 -0.031829863054548185 -0.00066644058482655092 0 -0.030595801116001829 0.001046656590977521 0 -0.02914219194244233 0.0028280826424857751 0 -0.030340413626523122 0.0028048246935299228 0 -0.028899691825406533 0.001234797302329398 0 -0.030595801116001829 0.001046656590977521 0 -0.02914219194244233 0.0028280826424857751 0 -0.028899691825406533 0.001234797302329398 0 -0.02914219194244233 0.0028280826424857751 0 -0.027420293252476566 0.002395400652736978 0 -0.02914219194244233 0.0028280826424857751 0 -0.027420293252476566 0.002395400652736978 0 -0.027771110833217968 0.0040179086812027597 0 -0.02914219194244233 0.0028280826424857751 0 -0.027771110833217968 0.0040179086812027597 0 -0.028878747348765797 0.0050178994969356855 0 -0.027771110833217968 0.0040179086812027597 0 -0.027346638805197884 0.0058124284780710772 0 -0.026279969648539962 0.0040781398495630932 0 -0.02914219194244233 0.0028280826424857751 0 -0.028878747348765797 0.0050178994969356855 0 -0.030358009458237949 0.0040943496581137663 0 -0.02914219194244233 0.0028280826424857751 0 -0.030358009458237949 0.0040943496581137663 0 -0.030340413626523122 0.0028048246935299228 0 -0.028878747348765797 0.0050178994969356855 0 -0.027346638805197884 0.0058124284780710772 0 -0.029056193286515406 0.0073653904112908532 0 -0.028878747348765797 0.0050178994969356855 0 -0.030378848414400569 0.0057954663148379708 0 -0.030358009458237949 0.0040943496581137663 0 -0.028878747348765797 0.0050178994969356855 0 -0.029056193286515406 0.0073653904112908532 0 -0.030378848414400569 0.0057954663148379708 0 -0.027771110833217968 0.0040179086812027597 0 -0.028878747348765797 0.0050178994969356855 0 -0.027346638805197884 0.0058124284780710772 0 -0.027346638805197884 0.0058124284780710772 0 -0.025794851270755041 0.0054513910459286193 0 -0.026279969648539962 0.0040781398495630932 0 -0.027420293252476566 0.002395400652736978 0 -0.027771110833217968 0.0040179086812027597 0 -0.026279969648539962 0.0040781398495630932 0 -0.025794851270755041 0.0054513910459286193 0 -0.026279969648539962 0.0040781398495630932 0 -0.024777341616802367 0.0042044359920120639 0 -0.025481998951667108 0.0022703680437637899 0 -0.024262478651483288 0.0027752082226922977 0 -0.024777341616802367 0.0042044359920120639 0 -0.025481998951667108 0.0022703680437637899 0 -0.026279969648539962 0.0040781398495630932 0 -0.024777341616802367 0.0042044359920120639 0 -0.023736057131808045 0.0041020871592423016 0 -0.024262478651483288 0.0027752082226922977 0 -0.024777341616802367 0.0042044359920120639 0 -0.02348089015280698 0.0046708285014045708 0 -0.024777341616802367 0.0042044359920120639 0 -0.024533822719788771 0.0056623229093302379 0 -0.025794851270755041 0.0054513910459286193 0 -0.024777341616802367 0.0042044359920120639 0 -0.024533822719788771 0.0056623229093302379 0 -0.023700639311807239 0.0067588152243968375 0 -0.024533822719788771 0.0056623229093302379 0 -0.025878875077630554 0.0072281913313063237 0 -0.025794851270755041 0.0054513910459286193 0 -0.024533822719788771 0.0056623229093302379 0 -0.025878875077630554 0.0072281913313063237 0 -0.027346638805197884 0.0058124284780710772 0 -0.025794851270755041 0.0054513910459286193 0 -0.025878875077630554 0.0072281913313063237 0 -0.025760535143162178 0.0073738693219711242 0 -0.025728570590168781 0.0090018516906062111 0 -0.027274339360471515 0.0094743784886259126 0 -0.024258183604233288 0.008431651951492293 0 -0.025760535143162178 0.0073738693219711242 0 -0.025728570590168781 0.0090018516906062111 0 -0.024258183604233288 0.008431651951492293 0 -0.025728570590168781 0.0090018516906062111 0 -0.025132036497581001 0.01104816697825616 0 -0.025728570590168781 0.0090018516906062111 0 -0.025132036497581001 0.01104816697825616 0 -0.027274339360471515 0.0094743784886259126 0 -0.027289932083011368 0.0095275828529868146 0 -0.028028539552537 0.0099036263728573999 0 -0.025132036497581001 0.01104816697825616 0 -0.029086299802300177 0.011079800581336072 0 -0.027274339360471515 0.0094743784886259126 0 -0.028606202940667319 0.011761060254662802 0 -0.028215588330670005 0.011825643617366134 0 -0.029086299802300177 0.011079800581336072 0 -0.029086299802300177 0.011079800581336072 0 -0.027274339360471515 0.0094743784886259126 0 -0.029683081887237797 0.0094538184341396575 0 -0.027346638805197884 0.0058124284780710772 0 -0.025878875077630554 0.0072281913313063237 0 -0.029056193286515406 0.0073653904112908532 0 -0.026879083915158784 0.0060306588239668361 0 -0.027357161108030163 0.0062080826042825174 0 -0.027274339360471515 0.0094743784886259126 0 -0.029056193286515406 0.0073653904112908532 0 -0.029683081887237797 0.0094538184341396575 0 -0.025760535143162178 0.0073738693219711242 0 -0.027274339360471515 0.0094743784886259126 0 -0.029056193286515406 0.0073653904112908532 0 -0.029056193286515406 0.0073653904112908532 0 -0.031877092426328857 0.007863000285216035 0 -0.030378848414400569 0.0057954663148379708 0 -0.029056193286515406 0.0073653904112908532 0 -0.031877092426328857 0.007863000285216035 0 -0.029683081887237797 0.0094538184341396575 0 -0.031877092426328857 0.007863000285216035 0 -0.031412676666104429 0.0048458990533766467 0 -0.030378848414400569 0.0057954663148379708 0 -0.026279171050574347 0.017189225071023311 0 -0.026044472638561522 0.0194082408294564 0 -0.025232088893462568 0.018133216009425787 0 -0.030155784015256207 0.011550551117250731 0 -0.031877092426328857 0.007863000285216035 0 -0.029683081887237797 0.0094538184341396575 0 -0.027747644664177507 0.013221370980691909 0 -0.027698690448220039 0.012229806939065219 0 -0.030155784015256207 0.011550551117250731 0 -0.029086299802300177 0.011079800581336072 0 -0.029683081887237797 0.0094538184341396575 0 -0.024799665760035672 0.01673248167303322 0 -0.025232088893462568 0.018133216009425787 0 -0.024296999410801507 0.018079668074537366 0 -0.024799665760035672 0.01673248167303322 0 -0.026279171050574347 0.017189225071023311 0 -0.025232088893462568 0.018133216009425787 0 -0.025232088893462568 0.018133216009425787 0 -0.02473502681032123 0.019240811436529271 0 -0.024296999410801507 0.018079668074537366 0 -0.026044472638561522 0.0194082408294564 0 -0.025232088893462568 0.018133216009425787 0 -0.02473502681032123 0.019240811436529271 0 -0.026044472638561522 0.0194082408294564 0 -0.02473502681032123 0.019240811436529271 0 -0.025151015957041341 0.020169904366241692 0 -0.02473502681032123 0.019240811436529271 0 -0.025151015957041341 0.020169904366241692 0 -0.023990027188961968 0.020360549558798159 0 -0.026044472638561522 0.0194082408294564 0 -0.025151015957041341 0.020169904366241692 0 -0.025843788800320698 0.021604198523940337 0 -0.033236903725511961 0.0016446108480592707 0 -0.032461096741338603 0.0016077726283690635 0 -0.033677082301178357 0.002298988506254168 0 -0.027232621396682977 0.0087655933249935376 0 -0.028400271054687353 0.010539835279970865 0 -0.025151015957041341 0.020169904366241692 0 -0.025843788800320698 0.021604198523940337 0 -0.023990027188961968 0.020360549558798159 0 -0.031877092426328857 0.007863000285216035 0 -0.031412676666104429 0.0048458990533766467 0 -0.032877870728669267 0.0034066721396458499 0 -0.027698690448220039 0.012229806939065219 0 -0.027232621396682977 0.0087655933249935376 0 -0.031412676666104429 0.0048458990533766467 0 -0.030378848414400569 0.0057954663148379708 0 -0.030358009458237949 0.0040943496581137663 0 -0.031412676666104429 0.0048458990533766467 0 -0.030358009458237949 0.0040943496581137663 0 -0.031252927612925564 0.0031902611458661388 0 -0.030358009458237949 0.0040943496581137663 0 -0.031252927612925564 0.0031902611458661388 0 -0.030340413626523122 0.0028048246935299228 0 -0.031412676666104429 0.0048458990533766467 0 -0.031252927612925564 0.0031902611458661388 0 -0.032877870728669267 0.0034066721396458499 0 -0.03240354208020612 0.001200868281236254 0 -0.031906796682265648 0.00033472525850740392 0 -0.032169039078412162 -0.00043986166012211403 0 -0.027232621396682977 0.0087655933249935376 0 -0.027288868072654092 0.0085261465102771834 0 -0.030595801116001829 0.001046656590977521 0 -0.032376471133759591 0.0016161518885955389 0 -0.03240354208020612 0.001200868281236254 0 -0.030595801116001829 0.001046656590977521 0 -0.03240354208020612 0.001200868281236254 0 -0.031906796682265648 0.00033472525850740392 0 -0.030595801116001829 0.001046656590977521 0 -0.031252927612925564 0.0031902611458661388 0 -0.030340413626523122 0.0028048246935299228 0 -0.027446066128608386 0.007621307129600987 0 -0.027232621396682977 0.0087655933249935376 0 -0.030595801116001829 0.001046656590977521 0 -0.031252927612925564 0.0031902611458661388 0 -0.032877870728669267 0.0034066721396458499 0 -0.030595801116001829 0.001046656590977521 0 -0.031906796682265648 0.00033472525850740392 0 -0.031829863054548185 -0.00066644058482655092 0 -0.033394330797095792 0.00076326699247920989 0 -0.03336219289797604 0.0003925750577333559 0 -0.033236903725511961 0.0016446108480592707 0 -0.033657515439017315 0.0013117031729270308 0 -0.033379109028975611 0.0010604469792313193 0 -0.033236903725511961 0.0016446108480592707 0 -0.03240354208020612 0.001200868281236254 0 -0.032169039078412162 -0.00043986166012211403 0 -0.033236903725511961 0.0016446108480592707 0 -0.033379109028975611 0.0010604469792313193 0 -0.033005011319907115 0.00094187888304212222 0 -0.033236903725511961 0.0016446108480592707 0 -0.032461096741338603 0.0016077726283690635 0 -0.03240354208020612 0.001200868281236254 0 -0.034030625802808072 0.0015383979709733234 0 -0.033657515439017315 0.0013117031729270308 0 -0.033736145566632465 0.0017983494424945621 0 -0.033236903725511961 0.0016446108480592707 0 -0.033657515439017315 0.0013117031729270308 0 -0.033736145566632465 0.0017983494424945621 0 -0.033657515439017315 0.0013117031729270308 0 -0.033969814790658207 0.0011889549997115287 0 -0.03369623557771196 0.00085582673820377639 0 -0.034030625802808072 0.0015383979709733234 0 -0.033657515439017315 0.0013117031729270308 0 -0.033969814790658207 0.0011889549997115287 0 -0.034030625802808072 0.0015383979709733234 0 -0.033969814790658207 0.0011889549997115287 0 -0.034256753036948563 0.001320488710991251 0 -0.033969814790658207 0.0011889549997115287 0 -0.034256753036948563 0.001320488710991251 0 -0.034213515220122059 0.00095612857707221216 0 -0.034256753036948563 0.001320488710991251 0 -0.03467881095260579 0.0013147749226290707 0 -0.034213515220122059 0.00095612857707221216 0 -0.034256753036948563 0.001320488710991251 0 -0.034441788958024772 0.0017059708308467931 0 -0.03467881095260579 0.0013147749226290707 0 -0.034030625802808072 0.0015383979709733234 0 -0.034256753036948563 0.001320488710991251 0 -0.034441788958024772 0.0017059708308467931 0 -0.034030625802808072 0.0015383979709733234 0 -0.034441788958024772 0.0017059708308467931 0 -0.034274202323395259 0.0021104479374025029 0 -0.034441788958024772 0.0017059708308467931 0 -0.034274202323395259 0.0021104479374025029 0 -0.034921242479007887 0.0022737139711547687 0 -0.034274202323395259 0.0021104479374025029 0 -0.033736145566632465 0.0017983494424945621 0 -0.033677082301178357 0.002298988506254168 0 -0.034030625802808072 0.0015383979709733234 0 -0.034274202323395259 0.0021104479374025029 0 -0.033736145566632465 0.0017983494424945621 0 -0.033236903725511961 0.0016446108480592707 0 -0.033736145566632465 0.0017983494424945621 0 -0.033677082301178357 0.002298988506254168 0 -0.02473502681032123 0.019240811436529271 0 -0.023990027188961968 0.020360549558798159 0 -0.023522477884993218 0.018979468377108327 0 -0.023990027188961968 0.020360549558798159 0 -0.023522477884993218 0.018979468377108327 0 -0.02209992427359762 0.019092780846532674 0 -0.028400271054687353 0.010539835279970865 0 -0.028122081459965934 0.011078567174702229 0 -0.02299469009937358 0.017181356781865786 0 -0.024799665760035672 0.01673248167303322 0 -0.024296999410801507 0.018079668074537366 0 -0.02299469009937358 0.017181356781865786 0 -0.023522477884993218 0.018979468377108327 0 -0.024296999410801507 0.018079668074537366 0 -0.02299469009937358 0.017181356781865786 0 -0.023522477884993218 0.018979468377108327 0 -0.02209992427359762 0.019092780846532674 0 -0.02473502681032123 0.019240811436529271 0 -0.023522477884993218 0.018979468377108327 0 -0.024296999410801507 0.018079668074537366 0 -0.02299469009937358 0.017181356781865786 0 -0.021662047047016072 0.017616151864922734 0 -0.02209992427359762 0.019092780846532674 0 -0.021662047047016072 0.017616151864922734 0 -0.02209992427359762 0.019092780846532674 0 -0.020219958005990264 0.017807915384654982 0 -0.034274202323395259 0.0021104479374025029 0 -0.034363362456167411 0.0027527267747970122 0 -0.034921242479007887 0.0022737139711547687 0 -0.034274202323395259 0.0021104479374025029 0 -0.033677082301178357 0.002298988506254168 0 -0.034363362456167411 0.0027527267747970122 0 -0.034363362456167411 0.0027527267747970122 0 -0.035086153462865956 0.0032674662688573736 0 -0.034921242479007887 0.0022737139711547687 0 -0.034825725344226725 0.0037251657464411952 0 -0.03542827123346913 0.0029720266405525611 0 -0.034629211117255157 0.0024927114261297312 0 -0.027779953274282825 0.011685950184935751 0 -0.030965095048472273 0.0044005361616021605 0 -0.028122081459965934 0.011078567174702229 0 -0.027779953274282825 0.011685950184935751 0 -0.020266811923899206 0.018190878514354591 0 -0.01869329325304709 0.018429754227243304 0 -0.018948905173063704 0.019815098998900316 0 -0.027779953274282825 0.011685950184935751 0 -0.027362541260967658 0.0096801868494829531 0 -0.017531202716799935 0.017352040157820024 0 -0.018840331855989961 0.017161170758687894 0 -0.01869329325304709 0.018429754227243304 0 -0.018840331855989961 0.017161170758687894 0 -0.020266811923899206 0.018190878514354591 0 -0.01869329325304709 0.018429754227243304 0 -0.01869329325304709 0.018429754227243304 0 -0.018948905173063704 0.019815098998900316 0 -0.01748597561130822 0.019207774214705743 0 -0.03542827123346913 0.0029720266405525611 0 -0.03546619466274175 0.0024292482623385157 0 -0.034629211117255157 0.0024927114261297312 0 -0.03542827123346913 0.0029720266405525611 0 -0.03546619466274175 0.0024292482623385157 0 -0.035961899151825245 0.0022960141473582496 0 -0.027362541260967658 0.0096801868494829531 0 -0.028060125347307119 0.0060402481167422901 0 -0.03546619466274175 0.0024292482623385157 0 -0.035602212930257324 0.001930885062185482 0 -0.035961899151825245 0.0022960141473582496 0 -0.035602212930257324 0.001930885062185482 0 -0.035092172475002084 0.0021063011166109601 0 -0.034888512927185561 0.001563871823589393 0 -0.03546619466274175 0.0024292482623385157 0 -0.035092172475002084 0.0021063011166109601 0 -0.034629211117255157 0.0024927114261297312 0 -0.03546619466274175 0.0024292482623385157 0 -0.035602212930257324 0.001930885062185482 0 -0.035092172475002084 0.0021063011166109601 0 -0.030965095048472273 0.0044005361616021605 0 -0.032391501442799606 0.002284486090748238 0 -0.034441788958024772 0.0017059708308467931 0 -0.034921242479007887 0.0022737139711547687 0 -0.03467881095260579 0.0013147749226290707 0 -0.035092172475002084 0.0021063011166109601 0 -0.034629211117255157 0.0024927114261297312 0 -0.034888512927185561 0.001563871823589393 0 -0.034629211117255157 0.0024927114261297312 0 -0.034888512927185561 0.001563871823589393 0 -0.034448982107105612 0.0013705526937821983 0 -0.034448982107105612 0.0013705526937821983 0 -0.034899937275484606 0.0012476988429300946 0 -0.03458446994058844 0.00092787683934107072 0 -0.034888512927185561 0.001563871823589393 0 -0.034448982107105612 0.0013705526937821983 0 -0.034899937275484606 0.0012476988429300946 0 -0.030376301091500038 0.0051833918292206503 0 -0.031373973350768657 0.0046825607976731529 0 -0.03552123017841325 0.001892939701824658 0 -0.034888512927185561 0.001563871823589393 0 -0.034899937275484606 0.0012476988429300946 0 -0.030376301091500038 0.0051833918292206503 0 -0.031585030105486689 0.0050816476441884022 0 -0.035418992976189452 0.0017948275635125313 0 -0.034899937275484606 0.0012476988429300946 0 -0.035220165399600947 0.0012997750148306022 0 -0.035418992976189452 0.0017948275635125313 0 -0.035220165399600947 0.0012997750148306022 0 -0.035776466698388402 0.0019460003111825964 0 -0.03220170912224371 0.0032412647945982915 0 -0.029568761136135036 0.0046060305407870372 0 -0.03488316781528826 0.00077126692174787339 0 -0.035022402641351105 0.00078402661738551668 0 -0.034980412141447217 0.00069526482362132014 0 -0.03488316781528826 0.00077126692174787339 0 -0.034898308391636761 0.00061541924454241732 0 -0.034646125595978662 0.00060840750190455507 0 -0.034898308391636761 0.00061541924454241732 0 -0.034964133892463028 0.00051372976083103759 0 -0.035020211328659706 0.00060458901963644947 0 -0.034898308391636761 0.00061541924454241732 0 -0.035020211328659706 0.00060458901963644947 0 -0.034980412141447217 0.00069526482362132014 0 -0.03488316781528826 0.00077126692174787339 0 -0.034898308391636761 0.00061541924454241732 0 -0.034980412141447217 0.00069526482362132014 0 -0.034899937275484606 0.0012476988429300946 0 -0.035220165399600947 0.0012997750148306022 0 -0.034646125595978662 0.00060840750190455507 0 -0.034899937275484606 0.0012476988429300946 0 -0.03458446994058844 0.00092787683934107072 0 -0.034646125595978662 0.00060840750190455507 0 -0.034898308391636761 0.00061541924454241732 0 -0.034646125595978662 0.00060840750190455507 0 -0.03482224382302309 0.00051555254936976849 0 -0.03220170912224371 0.0032412647945982915 0 -0.032738943216408495 0.0026416297471135025 0 -0.03458446994058844 0.00092787683934107072 0 -0.034646125595978662 0.00060840750190455507 0 -0.034392642513840513 0.00050733463160405 0 -0.034646125595978662 0.00060840750190455507 0 -0.03482224382302309 0.00051555254936976849 0 -0.034658044577775021 0.00028409214911217313 0 -0.034646125595978662 0.00060840750190455507 0 -0.034658044577775021 0.00028409214911217313 0 -0.034392642513840513 0.00050733463160405 0 -0.03482224382302309 0.00051555254936976849 0 -0.034658044577775021 0.00028409214911217313 0 -0.034869522960393314 0.00019518936829769414 0 -0.03482224382302309 0.00051555254936976849 0 -0.034869522960393314 0.00019518936829769414 0 -0.03504601065355524 4.9373895457338938e-05 0 -0.03482224382302309 0.00051555254936976849 0 -0.034964133892463028 0.00051372976083103759 0 -0.035003135277636911 0.00035960549470677726 0 -0.034837323025707391 0.00033958678532325744 0 -0.034903650171519439 0.00021974141917000941 0 -0.034898308391636761 0.00061541924454241732 0 -0.03482224382302309 0.00051555254936976849 0 -0.034964133892463028 0.00051372976083103759 0 -0.034869522960393314 0.00019518936829769414 0 -0.034922175704010308 -1.9580002728239762e-05 0 -0.03504601065355524 4.9373895457338938e-05 0 -0.034999926128778086 -2.8557390444992366e-08 0 -0.034922175704010308 -1.9580002728239762e-05 0 -0.034999887784157559 2.1930304711424785e-08 0 -0.034999926128778086 -2.8557390444992366e-08 0 -0.034922175704010308 -1.9580002728239762e-05 0 -0.03504601065355524 4.9373895457338938e-05 0 -0.034922175704010308 -1.9580002728239762e-05 0 -0.034999887784157559 2.1930304711424785e-08 0 -0.03499512693673186 -2.3143654775972708e-05 0 -0.034658044577775021 0.00028409214911217313 0 -0.034869522960393314 0.00019518936829769414 0 -0.034922175704010308 -1.9580002728239762e-05 0 -0.03470847537430951 1.583237964490144e-05 0 -0.034634091155487039 3.7937156178884427e-05 0 -0.034658044577775021 0.00028409214911217313 0 -0.034922175704010308 -1.9580002728239762e-05 0 -0.034443822048601684 -5.3296521837832063e-06 0 -0.034443822048601684 -5.3296521837832063e-06 0 -0.03416790397346952 0.00030738663506839396 0 -0.03441664196937267 0.00027271433442727495 0 -0.034658044577775021 0.00028409214911217313 0 -0.034443822048601684 -5.3296521837832063e-06 0 -0.03441664196937267 0.00027271433442727495 0 -0.034443822048601684 -5.3296521837832063e-06 0 -0.033954229677504916 8.7816282275308936e-05 0 -0.03416790397346952 0.00030738663506839396 0 -0.034634091155487039 3.7937156178884427e-05 0 -0.034480953589453432 9.2248420341245509e-05 0 -0.034999887784157559 2.1930304711424785e-08 0 -0.03499512693673186 -2.3143654775972708e-05 0 -0.035000078481534733 -2.6362390023124833e-08 0 -0.03499512693673186 -2.3143654775972708e-05 0 -0.035000078481534733 -2.6362390023124833e-08 0 -0.035008786383814799 -2.6623473607459629e-05 0 -0.034999117228202328 -2.7877446327447332e-08 0 -0.034480953589453432 9.2248420341245509e-05 0 -0.035000049084588494 1.4569423198439157e-08 0 -0.035009614837024472 2.5836213743754288e-05 0 -0.034999021871367345 1.5085149737711942e-05 0 -0.034480953589453432 9.2248420341245509e-05 0 -0.034130447783633215 0.00011547237240048721 0 -0.033856203693332462 -0.00020549836592905646 0 -0.033773754729545087 0.00032366549939359315 0 -0.033255316475646127 -7.3508320618998075e-06 0 -0.033853033495326271 0.00044736731619115497 0 -0.03416790397346952 0.00030738663506839396 0 -0.03408681999295092 0.00062122670174409556 0 -0.034480953589453432 9.2248420341245509e-05 0 -0.034305388612956199 0.00034006073976193145 0 -0.033954229677504916 8.7816282275308936e-05 0 -0.033853033495326271 0.00044736731619115497 0 -0.03416790397346952 0.00030738663506839396 0 -0.03416790397346952 0.00030738663506839396 0 -0.03441664196937267 0.00027271433442727495 0 -0.034392642513840513 0.00050733463160405 0 -0.034658044577775021 0.00028409214911217313 0 -0.03441664196937267 0.00027271433442727495 0 -0.034392642513840513 0.00050733463160405 0 -0.03416790397346952 0.00030738663506839396 0 -0.034392642513840513 0.00050733463160405 0 -0.03408681999295092 0.00062122670174409556 0 -0.034392642513840513 0.00050733463160405 0 -0.03408681999295092 0.00062122670174409556 0 -0.034213515220122059 0.00095612857707221216 0 -0.03467881095260579 0.0013147749226290707 0 -0.034392642513840513 0.00050733463160405 0 -0.034213515220122059 0.00095612857707221216 0 -0.032391501442799606 0.002284486090748238 0 -0.032771279835731477 0.0015987239996756687 0 -0.034448982107105612 0.0013705526937821983 0 -0.03458446994058844 0.00092787683934107072 0 -0.034392642513840513 0.00050733463160405 0 -0.033969814790658207 0.0011889549997115287 0 -0.034213515220122059 0.00095612857707221216 0 -0.03369623557771196 0.00085582673820377639 0 -0.033657515439017315 0.0013117031729270308 0 -0.03369623557771196 0.00085582673820377639 0 -0.033379109028975611 0.0010604469792313193 0 -0.033773754729545087 0.00032366549939359315 0 -0.03369623557771196 0.00085582673820377639 0 -0.03328991735413394 0.00052033649711391496 0 -0.034305388612956199 0.00034006073976193145 0 -0.034240070147415209 0.00047396413374582529 0 -0.033853033495326271 0.00044736731619115497 0 -0.03408681999295092 0.00062122670174409556 0 -0.03369623557771196 0.00085582673820377639 0 -0.03408681999295092 0.00062122670174409556 0 -0.034213515220122059 0.00095612857707221216 0 -0.03369623557771196 0.00085582673820377639 0 -0.03369623557771196 0.00085582673820377639 0 -0.033379109028975611 0.0010604469792313193 0 -0.03328991735413394 0.00052033649711391496 0 -0.033379109028975611 0.0010604469792313193 0 -0.033005011319907115 0.00094187888304212222 0 -0.03328991735413394 0.00052033649711391496 0 -0.033005011319907115 0.00094187888304212222 0 -0.032662448410811389 0.00019067813413376752 0 -0.03328991735413394 0.00052033649711391496 0 -0.032169039078412162 -0.00043986166012211403 0 -0.032004650677877673 0.00031486278991173428 0 -0.032405483531074301 -0.00021595482807471264 0 -0.031906796682265648 0.00033472525850740392 0 -0.032169039078412162 -0.00043986166012211403 0 -0.031829863054548185 -0.00066644058482655092 0 -0.032169039078412162 -0.00043986166012211403 0 -0.031829863054548185 -0.00066644058482655092 0 -0.032405483531074301 -0.00021595482807471264 0 -0.03336219289797604 0.0003925750577333559 0 -0.033760083997551926 0.00017221580596524409 0 -0.033760083997551926 0.00017221580596524409 0 -0.034130447783633215 0.00011547237240048721 0 -0.032662448410811389 0.00019067813413376752 0 -0.03328991735413394 0.00052033649711391496 0 -0.033255316475646127 -7.3508320618998075e-06 0 -0.033773754729545087 0.00032366549939359315 0 -0.03328991735413394 0.00052033649711391496 0 -0.033255316475646127 -7.3508320618998075e-06 0 -0.035009614837024472 2.5836213743754288e-05 0 -0.034993733114944581 3.8844070924613678e-05 0 -0.034999021871367345 1.5085149737711942e-05 0 -0.034993733114944581 3.8844070924613678e-05 0 -0.034999021871367345 1.5085149737711942e-05 0 -0.034983779416271919 2.7363376945369241e-05 0 -0.034999948375475987 -8.6611118933195741e-10 0 -0.034999021871367345 1.5085149737711942e-05 0 -0.034983779416271919 2.7363376945369241e-05 0 -0.035000049084588494 1.4569423198439157e-08 0 -0.034999948375475987 -8.6611118933195741e-10 0 -0.034999021871367345 1.5085149737711942e-05 0 -0.034999948375475987 -8.6611118933195741e-10 0 -0.034953682698074903 3.0740555441658922e-05 0 -0.034925674249520249 -1.3138404957124152e-08 0 -0.034999948375475987 -8.6611118933195741e-10 0 -0.034983779416271919 2.7363376945369241e-05 0 -0.034953682698074903 3.0740555441658922e-05 0 -0.033760083997551926 0.00017221580596524409 0 -0.034069834125455306 0.00012986240478021069 0 -0.03496966079948334 5.2106002722649443e-05 0 -0.034983779416271919 2.7363376945369241e-05 0 -0.034953682698074903 3.0740555441658922e-05 0 -0.03496966079948334 5.2106002722649443e-05 0 -0.034993733114944581 3.8844070924613678e-05 0 -0.034983779416271919 2.7363376945369241e-05 0 -0.034265643689979898 4.2531870034694689e-05 0 -0.034342090008822754 -3.7970908457122964e-06 0 -0.034135222268014125 -1.0062216896549936e-05 0 -0.034342090008822754 -3.7970908457122964e-06 0 -0.034670025055270337 2.8257585887643719e-05 0 -0.034378068945606348 5.1042452042081878e-05 0 -0.034342090008822754 -3.7970908457122964e-06 0 -0.034378068945606348 5.1042452042081878e-05 0 -0.034135222268014125 -1.0062216896549936e-05 0 -0.034342090008822754 -3.7970908457122964e-06 0 -0.034670025055270337 2.8257585887643719e-05 0 -0.034924569158585612 2.7031330469919167e-07 0 -0.034069834125455306 0.00012986240478021069 0 -0.034168735678964911 9.7685033584920351e-05 0 -0.034670025055270337 2.8257585887643719e-05 0 -0.034924569158585612 2.7031330469919167e-07 0 -0.034755521989927748 5.833332272516434e-05 0 -0.034999883964210235 1.0104752014332545e-07 0 -0.034924569158585612 2.7031330469919167e-07 0 -0.034755521989927748 5.833332272516434e-05 0 -0.034670025055270337 2.8257585887643719e-05 0 -0.034755521989927748 5.833332272516434e-05 0 -0.034378068945606348 5.1042452042081878e-05 0 -0.034893333409568572 4.675287437539233e-05 0 -0.034755521989927748 5.833332272516434e-05 0 -0.034378068945606348 5.1042452042081878e-05 0 -0.034780742292893956 -0.00026592798272304162 0 -0.034378068945606348 5.1042452042081878e-05 0 -0.034310995573533863 -0.00044353502497504786 0 -0.034378068945606348 5.1042452042081878e-05 0 -0.03373580294294079 -5.2103505898434935e-06 0 -0.034310995573533863 -0.00044353502497504786 0 -0.034265643689979898 4.2531870034694689e-05 0 -0.034135222268014125 -1.0062216896549936e-05 0 -0.03373580294294079 -5.2103505898434935e-06 0 -0.033760083997551926 0.00017221580596524409 0 -0.033739607486937252 0.00015331838627886517 0 -0.034378068945606348 5.1042452042081878e-05 0 -0.034135222268014125 -1.0062216896549936e-05 0 -0.03373580294294079 -5.2103505898434935e-06 0 -0.032004650677877673 0.00031486278991173428 0 -0.032405483531074301 -0.00021595482807471264 0 -0.03373580294294079 -5.2103505898434935e-06 0 -0.032405483531074301 -0.00021595482807471264 0 -0.03373580294294079 -5.2103505898434935e-06 0 -0.033814365260332192 -0.0011565006840692747 0 -0.031067810780147372 0.00074054344716106954 0 -0.030787308875862767 0.0010179324805879907 0 -0.031829863054548185 -0.00066644058482655092 0 -0.032405483531074301 -0.00021595482807471264 0 -0.033814365260332192 -0.0011565006840692747 0 -0.03373580294294079 -5.2103505898434935e-06 0 -0.034310995573533863 -0.00044353502497504786 0 -0.033814365260332192 -0.0011565006840692747 0 -0.034821008494804379 -0.0012139015211395394 0 -0.034310995573533863 -0.00044353502497504786 0 -0.033814365260332192 -0.0011565006840692747 0 -0.028114893505942033 0.0032997654540970977 0 -0.027815651277932705 0.0033570033067989802 0 -0.028007018668589716 0.0031061494071545548 0 -0.028114893505942033 0.0032997654540970977 0 -0.027815651277932705 0.0033570033067989802 0 -0.027968735125150718 0.0035502010993842632 0 -0.028114893505942033 0.0032997654540970977 0 -0.028365040209993274 0.0034006635293693964 0 -0.028188428570881698 0.0035253116096741646 0 -0.027815651277932705 0.0033570033067989802 0 -0.02775549382304985 0.0031050751746368476 0 -0.027602505508739845 0.0032862666660968954 0 -0.027815651277932705 0.0033570033067989802 0 -0.02775549382304985 0.0031050751746368476 0 -0.028007018668589716 0.0031061494071545548 0 -0.02775549382304985 0.0031050751746368476 0 -0.028007018668589716 0.0031061494071545548 0 -0.027998394354543873 0.0028353011383259164 0 -0.02775549382304985 0.0031050751746368476 0 -0.027998394354543873 0.0028353011383259164 0 -0.027809591902528779 0.0027364257158927524 0 -0.028114893505942033 0.0032997654540970977 0 -0.028007018668589716 0.0031061494071545548 0 -0.028255555755950894 0.0030082558399548605 0 -0.028007018668589716 0.0031061494071545548 0 -0.028255555755950894 0.0030082558399548605 0 -0.027998394354543873 0.0028353011383259164 0 -0.029584169614082126 0.0019010982630235599 0 -0.029757920605268405 0.0017808508279977882 0 -0.030888193808871988 0.0011316344007477686 0 -0.03090300363862495 0.0010437595168356693 0 -0.030979186227979329 0.0012133105021394045 0 -0.028171532496702092 0.0027563075799599303 0 -0.028195357655145845 0.0028161748468215355 0 -0.028210835631125843 0.0027042217314699143 0 -0.028240293273363658 0.0028331201043472467 0 -0.028195357655145845 0.0028161748468215355 0 -0.028210835631125843 0.0027042217314699143 0 -0.030905180041621093 0.0012013188165362284 0 -0.030888193808871988 0.0011316344007477686 0 -0.030979186227979329 0.0012133105021394045 0 -0.032077646908981933 0.0011225595161658622 0 -0.031483787440277647 0.0012939378368233534 0 -0.028767372721069013 0.0031013354429777363 0 -0.02883981889580163 0.0029308239829455326 0 -0.029182535533891923 0.0033909292004270252 0 -0.030905180041621093 0.0012013188165362284 0 -0.030888193808871988 0.0011316344007477686 0 -0.030803383797203487 0.001126949080462635 0 -0.030474505491890153 0.0015345712462461916 0 -0.031483787440277647 0.0012939378368233534 0 -0.030888193808871988 0.0011316344007477686 0 -0.030849302744013287 0.0010727303834004985 0 -0.030803383797203487 0.001126949080462635 0 -0.030888193808871988 0.0011316344007477686 0 -0.030849302744013287 0.0010727303834004985 0 -0.03090300363862495 0.0010437595168356693 0 -0.030849302744013287 0.0010727303834004985 0 -0.03090300363862495 0.0010437595168356693 0 -0.030848116457046403 0.0010076474006707151 0 -0.030849302744013287 0.0010727303834004985 0 -0.030848116457046403 0.0010076474006707151 0 -0.03080190522111375 0.0010293619004539335 0 -0.027747950442943325 0.0029569658683069235 0 -0.027440171305879401 0.0029877732654888739 0 -0.028114893505942033 0.0032997654540970977 0 -0.028255555755950894 0.0030082558399548605 0 -0.028365040209993274 0.0034006635293693964 0 -0.028171532496702092 0.0027563075799599303 0 -0.028195357655145845 0.0028161748468215355 0 -0.02818242214025796 0.0028570363478344863 0 -0.028240293273363658 0.0028331201043472467 0 -0.028195357655145845 0.0028161748468215355 0 -0.028165290576885573 0.0028690755557549451 0 -0.027472430139080902 0.002954369041406309 0 -0.027440171305879401 0.0029877732654888739 0 -0.027440171305879401 0.0029877732654888739 0 -0.026507816689721419 0.0032335197483842467 0 -0.027955794935862619 0.0025223053299493346 0 -0.027892192255062374 0.0028198099936328947 0 -0.028073448748303392 0.0029379286226286351 0 -0.028365040209993274 0.0034006635293693964 0 -0.028302534186687288 0.0037151088939090982 0 -0.028188428570881698 0.0035253116096741646 0 -0.028165290576885573 0.0028690755557549451 0 -0.028233387960350902 0.0029587743448703137 0 -0.028175501950581005 0.0030607745462862394 0 -0.027440171305879401 0.0029877732654888739 0 -0.02776995900914668 0.0031057704338118275 0 -0.028240293273363658 0.0028331201043472467 0 -0.028165290576885573 0.0028690755557549451 0 -0.028233387960350902 0.0029587743448703137 0 -0.03090300363862495 0.0010437595168356693 0 -0.030848116457046403 0.0010076474006707151 0 -0.030832106728067306 0.00086815797437957728 0 -0.028240293273363658 0.0028331201043472467 0 -0.028233387960350902 0.0029587743448703137 0 -0.028339151137945943 0.0030231262641876059 0 -0.029584169614082126 0.0019010982630235599 0 -0.029361217411908339 0.0018757271981891851 0 -0.030848116457046403 0.0010076474006707151 0 -0.030832106728067306 0.00086815797437957728 0 -0.030816201070231416 0.00097083136787339474 0 -0.028233387960350902 0.0029587743448703137 0 -0.028260019183904403 0.0030453720611356453 0 -0.028339151137945943 0.0030231262641876059 0 -0.028233387960350902 0.0029587743448703137 0 -0.028260019183904403 0.0030453720611356453 0 -0.028175501950581005 0.0030607745462862394 0 -0.028260019183904403 0.0030453720611356453 0 -0.028251965811235791 0.0030979952368430943 0 -0.028175501950581005 0.0030607745462862394 0 -0.028255301930796214 0.0031817822753909507 0 -0.028251965811235791 0.0030979952368430943 0 -0.028175501950581005 0.0030607745462862394 0 -0.028320140190325152 0.0031585447751183494 0 -0.028260019183904403 0.0030453720611356453 0 -0.028339151137945943 0.0030231262641876059 0 -0.028320140190325152 0.0031585447751183494 0 -0.028260019183904403 0.0030453720611356453 0 -0.028251965811235791 0.0030979952368430943 0 -0.028320140190325152 0.0031585447751183494 0 -0.028255301930796214 0.0031817822753909507 0 -0.028251965811235791 0.0030979952368430943 0 -0.027823859502635707 0.0031220485769623504 0 -0.027892192255062374 0.0028198099936328947 0 -0.027973574117077064 0.0029911900933190338 0 -0.025085286615393609 0.0037534993612458618 0 -0.026507816689721419 0.0032335197483842467 0 -0.027892192255062374 0.0028198099936328947 0 -0.028073448748303392 0.0029379286226286351 0 -0.027973574117077064 0.0029911900933190338 0 -0.02796025803152127 0.0030931286915093273 0 -0.028073448748303392 0.0029379286226286351 0 -0.027973574117077064 0.0029911900933190338 0 -0.027829658229171494 0.0031184813408915986 0 -0.02796025803152127 0.0030931286915093273 0 -0.027973574117077064 0.0029911900933190338 0 -0.025085286615393609 0.0037534993612458618 0 -0.025486707662711116 0.003489129948480549 0 -0.028094190633722104 0.0038138785655495626 0 -0.027968735125150718 0.0035502010993842632 0 -0.027846694977003428 0.0038652701279582409 0 -0.027981599254930902 0.004029175622611055 0 -0.028240698356836718 0.004050174813522431 0 -0.028094190633722104 0.0038138785655495626 0 -0.028240698356836718 0.004050174813522431 0 -0.028302534186687288 0.0037151088939090982 0 -0.028094190633722104 0.0038138785655495626 0 -0.027981599254930902 0.004029175622611055 0 -0.028094190633722104 0.0038138785655495626 0 -0.027846694977003428 0.0038652701279582409 0 -0.028094190633722104 0.0038138785655495626 0 -0.027968735125150718 0.0035502010993842632 0 -0.028188428570881698 0.0035253116096741646 0 -0.028302534186687288 0.0037151088939090982 0 -0.028094190633722104 0.0038138785655495626 0 -0.028188428570881698 0.0035253116096741646 0 -0.028114893505942033 0.0032997654540970977 0 -0.027968735125150718 0.0035502010993842632 0 -0.028188428570881698 0.0035253116096741646 0 -0.027968735125150718 0.0035502010993842632 0 -0.027715044864535791 0.0035974774543623342 0 -0.027846694977003428 0.0038652701279582409 0 -0.027815651277932705 0.0033570033067989802 0 -0.027715044864535791 0.0035974774543623342 0 -0.027625186507725944 0.0034414948276488828 0 -0.027815651277932705 0.0033570033067989802 0 -0.027968735125150718 0.0035502010993842632 0 -0.027715044864535791 0.0035974774543623342 0 -0.027730485119980986 0.0041346249543614674 0 -0.027846694977003428 0.0038652701279582409 0 -0.027526408786646361 0.003909995286290267 0 -0.027846694977003428 0.0038652701279582409 0 -0.027526408786646361 0.003909995286290267 0 -0.027371217065346537 0.0036322771462609514 0 -0.022639584735975774 0.0088195690448028049 0 -0.026012139860024149 0.0048583314056272198 0 -0.027715044864535791 0.0035974774543623342 0 -0.027846694977003428 0.0038652701279582409 0 -0.027488256614938724 0.0036540819567990974 0 -0.026728286289199484 0.0048135802901404269 0 -0.026012139860024149 0.0048583314056272198 0 -0.027298362004861017 0.0041352980790025197 0 -0.027526408786646361 0.003909995286290267 0 -0.027371217065346537 0.0036322771462609514 0 -0.025406889959900529 0.0049976008634239994 0 -0.025239547672896292 0.0061550065042995034 0 -0.026439109494698864 0.0060274676931870164 0 -0.022639584735975774 0.0088195690448028049 0 -0.024295193776388144 0.0091106674329414009 0 -0.015826565345612345 0.017509712557071174 0 -0.013416047802362489 0.0170127096301597 0 -0.015586285245481083 0.01916961201793058 0 -0.025239547672896292 0.0061550065042995034 0 -0.026439109494698864 0.0060274676931870164 0 -0.026438103780808374 0.0062769546548459669 0 -0.026012139860024149 0.0048583314056272198 0 -0.027207794939242472 0.0047172156100936174 0 -0.025239547672896292 0.0061550065042995034 0 -0.026438103780808374 0.0062769546548459669 0 -0.026236852848057924 0.006649349570454632 0 -0.027356782415289944 0.0034668426980342454 0 -0.027492532828421568 0.0036434861128968482 0 -0.027177156757736486 0.003482487051363579 0 -0.027356782415289944 0.0034668426980342454 0 -0.027506305812148909 0.003549159237385629 0 -0.027496319063670463 0.0034104516307264347 0 -0.027506305812148909 0.003549159237385629 0 -0.027625186507725944 0.0034414948276488828 0 -0.027496319063670463 0.0034104516307264347 0 -0.027715044864535791 0.0035974774543623342 0 -0.027506305812148909 0.003549159237385629 0 -0.027625186507725944 0.0034414948276488828 0 -0.027715044864535791 0.0035974774543623342 0 -0.027506305812148909 0.003549159237385629 0 -0.027488256614938724 0.0036540819567990974 0 -0.027356782415289944 0.0034668426980342454 0 -0.027506305812148909 0.003549159237385629 0 -0.027492532828421568 0.0036434861128968482 0 -0.026043605107767924 0.0047764603544648209 0 -0.026012139860024149 0.0048583314056272198 0 -0.017531202716799935 0.017352040157820024 0 -0.01869329325304709 0.018429754227243304 0 -0.01748597561130822 0.019207774214705743 0 -0.015826565345612345 0.017509712557071174 0 -0.017531202716799935 0.017352040157820024 0 -0.01748597561130822 0.019207774214705743 0 -0.015826565345612345 0.017509712557071174 0 -0.01748597561130822 0.019207774214705743 0 -0.015586285245481083 0.01916961201793058 0 -0.026438103780808374 0.0062769546548459669 0 -0.026236852848057924 0.006649349570454632 0 -0.027232906629098039 0.0071372472076477872 0 -0.026439109494698864 0.0060274676931870164 0 -0.026438103780808374 0.0062769546548459669 0 -0.027489685384063819 0.0070717361490514044 0 -0.028583278164753485 0.0049886069460676708 0 -0.029123404555773679 0.0046702396414098979 0 -0.018948905173063704 0.019815098998900316 0 -0.01748597561130822 0.019207774214705743 0 -0.017742781550537424 0.021306588358491238 0 -0.024295193776388144 0.0091106674329414009 0 -0.028060125347307119 0.0060402481167422901 0 -0.01748597561130822 0.019207774214705743 0 -0.015586285245481083 0.01916961201793058 0 -0.017742781550537424 0.021306588358491238 0 -0.026438103780808374 0.0062769546548459669 0 -0.027489685384063819 0.0070717361490514044 0 -0.027248289931837071 0.0071545684670595846 0 -0.030325076492901025 0.0056851525898664445 0 -0.027689769630613106 0.0030219077446778471 0 -0.026703828356712492 0.0042432508532181017 0 -0.030376301091500038 0.0051833918292206503 0 -0.028060125347307119 0.0060402481167422901 0 -0.030376301091500038 0.0051833918292206503 0 -0.029568761136135036 0.0046060305407870372 0 -0.027489685384063819 0.0070717361490514044 0 -0.027248289931837071 0.0071545684670595846 0 -0.027341583451993497 0.0072565458584342617 0 -0.028060125347307119 0.0060402481167422901 0 -0.029568761136135036 0.0046060305407870372 0 -0.029123404555773679 0.0046702396414098979 0 -0.029568761136135036 0.0046060305407870372 0 -0.026791182379588996 0.0033112908354153781 0 -0.026747498155413919 0.0032679783855959796 0 -0.02701207606937079 0.0032736898494110751 0 -0.027207794939242472 0.0047172156100936174 0 -0.029123404555773679 0.0046702396414098979 0 -0.026747498155413919 0.0032679783855959796 0 -0.02701207606937079 0.0032736898494110751 0 -0.027019040567116324 0.0028816831468049193 0 -0.027177156757736486 0.003482487051363579 0 -0.026791182379588996 0.0033112908354153781 0 -0.02701207606937079 0.0032736898494110751 0 -0.02701207606937079 0.0032736898494110751 0 -0.027236536593219764 0.0032987442727475075 0 -0.027291778641814566 0.0030204424342204733 0 -0.027177156757736486 0.003482487051363579 0 -0.02701207606937079 0.0032736898494110751 0 -0.027236536593219764 0.0032987442727475075 0 -0.027019040567116324 0.0028816831468049193 0 -0.027469756979332929 0.002888729737378659 0 -0.027356308250017711 0.0024506933584754358 0 -0.02701207606937079 0.0032736898494110751 0 -0.027019040567116324 0.0028816831468049193 0 -0.027469756979332929 0.002888729737378659 0 -0.027796458230900219 0.0032779860054487795 0 -0.028229604579481198 0.0030419108154065948 0 -0.03503453203858603 0.00093655533767718878 0 -0.035151976401551703 0.00079035161724875873 0 -0.035022402641351105 0.00078402661738551668 0 -0.029568761136135036 0.0046060305407870372 0 -0.0307418638881858 0.0026109123008402732 0 -0.03488316781528826 0.00077126692174787339 0 -0.03503453203858603 0.00093655533767718878 0 -0.035022402641351105 0.00078402661738551668 0 -0.035151976401551703 0.00079035161724875873 0 -0.035022402641351105 0.00078402661738551668 0 -0.03507299206832136 0.00070151508129562376 0 -0.035022402641351105 0.00078402661738551668 0 -0.034980412141447217 0.00069526482362132014 0 -0.03507299206832136 0.00070151508129562376 0 -0.027602505508739845 0.0032862666660968954 0 -0.027408779917525109 0.0032676946460764695 0 -0.027517343597018552 0.0030896399057371584 0 -0.02775549382304985 0.0031050751746368476 0 -0.027602505508739845 0.0032862666660968954 0 -0.027517343597018552 0.0030896399057371584 0 -0.027815651277932705 0.0033570033067989802 0 -0.027625186507725944 0.0034414948276488828 0 -0.027602505508739845 0.0032862666660968954 0 -0.027625186507725944 0.0034414948276488828 0 -0.027602505508739845 0.0032862666660968954 0 -0.027496319063670463 0.0034104516307264347 0 -0.027602505508739845 0.0032862666660968954 0 -0.027496319063670463 0.0034104516307264347 0 -0.027408779917525109 0.0032676946460764695 0 -0.027236536593219764 0.0032987442727475075 0 -0.027408779917525109 0.0032676946460764695 0 -0.027291778641814566 0.0030204424342204733 0 -0.027356782415289944 0.0034668426980342454 0 -0.027236536593219764 0.0032987442727475075 0 -0.027408779917525109 0.0032676946460764695 0 -0.027356782415289944 0.0034668426980342454 0 -0.027496319063670463 0.0034104516307264347 0 -0.027408779917525109 0.0032676946460764695 0 -0.027356782415289944 0.0034668426980342454 0 -0.027177156757736486 0.003482487051363579 0 -0.027236536593219764 0.0032987442727475075 0 -0.027408779917525109 0.0032676946460764695 0 -0.027291778641814566 0.0030204424342204733 0 -0.027517343597018552 0.0030896399057371584 0 -0.029353174979584912 0.0022177358010214802 0 -0.029827974296574324 0.0021266816261995818 0 -0.027291778641814566 0.0030204424342204733 0 -0.027517343597018552 0.0030896399057371584 0 -0.027569514150065835 0.0027619975107839928 0 -0.02775549382304985 0.0031050751746368476 0 -0.027517343597018552 0.0030896399057371584 0 -0.027569514150065835 0.0027619975107839928 0 -0.029827974296574324 0.0021266816261995818 0 -0.03047826359880728 0.0017495967090241436 0 -0.027944138530077853 0.0024583344249224487 0 -0.027356308250017711 0.0024506933584754358 0 -0.027709098486771746 0.002014447622972297 0 -0.028229604579481198 0.0030419108154065948 0 -0.029827974296574324 0.0021266816261995818 0 -0.027469756979332929 0.002888729737378659 0 -0.027944138530077853 0.0024583344249224487 0 -0.027356308250017711 0.0024506933584754358 0 -0.035263337758343706 0.00064051291014216355 0 -0.035263141433052002 0.00045974786150051572 0 -0.035371085098383867 0.00049923740042064513 0 -0.031110695238486329 0.0017310636940538872 0 -0.031189428545022626 0.0011890943783538185 0 -0.035263141433052002 0.00045974786150051572 0 -0.035371085098383867 0.00049923740042064513 0 -0.03529955790437702 0.00036543185772004851 0 -0.030954837406300006 0.0013213947424527842 0 -0.030841357201722777 0.0011078058850768726 0 -0.03114232517665733 0.0011473033474179162 0 -0.030841357201722777 0.0011078058850768726 0 -0.030981496093337384 0.00093443501125477094 0 -0.03114232517665733 0.0011473033474179162 0 -0.031189428545022626 0.0011890943783538185 0 -0.032010365456923255 0.00077307889246783061 0 -0.029827974296574324 0.0021266816261995818 0 -0.031189428545022626 0.0011890943783538185 0 -0.035020211328659706 0.00060458901963644947 0 -0.034980412141447217 0.00069526482362132014 0 -0.03507299206832136 0.00070151508129562376 0 -0.035020211328659706 0.00060458901963644947 0 -0.03507299206832136 0.00070151508129562376 0 -0.035148540035726962 0.0006133859493564108 0 -0.0307418638881858 0.0026109123008402732 0 -0.031110695238486329 0.0017310636940538872 0 -0.035151976401551703 0.00079035161724875873 0 -0.035263337758343706 0.00064051291014216355 0 -0.035148540035726962 0.0006133859493564108 0 -0.035151976401551703 0.00079035161724875873 0 -0.03507299206832136 0.00070151508129562376 0 -0.035148540035726962 0.0006133859493564108 0 -0.035263337758343706 0.00064051291014216355 0 -0.035148540035726962 0.0006133859493564108 0 -0.03517230461319662 0.00050122744229625271 0 -0.035263337758343706 0.00064051291014216355 0 -0.035263141433052002 0.00045974786150051572 0 -0.03517230461319662 0.00050122744229625271 0 -0.035263141433052002 0.00045974786150051572 0 -0.03517230461319662 0.00050122744229625271 0 -0.035201760511710249 0.00041738606048000366 0 -0.03517230461319662 0.00050122744229625271 0 -0.035070059761662269 0.00049176070952138581 0 -0.035133872891361821 0.00038816560876417448 0 -0.035148540035726962 0.0006133859493564108 0 -0.03517230461319662 0.00050122744229625271 0 -0.035070059761662269 0.00049176070952138581 0 -0.034964133892463028 0.00051372976083103759 0 -0.035070059761662269 0.00049176070952138581 0 -0.035003135277636911 0.00035960549470677726 0 -0.035020211328659706 0.00060458901963644947 0 -0.035148540035726962 0.0006133859493564108 0 -0.035070059761662269 0.00049176070952138581 0 -0.034964133892463028 0.00051372976083103759 0 -0.035020211328659706 0.00060458901963644947 0 -0.035070059761662269 0.00049176070952138581 0 -0.035003135277636911 0.00035960549470677726 0 -0.035133872891361821 0.00038816560876417448 0 -0.035178901984741315 0.00028161139552166205 0 -0.035070059761662269 0.00049176070952138581 0 -0.035003135277636911 0.00035960549470677726 0 -0.035133872891361821 0.00038816560876417448 0 -0.035133872891361821 0.00038816560876417448 0 -0.035190117199080009 0.00036139565634827979 0 -0.035178901984741315 0.00028161139552166205 0 -0.03517230461319662 0.00050122744229625271 0 -0.035133872891361821 0.00038816560876417448 0 -0.035201760511710249 0.00041738606048000366 0 -0.035263141433052002 0.00045974786150051572 0 -0.035201760511710249 0.00041738606048000366 0 -0.035245987782020552 0.00035917538048214101 0 -0.035133872891361821 0.00038816560876417448 0 -0.035201760511710249 0.00041738606048000366 0 -0.035190117199080009 0.00036139565634827979 0 -0.035201760511710249 0.00041738606048000366 0 -0.035190117199080009 0.00036139565634827979 0 -0.035245987782020552 0.00035917538048214101 0 -0.035190117199080009 0.00036139565634827979 0 -0.035178901984741315 0.00028161139552166205 0 -0.035245987782020552 0.00035917538048214101 0 -0.035178901984741315 0.00028161139552166205 0 -0.035245987782020552 0.00035917538048214101 0 -0.035297457109595906 0.00036514845434040398 0 -0.035003135277636911 0.00035960549470677726 0 -0.035178901984741315 0.00028161139552166205 0 -0.03516975886859755 0.00017992023631254183 0 -0.035178901984741315 0.00028161139552166205 0 -0.035199112994871544 0.00018153019381067747 0 -0.035297457109595906 0.00036514845434040398 0 -0.035178901984741315 0.00028161139552166205 0 -0.035199112994871544 0.00018153019381067747 0 -0.03516975886859755 0.00017992023631254183 0 -0.034999961037053322 -7.2993747429187062e-08 0 -0.035024549920515013 4.5818224613416578e-05 0 -0.034903295963746729 7.3048576404645895e-08 0 -0.034854596287168103 0.00010474841725609097 0 -0.034886493011986597 0.00010585299264280089 0 -0.034995900029203317 2.5679639032881168e-06 0 -0.034854596287168103 0.00010474841725609097 0 -0.034999926128778086 -2.8557390444992366e-08 0 -0.03504601065355524 4.9373895457338938e-05 0 -0.034903422899820111 4.2216106137755185e-08 0 -0.034903650171519439 0.00021974141917000941 0 -0.034886493011986597 0.00010585299264280089 0 -0.03335192180634805 0.00027879879052957894 0 -0.033637845380024026 0.00031114827837978767 0 -0.033465767334610499 0.000430278653624674 0 -0.032010365456923255 0.00077307889246783061 0 -0.032947715204957262 0.00089069144435149081 0 -0.033293008410933078 0.00035169184643678091 0 -0.033465767334610499 0.000430278653624674 0 -0.033284227436985163 0.00047834551312053491 0 -0.033293008410933078 0.00035169184643678091 0 -0.03335192180634805 0.00027879879052957894 0 -0.033465767334610499 0.000430278653624674 0 -0.032061031841777672 0.00072764934701632022 0 -0.032010365456923255 0.00077307889246783061 0 -0.031189428545022626 0.0011890943783538185 0 -0.032947715204957262 0.00089069144435149081 0 -0.031806106337234581 0.00063562889950392616 0 -0.031801791372743846 0.00064091437406397275 0 -0.031810514314983572 0.00064221282700523217 0 -0.035263141433052002 0.00045974786150051572 0 -0.035245987782020552 0.00035917538048214101 0 -0.03529955790437702 0.00036543185772004851 0 -0.033076554191395477 0.00089364392410116935 0 -0.032947715204957262 0.00089069144435149081 0 -0.033815458358942202 0.0006390530079617556 0 -0.033463214505638494 0.0006193435959251732 0 -0.033465767334610499 0.000430278653624674 0 -0.034999999855995827 1.8154887971193816e-10 0 -0.034999982755736438 3.2558494937039619e-08 0 -0.034999999595069109 2.6009524843838402e-10 0 -0.034854596287168103 0.00010474841725609097 0 -0.034455762955328983 8.3808656221271639e-05 0 -0.034999982755736438 3.2558494937039619e-08 0 -0.034999999595069109 2.6009524843838402e-10 0 -0.034999949189419288 2.7201535476313498e-08 0 -0.033815458358942202 0.0006390530079617556 0 -0.033637845380024026 0.00031114827837978767 0 -0.033465767334610499 0.000430278653624674 0 -0.034854596287168103 0.00010474841725609097 0 -0.032947715204957262 0.00089069144435149081 0 -0.034999999595069109 2.6009524843838402e-10 0 -0.034999949189419288 2.7201535476313498e-08 0 -0.03499999957810003 -5.6168344973455777e-10 0 -0.034455762955328983 8.3808656221271639e-05 0 -0.034555643938020839 -1.6790481808206667e-05 0 -0.033463214505638494 0.0006193435959251732 0 -0.033284227436985163 0.00047834551312053491 0 -0.033111625827881151 0.00059925403439852517 0 -0.033463214505638494 0.0006193435959251732 0 -0.033465767334610499 0.000430278653624674 0 -0.033284227436985163 0.00047834551312053491 0 -0.034999949189419288 2.7201535476313498e-08 0 -0.03499999957810003 -5.6168344973455777e-10 0 -0.034999912569199099 -8.7422528826007958e-08 0 -0.033111625827881151 0.00059925403439852517 0 -0.032858535921035686 0.00031720133556337058 0 -0.033087607081255396 0.00039104262435421874 0 -0.034996991401468086 8.7053167674631882e-07 0 -0.034555643938020839 -1.6790481808206667e-05 0 -0.035000064398101279 1.0355550998108158e-08 0 -0.034999931609933664 -1.0804892879195511e-08 0 -0.034992390603853542 -3.8187278290757191e-05 0 -0.033284227436985163 0.00047834551312053491 0 -0.033111625827881151 0.00059925403439852517 0 -0.033087607081255396 0.00039104262435421874 0 -0.034999931609933664 -1.0804892879195511e-08 0 -0.034992390603853542 -3.8187278290757191e-05 0 -0.034735823817091505 -0.00013416122706170103 0 -0.034992390603853542 -3.8187278290757191e-05 0 -0.034826688852350317 -0.00021918787305172499 0 -0.034735823817091505 -0.00013416122706170103 0 -0.034999334226788525 3.1918241789541172e-07 0 -0.034057774395873174 -4.6685929956103597e-05 0 -0.034999999491379358 6.7685678852742272e-10 0 -0.034999548970869314 -3.8582042138660731e-08 0 -0.034999999257131195 -5.0220173920096305e-10 0 -0.034555643938020839 -1.6790481808206667e-05 0 -0.033196370402022994 0.00025983416187628166 0 -0.033196370402022994 0.00025983416187628166 0 -0.034057774395873174 -4.6685929956103597e-05 0 -0.032858535921035686 0.00031720133556337058 0 -0.032950249348493638 0.00023214626288850404 0 -0.033087607081255396 0.00039104262435421874 0 -0.033196370402022994 0.00025983416187628166 0 -0.032100863235828406 0.00073366813180873855 0 -0.033145421603693562 0.00091715177367275515 0 -0.033699362321974631 0.00040339832273903213 0 -0.032571046623947844 0.00027459988751099226 0 -0.028051457588144795 0.0022823168667446621 0 -0.02815417088969846 0.0024103355537456466 0 -0.028314835375753279 0.0022908011678626867 0 -0.032100863235828406 0.00073366813180873855 0 -0.032819580556127513 0.00034253573461460514 0 -0.033196370402022994 0.00025983416187628166 0 -0.032819580556127513 0.00034253573461460514 0 -0.033713493248536168 3.8052015813986237e-05 0 -0.033793938611671036 0.00012792012119261579 0 -0.033813938040393211 3.822482981446865e-05 0 -0.033293008410933078 0.00035169184643678091 0 -0.033351719912857659 0.00027874770253727562 0 -0.032950249348493638 0.00023214626288850404 0 -0.033293008410933078 0.00035169184643678091 0 -0.032950249348493638 0.00023214626288850404 0 -0.033087607081255396 0.00039104262435421874 0 -0.032010365456923255 0.00077307889246783061 0 -0.032100863235828406 0.00073366813180873855 0 -0.033293008410933078 0.00035169184643678091 0 -0.033284227436985163 0.00047834551312053491 0 -0.033087607081255396 0.00039104262435421874 0 -0.030981496093337384 0.00093443501125477094 0 -0.0313299248525198 0.00097309942234254218 0 -0.03114232517665733 0.0011473033474179162 0 -0.027808731598476379 0.0025044355406394774 0 -0.02799586549222273 0.0025316596381270672 0 -0.027809591902528779 0.0027364257158927524 0 -0.028051457588144795 0.0022823168667446621 0 -0.027808731598476379 0.0025044355406394774 0 -0.02799586549222273 0.0025316596381270672 0 -0.032100863235828406 0.00073366813180873855 0 -0.03047826359880728 0.0017495967090241436 0 -0.029632080110562453 0.0017859952525328478 0 -0.029829072833117011 0.0016770129516670181 0 -0.02815417088969846 0.0024103355537456466 0 -0.028139131458639433 0.0026095988491306415 0 -0.028194758373631362 0.0026398069653857897 0 -0.02815417088969846 0.0024103355537456466 0 -0.028349396925989877 0.0028158044131221657 0 -0.028331699076529975 0.0024956793509172816 0 -0.028051457588144795 0.0022823168667446621 0 -0.02815417088969846 0.0024103355537456466 0 -0.02799586549222273 0.0025316596381270672 0 -0.02815417088969846 0.0024103355537456466 0 -0.028331699076529975 0.0024956793509172816 0 -0.028314835375753279 0.0022908011678626867 0 -0.02815417088969846 0.0024103355537456466 0 -0.02799586549222273 0.0025316596381270672 0 -0.028139131458639433 0.0026095988491306415 0 -0.027747950442943325 0.0029569658683069235 0 -0.027813682420285517 0.0028636987560650903 0 -0.02799586549222273 0.0025316596381270672 0 -0.028139131458639433 0.0026095988491306415 0 -0.027998394354543873 0.0028353011383259164 0 -0.028255555755950894 0.0030082558399548605 0 -0.028139131458639433 0.0026095988491306415 0 -0.027998394354543873 0.0028353011383259164 0 -0.02799586549222273 0.0025316596381270672 0 -0.027998394354543873 0.0028353011383259164 0 -0.027809591902528779 0.0027364257158927524 0 -0.02775549382304985 0.0031050751746368476 0 -0.0275616106441753 0.0027278688132776367 0 -0.027809591902528779 0.0027364257158927524 0 -0.0275616106441753 0.0027278688132776367 0 -0.027808731598476379 0.0025044355406394774 0 -0.027809591902528779 0.0027364257158927524 0 -0.034802843576175663 3.556642771369725e-06 0 -0.034840050565105293 -3.8134835279377238e-05 0 -0.034867801506800369 -8.8068558420287602e-06 0 -0.034802843576175663 3.556642771369725e-06 0 -0.034765822862441897 -4.1866351138127108e-05 0 -0.034802123139665492 -4.0052898848682959e-05 0 -0.034802843576175663 3.556642771369725e-06 0 -0.034802123139665492 -4.0052898848682959e-05 0 -0.034840050565105293 -3.8134835279377238e-05 0 -0.028767372721069013 0.0031013354429777363 0 -0.02883981889580163 0.0029308239829455326 0 -0.028349396925989877 0.0028158044131221657 0 -0.028171532496702092 0.0027563075799599303 0 -0.028139131458639433 0.0026095988491306415 0 -0.028210835631125843 0.0027042217314699143 0 -0.02883981889580163 0.0029308239829455326 0 -0.028349396925989877 0.0028158044131221657 0 -0.028499472607311886 0.0024770589754554537 0 -0.030474505491890153 0.0015345712462461916 0 -0.029829072833117011 0.0016770129516670181 0 -0.030905180041621093 0.0012013188165362284 0 -0.030979186227979329 0.0012133105021394045 0 -0.031007283708562653 0.001275149047367772 0 -0.029757920605268405 0.0017808508279977882 0 -0.029829072833117011 0.0016770129516670181 0 -0.028139131458639433 0.0026095988491306415 0 -0.028210835631125843 0.0027042217314699143 0 -0.028194758373631362 0.0026398069653857897 0 -0.032077646908981933 0.0011225595161658622 0 -0.032645843921479012 0.0006061187819511372 0 -0.034743693128282092 -6.3682100520278385e-05 0 -0.034799444442054878 -8.63002538202571e-05 0 -0.034712494089343036 -9.7123041293156081e-05 0 -0.034802843576175663 3.556642771369725e-06 0 -0.034765822862441897 -4.1866351138127108e-05 0 -0.034743578275734731 -6.1248926621141275e-05 0 -0.032731563108489931 0.00063489748291292714 0 -0.032645843921479012 0.0006061187819511372 0 -0.028349396925989877 0.0028158044131221657 0 -0.028331699076529975 0.0024956793509172816 0 -0.028499472607311886 0.0024770589754554537 0 -0.032645843921479012 0.0006061187819511372 0 -0.032819580556127513 0.00034253573461460514 0 -0.028331699076529975 0.0024956793509172816 0 -0.028499472607311886 0.0024770589754554537 0 -0.028314835375753279 0.0022908011678626867 0 -0.034765822862441897 -4.1866351138127108e-05 0 -0.034743693128282092 -6.3682100520278385e-05 0 -0.034799444442054878 -8.63002538202571e-05 0 -0.034765822862441897 -4.1866351138127108e-05 0 -0.034799444442054878 -8.63002538202571e-05 0 -0.034802123139665492 -4.0052898848682959e-05 0 -0.034799444442054878 -8.63002538202571e-05 0 -0.034802123139665492 -4.0052898848682959e-05 0 -0.034840050565105293 -3.8134835279377238e-05 0 -0.034058450757921681 0.00015780990937907315 0 -0.034077825462679144 5.7047936170623056e-05 0 -0.034324310561642979 0.00018766642525257433 0 -0.034058450757921681 0.00015780990937907315 0 -0.034077825462679144 5.7047936170623056e-05 0 -0.033915629747146486 5.9584696810960336e-05 0 -0.034999527661479492 -1.0370371976532851e-06 0 -0.034999672188513978 -2.0501717904546542e-07 0 -0.034998629695968994 -5.4697333698685369e-07 0 -0.034077825462679144 5.7047936170623056e-05 0 -0.033915629747146486 5.9584696810960336e-05 0 -0.033832842722818376 -7.2649536626172198e-05 0 -0.034390340842083145 9.0009972467968712e-05 0 -0.034057774395873174 -4.6685929956103597e-05 0 -0.034058450757921681 0.00015780990937907315 0 -0.033793938611671036 0.00012792012119261579 0 -0.033915629747146486 5.9584696810960336e-05 0 -0.034999527661479492 -1.0370371976532851e-06 0 -0.034999587283757877 -2.3508854751160625e-07 0 -0.034999672634650106 -1.0977175262922333e-07 0 -0.034010198758548799 0.00025197440574351585 0 -0.032819580556127513 0.00034253573461460514 0 -0.033793938611671036 0.00012792012119261579 0 -0.033915629747146486 5.9584696810960336e-05 0 -0.033813938040393211 3.822482981446865e-05 0 -0.033915629747146486 5.9584696810960336e-05 0 -0.033813938040393211 3.822482981446865e-05 0 -0.033832842722818376 -7.2649536626172198e-05 0 -0.033713493248536168 3.8052015813986237e-05 0 -0.033813938040393211 3.822482981446865e-05 0 -0.033832842722818376 -7.2649536626172198e-05 0 -0.034999548970869314 -3.8582042138660731e-08 0 -0.034999672634650106 -1.0977175262922333e-07 0 -0.034999999257131195 -5.0220173920096305e-10 0 -0.034057774395873174 -4.6685929956103597e-05 0 -0.034080587392491639 -5.8925892134562015e-05 0 -0.034999672634650106 -1.0977175262922333e-07 0 -0.034999999257131195 -5.0220173920096305e-10 0 -0.034999672188513978 -2.0501717904546542e-07 0 -0.034999672188513978 -2.0501717904546542e-07 0 -0.034999998453960478 3.2870878611649697e-10 0 -0.034998629695968994 -5.4697333698685369e-07 0 -0.034999999257131195 -5.0220173920096305e-10 0 -0.034999672188513978 -2.0501717904546542e-07 0 -0.034999998453960478 3.2870878611649697e-10 0 -0.034999527661479492 -1.0370371976532851e-06 0 -0.034999672634650106 -1.0977175262922333e-07 0 -0.034999672188513978 -2.0501717904546542e-07 0 -0.034999998453960478 3.2870878611649697e-10 0 -0.034997514841681253 4.3922428915638287e-08 0 -0.034998629695968994 -5.4697333698685369e-07 0 -0.034997514841681253 4.3922428915638287e-08 0 -0.034992904335717216 -6.1501367916737011e-07 0 -0.034999989724401617 1.4991039270021325e-09 0 -0.034999998453960478 3.2870878611649697e-10 0 -0.034997514841681253 4.3922428915638287e-08 0 -0.034999989724401617 1.4991039270021325e-09 0 -0.034997514841681253 4.3922428915638287e-08 0 -0.034992904335717216 -6.1501367916737011e-07 0 -0.034996255041267708 -1.3805775860850798e-06 0 -0.034992904335717216 -6.1501367916737011e-07 0 -0.034994333174004195 -2.1537747127997776e-06 0 -0.034996255041267708 -1.3805775860850798e-06 0 -0.034999527661479492 -1.0370371976532851e-06 0 -0.034998629695968994 -5.4697333698685369e-07 0 -0.034996944845438326 -3.19143499580944e-06 0 -0.034996255041267708 -1.3805775860850798e-06 0 -0.034998629695968994 -5.4697333698685369e-07 0 -0.034996944845438326 -3.19143499580944e-06 0 -0.034994333174004195 -2.1537747127997776e-06 0 -0.034996255041267708 -1.3805775860850798e-06 0 -0.034996944845438326 -3.19143499580944e-06 0 -0.034390340842083145 9.0009972467968712e-05 0 -0.034529371274479373 0.00017777369600364162 0 -0.034997514841681253 4.3922428915638287e-08 0 -0.034996255041267708 -1.3805775860850798e-06 0 -0.034998629695968994 -5.4697333698685369e-07 0 -0.034999992464647765 -3.3285652794150943e-09 0 -0.034991376897016709 -1.3810262901554177e-06 0 -0.034996137489982121 -1.6464886458321362e-06 0 -0.034992904335717216 -6.1501367916737011e-07 0 -0.034999989724401617 1.4991039270021325e-09 0 -0.034991376897016709 -1.3810262901554177e-06 0 -0.034999992464647765 -3.3285652794150943e-09 0 -0.034999989724401617 1.4991039270021325e-09 0 -0.034991376897016709 -1.3810262901554177e-06 0 -0.034992904335717216 -6.1501367916737011e-07 0 -0.034991376897016709 -1.3810262901554177e-06 0 -0.034983995493079338 -2.1194874307635766e-06 0 -0.034991376897016709 -1.3810262901554177e-06 0 -0.034983749510521203 -2.2397078692410986e-06 0 -0.034996137489982121 -1.6464886458321362e-06 0 -0.034983749510521203 -2.2397078692410986e-06 0 -0.034994389677530373 -1.6884890779817242e-07 0 -0.034996137489982121 -1.6464886458321362e-06 0 -0.034983749510521203 -2.2397078692410986e-06 0 -0.034970459625167732 1.1508023436792719e-05 0 -0.034994389677530373 -1.6884890779817242e-07 0 -0.034991376897016709 -1.3810262901554177e-06 0 -0.034983749510521203 -2.2397078692410986e-06 0 -0.034983995493079338 -2.1194874307635766e-06 0 -0.034983749510521203 -2.2397078692410986e-06 0 -0.034983995493079338 -2.1194874307635766e-06 0 -0.034970169532186915 -3.8035745348145548e-06 0 -0.034983995493079338 -2.1194874307635766e-06 0 -0.034970169532186915 -3.8035745348145548e-06 0 -0.034989895631179872 -5.0969624867373059e-06 0 -0.034764193835999685 0.00017107236800956648 0 -0.034712491676683423 0.00017444813420346145 0 -0.034983749510521203 -2.2397078692410986e-06 0 -0.034970169532186915 -3.8035745348145548e-06 0 -0.034970459625167732 1.1508023436792719e-05 0 -0.034970169532186915 -3.8035745348145548e-06 0 -0.034953650235941575 1.5226121562332797e-05 0 -0.034920946954449146 -9.8261517890590631e-07 0 -0.034970169532186915 -3.8035745348145548e-06 0 -0.034953650235941575 1.5226121562332797e-05 0 -0.034970459625167732 1.1508023436792719e-05 0 -0.034953650235941575 1.5226121562332797e-05 0 -0.034970459625167732 1.1508023436792719e-05 0 -0.034962150044619382 2.7088638625482021e-05 0 -0.034970459625167732 1.1508023436792719e-05 0 -0.034976386193316458 1.6579332131437074e-05 0 -0.034978284785492968 8.4449847961679234e-06 0 -0.034970459625167732 1.1508023436792719e-05 0 -0.034976386193316458 1.6579332131437074e-05 0 -0.034971633556936443 2.6369930136705868e-05 0 -0.034981209199591815 8.1314526783852895e-06 0 -0.03498617096797256 4.6913791369786248e-06 0 -0.034799444442054878 -8.63002538202571e-05 0 -0.034840050565105293 -3.8134835279377238e-05 0 -0.034875815824427205 -7.3755871048918501e-05 0 -0.034010198758548799 0.00025197440574351585 0 -0.034529371274479373 0.00017777369600364162 0 -0.034889270021188849 -3.7107117493955119e-05 0 -0.034840050565105293 -3.8134835279377238e-05 0 -0.034875815824427205 -7.3755871048918501e-05 0 -0.034994333174004195 -2.1537747127997776e-06 0 -0.034996944845438326 -3.19143499580944e-06 0 -0.034989895631179872 -5.0969624867373059e-06 0 -0.034529371274479373 0.00017777369600364162 0 -0.034712491676683423 0.00017444813420346145 0 -0.034992904335717216 -6.1501367916737011e-07 0 -0.034994333174004195 -2.1537747127997776e-06 0 -0.034989895631179872 -5.0969624867373059e-06 0 -0.034992904335717216 -6.1501367916737011e-07 0 -0.034983995493079338 -2.1194874307635766e-06 0 -0.034989895631179872 -5.0969624867373059e-06 0 -0.034889270021188849 -3.7107117493955119e-05 0 -0.034875815824427205 -7.3755871048918501e-05 0 -0.034924376337847521 -4.2133289539557143e-05 0 -0.034889270021188849 -3.7107117493955119e-05 0 -0.034924376337847521 -4.2133289539557143e-05 0 -0.034920946954449146 -9.8261517890590631e-07 0 -0.034970169532186915 -3.8035745348145548e-06 0 -0.034924376337847521 -4.2133289539557143e-05 0 -0.034920946954449146 -9.8261517890590631e-07 0 -0.034953650235941575 1.5226121562332797e-05 0 -0.034920946954449146 -9.8261517890590631e-07 0 -0.034927644298225265 2.5196252637167402e-05 0 -0.034920946954449146 -9.8261517890590631e-07 0 -0.034877952351266436 2.5943330825548466e-05 0 -0.034927644298225265 2.5196252637167402e-05 0 -0.034802843576175663 3.556642771369725e-06 0 -0.034867801506800369 -8.8068558420287602e-06 0 -0.034877952351266436 2.5943330825548466e-05 0 -0.034920946954449146 -9.8261517890590631e-07 0 -0.034867801506800369 -8.8068558420287602e-06 0 -0.034877952351266436 2.5943330825548466e-05 0 -0.034889270021188849 -3.7107117493955119e-05 0 -0.034920946954449146 -9.8261517890590631e-07 0 -0.034867801506800369 -8.8068558420287602e-06 0 -0.034889270021188849 -3.7107117493955119e-05 0 -0.034840050565105293 -3.8134835279377238e-05 0 -0.034867801506800369 -8.8068558420287602e-06 0 -0.034802843576175663 3.556642771369725e-06 0 -0.034877952351266436 2.5943330825548466e-05 0 -0.034853060758741006 5.8965529139238104e-05 0 -0.034853060758741006 5.8965529139238104e-05 0 -0.034898275891812103 8.7218589688404868e-05 0 -0.034909901090006003 4.4040948881270858e-05 0 -0.034877952351266436 2.5943330825548466e-05 0 -0.034853060758741006 5.8965529139238104e-05 0 -0.034909901090006003 4.4040948881270858e-05 0 -0.030849302744013287 0.0010727303834004985 0 -0.030803383797203487 0.001126949080462635 0 -0.03080190522111375 0.0010293619004539335 0 -0.030861361008315675 0.0011859086598020093 0 -0.03074772627833967 0.0010303868172636033 0 -0.030740849228760813 0.0010992013644210838 0 -0.030803383797203487 0.001126949080462635 0 -0.030719686647222823 0.0010118501344360856 0 -0.03080190522111375 0.0010293619004539335 0 -0.031483787440277647 0.0012939378368233534 0 -0.031076702361623576 0.00099836009362161849 0 -0.031483787440277647 0.0012939378368233534 0 -0.032367161473597458 0.00094799643448625936 0 -0.030719686647222823 0.0010118501344360856 0 -0.03080190522111375 0.0010293619004539335 0 -0.030765216417060596 0.00097207258858793321 0 -0.030848116457046403 0.0010076474006707151 0 -0.03080190522111375 0.0010293619004539335 0 -0.030816201070231416 0.00097083136787339474 0 -0.034939370320874706 0.00011981893921466208 0 -0.034898275891812103 8.7218589688404868e-05 0 -0.034909901090006003 4.4040948881270858e-05 0 -0.033051456352666729 0.00060819778249856377 0 -0.033482135445249077 0.0005952701797357989 0 -0.034939294222115981 5.8102974851371468e-05 0 -0.034936543701995101 4.720461569143004e-05 0 -0.034909901090006003 4.4040948881270858e-05 0 -0.03074772627833967 0.0010303868172636033 0 -0.030627876549482218 0.00101370869539753 0 -0.030740849228760813 0.0010992013644210838 0 -0.033051456352666729 0.00060819778249856377 0 -0.032367161473597458 0.00094799643448625936 0 -0.034936543701995101 4.720461569143004e-05 0 -0.034934693383689493 3.7515712649270077e-05 0 -0.034909901090006003 4.4040948881270858e-05 0 -0.034877952351266436 2.5943330825548466e-05 0 -0.034909901090006003 4.4040948881270858e-05 0 -0.034927644298225265 2.5196252637167402e-05 0 -0.034934693383689493 3.7515712649270077e-05 0 -0.034909901090006003 4.4040948881270858e-05 0 -0.034927644298225265 2.5196252637167402e-05 0 -0.034934693383689493 3.7515712649270077e-05 0 -0.034927644298225265 2.5196252637167402e-05 0 -0.034945782361249858 2.8998389336435479e-05 0 -0.034953650235941575 1.5226121562332797e-05 0 -0.034945782361249858 2.8998389336435479e-05 0 -0.034962150044619382 2.7088638625482021e-05 0 -0.034945782361249858 2.8998389336435479e-05 0 -0.034962150044619382 2.7088638625482021e-05 0 -0.034948538625289224 3.8549783523005747e-05 0 -0.034953650235941575 1.5226121562332797e-05 0 -0.034927644298225265 2.5196252637167402e-05 0 -0.034945782361249858 2.8998389336435479e-05 0 -0.034962150044619382 2.7088638625482021e-05 0 -0.034948538625289224 3.8549783523005747e-05 0 -0.034958155345368162 4.1227069543879936e-05 0 -0.034934693383689493 3.7515712649270077e-05 0 -0.034945782361249858 2.8998389336435479e-05 0 -0.034948538625289224 3.8549783523005747e-05 0 -0.034936543701995101 4.720461569143004e-05 0 -0.034934693383689493 3.7515712649270077e-05 0 -0.034948538625289224 3.8549783523005747e-05 0 -0.034962150044619382 2.7088638625482021e-05 0 -0.034971633556936443 2.6369930136705868e-05 0 -0.034965331601404255 3.3567830469092385e-05 0 -0.034970459625167732 1.1508023436792719e-05 0 -0.034962150044619382 2.7088638625482021e-05 0 -0.034971633556936443 2.6369930136705868e-05 0 -0.034962150044619382 2.7088638625482021e-05 0 -0.034965331601404255 3.3567830469092385e-05 0 -0.034958155345368162 4.1227069543879936e-05 0 -0.034971633556936443 2.6369930136705868e-05 0 -0.034969144269921967 3.9891564470602281e-05 0 -0.034980137391059846 2.6851083072760955e-05 0 -0.034971633556936443 2.6369930136705868e-05 0 -0.034965331601404255 3.3567830469092385e-05 0 -0.034969144269921967 3.9891564470602281e-05 0 -0.034969144269921967 3.9891564470602281e-05 0 -0.034957100931980394 5.1915782151258705e-05 0 -0.034966965153912323 5.7134568405537338e-05 0 -0.034965331601404255 3.3567830469092385e-05 0 -0.034969144269921967 3.9891564470602281e-05 0 -0.034958155345368162 4.1227069543879936e-05 0 -0.034969144269921967 3.9891564470602281e-05 0 -0.034957100931980394 5.1915782151258705e-05 0 -0.034958155345368162 4.1227069543879936e-05 0 -0.034936543701995101 4.720461569143004e-05 0 -0.034948538625289224 3.8549783523005747e-05 0 -0.034946690157088942 5.1866487074836682e-05 0 -0.034948538625289224 3.8549783523005747e-05 0 -0.034958155345368162 4.1227069543879936e-05 0 -0.034946690157088942 5.1866487074836682e-05 0 -0.034957100931980394 5.1915782151258705e-05 0 -0.034946690157088942 5.1866487074836682e-05 0 -0.03494978824086243 5.5377556352286881e-05 0 -0.034957100931980394 5.1915782151258705e-05 0 -0.034958155345368162 4.1227069543879936e-05 0 -0.034946690157088942 5.1866487074836682e-05 0 -0.034946690157088942 5.1866487074836682e-05 0 -0.034943491852244796 5.8412131819131534e-05 0 -0.03494978824086243 5.5377556352286881e-05 0 -0.034939294222115981 5.8102974851371468e-05 0 -0.034946690157088942 5.1866487074836682e-05 0 -0.034943491852244796 5.8412131819131534e-05 0 -0.034939294222115981 5.8102974851371468e-05 0 -0.034936543701995101 4.720461569143004e-05 0 -0.034946690157088942 5.1866487074836682e-05 0 -0.033051456352666729 0.00060819778249856377 0 -0.033132936179798518 0.00063385448423776739 0 -0.033051456352666729 0.00060819778249856377 0 -0.032538085822419169 0.00046685495778720442 0 -0.030627876549482218 0.00101370869539753 0 -0.03056607955951816 0.00086931192752100271 0 -0.030639151532290698 0.00088959690576661328 0 -0.034938997969135348 5.5924806416959802e-05 0 -0.034943491852244796 5.8412131819131534e-05 0 -0.034945674613875932 6.8014839947831303e-05 0 -0.034943491852244796 5.8412131819131534e-05 0 -0.03494978824086243 5.5377556352286881e-05 0 -0.034952297835910084 6.0932805111263227e-05 0 -0.034957100931980394 5.1915782151258705e-05 0 -0.03494978824086243 5.5377556352286881e-05 0 -0.034952297835910084 6.0932805111263227e-05 0 -0.034943491852244796 5.8412131819131534e-05 0 -0.034952297835910084 6.0932805111263227e-05 0 -0.034945674613875932 6.8014839947831303e-05 0 -0.034957100931980394 5.1915782151258705e-05 0 -0.034952297835910084 6.0932805111263227e-05 0 -0.034966965153912323 5.7134568405537338e-05 0 -0.034952297835910084 6.0932805111263227e-05 0 -0.034966965153912323 5.7134568405537338e-05 0 -0.034957716014499006 7.0399931882204244e-05 0 -0.034966965153912323 5.7134568405537338e-05 0 -0.034957716014499006 7.0399931882204244e-05 0 -0.034969731188202478 6.9219768996158908e-05 0 -0.034957716014499006 7.0399931882204244e-05 0 -0.034950750337551503 8.2051056432980919e-05 0 -0.034960792102899506 8.2420680740038856e-05 0 -0.034957716014499006 7.0399931882204244e-05 0 -0.034969731188202478 6.9219768996158908e-05 0 -0.034960792102899506 8.2420680740038856e-05 0 -0.03056607955951816 0.00086931192752100271 0 -0.030573075201160163 0.00080236912340344495 0 -0.030512913438630034 0.00074605129889988636 0 -0.032538085822419169 0.00046685495778720442 0 -0.031895726430910716 0.00020831967591236123 0 -0.034957716014499006 7.0399931882204244e-05 0 -0.034945674613875932 6.8014839947831303e-05 0 -0.034950750337551503 8.2051056432980919e-05 0 -0.03056607955951816 0.00086931192752100271 0 -0.030596845953562817 0.00083219284943931917 0 -0.030639151532290698 0.00088959690576661328 0 -0.03056607955951816 0.00086931192752100271 0 -0.030596845953562817 0.00083219284943931917 0 -0.030573075201160163 0.00080236912340344495 0 -0.034952297835910084 6.0932805111263227e-05 0 -0.034957716014499006 7.0399931882204244e-05 0 -0.034945674613875932 6.8014839947831303e-05 0 -0.030573075201160163 0.00080236912340344495 0 -0.030610702867540938 0.00078779424855669646 0 -0.030512913438630034 0.00074605129889988636 0 -0.030596845953562817 0.00083219284943931917 0 -0.030610702867540938 0.00078779424855669646 0 -0.030634799108223389 0.00082122280446377709 0 -0.030596845953562817 0.00083219284943931917 0 -0.030573075201160163 0.00080236912340344495 0 -0.030610702867540938 0.00078779424855669646 0 -0.030610702867540938 0.00078779424855669646 0 -0.030634799108223389 0.00082122280446377709 0 -0.030674163581868377 0.00080707619174012562 0 -0.030674163581868377 0.00080707619174012562 0 -0.030774693736713581 0.00080082483186681231 0 -0.030644838501456311 0.00075387898607907455 0 -0.030610702867540938 0.00078779424855669646 0 -0.030674163581868377 0.00080707619174012562 0 -0.030644838501456311 0.00075387898607907455 0 -0.030634799108223389 0.00082122280446377709 0 -0.030671528740065731 0.00084733231606961667 0 -0.030674163581868377 0.00080707619174012562 0 -0.030634799108223389 0.00082122280446377709 0 -0.030671528740065731 0.00084733231606961667 0 -0.030639151532290698 0.00088959690576661328 0 -0.030596845953562817 0.00083219284943931917 0 -0.030634799108223389 0.00082122280446377709 0 -0.030639151532290698 0.00088959690576661328 0 -0.030701690715040024 0.00088485666559085408 0 -0.030671528740065731 0.00084733231606961667 0 -0.030639151532290698 0.00088959690576661328 0 -0.030671528740065731 0.00084733231606961667 0 -0.030707911253398917 0.00083446913596238437 0 -0.030674163581868377 0.00080707619174012562 0 -0.030701690715040024 0.00088485666559085408 0 -0.030671528740065731 0.00084733231606961667 0 -0.030707911253398917 0.00083446913596238437 0 -0.030707911253398917 0.00083446913596238437 0 -0.030674163581868377 0.00080707619174012562 0 -0.030774693736713581 0.00080082483186681231 0 -0.030774693736713581 0.00080082483186681231 0 -0.030832106728067306 0.00086815797437957728 0 -0.030698684906286047 0.00060254150226649744 0 -0.030774693736713581 0.00080082483186681231 0 -0.030832106728067306 0.00086815797437957728 0 -0.030781717528288424 0.00087838967259725831 0 -0.030832106728067306 0.00086815797437957728 0 -0.030781717528288424 0.00087838967259725831 0 -0.03078859171799881 0.00092114874386114314 0 -0.030774693736713581 0.00080082483186681231 0 -0.030781717528288424 0.00087838967259725831 0 -0.030740909441652593 0.00086285032519049744 0 -0.030707911253398917 0.00083446913596238437 0 -0.030774693736713581 0.00080082483186681231 0 -0.030740909441652593 0.00086285032519049744 0 -0.030781717528288424 0.00087838967259725831 0 -0.030740909441652593 0.00086285032519049744 0 -0.030747939056662583 0.00091331971349015162 0 -0.030701690715040024 0.00088485666559085408 0 -0.030707911253398917 0.00083446913596238437 0 -0.030740909441652593 0.00086285032519049744 0 -0.030701690715040024 0.00088485666559085408 0 -0.030747939056662583 0.00091331971349015162 0 -0.030714193208579505 0.00093436984148744927 0 -0.030701690715040024 0.00088485666559085408 0 -0.030740909441652593 0.00086285032519049744 0 -0.030747939056662583 0.00091331971349015162 0 -0.030747939056662583 0.00091331971349015162 0 -0.03078859171799881 0.00092114874386114314 0 -0.030765216417060596 0.00097207258858793321 0 -0.030747939056662583 0.00091331971349015162 0 -0.030765216417060596 0.00097207258858793321 0 -0.030714193208579505 0.00093436984148744927 0 -0.030832106728067306 0.00086815797437957728 0 -0.03078859171799881 0.00092114874386114314 0 -0.030816201070231416 0.00097083136787339474 0 -0.030781717528288424 0.00087838967259725831 0 -0.030747939056662583 0.00091331971349015162 0 -0.03078859171799881 0.00092114874386114314 0 -0.03080190522111375 0.0010293619004539335 0 -0.030816201070231416 0.00097083136787339474 0 -0.030765216417060596 0.00097207258858793321 0 -0.03078859171799881 0.00092114874386114314 0 -0.030816201070231416 0.00097083136787339474 0 -0.030765216417060596 0.00097207258858793321 0 -0.030719686647222823 0.0010118501344360856 0 -0.030765216417060596 0.00097207258858793321 0 -0.030714193208579505 0.00093436984148744927 0 -0.031076702361623576 0.00099836009362161849 0 -0.03095754223097863 0.00091269633740589202 0 -0.03074772627833967 0.0010303868172636033 0 -0.030627876549482218 0.00101370869539753 0 -0.030639151532290698 0.00088959690576661328 0 -0.030719686647222823 0.0010118501344360856 0 -0.030639151532290698 0.00088959690576661328 0 -0.030714193208579505 0.00093436984148744927 0 -0.030701690715040024 0.00088485666559085408 0 -0.030639151532290698 0.00088959690576661328 0 -0.030714193208579505 0.00093436984148744927 0 -0.034784498040852652 -0.0011484793463928536 0 -0.034842100339001654 -0.0011406560610088586 0 -0.034790587747611283 -0.0011051339073054715 0 -0.034784498040852652 -0.0011484793463928536 0 -0.0348186825358704 -0.00119457900695767 0 -0.034842100339001654 -0.0011406560610088586 0 -0.033521403892277618 -0.0012726497267108662 0 -0.034421251127500573 -0.0013929689664990824 0 -0.034896120472956864 -0.0013556953863727167 0 -0.034750880466308733 -0.0013213710619462589 0 -0.034789776875895635 -0.0014136573279750046 0 -0.034841652037507179 -0.0012277414061881993 0 -0.034932618402790203 -0.0013545008427674834 0 -0.034750880466308733 -0.0013213710619462589 0 -0.034202380061738709 -0.0014269060804050064 0 -0.033521403892277618 -0.0012726497267108662 0 -0.0348186825358704 -0.00119457900695767 0 -0.034842100339001654 -0.0011406560610088586 0 -0.034860377734527929 -0.001202090240326999 0 -0.034979357714299976 5.9696813908004584e-05 0 -0.034994522359588796 5.3248882206334883e-05 0 -0.034983337664421792 7.7737304361856415e-05 0 -0.033521403892277618 -0.0012726497267108662 0 -0.032798360688376306 -0.00075909828959666375 0 -0.03405658169326848 -0.00076615418213161286 0 -0.032798360688376306 -0.00075909828959666375 0 -0.034969731188202478 6.9219768996158908e-05 0 -0.034960792102899506 8.2420680740038856e-05 0 -0.034983337664421792 7.7737304361856415e-05 0 -0.034969731188202478 6.9219768996158908e-05 0 -0.034979357714299976 5.9696813908004584e-05 0 -0.034983337664421792 7.7737304361856415e-05 0 -0.034966965153912323 5.7134568405537338e-05 0 -0.034979357714299976 5.9696813908004584e-05 0 -0.034980514084410566 4.3215440185279583e-05 0 -0.034966965153912323 5.7134568405537338e-05 0 -0.034969731188202478 6.9219768996158908e-05 0 -0.034979357714299976 5.9696813908004584e-05 0 -0.034979357714299976 5.9696813908004584e-05 0 -0.034994522359588796 5.3248882206334883e-05 0 -0.034980514084410566 4.3215440185279583e-05 0 -0.034994522359588796 5.3248882206334883e-05 0 -0.034980514084410566 4.3215440185279583e-05 0 -0.034989615780092777 2.7974343558900015e-05 0 -0.034969144269921967 3.9891564470602281e-05 0 -0.034980514084410566 4.3215440185279583e-05 0 -0.034980137391059846 2.6851083072760955e-05 0 -0.034969144269921967 3.9891564470602281e-05 0 -0.034966965153912323 5.7134568405537338e-05 0 -0.034980514084410566 4.3215440185279583e-05 0 -0.034980137391059846 2.6851083072760955e-05 0 -0.034989615780092777 2.7974343558900015e-05 0 -0.034982541306946363 1.5296445173292754e-05 0 -0.034980514084410566 4.3215440185279583e-05 0 -0.034980137391059846 2.6851083072760955e-05 0 -0.034989615780092777 2.7974343558900015e-05 0 -0.034976386193316458 1.6579332131437074e-05 0 -0.034971633556936443 2.6369930136705868e-05 0 -0.034980137391059846 2.6851083072760955e-05 0 -0.034989615780092777 2.7974343558900015e-05 0 -0.035001925299988128 2.9128909066376845e-05 0 -0.034996826752056509 1.739832240111464e-05 0 -0.034842100339001654 -0.0011406560610088586 0 -0.034824461701020895 -0.0010666940523771365 0 -0.034790587747611283 -0.0011051339073054715 0 -0.03405658169326848 -0.00076615418213161286 0 -0.034585488555842633 -0.00061421274429416097 0 -0.034994522359588796 5.3248882206334883e-05 0 -0.034989615780092777 2.7974343558900015e-05 0 -0.035001925299988128 2.9128909066376845e-05 0 -0.034784498040852652 -0.0011484793463928536 0 -0.034790587747611283 -0.0011051339073054715 0 -0.034742942845116739 -0.0011028984894899064 0 -0.034202380061738709 -0.0014269060804050064 0 -0.034339841270369889 -0.0013952502061706294 0 -0.034790587747611283 -0.0011051339073054715 0 -0.034771998972516809 -0.0010700726466268409 0 -0.034742942845116739 -0.0011028984894899064 0 -0.034824461701020895 -0.0010666940523771365 0 -0.034790587747611283 -0.0011051339073054715 0 -0.034771998972516809 -0.0010700726466268409 0 -0.034824461701020895 -0.0010666940523771365 0 -0.034771998972516809 -0.0010700726466268409 0 -0.034773780289188171 -0.0010281688729953228 0 -0.034771998972516809 -0.0010700726466268409 0 -0.034773780289188171 -0.0010281688729953228 0 -0.034734091838906592 -0.0010428286953544218 0 -0.034773780289188171 -0.0010281688729953228 0 -0.034796779561220258 -0.00097649606752327309 0 -0.034742542498599621 -0.00099148022304359194 0 -0.034824461701020895 -0.0010666940523771365 0 -0.034773780289188171 -0.0010281688729953228 0 -0.034796779561220258 -0.00097649606752327309 0 -0.034855891006185129 -0.00045646248519922128 0 -0.034856034355735289 -0.00045863872285888379 0 -0.035001925299988128 2.9128909066376845e-05 0 -0.03500222656654068 1.0354474077671e-05 0 -0.034996826752056509 1.739832240111464e-05 0 -0.035001925299988128 2.9128909066376845e-05 0 -0.03500222656654068 1.0354474077671e-05 0 -0.035003829284886573 9.2720048502653974e-06 0 -0.034585488555842633 -0.00061421274429416097 0 -0.034856034355735289 -0.00045863872285888379 0 -0.034996826752056509 1.739832240111464e-05 0 -0.034995544529470173 1.2726375742258027e-05 0 -0.034998726697414356 1.0767463969132354e-05 0 -0.034996826752056509 1.739832240111464e-05 0 -0.034995544529470173 1.2726375742258027e-05 0 -0.034991360764222004 1.5154055630059227e-05 0 -0.03500222656654068 1.0354474077671e-05 0 -0.034996826752056509 1.739832240111464e-05 0 -0.034998726697414356 1.0767463969132354e-05 0 -0.03500222656654068 1.0354474077671e-05 0 -0.034998726697414356 1.0767463969132354e-05 0 -0.035001081353270576 7.9673670018231019e-06 0 -0.034998726697414356 1.0767463969132354e-05 0 -0.034999069807191613 6.9749515118934699e-06 0 -0.035001081353270576 7.9673670018231019e-06 0 -0.034998726697414356 1.0767463969132354e-05 0 -0.034999069807191613 6.9749515118934699e-06 0 -0.034996889775345638 8.7790639691391595e-06 0 -0.034999069807191613 6.9749515118934699e-06 0 -0.035000752275790178 5.4889964592942485e-06 0 -0.035001081353270576 7.9673670018231019e-06 0 -0.034996889775345638 8.7790639691391595e-06 0 -0.034996440726907413 5.1054289343664235e-06 0 -0.034993301057739526 1.0313000117311962e-05 0 -0.034995544529470173 1.2726375742258027e-05 0 -0.034996889775345638 8.7790639691391595e-06 0 -0.034993301057739526 1.0313000117311962e-05 0 -0.034995544529470173 1.2726375742258027e-05 0 -0.034998726697414356 1.0767463969132354e-05 0 -0.034996889775345638 8.7790639691391595e-06 0 -0.034999069807191613 6.9749515118934699e-06 0 -0.034996889775345638 8.7790639691391595e-06 0 -0.034996440726907413 5.1054289343664235e-06 0 -0.034999069807191613 6.9749515118934699e-06 0 -0.034996440726907413 5.1054289343664235e-06 0 -0.034999361558777468 4.9179716853712154e-06 0 -0.034999069807191613 6.9749515118934699e-06 0 -0.034999361558777468 4.9179716853712154e-06 0 -0.035000752275790178 5.4889964592942485e-06 0 -0.034856034355735289 -0.00045863872285888379 0 -0.034867925077400261 -0.00043462762063682685 0 -0.035000752275790178 5.4889964592942485e-06 0 -0.035001524047565173 6.8775621712138395e-06 0 -0.035000975973467713 3.4934546879461639e-06 0 -0.034999361558777468 4.9179716853712154e-06 0 -0.035000752275790178 5.4889964592942485e-06 0 -0.035000363202425798 3.7136827478576402e-06 0 -0.035000752275790178 5.4889964592942485e-06 0 -0.035000975973467713 3.4934546879461639e-06 0 -0.035000363202425798 3.7136827478576402e-06 0 -0.035001524047565173 6.8775621712138395e-06 0 -0.035001568582450897 7.3044313860701632e-06 0 -0.035001319943570225 2.8132772623220497e-06 0 -0.035001524047565173 6.8775621712138395e-06 0 -0.035000975973467713 3.4934546879461639e-06 0 -0.035001319943570225 2.8132772623220497e-06 0 -0.03500222656654068 1.0354474077671e-05 0 -0.035001081353270576 7.9673670018231019e-06 0 -0.035002181099139336 8.9156806933311706e-06 0 -0.035001524047565173 6.8775621712138395e-06 0 -0.035001081353270576 7.9673670018231019e-06 0 -0.035002181099139336 8.9156806933311706e-06 0 -0.034854949736056233 -0.00045218722185812361 0 -0.034856034355735289 -0.00045863872285888379 0 -0.035000752275790178 5.4889964592942485e-06 0 -0.035001524047565173 6.8775621712138395e-06 0 -0.035001081353270576 7.9673670018231019e-06 0 -0.034976386193316458 1.6579332131437074e-05 0 -0.034982541306946363 1.5296445173292754e-05 0 -0.034978284785492968 8.4449847961679234e-06 0 -0.034976386193316458 1.6579332131437074e-05 0 -0.034980137391059846 2.6851083072760955e-05 0 -0.034982541306946363 1.5296445173292754e-05 0 -0.034989615780092777 2.7974343558900015e-05 0 -0.034996826752056509 1.739832240111464e-05 0 -0.034991360764222004 1.5154055630059227e-05 0 -0.034989615780092777 2.7974343558900015e-05 0 -0.034982541306946363 1.5296445173292754e-05 0 -0.034991360764222004 1.5154055630059227e-05 0 -0.034982541306946363 1.5296445173292754e-05 0 -0.034991360764222004 1.5154055630059227e-05 0 -0.034988767906915137 8.4508892392227081e-06 0 -0.034995544529470173 1.2726375742258027e-05 0 -0.034991360764222004 1.5154055630059227e-05 0 -0.034993301057739526 1.0313000117311962e-05 0 -0.034991360764222004 1.5154055630059227e-05 0 -0.034993301057739526 1.0313000117311962e-05 0 -0.034988767906915137 8.4508892392227081e-06 0 -0.034996440726907413 5.1054289343664235e-06 0 -0.034993301057739526 1.0313000117311962e-05 0 -0.034988767906915137 8.4508892392227081e-06 0 -0.034988767906915137 8.4508892392227081e-06 0 -0.034978284785492968 8.4449847961679234e-06 0 -0.034990689958439833 5.0391391376271878e-07 0 -0.034982541306946363 1.5296445173292754e-05 0 -0.034988767906915137 8.4508892392227081e-06 0 -0.034978284785492968 8.4449847961679234e-06 0 -0.034994389677530373 -1.6884890779817242e-07 0 -0.034996137489982121 -1.6464886458321362e-06 0 -0.034998534259350296 -6.41899500724377e-07 0 -0.03498617096797256 4.6913791369786248e-06 0 -0.034992043545802425 1.0365207244261789e-06 0 -0.034996440726907413 5.1054289343664235e-06 0 -0.034988767906915137 8.4508892392227081e-06 0 -0.034990689958439833 5.0391391376271878e-07 0 -0.034996137489982121 -1.6464886458321362e-06 0 -0.034998534259350296 -6.41899500724377e-07 0 -0.034999998456138506 -1.3143395735714358e-09 0 -0.034992043545802425 1.0365207244261789e-06 0 -0.034994440884757727 -2.1382809889879525e-07 0 -0.034998534259350296 -6.41899500724377e-07 0 -0.034999998456138506 -1.3143395735714358e-09 0 -0.034999720805918288 -2.7274943591283737e-07 0 -0.034999992464647765 -3.3285652794150943e-09 0 -0.034996137489982121 -1.6464886458321362e-06 0 -0.034999998456138506 -1.3143395735714358e-09 0 -0.0350003122416798 2.1793860615684921e-06 0 -0.034999800036570265 6.7159190971188178e-07 0 -0.03500066390759636 1.207426045865507e-06 0 -0.0350003122416798 2.1793860615684921e-06 0 -0.034999221406030255 2.7990974671165533e-06 0 -0.034999800036570265 6.7159190971188178e-07 0 -0.0350003122416798 2.1793860615684921e-06 0 -0.035000975973467713 3.4934546879461639e-06 0 -0.03500066390759636 1.207426045865507e-06 0 -0.0350003122416798 2.1793860615684921e-06 0 -0.035000363202425798 3.7136827478576402e-06 0 -0.034999221406030255 2.7990974671165533e-06 0 -0.034999361558777468 4.9179716853712154e-06 0 -0.035000363202425798 3.7136827478576402e-06 0 -0.034999221406030255 2.7990974671165533e-06 0 -0.0350003122416798 2.1793860615684921e-06 0 -0.035000975973467713 3.4934546879461639e-06 0 -0.035000363202425798 3.7136827478576402e-06 0 -0.034996440726907413 5.1054289343664235e-06 0 -0.034999221406030255 2.7990974671165533e-06 0 -0.034997533142811926 1.3353686120491222e-06 0 -0.034996440726907413 5.1054289343664235e-06 0 -0.034990689958439833 5.0391391376271878e-07 0 -0.034997533142811926 1.3353686120491222e-06 0 -0.034996440726907413 5.1054289343664235e-06 0 -0.034999361558777468 4.9179716853712154e-06 0 -0.034999221406030255 2.7990974671165533e-06 0 -0.034999221406030255 2.7990974671165533e-06 0 -0.034997533142811926 1.3353686120491222e-06 0 -0.034999800036570265 6.7159190971188178e-07 0 -0.034997533142811926 1.3353686120491222e-06 0 -0.034999720805918288 -2.7274943591283737e-07 0 -0.034999800036570265 6.7159190971188178e-07 0 -0.034990689958439833 5.0391391376271878e-07 0 -0.034997533142811926 1.3353686120491222e-06 0 -0.034999720805918288 -2.7274943591283737e-07 0 -0.034999998456138506 -1.3143395735714358e-09 0 -0.034999720805918288 -2.7274943591283737e-07 0 -0.034999998886690704 -9.457321323417645e-11 0 -0.034999720805918288 -2.7274943591283737e-07 0 -0.034999998886690704 -9.457321323417645e-11 0 -0.034999800036570265 6.7159190971188178e-07 0 -0.034999998886690704 -9.457321323417645e-11 0 -0.034999800036570265 6.7159190971188178e-07 0 -0.03500066390759636 1.207426045865507e-06 0 -0.034999998886690704 -9.457321323417645e-11 0 -0.03500066390759636 1.207426045865507e-06 0 -0.035000002047240832 1.5241559031669046e-09 0 -0.035000975973467713 3.4934546879461639e-06 0 -0.03500066390759636 1.207426045865507e-06 0 -0.035001319943570225 2.8132772623220497e-06 0 -0.03500066390759636 1.207426045865507e-06 0 -0.03500091649901596 1.0202516809794226e-06 0 -0.035001319943570225 2.8132772623220497e-06 0 -0.034866176063484092 -0.00038428643415348119 0 -0.034867925077400261 -0.00043462762063682685 0 -0.03500066390759636 1.207426045865507e-06 0 -0.035000002047240832 1.5241559031669046e-09 0 -0.03500091649901596 1.0202516809794226e-06 0 -0.035000002047240832 1.5241559031669046e-09 0 -0.03500000059399299 -4.5256355740066798e-10 0 -0.03500091649901596 1.0202516809794226e-06 0 -0.034999661935888146 -3.4534061212035644e-07 0 -0.034866176063484092 -0.00038428643415348119 0 -0.035000000644226904 -1.3599001007323716e-10 0 -0.034999944998690878 -1.107856376558452e-06 0 -0.035002337735761196 -4.3359741197936397e-06 0 -0.034807047329628985 -0.00028311432944108173 0 -0.034940564166363722 -0.00013071119254801891 0 -0.034999894341067282 -5.2156666303246232e-07 0 -0.035000000644226904 -1.3599001007323716e-10 0 -0.034999999284083087 -7.4589658905677855e-10 0 -0.034999894341067282 -5.2156666303246232e-07 0 -0.034999854358546315 -1.1153059250300868e-06 0 -0.034999893431475512 -2.6093866185673621e-07 0 -0.034999894341067282 -5.2156666303246232e-07 0 -0.035000000644226904 -1.3599001007323716e-10 0 -0.034999944998690878 -1.107856376558452e-06 0 -0.034818933018835353 -0.00024836780309922502 0 -0.034807047329628985 -0.00028311432944108173 0 -0.034999894341067282 -5.2156666303246232e-07 0 -0.034999944998690878 -1.107856376558452e-06 0 -0.034999854358546315 -1.1153059250300868e-06 0 -0.035221083620313072 -3.9238079353560892e-05 0 -0.035201489090616385 -0.00033822680262226272 0 -0.035055780731705038 -0.00014181181959109271 0 -0.034807047329628985 -0.00028311432944108173 0 -0.034740777453314629 -0.00061520217625452348 0 -0.034999944998690878 -1.107856376558452e-06 0 -0.034999471268845769 -2.7137856101783257e-06 0 -0.035002337735761196 -4.3359741197936397e-06 0 -0.034807047329628985 -0.00028311432944108173 0 -0.034866176063484092 -0.00038428643415348119 0 -0.034528774013702496 -0.00080315825656995072 0 -0.034614679085737662 -0.00084368072107512168 0 -0.034586607343902662 -0.00092586841216552702 0 -0.034528774013702496 -0.00080315825656995072 0 -0.034586607343902662 -0.00092586841216552702 0 -0.034499271512974515 -0.0009319086449246025 0 -0.034499271512974515 -0.0009319086449246025 0 -0.034539038990968295 -0.0010064417073206977 0 -0.034470305902722917 -0.0010595912938394536 0 -0.034740777453314629 -0.00061520217625452348 0 -0.034614479995378131 -0.00086042989216276761 0 -0.034586607343902662 -0.00092586841216552702 0 -0.034499271512974515 -0.0009319086449246025 0 -0.034539038990968295 -0.0010064417073206977 0 -0.034586607343902662 -0.00092586841216552702 0 -0.034539038990968295 -0.0010064417073206977 0 -0.03460755927351606 -0.0010114579755917438 0 -0.03460755927351606 -0.0010114579755917438 0 -0.034672216484804293 -0.0010168739138588605 0 -0.034674961277703309 -0.00094190255629687575 0 -0.034586607343902662 -0.00092586841216552702 0 -0.03460755927351606 -0.0010114579755917438 0 -0.034674961277703309 -0.00094190255629687575 0 -0.034865140979203443 -0.00075174130377061836 0 -0.034863018838893756 -0.00085313938882540649 0 -0.034773780289188171 -0.0010281688729953228 0 -0.034742542498599621 -0.00099148022304359194 0 -0.034734091838906592 -0.0010428286953544218 0 -0.034672216484804293 -0.0010168739138588605 0 -0.034674961277703309 -0.00094190255629687575 0 -0.034734091838906592 -0.0010428286953544218 0 -0.034742542498599621 -0.00099148022304359194 0 -0.034691255866111007 -0.0009751240292292996 0 -0.034734091838906592 -0.0010428286953544218 0 -0.034796779561220258 -0.00097649606752327309 0 -0.034742542498599621 -0.00099148022304359194 0 -0.034722702458721152 -0.0009405623540989299 0 -0.034742542498599621 -0.00099148022304359194 0 -0.034722702458721152 -0.0009405623540989299 0 -0.034691255866111007 -0.0009751240292292996 0 -0.034614679085737662 -0.00084368072107512168 0 -0.034586607343902662 -0.00092586841216552702 0 -0.034674961277703309 -0.00094190255629687575 0 -0.034647971240219545 -0.00090432391725430914 0 -0.034722702458721152 -0.0009405623540989299 0 -0.034691255866111007 -0.0009751240292292996 0 -0.034866176063484092 -0.00038428643415348119 0 -0.034865140979203443 -0.00075174130377061836 0 -0.034750144615666584 -9.7013001450197399e-05 0 -0.034659831145214599 -0.00012370965839366148 0 -0.034580196486772553 -6.082456229010195e-05 0 -0.03470394538238647 -0.00015748595672776948 0 -0.034659831145214599 -0.00012370965839366148 0 -0.034628451483006695 -0.00016376036787447385 0 -0.03470394538238647 -0.00015748595672776948 0 -0.034750144615666584 -9.7013001450197399e-05 0 -0.034659831145214599 -0.00012370965839366148 0 -0.034870326747335388 -2.6038849772249407e-05 0 -0.03484370069270671 -3.2563979846348224e-05 0 -0.034999841811382847 -6.2872101547964306e-08 0 -0.034914288797772614 -2.6825577558206061e-06 0 -0.035009326049813813 6.0756700267829367e-06 0 -0.034750144615666584 -9.7013001450197399e-05 0 -0.034914288797772614 -2.6825577558206061e-06 0 -0.034580196486772553 -6.082456229010195e-05 0 -0.034999841811382847 -6.2872101547964306e-08 0 -0.034914288797772614 -2.6825577558206061e-06 0 -0.034999698856023539 7.8084294183644824e-08 0 -0.034914288797772614 -2.6825577558206061e-06 0 -0.03482386640899586 -9.5693607247374123e-05 0 -0.034935162641699539 -3.3820363427431004e-05 0 -0.034750144615666584 -9.7013001450197399e-05 0 -0.034914288797772614 -2.6825577558206061e-06 0 -0.03482386640899586 -9.5693607247374123e-05 0 -0.03470394538238647 -0.00015748595672776948 0 -0.034750144615666584 -9.7013001450197399e-05 0 -0.03482386640899586 -9.5693607247374123e-05 0 -0.03470394538238647 -0.00015748595672776948 0 -0.03482386640899586 -9.5693607247374123e-05 0 -0.034706543267328104 -0.0001873505644733686 0 -0.03482386640899586 -9.5693607247374123e-05 0 -0.034892814353978535 -0.00012357106247426019 0 -0.034706543267328104 -0.0001873505644733686 0 -0.034892814353978535 -0.00012357106247426019 0 -0.034935162641699539 -3.3820363427431004e-05 0 -0.035042925009175607 1.220016888465379e-05 0 -0.03482386640899586 -9.5693607247374123e-05 0 -0.034892814353978535 -0.00012357106247426019 0 -0.034935162641699539 -3.3820363427431004e-05 0 -0.034914288797772614 -2.6825577558206061e-06 0 -0.034999698856023539 7.8084294183644824e-08 0 -0.034935162641699539 -3.3820363427431004e-05 0 -0.034999698856023539 7.8084294183644824e-08 0 -0.034935162641699539 -3.3820363427431004e-05 0 -0.035042925009175607 1.220016888465379e-05 0 -0.034999866400649109 -3.174296568946042e-07 0 -0.034940564166363722 -0.00013071119254801891 0 -0.035000000125193255 3.1501691098950457e-10 0 -0.034999999284083087 -7.4589658905677855e-10 0 -0.034999893431475512 -2.6093866185673621e-07 0 -0.034999894341067282 -5.2156666303246232e-07 0 -0.034999999284083087 -7.4589658905677855e-10 0 -0.034999893431475512 -2.6093866185673621e-07 0 -0.035221083620313072 -3.9238079353560892e-05 0 -0.035042925009175607 1.220016888465379e-05 0 -0.035055780731705038 -0.00014181181959109271 0 -0.034892814353978535 -0.00012357106247426019 0 -0.035042925009175607 1.220016888465379e-05 0 -0.035055780731705038 -0.00014181181959109271 0 -0.034892814353978535 -0.00012357106247426019 0 -0.035055780731705038 -0.00014181181959109271 0 -0.034913072784360039 -0.0002940424833911285 0 -0.035201489090616385 -0.00033822680262226272 0 -0.035055780731705038 -0.00014181181959109271 0 -0.034913072784360039 -0.0002940424833911285 0 -0.035201489090616385 -0.00033822680262226272 0 -0.034865565999132646 -0.00069193443378587219 0 -0.035123556677447432 -0.00078824193677212869 0 -0.035201489090616385 -0.00033822680262226272 0 -0.034913072784360039 -0.0002940424833911285 0 -0.034865565999132646 -0.00069193443378587219 0 -0.034470627330608336 -0.00074708873327615575 0 -0.03453998464277451 -0.00078860230711605851 0 -0.034692061290224015 -0.00040129121171548251 0 -0.034399069128698868 -0.00061054889352695364 0 -0.034865565999132646 -0.00069193443378587219 0 -0.034692061290224015 -0.00040129121171548251 0 -0.034913072784360039 -0.0002940424833911285 0 -0.034865565999132646 -0.00069193443378587219 0 -0.034692061290224015 -0.00040129121171548251 0 -0.034748693127381457 -0.00024161849573222611 0 -0.034564985843182336 -0.00025588222948047355 0 -0.034692061290224015 -0.00040129121171548251 0 -0.034913072784360039 -0.0002940424833911285 0 -0.034748693127381457 -0.00024161849573222611 0 -0.034892814353978535 -0.00012357106247426019 0 -0.034913072784360039 -0.0002940424833911285 0 -0.034748693127381457 -0.00024161849573222611 0 -0.034892814353978535 -0.00012357106247426019 0 -0.034748693127381457 -0.00024161849573222611 0 -0.034706543267328104 -0.0001873505644733686 0 -0.03470394538238647 -0.00015748595672776948 0 -0.034706543267328104 -0.0001873505644733686 0 -0.034637406743156199 -0.00022386541757642655 0 -0.034706543267328104 -0.0001873505644733686 0 -0.034564985843182336 -0.00025588222948047355 0 -0.034637406743156199 -0.00022386541757642655 0 -0.034748693127381457 -0.00024161849573222611 0 -0.034706543267328104 -0.0001873505644733686 0 -0.034564985843182336 -0.00025588222948047355 0 -0.034692061290224015 -0.00040129121171548251 0 -0.034564985843182336 -0.00025588222948047355 0 -0.034399069128698868 -0.00061054889352695364 0 -0.034399069128698868 -0.00061054889352695364 0 -0.03390960953120057 -0.00061589204647451731 0 -0.034115430888148869 -0.00077533947247967322 0 -0.034374224883460154 -0.00042383626690358384 0 -0.034297936518859179 -0.00050096592181537981 0 -0.034564985843182336 -0.00025588222948047355 0 -0.034399069128698868 -0.00061054889352695364 0 -0.03390960953120057 -0.00061589204647451731 0 -0.034633291048449026 -0.00021452365794884958 0 -0.034627138027560615 -0.00021428764015855568 0 -0.034608246797526658 -0.00022116065148065423 0 -0.034633291048449026 -0.00021452365794884958 0 -0.034627138027560615 -0.00021428764015855568 0 -0.034637406743156199 -0.00022386541757642655 0 -0.034564985843182336 -0.00025588222948047355 0 -0.034633291048449026 -0.00021452365794884958 0 -0.034637406743156199 -0.00022386541757642655 0 -0.034627138027560615 -0.00021428764015855568 0 -0.034637406743156199 -0.00022386541757642655 0 -0.034617014805169891 -0.0001974498023977199 0 -0.034637406743156199 -0.00022386541757642655 0 -0.034628451483006695 -0.00016376036787447385 0 -0.034617014805169891 -0.0001974498023977199 0 -0.03470394538238647 -0.00015748595672776948 0 -0.034637406743156199 -0.00022386541757642655 0 -0.034628451483006695 -0.00016376036787447385 0 -0.033906091721912029 -0.00094688423155066812 0 -0.033804314519942702 -0.0011659138757280428 0 -0.033644393289616027 -0.0011444892293743438 0 -0.033906091721912029 -0.00094688423155066812 0 -0.034015644548393092 -0.0010883074617357013 0 -0.033804314519942702 -0.0011659138757280428 0 -0.03390960953120057 -0.00061589204647451731 0 -0.033906091721912029 -0.00094688423155066812 0 -0.033626076556732866 -0.00088678714706107219 0 -0.03390960953120057 -0.00061589204647451731 0 -0.033906091721912029 -0.00094688423155066812 0 -0.034115430888148869 -0.00077533947247967322 0 -0.033906091721912029 -0.00094688423155066812 0 -0.034115430888148869 -0.00077533947247967322 0 -0.03420803597509179 -0.00085926881194727217 0 -0.034399069128698868 -0.00061054889352695364 0 -0.034115430888148869 -0.00077533947247967322 0 -0.03420803597509179 -0.00085926881194727217 0 -0.033906091721912029 -0.00094688423155066812 0 -0.03420803597509179 -0.00085926881194727217 0 -0.034015644548393092 -0.0010883074617357013 0 -0.03420803597509179 -0.00085926881194727217 0 -0.034227871461652383 -0.0010455580268656996 0 -0.034015644548393092 -0.0010883074617357013 0 -0.03420803597509179 -0.00085926881194727217 0 -0.034227871461652383 -0.0010455580268656996 0 -0.034344969775793439 -0.00088670872426800944 0 -0.034399069128698868 -0.00061054889352695364 0 -0.03420803597509179 -0.00085926881194727217 0 -0.034348151596199743 -0.00074535869224653256 0 -0.03420803597509179 -0.00085926881194727217 0 -0.034348151596199743 -0.00074535869224653256 0 -0.034344969775793439 -0.00088670872426800944 0 -0.034348151596199743 -0.00074535869224653256 0 -0.034475411321384215 -0.00081583038447524735 0 -0.034344969775793439 -0.00088670872426800944 0 -0.03453998464277451 -0.00078860230711605851 0 -0.034614479995378131 -0.00086042989216276761 0 -0.034614479995378131 -0.00086042989216276761 0 -0.034510785843530595 -0.0010323323123666637 0 -0.034475411321384215 -0.00081583038447524735 0 -0.034344969775793439 -0.00088670872426800944 0 -0.034415562962347081 -0.0010177913970173943 0 -0.034227871461652383 -0.0010455580268656996 0 -0.034344969775793439 -0.00088670872426800944 0 -0.034415562962347081 -0.0010177913970173943 0 -0.034227871461652383 -0.0010455580268656996 0 -0.034415562962347081 -0.0010177913970173943 0 -0.034295917580461695 -0.0012591620177954729 0 -0.034510785843530595 -0.0010323323123666637 0 -0.034472077433347591 -0.0011083522553134702 0 -0.034333920673169108 -0.001138189301355967 0 -0.034295917580461695 -0.0012591620177954729 0 -0.034439510731032186 -0.0012309536382325193 0 -0.034103573942327582 -0.0012248547172543209 0 -0.03384419409089786 -0.0013014978904767834 0 -0.03415115154517042 -0.0015513638919342036 0 -0.034295917580461695 -0.0012591620177954729 0 -0.034103573942327582 -0.0012248547172543209 0 -0.03415115154517042 -0.0015513638919342036 0 -0.034227871461652383 -0.0010455580268656996 0 -0.034103573942327582 -0.0012248547172543209 0 -0.034015644548393092 -0.0010883074617357013 0 -0.034227871461652383 -0.0010455580268656996 0 -0.034295917580461695 -0.0012591620177954729 0 -0.034103573942327582 -0.0012248547172543209 0 -0.034015644548393092 -0.0010883074617357013 0 -0.03384419409089786 -0.0013014978904767834 0 -0.033804314519942702 -0.0011659138757280428 0 -0.034103573942327582 -0.0012248547172543209 0 -0.034015644548393092 -0.0010883074617357013 0 -0.03384419409089786 -0.0013014978904767834 0 -0.033637517563715601 -0.0013997395960747578 0 -0.033641170021859824 -0.0013130050251111461 0 -0.033528419580313343 -0.0014434951967515293 0 -0.03384419409089786 -0.0013014978904767834 0 -0.033637517563715601 -0.0013997395960747578 0 -0.033641170021859824 -0.0013130050251111461 0 -0.03384419409089786 -0.0013014978904767834 0 -0.033641170021859824 -0.0013130050251111461 0 -0.033804314519942702 -0.0011659138757280428 0 -0.033641170021859824 -0.0013130050251111461 0 -0.033804314519942702 -0.0011659138757280428 0 -0.033644393289616027 -0.0011444892293743438 0 -0.034691766449242809 -0.0011508901773875598 0 -0.034672358472455686 -0.0010698860002496282 0 -0.034582098309364769 -0.001103968005991383 0 -0.034651181547722891 -0.0010233531267528065 0 -0.034608306503804191 -0.0009736978733696427 0 -0.034691766449242809 -0.0011508901773875598 0 -0.034531012917217149 -0.0010779105295006463 0 -0.034578233455645299 -0.0012071738186431281 0 -0.034691766449242809 -0.0011508901773875598 0 -0.034742942845116739 -0.0011028984894899064 0 -0.034738623144614469 -0.0012112872138688498 0 -0.034691766449242809 -0.0011508901773875598 0 -0.034742942845116739 -0.0011028984894899064 0 -0.034672358472455686 -0.0010698860002496282 0 -0.034742942845116739 -0.0011028984894899064 0 -0.034734091838906592 -0.0010428286953544218 0 -0.034672358472455686 -0.0010698860002496282 0 -0.034771998972516809 -0.0010700726466268409 0 -0.034742942845116739 -0.0011028984894899064 0 -0.034734091838906592 -0.0010428286953544218 0 -0.034672216484804293 -0.0010168739138588605 0 -0.034734091838906592 -0.0010428286953544218 0 -0.034672358472455686 -0.0010698860002496282 0 -0.03460755927351606 -0.0010114579755917438 0 -0.034672216484804293 -0.0010168739138588605 0 -0.034672358472455686 -0.0010698860002496282 0 -0.03460755927351606 -0.0010114579755917438 0 -0.034672358472455686 -0.0010698860002496282 0 -0.034582098309364769 -0.001103968005991383 0 -0.034539038990968295 -0.0010064417073206977 0 -0.03460755927351606 -0.0010114579755917438 0 -0.034582098309364769 -0.001103968005991383 0 -0.034614479995378131 -0.00086042989216276761 0 -0.034608306503804191 -0.0009736978733696427 0 -0.034539038990968295 -0.0010064417073206977 0 -0.034470305902722917 -0.0010595912938394536 0 -0.034582098309364769 -0.001103968005991383 0 -0.034333920673169108 -0.001138189301355967 0 -0.034531012917217149 -0.0010779105295006463 0 -0.034439510731032186 -0.0012309536382325193 0 -0.034364827603505337 -0.001009060368745136 0 -0.034333920673169108 -0.001138189301355967 0 -0.034531012917217149 -0.0010779105295006463 0 -0.034578233455645299 -0.0012071738186431281 0 -0.034439510731032186 -0.0012309536382325193 0 -0.03455743083216322 -0.0013170319485855102 0 -0.034531012917217149 -0.0010779105295006463 0 -0.034578233455645299 -0.0012071738186431281 0 -0.034439510731032186 -0.0012309536382325193 0 -0.034439510731032186 -0.0012309536382325193 0 -0.03455743083216322 -0.0013170319485855102 0 -0.034440288282112284 -0.001480795670582125 0 -0.034295917580461695 -0.0012591620177954729 0 -0.034439510731032186 -0.0012309536382325193 0 -0.034440288282112284 -0.001480795670582125 0 -0.034664650361137014 -0.0012610733968251206 0 -0.034750880466308733 -0.0013213710619462589 0 -0.034626840693988102 -0.0014384848827191734 0 -0.03455743083216322 -0.0013170319485855102 0 -0.034664650361137014 -0.0012610733968251206 0 -0.034626840693988102 -0.0014384848827191734 0 -0.034578233455645299 -0.0012071738186431281 0 -0.03455743083216322 -0.0013170319485855102 0 -0.034664650361137014 -0.0012610733968251206 0 -0.034691766449242809 -0.0011508901773875598 0 -0.034578233455645299 -0.0012071738186431281 0 -0.034664650361137014 -0.0012610733968251206 0 -0.034664650361137014 -0.0012610733968251206 0 -0.034738623144614469 -0.0012112872138688498 0 -0.034750880466308733 -0.0013213710619462589 0 -0.034841652037507179 -0.0012277414061881993 0 -0.034742942845116739 -0.0011028984894899064 0 -0.034738623144614469 -0.0012112872138688498 0 -0.034841652037507179 -0.0012277414061881993 0 -0.034738623144614469 -0.0012112872138688498 0 -0.034750880466308733 -0.0013213710619462589 0 -0.034691766449242809 -0.0011508901773875598 0 -0.034664650361137014 -0.0012610733968251206 0 -0.034738623144614469 -0.0012112872138688498 0 -0.034750880466308733 -0.0013213710619462589 0 -0.034626840693988102 -0.0014384848827191734 0 -0.034789776875895635 -0.0014136573279750046 0 -0.032862330986149969 -0.0015494536119769144 0 -0.032542408915535101 -0.0013606612604075963 0 -0.030356144636197294 -0.0017034667949108789 0 -0.031140361572473216 -0.0020146183913538015 0 -0.030246511082670544 -0.0020444052467616658 0 -0.030698943564643689 -0.0014679559004444215 0 -0.0309484945108148 -0.0012379233681554603 0 -0.030356144636197294 -0.0017034667949108789 0 -0.030891002848747604 -0.0015615761072743603 0 -0.03095214022391167 -0.0010210907642342914 0 -0.030356144636197294 -0.0017034667949108789 0 -0.03065200214015858 -0.0013328251615973244 0 -0.030290104152292763 -0.001441266743341673 0 -0.030356144636197294 -0.0017034667949108789 0 -0.030891002848747604 -0.0015615761072743603 0 -0.031140361572473216 -0.0020146183913538015 0 -0.030891002848747604 -0.0015615761072743603 0 -0.031140361572473216 -0.0020146183913538015 0 -0.031632766183808815 -0.0012755667668301728 0 -0.03455743083216322 -0.0013170319485855102 0 -0.034626840693988102 -0.0014384848827191734 0 -0.034440288282112284 -0.001480795670582125 0 -0.032862330986149969 -0.0015494536119769144 0 -0.033171263769210126 -0.0016142178985445253 0 -0.032042184196267934 -0.0019206088488356249 0 -0.031632766183808815 -0.0012755667668301728 0 -0.03251634391636847 -0.0013537810332757711 0 -0.031140361572473216 -0.0020146183913538015 0 -0.032042184196267934 -0.0019206088488356249 0 -0.031632766183808815 -0.0012755667668301728 0 -0.031632766183808815 -0.0012755667668301728 0 -0.031522683793706999 -0.00040822821644186715 0 -0.03095214022391167 -0.0010210907642342914 0 -0.031632766183808815 -0.0012755667668301728 0 -0.03251634391636847 -0.0013537810332757711 0 -0.032294564287960154 -0.00070882103612521002 0 -0.03140993839233043 -0.000908586672576419 0 -0.032010913575109275 -0.0010196343007506628 0 -0.031632766183808815 -0.0012755667668301728 0 -0.031522683793706999 -0.00040822821644186715 0 -0.032294564287960154 -0.00070882103612521002 0 -0.031538611664264422 -0.00092131957183825457 0 -0.03116674724167097 -0.00097143861233561497 0 -0.031829044993115195 -0.0012072906438519669 0 -0.031538611664264422 -0.00092131957183825457 0 -0.031829044993115195 -0.0012072906438519669 0 -0.031694797416644382 -0.00086571844811702094 0 -0.03140993839233043 -0.000908586672576419 0 -0.031399031081303583 -0.0009060967250735444 0 -0.030436437800511633 -0.0009215554028630268 0 -0.03065200214015858 -0.0013328251615973244 0 -0.030679552711147924 -0.00090757603060984257 0 -0.030929411597377984 -0.00094526940036938282 0 -0.03065200214015858 -0.0013328251615973244 0 -0.030679552711147924 -0.00090757603060984257 0 -0.031002905004307656 -0.00097216111308627421 0 -0.030929411597377984 -0.00094526940036938282 0 -0.03065200214015858 -0.0013328251615973244 0 -0.03140993839233043 -0.000908586672576419 0 -0.0309484945108148 -0.0012379233681554603 0 -0.030436437800511633 -0.0009215554028630268 0 -0.030292249610412537 -0.0012105137504539768 0 -0.03065200214015858 -0.0013328251615973244 0 -0.030436437800511633 -0.0009215554028630268 0 -0.030292249610412537 -0.0012105137504539768 0 -0.030093344475380767 -0.0010442103019346577 0 -0.030292249610412537 -0.0012105137504539768 0 -0.03065200214015858 -0.0013328251615973244 0 -0.030290104152292763 -0.001441266743341673 0 -0.030891002848747604 -0.0015615761072743603 0 -0.031632766183808815 -0.0012755667668301728 0 -0.03095214022391167 -0.0010210907642342914 0 -0.033540197584657323 -0.0015370965148114289 0 -0.033326641922409188 -0.0013450415783683345 0 -0.033528419580313343 -0.0014434951967515293 0 -0.033326641922409188 -0.0013450415783683345 0 -0.033528419580313343 -0.0014434951967515293 0 -0.03346601767406842 -0.0012615453605548566 0 -0.033637517563715601 -0.0013997395960747578 0 -0.033540197584657323 -0.0015370965148114289 0 -0.033528419580313343 -0.0014434951967515293 0 -0.03384419409089786 -0.0013014978904767834 0 -0.033637517563715601 -0.0013997395960747578 0 -0.033540197584657323 -0.0015370965148114289 0 -0.03384419409089786 -0.0013014978904767834 0 -0.033540197584657323 -0.0015370965148114289 0 -0.03415115154517042 -0.0015513638919342036 0 -0.033455572780466146 -0.0016084756614972182 0 -0.033387234899527801 -0.0016202981250507018 0 -0.033540197584657323 -0.0015370965148114289 0 -0.033165501012025117 -0.0014067892743020729 0 -0.033326641922409188 -0.0013450415783683345 0 -0.033540197584657323 -0.0015370965148114289 0 -0.033165501012025117 -0.0014067892743020729 0 -0.032836960244367032 -0.00178152079652271 0 -0.033165501012025117 -0.0014067892743020729 0 -0.032836960244367032 -0.00178152079652271 0 -0.03251634391636847 -0.0013537810332757711 0 -0.033171263769210126 -0.0016142178985445253 0 -0.033387234899527801 -0.0016202981250507018 0 -0.034295917580461695 -0.0012591620177954729 0 -0.034440288282112284 -0.001480795670582125 0 -0.03415115154517042 -0.0015513638919342036 0 -0.032042184196267934 -0.0019206088488356249 0 -0.032836960244367032 -0.00178152079652271 0 -0.03251634391636847 -0.0013537810332757711 0 -0.032010913575109275 -0.0010196343007506628 0 -0.032589651588453117 -0.0011765085119867674 0 -0.03251634391636847 -0.0013537810332757711 0 -0.032294564287960154 -0.00070882103612521002 0 -0.03299218721119114 -0.0010368432552304667 0 -0.031829044993115195 -0.0012072906438519669 0 -0.03256828378469357 -0.0013574452940850687 0 -0.032224812826972912 -0.00085969546997064763 0 -0.031829044993115195 -0.0012072906438519669 0 -0.032224812826972912 -0.00085969546997064763 0 -0.031694797416644382 -0.00086571844811702094 0 -0.03256828378469357 -0.0013574452940850687 0 -0.032906924565772017 -0.00099560389701134461 0 -0.032224812826972912 -0.00085969546997064763 0 -0.033165501012025117 -0.0014067892743020729 0 -0.03251634391636847 -0.0013537810332757711 0 -0.03299218721119114 -0.0010368432552304667 0 -0.033165501012025117 -0.0014067892743020729 0 -0.03299218721119114 -0.0010368432552304667 0 -0.033326641922409188 -0.0013450415783683345 0 -0.032589651588453117 -0.0011765085119867674 0 -0.032875755887307602 -0.001260757630338726 0 -0.03256828378469357 -0.0013574452940850687 0 -0.032906924565772017 -0.00099560389701134461 0 -0.033326641922409188 -0.0013450415783683345 0 -0.032906924565772017 -0.00099560389701134461 0 -0.033297027581024902 -0.0010410800582593238 0 -0.033326641922409188 -0.0013450415783683345 0 -0.032906924565772017 -0.00099560389701134461 0 -0.033297027581024902 -0.0010410800582593238 0 -0.033082015310356601 -0.00076857241552822102 0 -0.033297027581024902 -0.0010410800582593238 0 -0.033326641922409188 -0.0013450415783683345 0 -0.03346601767406842 -0.0012615453605548566 0 -0.033118081032264692 -0.00051966846098690526 0 -0.033082015310356601 -0.00076857241552822102 0 -0.03332998311425308 -0.00077226695920280797 0 -0.033297027581024902 -0.0010410800582593238 0 -0.033082015310356601 -0.00076857241552822102 0 -0.03332998311425308 -0.00077226695920280797 0 -0.033118081032264692 -0.00051966846098690526 0 -0.033082015310356601 -0.00076857241552822102 0 -0.03256742610271985 -0.00047326227429377211 0 -0.032906924565772017 -0.00099560389701134461 0 -0.033082015310356601 -0.00076857241552822102 0 -0.03256742610271985 -0.00047326227429377211 0 -0.032825681324475692 -0.00050470562800685522 0 -0.032381326500169401 -0.00054892206379750263 0 -0.032703698781994327 -0.00053038889864570507 0 -0.032163469642305133 -0.00058355539199494695 0 -0.032337119559895065 -0.00015215760055148814 0 -0.032163469642305133 -0.00058355539199494695 0 -0.031887354168047652 -0.000449530887184593 0 -0.031927138236777577 -0.00018464431310537567 0 -0.032906924565772017 -0.00099560389701134461 0 -0.03256742610271985 -0.00047326227429377211 0 -0.032224812826972912 -0.00085969546997064763 0 -0.032381326500169401 -0.00054892206379750263 0 -0.032089317409823619 -0.00058093245998817487 0 -0.03256742610271985 -0.00047326227429377211 0 -0.032224812826972912 -0.00085969546997064763 0 -0.031710102369679236 -0.00059481877379040946 0 -0.032224812826972912 -0.00085969546997064763 0 -0.031694797416644382 -0.00086571844811702094 0 -0.031710102369679236 -0.00059481877379040946 0 -0.031887354168047652 -0.000449530887184593 0 -0.031710102369679236 -0.00059481877379040946 0 -0.031630059512402373 -0.00045455375035679429 0 -0.032163469642305133 -0.00058355539199494695 0 -0.031887354168047652 -0.000449530887184593 0 -0.031710102369679236 -0.00059481877379040946 0 -0.031887354168047652 -0.000449530887184593 0 -0.0316734973001312 -0.00026156747800252269 0 -0.031630059512402373 -0.00045455375035679429 0 -0.0316734973001312 -0.00026156747800252269 0 -0.031927138236777577 -0.00018464431310537567 0 -0.031480334863654306 5.0775644993906152e-05 0 -0.031887354168047652 -0.000449530887184593 0 -0.0316734973001312 -0.00026156747800252269 0 -0.031927138236777577 -0.00018464431310537567 0 -0.031927138236777577 -0.00018464431310537567 0 -0.032018486851363423 0.00025850156150924439 0 -0.031480334863654306 5.0775644993906152e-05 0 -0.032018486851363423 0.00025850156150924439 0 -0.031480334863654306 5.0775644993906152e-05 0 -0.031429085821254352 0.00075715272495796983 0 -0.031927138236777577 -0.00018464431310537567 0 -0.032018486851363423 0.00025850156150924439 0 -0.032337119559895065 -0.00015215760055148814 0 -0.032163469642305133 -0.00058355539199494695 0 -0.031927138236777577 -0.00018464431310537567 0 -0.032337119559895065 -0.00015215760055148814 0 -0.032703698781994327 -0.00053038889864570507 0 -0.032337119559895065 -0.00015215760055148814 0 -0.032663141685409756 -8.5028200273708628e-05 0 -0.032337119559895065 -0.00015215760055148814 0 -0.032517830376853907 0.00021403606546879661 0 -0.032663141685409756 -8.5028200273708628e-05 0 -0.032018486851363423 0.00025850156150924439 0 -0.032337119559895065 -0.00015215760055148814 0 -0.032517830376853907 0.00021403606546879661 0 -0.032517830376853907 0.00021403606546879661 0 -0.032799050443598966 0.00012407735931621754 0 -0.032663141685409756 -8.5028200273708628e-05 0 -0.032799050443598966 0.00012407735931621754 0 -0.032663141685409756 -8.5028200273708628e-05 0 -0.032955601030404819 -0.00010621035467714342 0 -0.032703698781994327 -0.00053038889864570507 0 -0.032663141685409756 -8.5028200273708628e-05 0 -0.032955601030404819 -0.00010621035467714342 0 -0.030911867002497921 -0.0005470036062700795 0 -0.031076474696297946 -0.00034737857576641428 0 -0.030638141642459604 -0.00026511185795796607 0 -0.030699063713620862 -0.00069968410523587449 0 -0.030911867002497921 -0.0005470036062700795 0 -0.030638141642459604 -0.00026511185795796607 0 -0.030351844075605167 -0.00058761709864406657 0 -0.030699063713620862 -0.00069968410523587449 0 -0.030638141642459604 -0.00026511185795796607 0 -0.030351844075605167 -0.00058761709864406657 0 -0.030638141642459604 -0.00026511185795796607 0 -0.030092062335633701 -0.00029934126098133074 0 -0.030436437800511633 -0.0009215554028630268 0 -0.030351844075605167 -0.00058761709864406657 0 -0.030699063713620862 -0.00069968410523587449 0 -0.030436437800511633 -0.0009215554028630268 0 -0.030679552711147924 -0.00090757603060984257 0 -0.030699063713620862 -0.00069968410523587449 0 -0.030929411597377984 -0.00094526940036938282 0 -0.030679552711147924 -0.00090757603060984257 0 -0.030699063713620862 -0.00069968410523587449 0 -0.031011573493015757 -0.00098057507319834433 0 -0.030929411597377984 -0.00094526940036938282 0 -0.031051297189979 -0.00078509370691281827 0 -0.030699063713620862 -0.00069968410523587449 0 -0.031051297189979 -0.00078509370691281827 0 -0.030911867002497921 -0.0005470036062700795 0 -0.030929411597377984 -0.00094526940036938282 0 -0.030699063713620862 -0.00069968410523587449 0 -0.031051297189979 -0.00078509370691281827 0 -0.03140993839233043 -0.000908586672576419 0 -0.031459715868947004 -0.00079122343491573588 0 -0.031538611664264422 -0.00092131957183825457 0 -0.03116674724167097 -0.00097143861233561497 0 -0.031467615694941692 -0.0006570852394164532 0 -0.031011573493015757 -0.00098057507319834433 0 -0.031051297189979 -0.00078509370691281827 0 -0.031280167638738962 -0.00075275337711055632 0 -0.031051297189979 -0.00078509370691281827 0 -0.031280167638738962 -0.00075275337711055632 0 -0.031123199375238733 -0.00060318200070980555 0 -0.031051297189979 -0.00078509370691281827 0 -0.030911867002497921 -0.0005470036062700795 0 -0.031123199375238733 -0.00060318200070980555 0 -0.031538611664264422 -0.00092131957183825457 0 -0.031694797416644382 -0.00086571844811702094 0 -0.031467615694941692 -0.0006570852394164532 0 -0.031467615694941692 -0.0006570852394164532 0 -0.031710102369679236 -0.00059481877379040946 0 -0.031630059512402373 -0.00045455375035679429 0 -0.031694797416644382 -0.00086571844811702094 0 -0.031467615694941692 -0.0006570852394164532 0 -0.031710102369679236 -0.00059481877379040946 0 -0.031459715868947004 -0.00079122343491573588 0 -0.031515554375662017 -0.00071143451132614543 0 -0.031280167638738962 -0.00075275337711055632 0 -0.031630059512402373 -0.00045455375035679429 0 -0.031298591375391344 -0.00047688537185750521 0 -0.031630059512402373 -0.00045455375035679429 0 -0.031298591375391344 -0.00047688537185750521 0 -0.031388761600046819 -0.0002398050164906524 0 -0.031298591375391344 -0.00047688537185750521 0 -0.031076474696297946 -0.00034737857576641428 0 -0.031388761600046819 -0.0002398050164906524 0 -0.0316734973001312 -0.00026156747800252269 0 -0.031630059512402373 -0.00045455375035679429 0 -0.031388761600046819 -0.0002398050164906524 0 -0.030911867002497921 -0.0005470036062700795 0 -0.031123199375238733 -0.00060318200070980555 0 -0.031076474696297946 -0.00034737857576641428 0 -0.031280167638738962 -0.00075275337711055632 0 -0.031298591375391344 -0.00047688537185750521 0 -0.031123199375238733 -0.00060318200070980555 0 -0.031298591375391344 -0.00047688537185750521 0 -0.031123199375238733 -0.00060318200070980555 0 -0.031076474696297946 -0.00034737857576641428 0 -0.031076474696297946 -0.00034737857576641428 0 -0.030992488740789571 -1.8263766992842202e-05 0 -0.031388761600046819 -0.0002398050164906524 0 -0.031076474696297946 -0.00034737857576641428 0 -0.030992488740789571 -1.8263766992842202e-05 0 -0.030638141642459604 -0.00026511185795796607 0 -0.030992488740789571 -1.8263766992842202e-05 0 -0.031388761600046819 -0.0002398050164906524 0 -0.031480334863654306 5.0775644993906152e-05 0 -0.0316734973001312 -0.00026156747800252269 0 -0.031388761600046819 -0.0002398050164906524 0 -0.031480334863654306 5.0775644993906152e-05 0 -0.030992488740789571 -1.8263766992842202e-05 0 -0.031480334863654306 5.0775644993906152e-05 0 -0.030848947523535238 0.00045426261870307102 0 -0.030992488740789571 -1.8263766992842202e-05 0 -0.030625979994953464 0.00019726939643193646 0 -0.030848947523535238 0.00045426261870307102 0 -0.030992488740789571 -1.8263766992842202e-05 0 -0.030625979994953464 0.00019726939643193646 0 -0.030638141642459604 -0.00026511185795796607 0 -0.030625979994953464 0.00019726939643193646 0 -0.030638141642459604 -0.00026511185795796607 0 -0.030227765693323735 0.00016981846756770547 0 -0.030638141642459604 -0.00026511185795796607 0 -0.030227765693323735 0.00016981846756770547 0 -0.030092062335633701 -0.00029934126098133074 0 -0.030625979994953464 0.00019726939643193646 0 -0.030227765693323735 0.00016981846756770547 0 -0.03046956250163806 0.00058540027362769594 0 -0.030227765693323735 0.00016981846756770547 0 -0.029927054310776868 0.00030450523259149164 0 -0.029758622320069105 1.8777437996873816e-05 0 -0.029927054310776868 0.00030450523259149164 0 -0.029758622320069105 1.8777437996873816e-05 0 -0.029669970867580192 0.00043865274532159246 0 -0.029758622320069105 1.8777437996873816e-05 0 -0.029712559554811824 -0.00038496524481323237 0 -0.029363535713970809 -0.00014043379047984665 0 -0.029758622320069105 1.8777437996873816e-05 0 -0.030092062335633701 -0.00029934126098133074 0 -0.029712559554811824 -0.00038496524481323237 0 -0.030227765693323735 0.00016981846756770547 0 -0.029758622320069105 1.8777437996873816e-05 0 -0.030092062335633701 -0.00029934126098133074 0 -0.030351844075605167 -0.00058761709864406657 0 -0.030092062335633701 -0.00029934126098133074 0 -0.029886176521389668 -0.00075301802028015369 0 -0.030092062335633701 -0.00029934126098133074 0 -0.029712559554811824 -0.00038496524481323237 0 -0.029886176521389668 -0.00075301802028015369 0 -0.029712559554811824 -0.00038496524481323237 0 -0.029886176521389668 -0.00075301802028015369 0 -0.029368937629382225 -0.00058381125790132578 0 -0.029838481538902655 -0.0007042504057127876 0 -0.029334225493558783 -0.00053887085120493769 0 -0.030436437800511633 -0.0009215554028630268 0 -0.030351844075605167 -0.00058761709864406657 0 -0.029886176521389668 -0.00075301802028015369 0 -0.030114092733371445 -0.00079497604827399382 0 -0.029838481538902655 -0.0007042504057127876 0 -0.028996448190373 -0.00053368271337428895 0 -0.029153254242526599 -0.0007653296480964665 0 -0.02887970011188561 -0.0009369704970257956 0 -0.028996448190373 -0.00053368271337428895 0 -0.029153254242526599 -0.0007653296480964665 0 -0.029344245580596243 -0.00049911835328776341 0 -0.029922980494463652 -0.00070640323227155115 0 -0.029344245580596243 -0.00049911835328776341 0 -0.029390108954429613 -0.00085466384979620918 0 -0.029153254242526599 -0.0007653296480964665 0 -0.029344245580596243 -0.00049911835328776341 0 -0.029390108954429613 -0.00085466384979620918 0 -0.029712559554811824 -0.00038496524481323237 0 -0.029368937629382225 -0.00058381125790132578 0 -0.029363535713970809 -0.00014043379047984665 0 -0.029368937629382225 -0.00058381125790132578 0 -0.02890486579612897 -0.00034814012067530599 0 -0.028776949782399048 -0.00039303245399259506 0 -0.029334225493558783 -0.00053887085120493769 0 -0.028791250705550189 -0.00036366326770591897 0 -0.028996448190373 -0.00053368271337428895 0 -0.029344245580596243 -0.00049911835328776341 0 -0.028729907934019843 -0.00029369687858696796 0 -0.029368937629382225 -0.00058381125790132578 0 -0.029363535713970809 -0.00014043379047984665 0 -0.02890486579612897 -0.00034814012067530599 0 -0.029363535713970809 -0.00014043379047984665 0 -0.029072963311422114 0.00010929846233824012 0 -0.02890486579612897 -0.00034814012067530599 0 -0.026037003444621554 0.00092952827382386603 0 -0.026639534730994122 0.0005016800810043688 0 -0.029758622320069105 1.8777437996873816e-05 0 -0.029366612195303874 0.00028412884526783362 0 -0.029669970867580192 0.00043865274532159246 0 -0.029758622320069105 1.8777437996873816e-05 0 -0.029363535713970809 -0.00014043379047984665 0 -0.029366612195303874 0.00028412884526783362 0 -0.026037003444621554 0.00092952827382386603 0 -0.023780710507303317 0.0019713352112731707 0 -0.029366612195303874 0.00028412884526783362 0 -0.029072963311422114 0.00010929846233824012 0 -0.029213547371296566 0.00054419213893726489 0 -0.029363535713970809 -0.00014043379047984665 0 -0.029366612195303874 0.00028412884526783362 0 -0.029072963311422114 0.00010929846233824012 0 -0.028246816943151627 0.0006443350540765141 0 -0.028654511232705425 8.9813222976636289e-05 0 -0.02881290511406057 0.00072892192243318669 0 -0.029019401469898547 0.00036885462151077509 0 -0.028654511232705425 8.9813222976636289e-05 0 -0.02881290511406057 0.00072892192243318669 0 -0.028246816943151627 0.0006443350540765141 0 -0.028216305774626003 0.00021202861800185562 0 -0.028654511232705425 8.9813222976636289e-05 0 -0.028216305774626003 0.00021202861800185562 0 -0.028654511232705425 8.9813222976636289e-05 0 -0.028031211089127126 -0.0001149408708782526 0 -0.028654511232705425 8.9813222976636289e-05 0 -0.028031211089127126 -0.0001149408708782526 0 -0.028776949782399048 -0.00039303245399259506 0 -0.029019401469898547 0.00036885462151077509 0 -0.028654511232705425 8.9813222976636289e-05 0 -0.02890486579612897 -0.00034814012067530599 0 -0.010141310269342049 0.0074723749986796064 0 -0.010104917496774011 0.0079284349596225011 0 -0.0097004495362093962 0.0074422464530555761 0 -0.010104917496774011 0.0079284349596225011 0 -0.0097004495362093962 0.0074422464530555761 0 -0.0095624829760400411 0.0080143157802438705 0 -0.0089856367376922614 0.0074725530872558473 0 -0.0097004495362093962 0.0074422464530555761 0 -0.0095624829760400411 0.0080143157802438705 0 -0.028246816943151627 0.0006443350540765141 0 -0.028216305774626003 0.00021202861800185562 0 -0.027738647024747137 0.00012238277226283913 0 -0.018588375790520837 0.0040647495389667387 0 -0.018585846456867207 0.0041434371434185997 0 -0.027738647024747137 0.00012238277226283913 0 -0.027729025391162135 -0.0002788763689255874 0 -0.028031211089127126 -0.0001149408708782526 0 -0.028216305774626003 0.00021202861800185562 0 -0.027738647024747137 0.00012238277226283913 0 -0.028031211089127126 -0.0001149408708782526 0 -0.010104917496774011 0.0079284349596225011 0 -0.010111006480462153 0.0085490717762903169 0 -0.0095624829760400411 0.0080143157802438705 0 -0.027265219494753874 -0.00035739984155187685 0 -0.027738647024747137 0.00012238277226283913 0 -0.027729025391162135 -0.0002788763689255874 0 -0.027265219494753874 -0.00035739984155187685 0 -0.027729025391162135 -0.0002788763689255874 0 -0.027661200670793435 -0.00056044104537833852 0 -0.018563810163448612 0.0042971692009278629 0 -0.018585846456867207 0.0041434371434185997 0 -0.027729025391162135 -0.0002788763689255874 0 -0.027955290558008206 -0.00048092765249200316 0 -0.027661200670793435 -0.00056044104537833852 0 -0.027729025391162135 -0.0002788763689255874 0 -0.028031211089127126 -0.0001149408708782526 0 -0.027955290558008206 -0.00048092765249200316 0 -0.028031211089127126 -0.0001149408708782526 0 -0.027955290558008206 -0.00048092765249200316 0 -0.028184298864129268 -0.00040603268569897386 0 -0.027955290558008206 -0.00048092765249200316 0 -0.027853614188379644 -0.00081588811297027438 0 -0.02827535139900714 -0.00070325411247288533 0 -0.027853614188379644 -0.00081588811297027438 0 -0.02827535139900714 -0.00070325411247288533 0 -0.02809254790621759 -0.0010749769085840034 0 -0.027955290558008206 -0.00048092765249200316 0 -0.027853614188379644 -0.00081588811297027438 0 -0.027661200670793435 -0.00056044104537833852 0 -0.027853614188379644 -0.00081588811297027438 0 -0.027433230477576075 -0.00083749787126010419 0 -0.027661200670793435 -0.00056044104537833852 0 -0.027265219494753874 -0.00035739984155187685 0 -0.027433230477576075 -0.00083749787126010419 0 -0.027661200670793435 -0.00056044104537833852 0 -0.028654511232705425 8.9813222976636289e-05 0 -0.02890486579612897 -0.00034814012067530599 0 -0.028776949782399048 -0.00039303245399259506 0 -0.028729907934019843 -0.00029369687858696796 0 -0.028478974281014133 -0.00032786653164224694 0 -0.028609411845033836 -0.00049061647260688248 0 -0.028729907934019843 -0.00029369687858696796 0 -0.028609411845033836 -0.00049061647260688248 0 -0.028757979556358323 -0.00049820088404394511 0 -0.028996448190373 -0.00053368271337428895 0 -0.028729907934019843 -0.00029369687858696796 0 -0.028757979556358323 -0.00049820088404394511 0 -0.028031211089127126 -0.0001149408708782526 0 -0.028729907934019843 -0.00029369687858696796 0 -0.028478974281014133 -0.00032786653164224694 0 -0.028454838622494715 -0.00025703137254036652 0 -0.028791250705550189 -0.00036366326770591897 0 -0.028031211089127126 -0.0001149408708782526 0 -0.028184298864129268 -0.00040603268569897386 0 -0.028478974281014133 -0.00032786653164224694 0 -0.028184298864129268 -0.00040603268569897386 0 -0.028478974281014133 -0.00032786653164224694 0 -0.02827535139900714 -0.00070325411247288533 0 -0.028478974281014133 -0.00032786653164224694 0 -0.028348740725944593 -0.0006741862101991039 0 -0.028609411845033836 -0.00049061647260688248 0 -0.028832686992196627 -0.00060008979040845662 0 -0.028881332592219405 -0.00061310961341702315 0 -0.027955290558008206 -0.00048092765249200316 0 -0.028184298864129268 -0.00040603268569897386 0 -0.02827535139900714 -0.00070325411247288533 0 -0.028348740725944593 -0.0006741862101991039 0 -0.028693859954008055 -0.00066930975345873224 0 -0.028511132121703284 -0.00095442687358235161 0 -0.028996448190373 -0.00053368271337428895 0 -0.028693859954008055 -0.00066930975345873224 0 -0.02887970011188561 -0.0009369704970257956 0 -0.028348740725944593 -0.0006741862101991039 0 -0.028693859954008055 -0.00066930975345873224 0 -0.028609411845033836 -0.00049061647260688248 0 -0.028693859954008055 -0.00066930975345873224 0 -0.028609411845033836 -0.00049061647260688248 0 -0.028757979556358323 -0.00049820088404394511 0 -0.028996448190373 -0.00053368271337428895 0 -0.028693859954008055 -0.00066930975345873224 0 -0.028757979556358323 -0.00049820088404394511 0 -0.028674252704302513 -0.0011291133847884905 0 -0.028511132121703284 -0.00095442687358235161 0 -0.028492912852006454 -0.0013265031322867798 0 -0.02887970011188561 -0.0009369704970257956 0 -0.028674252704302513 -0.0011291133847884905 0 -0.028511132121703284 -0.00095442687358235161 0 -0.028693859954008055 -0.00066930975345873224 0 -0.02887970011188561 -0.0009369704970257956 0 -0.028511132121703284 -0.00095442687358235161 0 -0.02887970011188561 -0.0009369704970257956 0 -0.028850449058405017 -0.0011858092206632604 0 -0.028674252704302513 -0.0011291133847884905 0 -0.028511132121703284 -0.00095442687358235161 0 -0.028194940116303493 -0.0010127345399692743 0 -0.028492912852006454 -0.0013265031322867798 0 -0.028348740725944593 -0.0006741862101991039 0 -0.028511132121703284 -0.00095442687358235161 0 -0.028194940116303493 -0.0010127345399692743 0 -0.028881332592219405 -0.00061310961341702315 0 -0.029160894105454204 -0.00039551264745129987 0 -0.029160894105454204 -0.00039551264745129987 0 -0.029795362537671555 -0.00035322001714866255 0 -0.030321907654829495 0.00027108772936564344 0 -0.030593104462859604 0.00034840965930680955 0 -0.030412259798185733 0.00045376466029822414 0 -0.030476667694038347 0.00010295381616528254 0 -0.030321907654829495 0.00027108772936564344 0 -0.030593104462859604 0.00034840965930680955 0 -0.030321907654829495 0.00027108772936564344 0 -0.030295312268408425 0.00042795690470407186 0 -0.030412259798185733 0.00045376466029822414 0 -0.030321907654829495 0.00027108772936564344 0 -0.030166196786435805 0.00043869793596551938 0 -0.030295312268408425 0.00042795690470407186 0 -0.029795362537671555 -0.00035322001714866255 0 -0.030650637707268773 -0.00037083789151258739 0 -0.028492912852006454 -0.0013265031322867798 0 -0.028739127453689593 -0.0013390560563292511 0 -0.028794083148885128 -0.0016423894626067408 0 -0.028874139751379396 -0.0014732648594731033 0 -0.028739127453689593 -0.0013390560563292511 0 -0.028926079303038293 -0.0013271641613536163 0 -0.028874139751379396 -0.0014732648594731033 0 -0.028739127453689593 -0.0013390560563292511 0 -0.028794083148885128 -0.0016423894626067408 0 -0.028850449058405017 -0.0011858092206632604 0 -0.028739127453689593 -0.0013390560563292511 0 -0.028926079303038293 -0.0013271641613536163 0 -0.028850449058405017 -0.0011858092206632604 0 -0.028674252704302513 -0.0011291133847884905 0 -0.028739127453689593 -0.0013390560563292511 0 -0.028674252704302513 -0.0011291133847884905 0 -0.028492912852006454 -0.0013265031322867798 0 -0.028739127453689593 -0.0013390560563292511 0 -0.027853614188379644 -0.00081588811297027438 0 -0.027433230477576075 -0.00083749787126010419 0 -0.027647067014093005 -0.0011768758857925391 0 -0.027193463630892013 -0.0012224532545087887 0 -0.027433230477576075 -0.00083749787126010419 0 -0.027647067014093005 -0.0011768758857925391 0 -0.027853614188379644 -0.00081588811297027438 0 -0.028064818357640898 -0.0010440056592639865 0 -0.027647067014093005 -0.0011768758857925391 0 -0.029016434270834775 -0.00036980156197267776 0 -0.029160894105454204 -0.00039551264745129987 0 -0.029160894105454204 -0.00039551264745129987 0 -0.028859653521115112 -1.2498491868820725e-05 0 -0.028064818357640898 -0.0010440056592639865 0 -0.027647067014093005 -0.0011768758857925391 0 -0.02783855233024941 -0.0015128236653683873 0 -0.027647067014093005 -0.0011768758857925391 0 -0.02783855233024941 -0.0015128236653683873 0 -0.027455085302997138 -0.0015137068618218123 0 -0.027193463630892013 -0.0012224532545087887 0 -0.027647067014093005 -0.0011768758857925391 0 -0.027455085302997138 -0.0015137068618218123 0 -0.02783855233024941 -0.0015128236653683873 0 -0.027455085302997138 -0.0015137068618218123 0 -0.02761287179475494 -0.0019880640947298246 0 -0.026979806330454648 -0.0016694136931884058 0 -0.027455085302997138 -0.0015137068618218123 0 -0.02761287179475494 -0.0019880640947298246 0 -0.028859653521115112 -1.2498491868820725e-05 0 -0.028676421487869211 0.0011815059904181102 0 -0.030593104462859604 0.00034840965930680955 0 -0.03053293405158097 0.00054856174944360866 0 -0.030412259798185733 0.00045376466029822414 0 -0.030593104462859604 0.00034840965930680955 0 -0.03053293405158097 0.00054856174944360866 0 -0.030706292635206661 0.00059317367697040747 0 -0.03053293405158097 0.00054856174944360866 0 -0.030502611906795329 0.00060429732573158044 0 -0.030434970300835022 0.00057694214342484187 0 -0.030774693736713581 0.00080082483186681231 0 -0.030628990521290981 0.00073230144735657613 0 -0.030644838501456311 0.00075387898607907455 0 -0.030774693736713581 0.00080082483186681231 0 -0.030502560877174848 0.00067330041157908391 0 -0.030614695308105139 0.00064026747048092421 0 -0.030830607126382279 0.00041564908607444941 0 -0.030799532096578972 0.00026139640635194786 0 -0.030539969770057664 0.0006178560025151945 0 -0.030502560877174848 0.00067330041157908391 0 -0.030614695308105139 0.00064026747048092421 0 -0.03053293405158097 0.00054856174944360866 0 -0.030502611906795329 0.00060429732573158044 0 -0.030539969770057664 0.0006178560025151945 0 -0.03053293405158097 0.00054856174944360866 0 -0.030539969770057664 0.0006178560025151945 0 -0.030614695308105139 0.00064026747048092421 0 -0.030502611906795329 0.00060429732573158044 0 -0.030539969770057664 0.0006178560025151945 0 -0.030502560877174848 0.00067330041157908391 0 -0.03053293405158097 0.00054856174944360866 0 -0.030614695308105139 0.00064026747048092421 0 -0.030706292635206661 0.00059317367697040747 0 -0.02887617343052307 0.0010924994933031479 0 -0.028676421487869211 0.0011815059904181102 0 -0.030774693736713581 0.00080082483186681231 0 -0.030614695308105139 0.00064026747048092421 0 -0.030698684906286047 0.00060254150226649744 0 -0.029361217411908339 0.0018757271981891851 0 -0.028676421487869211 0.0011815059904181102 0 -0.028320140190325152 0.0031585447751183494 0 -0.028339151137945943 0.0030231262641876059 0 -0.028514142474665435 0.0033230004281667065 0 -0.028320140190325152 0.0031585447751183494 0 -0.028336786850281105 0.0032974879219431876 0 -0.028514142474665435 0.0033230004281667065 0 -0.030204701425399438 0.00052092654447210196 0 -0.030295312268408425 0.00042795690470407186 0 -0.030344150676298805 0.00053473610474590646 0 -0.031353339012547492 -0.00016982167176392277 0 -0.03141591609425809 -0.00013725807631763404 0 -0.031412202892534657 -0.00024306183002348105 0 -0.030937932213044538 -0.00017545582863638632 0 -0.030841768235845422 -0.00037005438320178002 0 -0.030578364965708014 -0.00037453876930574969 0 -0.030596021875141623 -0.00033710674686445856 0 -0.030613809215737468 -0.00035619165122932926 0 -0.030937932213044538 -0.00017545582863638632 0 -0.030650637707268773 -0.00037083789151258739 0 -0.028794893839196027 -0.001642953327187107 0 -0.028868716425394639 -0.0017227238847336752 0 -0.02894802502087112 -0.0015648446124938951 0 -0.030650637707268773 -0.00037083789151258739 0 -0.030841768235845422 -0.00037005438320178002 0 -0.030547731556264716 -0.00051971875531970507 0 -0.030650637707268773 -0.00037083789151258739 0 -0.028874139751379396 -0.0014732648594731033 0 -0.028794893839196027 -0.001642953327187107 0 -0.02894802502087112 -0.0015648446124938951 0 -0.030204701425399438 0.00052092654447210196 0 -0.030166196786435805 0.00043869793596551938 0 -0.030295312268408425 0.00042795690470407186 0 -0.030295312268408425 0.00042795690470407186 0 -0.030412259798185733 0.00045376466029822414 0 -0.030344150676298805 0.00053473610474590646 0 -0.030502560877174848 0.00067330041157908391 0 -0.030204701425399438 0.00052092654447210196 0 -0.030344150676298805 0.00053473610474590646 0 -0.03053293405158097 0.00054856174944360866 0 -0.030412259798185733 0.00045376466029822414 0 -0.030434970300835022 0.00057694214342484187 0 -0.030412259798185733 0.00045376466029822414 0 -0.030344150676298805 0.00053473610474590646 0 -0.030434970300835022 0.00057694214342484187 0 -0.030628990521290981 0.00073230144735657613 0 -0.030517005163235609 0.00066965413593370114 0 -0.030576031837223999 0.00072786854459545738 0 -0.031341000754262459 0.00026925392646874461 0 -0.031895726430910716 0.00020831967591236123 0 -0.030799532096578972 0.00026139640635194786 0 -0.030937932213044538 -0.00017545582863638632 0 -0.030644838501456311 0.00075387898607907455 0 -0.030576031837223999 0.00072786854459545738 0 -0.030550407529192053 0.00074478577535342489 0 -0.030610702867540938 0.00078779424855669646 0 -0.030644838501456311 0.00075387898607907455 0 -0.030512913438630034 0.00074605129889988636 0 -0.030502611906795329 0.00060429732573158044 0 -0.030502560877174848 0.00067330041157908391 0 -0.030434970300835022 0.00057694214342484187 0 -0.030502560877174848 0.00067330041157908391 0 -0.030344150676298805 0.00053473610474590646 0 -0.030434970300835022 0.00057694214342484187 0 -0.030628990521290981 0.00073230144735657613 0 -0.030644838501456311 0.00075387898607907455 0 -0.030576031837223999 0.00072786854459545738 0 -0.030576031837223999 0.00072786854459545738 0 -0.030550407529192053 0.00074478577535342489 0 -0.030545190405299325 0.00073327353581438103 0 -0.031670758724196869 0.00013521149741952911 0 -0.03175484771424715 0.00011233811229286612 0 -0.031895726430910716 0.00020831967591236123 0 -0.032221584564395209 -0.0001108725783940999 0 -0.03175484771424715 0.00011233811229286612 0 -0.032221584564395209 -0.0001108725783940999 0 -0.03167146343795308 -8.7216340325160793e-05 0 -0.031715731327655067 6.1405018237620504e-06 0 -0.032114696597702462 -7.0244417009020902e-05 0 -0.031895726430910716 0.00020831967591236123 0 -0.03175484771424715 0.00011233811229286612 0 -0.030937932213044538 -0.00017545582863638632 0 -0.03175484771424715 0.00011233811229286612 0 -0.031353339012547492 -0.00016982167176392277 0 -0.031292069927231256 -0.00029970640362955253 0 -0.031412202892534657 -0.00024306183002348105 0 -0.030517005163235609 0.00066965413593370114 0 -0.030576031837223999 0.00072786854459545738 0 -0.030545923380097727 0.00073305552410225816 0 -0.031292069927231256 -0.00029970640362955253 0 -0.031412202892534657 -0.00024306183002348105 0 -0.031394559032984985 -0.00031963533273003609 0 -0.030841768235845422 -0.00037005438320178002 0 -0.03193615610945872 -0.00050489985965047229 0 -0.031412202892534657 -0.00024306183002348105 0 -0.031394559032984985 -0.00031963533273003609 0 -0.031579516046213431 -0.00031305590809783376 0 -0.032331797245991924 -0.00024178088498889497 0 -0.032218465314507068 -0.00024768463160728494 0 -0.032209909190204652 -0.00023860166807835196 0 -0.031522356190141251 -0.00044375362898077921 0 -0.031505108222564152 -0.00036756178606480599 0 -0.031534580531574319 -0.00044329480747844078 0 -0.032331797245991924 -0.00024178088498889497 0 -0.032209909190204652 -0.00023860166807835196 0 -0.03218300210603646 -0.000215315805512534 0 -0.03141591609425809 -0.00013725807631763404 0 -0.031412202892534657 -0.00024306183002348105 0 -0.031579516046213431 -0.00031305590809783376 0 -0.032221584564395209 -0.0001108725783940999 0 -0.032798360688376306 -0.00075909828959666375 0 -0.032221584564395209 -0.0001108725783940999 0 -0.03193615610945872 -0.00050489985965047229 0 -0.03193615610945872 -0.00050489985965047229 0 -0.031936618220313705 -0.00050442390556956231 0 -0.02914321414778585 -0.0015561898358899858 0 -0.029298897217018127 -0.0016012312475312952 0 -0.029344096744742539 -0.0020700581849218361 0 -0.031011635413278872 -0.00075499142512540807 0 -0.032153761902484049 -0.00056858034144241531 0 -0.031468266545669157 -0.00038658532341840317 0 -0.031522356190141251 -0.00044375362898077921 0 -0.031505108222564152 -0.00036756178606480599 0 -0.029201496588677805 -0.0015283201827118059 0 -0.029298897217018127 -0.0016012312475312952 0 -0.029324555009627579 -0.0014778769653347411 0 -0.029201496588677805 -0.0015283201827118059 0 -0.02914321414778585 -0.0015561898358899858 0 -0.029298897217018127 -0.0016012312475312952 0 -0.030984423371989395 -0.00076850911862924229 0 -0.031011635413278872 -0.00075499142512540807 0 -0.028868716425394639 -0.0017227238847336752 0 -0.029137530440174891 -0.0015836937479426548 0 -0.02894802502087112 -0.0015648446124938951 0 -0.030841768235845422 -0.00037005438320178002 0 -0.031011635413278872 -0.00075499142512540807 0 -0.031383543267815533 -0.00077125525591791998 0 -0.032284746753375698 -0.00090723515493231497 0 -0.029298897217018127 -0.0016012312475312952 0 -0.029627083925585978 -0.0020387837016243842 0 -0.02962170988747544 -0.001687548401992586 0 -0.029461225915367404 -0.001533665023148077 0 -0.029298897217018127 -0.0016012312475312952 0 -0.02962170988747544 -0.001687548401992586 0 -0.029461225915367404 -0.001533665023148077 0 -0.02962170988747544 -0.001687548401992586 0 -0.029615694830179298 -0.0015245964423231863 0 -0.029461225915367404 -0.001533665023148077 0 -0.029298897217018127 -0.0016012312475312952 0 -0.029324555009627579 -0.0014778769653347411 0 -0.032508131400122924 -0.00079156609044592359 0 -0.032850661447036987 -0.00085609252475650488 0 -0.032638697671472809 -0.00096904298893785016 0 -0.029298897217018127 -0.0016012312475312952 0 -0.029344096744742539 -0.0020700581849218361 0 -0.02964547094855105 -0.0020578568049841035 0 -0.032218603022551175 -0.00024809143752413859 0 -0.032209909190204652 -0.00023860166807835196 0 -0.032195490093044433 -0.00024892366983553162 0 -0.03193615610945872 -0.00050489985965047229 0 -0.032153761902484049 -0.00056858034144241531 0 -0.032153761902484049 -0.00056858034144241531 0 -0.032798360688376306 -0.00075909828959666375 0 -0.032209909190204652 -0.00023860166807835196 0 -0.032195490093044433 -0.00024892366983553162 0 -0.03218300210603646 -0.000215315805512534 0 -0.032889169877436016 -0.0009587086044648863 0 -0.032850661447036987 -0.00085609252475650488 0 -0.032638697671472809 -0.00096904298893785016 0 -0.032153761902484049 -0.00056858034144241531 0 -0.032284746753375698 -0.00090723515493231497 0 -0.032284746753375698 -0.00090723515493231497 0 -0.032542408915535101 -0.0013606612604075963 0 -0.033521403892277618 -0.0012726497267108662 0 -0.032284746753375698 -0.00090723515493231497 0 -0.029627083925585978 -0.0020387837016243842 0 -0.02992853912094403 -0.0018561465466142275 0 -0.02962170988747544 -0.001687548401992586 0 -0.029627083925585978 -0.0020387837016243842 0 -0.02992853912094403 -0.0018561465466142275 0 -0.030246511082670544 -0.0020444052467616658 0 -0.034896120472956864 -0.0013556953863727167 0 -0.034930319432218297 -0.0014035806288048482 0 -0.034789776875895635 -0.0014136573279750046 0 -0.02992853912094403 -0.0018561465466142275 0 -0.030246511082670544 -0.0020444052467616658 0 -0.030150992569341763 -0.0018070751453726963 0 -0.030356144636197294 -0.0017034667949108789 0 -0.030246511082670544 -0.0020444052467616658 0 -0.030150992569341763 -0.0018070751453726963 0 -0.030356144636197294 -0.0017034667949108789 0 -0.030150992569341763 -0.0018070751453726963 0 -0.030087917170078936 -0.0016349139071445337 0 -0.02992853912094403 -0.0018561465466142275 0 -0.030150992569341763 -0.0018070751453726963 0 -0.030087917170078936 -0.0016349139071445337 0 -0.030087917170078936 -0.0016349139071445337 0 -0.029836493896910083 -0.0015420400435891973 0 -0.030012930250672972 -0.0013369433751326859 0 -0.030356144636197294 -0.0017034667949108789 0 -0.030087917170078936 -0.0016349139071445337 0 -0.030290104152292763 -0.001441266743341673 0 -0.02992853912094403 -0.0018561465466142275 0 -0.02962170988747544 -0.001687548401992586 0 -0.029836493896910083 -0.0015420400435891973 0 -0.02992853912094403 -0.0018561465466142275 0 -0.030087917170078936 -0.0016349139071445337 0 -0.029836493896910083 -0.0015420400435891973 0 -0.02962170988747544 -0.001687548401992586 0 -0.029836493896910083 -0.0015420400435891973 0 -0.029615694830179298 -0.0015245964423231863 0 -0.029836493896910083 -0.0015420400435891973 0 -0.029615694830179298 -0.0015245964423231863 0 -0.029693143852388689 -0.001335925178671499 0 -0.029836493896910083 -0.0015420400435891973 0 -0.029693143852388689 -0.001335925178671499 0 -0.030012930250672972 -0.0013369433751326859 0 -0.029693143852388689 -0.001335925178671499 0 -0.030012930250672972 -0.0013369433751326859 0 -0.029853976034256064 -0.001106948413284391 0 -0.030087917170078936 -0.0016349139071445337 0 -0.030290104152292763 -0.001441266743341673 0 -0.030012930250672972 -0.0013369433751326859 0 -0.030292249610412537 -0.0012105137504539768 0 -0.030012930250672972 -0.0013369433751326859 0 -0.030093344475380767 -0.0010442103019346577 0 -0.030292249610412537 -0.0012105137504539768 0 -0.030290104152292763 -0.001441266743341673 0 -0.030012930250672972 -0.0013369433751326859 0 -0.030436437800511633 -0.0009215554028630268 0 -0.029922980494463652 -0.00070640323227155115 0 -0.030093344475380767 -0.0010442103019346577 0 -0.029922980494463652 -0.00070640323227155115 0 -0.030093344475380767 -0.0010442103019346577 0 -0.029853976034256064 -0.001106948413284391 0 -0.030012930250672972 -0.0013369433751326859 0 -0.030093344475380767 -0.0010442103019346577 0 -0.029853976034256064 -0.001106948413284391 0 -0.029922980494463652 -0.00070640323227155115 0 -0.029853976034256064 -0.001106948413284391 0 -0.029540440452956156 -0.0011038473481125479 0 -0.029922980494463652 -0.00070640323227155115 0 -0.029540440452956156 -0.0011038473481125479 0 -0.029390108954429613 -0.00085466384979620918 0 -0.029693143852388689 -0.001335925178671499 0 -0.029853976034256064 -0.001106948413284391 0 -0.029540440452956156 -0.0011038473481125479 0 -0.029540440452956156 -0.0011038473481125479 0 -0.029316140278930803 -0.0011718002851515692 0 -0.029390108954429613 -0.00085466384979620918 0 -0.029316140278930803 -0.0011718002851515692 0 -0.029390108954429613 -0.00085466384979620918 0 -0.029152698441425401 -0.00099979553969111834 0 -0.029153254242526599 -0.0007653296480964665 0 -0.029390108954429613 -0.00085466384979620918 0 -0.029152698441425401 -0.00099979553969111834 0 -0.029153254242526599 -0.0007653296480964665 0 -0.02887970011188561 -0.0009369704970257956 0 -0.029152698441425401 -0.00099979553969111834 0 -0.02887970011188561 -0.0009369704970257956 0 -0.029152698441425401 -0.00099979553969111834 0 -0.029065369207082505 -0.001202121170000062 0 -0.02887970011188561 -0.0009369704970257956 0 -0.028850449058405017 -0.0011858092206632604 0 -0.029065369207082505 -0.001202121170000062 0 -0.029316140278930803 -0.0011718002851515692 0 -0.029152698441425401 -0.00099979553969111834 0 -0.029065369207082505 -0.001202121170000062 0 -0.029065369207082505 -0.001202121170000062 0 -0.029067831672891394 -0.0013984299374866006 0 -0.029240337192961617 -0.0013646224461209007 0 -0.029316140278930803 -0.0011718002851515692 0 -0.029065369207082505 -0.001202121170000062 0 -0.029240337192961617 -0.0013646224461209007 0 -0.028926079303038293 -0.0013271641613536163 0 -0.029065369207082505 -0.001202121170000062 0 -0.029067831672891394 -0.0013984299374866006 0 -0.028850449058405017 -0.0011858092206632604 0 -0.028926079303038293 -0.0013271641613536163 0 -0.029065369207082505 -0.001202121170000062 0 -0.028874139751379396 -0.0014732648594731033 0 -0.028926079303038293 -0.0013271641613536163 0 -0.029067831672891394 -0.0013984299374866006 0 -0.028874139751379396 -0.0014732648594731033 0 -0.02894802502087112 -0.0015648446124938951 0 -0.029067831672891394 -0.0013984299374866006 0 -0.029137530440174891 -0.0015836937479426548 0 -0.02894802502087112 -0.0015648446124938951 0 -0.029067831672891394 -0.0013984299374866006 0 -0.029201496588677805 -0.0015283201827118059 0 -0.029067831672891394 -0.0013984299374866006 0 -0.029240337192961617 -0.0013646224461209007 0 -0.029201496588677805 -0.0015283201827118059 0 -0.02914104236369805 -0.0015600952853283005 0 -0.029067831672891394 -0.0013984299374866006 0 -0.031011635413278872 -0.00075499142512540807 0 -0.030958306994774032 -0.00077192967485563316 0 -0.029201496588677805 -0.0015283201827118059 0 -0.029240337192961617 -0.0013646224461209007 0 -0.029324555009627579 -0.0014778769653347411 0 -0.029240337192961617 -0.0013646224461209007 0 -0.029324555009627579 -0.0014778769653347411 0 -0.029445370056645881 -0.0013756579273115955 0 -0.029461225915367404 -0.001533665023148077 0 -0.029324555009627579 -0.0014778769653347411 0 -0.029445370056645881 -0.0013756579273115955 0 -0.029461225915367404 -0.001533665023148077 0 -0.029615694830179298 -0.0015245964423231863 0 -0.029445370056645881 -0.0013756579273115955 0 -0.029615694830179298 -0.0015245964423231863 0 -0.029693143852388689 -0.001335925178671499 0 -0.029445370056645881 -0.0013756579273115955 0 -0.029693143852388689 -0.001335925178671499 0 -0.029540440452956156 -0.0011038473481125479 0 -0.029445370056645881 -0.0013756579273115955 0 -0.029540440452956156 -0.0011038473481125479 0 -0.029316140278930803 -0.0011718002851515692 0 -0.029445370056645881 -0.0013756579273115955 0 -0.029316140278930803 -0.0011718002851515692 0 -0.029240337192961617 -0.0013646224461209007 0 -0.029445370056645881 -0.0013756579273115955 0 -0.027644341963351228 8.614516939975034e-05 0 -0.029522159773980143 -2.6863231632908816e-07 0 -0.025482178828673371 1.6068124809088811e-06 0 -0.027644341963351228 8.614516939975034e-05 0 -0.026678284799305597 0.00011689043136335205 0 -0.026509297715493284 9.8644471504901244e-05 0 -0.028688936780745241 0.00038907690639727606 0 -0.028299212966261644 0.00041169982775324514 0 -0.027644341963351228 8.614516939975034e-05 0 -0.028433368752886153 9.3780192046461131e-05 0 -0.026678284799305597 0.00011689043136335205 0 -0.026613975128291466 0.00011336213027041558 0 -0.026580281853574805 0.00015729327005940848 0 -0.026678284799305597 0.00011689043136335205 0 -0.026613975128291466 0.00011336213027041558 0 -0.026580281853574805 0.00015729327005940848 0 -0.026683586092964364 0.00021165810645557733 0 -0.027644341963351228 8.614516939975034e-05 0 -0.028433368752886153 9.3780192046461131e-05 0 -0.029469546959929632 8.9117446922477685e-05 0 -0.028433368752886153 9.3780192046461131e-05 0 -0.030002865135652004 0.00017201289389805847 0 -0.029469546959929632 8.9117446922477685e-05 0 -0.026570662747118744 0.00033288547331282778 0 -0.026690851477049294 0.00035349067139326111 0 -0.026683586092964364 0.00021165810645557733 0 -0.028688936780745241 0.00038907690639727606 0 -0.029755431997089913 0.00021328204745658935 0 -0.026580281853574805 0.00015729327005940848 0 -0.026570662747118744 0.00033288547331282778 0 -0.026683586092964364 0.00021165810645557733 0 -0.030002865135652004 0.00017201289389805847 0 -0.030728081530540394 4.2635169561108536e-05 0 -0.03074460668498763 -0.00026779980036321379 0 -0.029755431997089913 0.00021328204745658935 0 -0.031688500249941555 -0.00040843247285068631 0 -0.026570662747118744 0.00033288547331282778 0 -0.026640329232680119 0.00045352670513644066 0 -0.026570743288806317 0.00057746877373641319 0 -0.026570662747118744 0.00033288547331282778 0 -0.026640329232680119 0.00045352670513644066 0 -0.026690851477049294 0.00035349067139326111 0 -0.030002865135652004 0.00017201289389805847 0 -0.030728081530540394 4.2635169561108536e-05 0 -0.029469546959929632 8.9117446922477685e-05 0 -0.029469546959929632 8.9117446922477685e-05 0 -0.029522159773980143 -2.6863231632908816e-07 0 -0.03100401744275972 -6.2296189199389934e-05 0 -0.030728081530540394 4.2635169561108536e-05 0 -0.029469546959929632 8.9117446922477685e-05 0 -0.03100401744275972 -6.2296189199389934e-05 0 -0.027644341963351228 8.614516939975034e-05 0 -0.029469546959929632 8.9117446922477685e-05 0 -0.029522159773980143 -2.6863231632908816e-07 0 -0.029522159773980143 -2.6863231632908816e-07 0 -0.03100401744275972 -6.2296189199389934e-05 0 -0.0335985005263729 3.6048070901634896e-05 0 -0.029522159773980143 -2.6863231632908816e-07 0 -0.034997768073068564 1.3808863612843268e-07 0 -0.0335985005263729 3.6048070901634896e-05 0 -0.03100401744275972 -6.2296189199389934e-05 0 -0.0335985005263729 3.6048070901634896e-05 0 -0.031733029308422457 -0.00025383567889442472 0 -0.034997768073068564 1.3808863612843268e-07 0 -0.0335985005263729 3.6048070901634896e-05 0 -0.034996512313530341 2.8315158941007447e-07 0 -0.0335985005263729 3.6048070901634896e-05 0 -0.033751237812996278 9.4996054597375405e-05 0 -0.033004209317400057 -2.116519787477227e-05 0 -0.0335985005263729 3.6048070901634896e-05 0 -0.034996512313530341 2.8315158941007447e-07 0 -0.033751237812996278 9.4996054597375405e-05 0 -0.034999989286902837 1.2269312265282602e-09 0 -0.034991457421475101 -3.0956925907375153e-06 0 -0.034997060656908767 -1.539867258073268e-06 0 -0.034997507291665279 5.7681408498874546e-07 0 -0.033619426892362969 0.00011201688343644037 0 -0.033751237812996278 9.4996054597375405e-05 0 -0.033004209317400057 -2.116519787477227e-05 0 -0.03301250589295409 -0.00044528620722889548 0 -0.033619426892362969 0.00011201688343644037 0 -0.031688500249941555 -0.00040843247285068631 0 -0.034991457421475101 -3.0956925907375153e-06 0 -0.034984664250842658 -1.1884660082271316e-05 0 -0.034991911697713894 -6.6551675381609185e-06 0 -0.034984664250842658 -1.1884660082271316e-05 0 -0.034989888534470201 -1.1896636935083236e-05 0 -0.034991911697713894 -6.6551675381609185e-06 0 -0.0335985005263729 3.6048070901634896e-05 0 -0.033004209317400057 -2.116519787477227e-05 0 -0.031733029308422457 -0.00025383567889442472 0 -0.033004209317400057 -2.116519787477227e-05 0 -0.031733029308422457 -0.00025383567889442472 0 -0.03301250589295409 -0.00044528620722889548 0 -0.031735957370863647 -0.00039862502514203364 0 -0.031688500249941555 -0.00040843247285068631 0 -0.030728081530540394 4.2635169561108536e-05 0 -0.031733029308422457 -0.00025383567889442472 0 -0.03074460668498763 -0.00026779980036321379 0 -0.030728081530540394 4.2635169561108536e-05 0 -0.03100401744275972 -6.2296189199389934e-05 0 -0.031733029308422457 -0.00025383567889442472 0 -0.026570743288806317 0.00057746877373641319 0 -0.026646619238307148 0.00055011791954910627 0 -0.026673150150437239 0.00058215077176096452 0 -0.031688500249941555 -0.00040843247285068631 0 -0.032095507355829778 -0.00019454282039400273 0 -0.026640329232680119 0.00045352670513644066 0 -0.026570743288806317 0.00057746877373641319 0 -0.026646619238307148 0.00055011791954910627 0 -0.026847893363891043 0.00055410996345206629 0 -0.026654729764797314 0.00060243785784924329 0 -0.027106495150128723 0.00065157870804962792 0 -0.032095507355829778 -0.00019454282039400273 0 -0.031424679928530104 5.3548284839361546e-05 0 -0.026734319526784425 0.00046656444778823877 0 -0.026847893363891043 0.00055410996345206629 0 -0.026654729764797314 0.00060243785784924329 0 -0.026640329232680119 0.00045352670513644066 0 -0.026646619238307148 0.00055011791954910627 0 -0.026734319526784425 0.00046656444778823877 0 -0.026646619238307148 0.00055011791954910627 0 -0.026734319526784425 0.00046656444778823877 0 -0.026654729764797314 0.00060243785784924329 0 -0.032003601928841996 -0.00024331481527274342 0 -0.032095507355829778 -0.00019454282039400273 0 -0.026847893363891043 0.00055410996345206629 0 -0.027106495150128723 0.00065157870804962792 0 -0.027044547323722919 -1.9858071018015452e-05 0 -0.034969436925008181 -1.9041705724832542e-05 0 -0.0349644622787047 -4.6692306561159778e-06 0 -0.034982415728853127 -5.6507745457778529e-06 0 -0.032095507355829778 -0.00019454282039400273 0 -0.033817899909433714 0.00026036971195486338 0 -0.03494584919884753 -2.1720319098605878e-05 0 -0.034969436925008181 -1.9041705724832542e-05 0 -0.0349644622787047 -4.6692306561159778e-06 0 -0.034989888534470201 -1.1896636935083236e-05 0 -0.034996745099192393 -5.3669026222188443e-06 0 -0.034991911697713894 -6.6551675381609185e-06 0 -0.034991457421475101 -3.0956925907375153e-06 0 -0.034991911697713894 -6.6551675381609185e-06 0 -0.034997060656908767 -1.539867258073268e-06 0 -0.034996745099192393 -5.3669026222188443e-06 0 -0.034991911697713894 -6.6551675381609185e-06 0 -0.034997060656908767 -1.539867258073268e-06 0 -0.0349644622787047 -4.6692306561159778e-06 0 -0.034983039197291448 3.3069212026541247e-06 0 -0.034982415728853127 -5.6507745457778529e-06 0 -0.033817899909433714 0.00026036971195486338 0 -0.034558988132307303 0.00017503679129456153 0 -0.034996745099192393 -5.3669026222188443e-06 0 -0.034997060656908767 -1.539867258073268e-06 0 -0.034999905543840547 -1.1696599553687233e-06 0 -0.034999905543840547 -1.1696599553687233e-06 0 -0.034999999839586286 -5.3676349278255664e-10 0 -0.035000000684159163 -1.355161630224258e-10 0 -0.034997060656908767 -1.539867258073268e-06 0 -0.034999905543840547 -1.1696599553687233e-06 0 -0.034999999839586286 -5.3676349278255664e-10 0 -0.034999989286902837 1.2269312265282602e-09 0 -0.034997060656908767 -1.539867258073268e-06 0 -0.034999999839586286 -5.3676349278255664e-10 0 -0.034997022804485751 3.531353175246453e-06 0 -0.03499995065406409 2.9558005866381632e-08 0 -0.034992978769366585 2.0684256449428385e-06 0 -0.034997022804485751 3.531353175246453e-06 0 -0.03499995065406409 2.9558005866381632e-08 0 -0.035000047528294054 -2.4991369608089678e-08 0 -0.034983039197291448 3.3069212026541247e-06 0 -0.03499995065406409 2.9558005866381632e-08 0 -0.034992978769366585 2.0684256449428385e-06 0 -0.034558988132307303 0.00017503679129456153 0 -0.034999157327584865 5.1013276917949577e-07 0 -0.034983039197291448 3.3069212026541247e-06 0 -0.034992978769366585 2.0684256449428385e-06 0 -0.034982415728853127 -5.6507745457778529e-06 0 -0.034997022804485751 3.531353175246453e-06 0 -0.034992978769366585 2.0684256449428385e-06 0 -0.034994769412568988 9.6914859735146878e-06 0 -0.034992978769366585 2.0684256449428385e-06 0 -0.034990237797358124 -5.6957643975732872e-06 0 -0.034982415728853127 -5.6507745457778529e-06 0 -0.034992978769366585 2.0684256449428385e-06 0 -0.034990237797358124 -5.6957643975732872e-06 0 -0.034995039080791039 -1.4808891847519188e-06 0 -0.034969436925008181 -1.9041705724832542e-05 0 -0.034982415728853127 -5.6507745457778529e-06 0 -0.034984369259247777 -1.3453623184270738e-05 0 -0.034990237797358124 -5.6957643975732872e-06 0 -0.034982415728853127 -5.6507745457778529e-06 0 -0.034984369259247777 -1.3453623184270738e-05 0 -0.027106495150128723 0.00065157870804962792 0 -0.027733395442088093 0.00067055836873113788 0 -0.027432626794223192 0.00033212096442322632 0 -0.031424679928530104 5.3548284839361546e-05 0 -0.031457525783539442 0.00020091016846899724 0 -0.027733395442088093 0.00067055836873113788 0 -0.027769363502040682 0.00041480211375613963 0 -0.027432626794223192 0.00033212096442322632 0 -0.027733395442088093 0.00067055836873113788 0 -0.027769363502040682 0.00041480211375613963 0 -0.028185432246845651 0.00064581080888019939 0 -0.031457525783539442 0.00020091016846899724 0 -0.031686830518790968 0.0002996074339356729 0 -0.027733395442088093 0.00067055836873113788 0 -0.028185432246845651 0.00064581080888019939 0 -0.028322343212066291 0.00066600894913920164 0 -0.027769363502040682 0.00041480211375613963 0 -0.028185432246845651 0.00064581080888019939 0 -0.027718965535492631 1.0702749883493961e-05 0 -0.034990237797358124 -5.6957643975732872e-06 0 -0.034984369259247777 -1.3453623184270738e-05 0 -0.03499277522429451 -1.0100863456552399e-05 0 -0.028185432246845651 0.00064581080888019939 0 -0.028201540724799284 0.00017575271925104072 0 -0.027891501094559821 0.00018172353599736984 0 -0.027690484437589532 0.00059348902306650606 0 -0.027436235218960131 0.00046463679836059729 0 -0.028201540724799284 0.00017575271925104072 0 -0.028029925847467052 -3.8797521008848018e-05 0 -0.028113542030333161 -0.00026681820273297797 0 -0.030164117191719571 -6.7038626997646013e-05 0 -0.029713346770497827 -0.0002510626221328572 0 -0.028201540724799284 0.00017575271925104072 0 -0.028029925847467052 -3.8797521008848018e-05 0 -0.027891501094559821 0.00018172353599736984 0 -0.028231784140757808 0.00022196873904120992 0 -0.028113542030333161 -0.00026681820273297797 0 -0.028253480991356189 -0.00027495274757607881 0 -0.028029925847467052 -3.8797521008848018e-05 0 -0.027883668865727431 -0.00014122334283145761 0 -0.027991200884737548 -0.00018607738020348934 0 -0.028029925847467052 -3.8797521008848018e-05 0 -0.028113542030333161 -0.00026681820273297797 0 -0.027991200884737548 -0.00018607738020348934 0 -0.027883668865727431 -0.00014122334283145761 0 -0.027891501094559821 0.00018172353599736984 0 -0.027596196145221016 -0.00024279911459398548 0 -0.027436235218960131 0.00046463679836059729 0 -0.027076401157195312 0.00080483034186859407 0 -0.028029925847467052 -3.8797521008848018e-05 0 -0.027883668865727431 -0.00014122334283145761 0 -0.027891501094559821 0.00018172353599736984 0 -0.027718965535492631 1.0702749883493961e-05 0 -0.027432626794223192 0.00033212096442322632 0 -0.027044547323722919 -1.9858071018015452e-05 0 -0.027769363502040682 0.00041480211375613963 0 -0.027718965535492631 1.0702749883493961e-05 0 -0.027432626794223192 0.00033212096442322632 0 -0.027106495150128723 0.00065157870804962792 0 -0.027432626794223192 0.00033212096442322632 0 -0.027044547323722919 -1.9858071018015452e-05 0 -0.027026444950821391 0.00045808243167095973 0 -0.027076335053514752 0.00042328790470904358 0 -0.026734319526784425 0.00046656444778823877 0 -0.026847893363891043 0.00055410996345206629 0 -0.026817792417502453 0.00033810953904880414 0 -0.026734319526784425 0.00046656444778823877 0 -0.026817792417502453 0.00033810953904880414 0 -0.026690851477049294 0.00035349067139326111 0 -0.026640329232680119 0.00045352670513644066 0 -0.026734319526784425 0.00046656444778823877 0 -0.026690851477049294 0.00035349067139326111 0 -0.026817792417502453 0.00033810953904880414 0 -0.026690851477049294 0.00035349067139326111 0 -0.026683586092964364 0.00021165810645557733 0 -0.027718965535492631 1.0702749883493961e-05 0 -0.027044547323722919 -1.9858071018015452e-05 0 -0.027266482537703324 -0.00061092308684425778 0 -0.026817792417502453 0.00033810953904880414 0 -0.026826552074313011 0.00020569435223608375 0 -0.026683586092964364 0.00021165810645557733 0 -0.027076335053514752 0.00042328790470904358 0 -0.027076401157195312 0.00080483034186859407 0 -0.027076401157195312 0.00080483034186859407 0 -0.026543787543062278 0.0016007638438414358 0 -0.026826552074313011 0.00020569435223608375 0 -0.026683586092964364 0.00021165810645557733 0 -0.026681954060281305 9.8486783962411622e-05 0 -0.026613975128291466 0.00011336213027041558 0 -0.026683586092964364 0.00021165810645557733 0 -0.026681954060281305 9.8486783962411622e-05 0 -0.02674961501282147 0.005231238046438531 0 -0.025826843437566031 0.0039600532947257948 0 -0.027253868360608377 0.0038988960065376938 0 -0.027773943999026302 -0.00070702034457902508 0 -0.027901479754651005 -0.00048468380064082449 0 -0.028093269876512738 -0.00072405701089122906 0 -0.027596196145221016 -0.00024279911459398548 0 -0.027773943999026302 -0.00070702034457902508 0 -0.027901479754651005 -0.00048468380064082449 0 -0.027076401157195312 0.00080483034186859407 0 -0.027659634527062438 0.0011744382752633018 0 -0.028093269876512738 -0.00072405701089122906 0 -0.028059123831473898 -0.00041024298384438964 0 -0.028253480991356189 -0.00027495274757607881 0 -0.027901479754651005 -0.00048468380064082449 0 -0.028093269876512738 -0.00072405701089122906 0 -0.028059123831473898 -0.00041024298384438964 0 -0.029575028663205081 -0.0013569515771726908 0 -0.030319909423863905 -0.0013083701577912671 0 -0.032345457675693329 -0.0035388704766268955 0 -0.032605242787026693 -0.0027767951400094054 0 -0.032701545344284023 -0.003140419532309128 0 -0.028059123831473898 -0.00041024298384438964 0 -0.028113542030333161 -0.00026681820273297797 0 -0.027937693868526625 -0.00029813362764942024 0 -0.027901479754651005 -0.00048468380064082449 0 -0.028059123831473898 -0.00041024298384438964 0 -0.027937693868526625 -0.00029813362764942024 0 -0.028059123831473898 -0.00041024298384438964 0 -0.028113542030333161 -0.00026681820273297797 0 -0.028253480991356189 -0.00027495274757607881 0 -0.028113542030333161 -0.00026681820273297797 0 -0.027991200884737548 -0.00018607738020348934 0 -0.027937693868526625 -0.00029813362764942024 0 -0.027883668865727431 -0.00014122334283145761 0 -0.027991200884737548 -0.00018607738020348934 0 -0.027937693868526625 -0.00029813362764942024 0 -0.027596196145221016 -0.00024279911459398548 0 -0.027901479754651005 -0.00048468380064082449 0 -0.027937693868526625 -0.00029813362764942024 0 -0.027883668865727431 -0.00014122334283145761 0 -0.027596196145221016 -0.00024279911459398548 0 -0.027937693868526625 -0.00029813362764942024 0 -0.033442716396392264 -0.0031097269235958003 0 -0.033875343329856498 -0.0027402615006796279 0 -0.034232882091211295 -0.0025303126694872832 0 -0.032437778387261411 -0.0035175186119907891 0 -0.032418800079585933 -0.0035093505324223034 0 -0.032409963106423079 -0.0035291706408513823 0 -0.033015208351560445 -0.0026354281030928324 0 -0.033700938541979787 -0.001776141042525209 0 -0.033442716396392264 -0.0031097269235958003 0 -0.033367413867112027 -0.0027980184604785019 0 -0.033010997440132944 -0.0030448381224658237 0 -0.033442716396392264 -0.0031097269235958003 0 -0.033875343329856498 -0.0027402615006796279 0 -0.033367413867112027 -0.0027980184604785019 0 -0.032437778387261411 -0.0035175186119907891 0 -0.032418800079585933 -0.0035093505324223034 0 -0.032424223038646539 -0.003492801399008285 0 -0.033875343329856498 -0.0027402615006796279 0 -0.033541356566216339 -0.0025644759632625367 0 -0.033767054443413651 -0.0024115184799873815 0 -0.033875343329856498 -0.0027402615006796279 0 -0.03400317922490028 -0.0024436681213614547 0 -0.033767054443413651 -0.0024115184799873815 0 -0.033875343329856498 -0.0027402615006796279 0 -0.033541356566216339 -0.0025644759632625367 0 -0.033367413867112027 -0.0027980184604785019 0 -0.033541356566216339 -0.0025644759632625367 0 -0.033367413867112027 -0.0027980184604785019 0 -0.033274649227669616 -0.0025583992677573465 0 -0.033274649227669616 -0.0025583992677573465 0 -0.033017226830225871 -0.002572164196469415 0 -0.03305830347627621 -0.0027766335562296111 0 -0.033017226830225871 -0.002572164196469415 0 -0.03305830347627621 -0.0027766335562296111 0 -0.03285460623864727 -0.002879536138537071 0 -0.033367413867112027 -0.0027980184604785019 0 -0.033274649227669616 -0.0025583992677573465 0 -0.03305830347627621 -0.0027766335562296111 0 -0.033017226830225871 -0.002572164196469415 0 -0.032605242787026693 -0.0027767951400094054 0 -0.03285460623864727 -0.002879536138537071 0 -0.032605242787026693 -0.0027767951400094054 0 -0.03285460623864727 -0.002879536138537071 0 -0.032701545344284023 -0.003140419532309128 0 -0.03285460623864727 -0.002879536138537071 0 -0.033010997440132944 -0.0030448381224658237 0 -0.032701545344284023 -0.003140419532309128 0 -0.033367413867112027 -0.0027980184604785019 0 -0.03305830347627621 -0.0027766335562296111 0 -0.033010997440132944 -0.0030448381224658237 0 -0.03305830347627621 -0.0027766335562296111 0 -0.03285460623864727 -0.002879536138537071 0 -0.033010997440132944 -0.0030448381224658237 0 -0.033442716396392264 -0.0031097269235958003 0 -0.033010997440132944 -0.0030448381224658237 0 -0.032540855447465482 -0.0034796896809243566 0 -0.032540855447465482 -0.0034796896809243566 0 -0.032428697936320576 -0.0034761951129474705 0 -0.032419501476380105 -0.0034739206725133082 0 -0.032437778387261411 -0.0035175186119907891 0 -0.032540855447465482 -0.0034796896809243566 0 -0.032428697936320576 -0.0034761951129474705 0 -0.033015208351560445 -0.0026354281030928324 0 -0.032809043693427284 -0.0028833596229171305 0 -0.033010997440132944 -0.0030448381224658237 0 -0.032701545344284023 -0.003140419532309128 0 -0.032540855447465482 -0.0034796896809243566 0 -0.032345457675693329 -0.0035388704766268955 0 -0.032701545344284023 -0.003140419532309128 0 -0.032540855447465482 -0.0034796896809243566 0 -0.032428697936320576 -0.0034761951129474705 0 -0.032424223038646539 -0.003492801399008285 0 -0.032418520211593076 -0.0034775209936038875 0 -0.032437778387261411 -0.0035175186119907891 0 -0.032428697936320576 -0.0034761951129474705 0 -0.032424223038646539 -0.003492801399008285 0 -0.033796535979529217 -0.0012174523235819023 0 -0.03383432360879704 -0.0012140673713944771 0 -0.033845267760905073 -0.0011565406562131879 0 -0.032418800079585933 -0.0035093505324223034 0 -0.032424223038646539 -0.003492801399008285 0 -0.032418520211593076 -0.0034775209936038875 0 -0.033910208940136279 -0.0011877061785424893 0 -0.033901610903249529 -0.00118081057045599 0 -0.03383432360879704 -0.0012140673713944771 0 -0.033845267760905073 -0.0011565406562131879 0 -0.033886929297819592 -0.0012287322258637406 0 -0.033925723425010143 -0.0010916991059966956 0 -0.033786327176706349 -0.0010231364032116041 0 -0.033886929297819592 -0.0012287322258637406 0 -0.033925723425010143 -0.0010916991059966956 0 -0.033886929297819592 -0.0012287322258637406 0 -0.033944183978832372 -0.001239168451656999 0 -0.033786327176706349 -0.0010231364032116041 0 -0.033878491255143875 -0.00085573522673218895 0 -0.033682669861266279 -0.0007830228999817718 0 -0.033925723425010143 -0.0010916991059966956 0 -0.033986666347524334 -0.00093154056486816658 0 -0.033786327176706349 -0.0010231364032116041 0 -0.033986666347524334 -0.00093154056486816658 0 -0.033786327176706349 -0.0010231364032116041 0 -0.033878491255143875 -0.00085573522673218895 0 -0.033986666347524334 -0.00093154056486816658 0 -0.033878491255143875 -0.00085573522673218895 0 -0.033989468798011929 -0.00079563207038573446 0 -0.033318867786013888 -0.0022424809213141051 0 -0.033872772455929422 -0.0015451015820834616 0 -0.033910208940136279 -0.0011877061785424893 0 -0.034006293677644336 -0.0013642319028092768 0 -0.033845267760905073 -0.0011565406562131879 0 -0.033803674622726113 -0.0010841448852572904 0 -0.0338118575432153 -0.0010775065128919396 0 -0.033796535979529217 -0.0012174523235819023 0 -0.033845267760905073 -0.0011565406562131879 0 -0.033803674622726113 -0.0010841448852572904 0 -0.032418800079585933 -0.0035093505324223034 0 -0.032418520211593076 -0.0034775209936038875 0 -0.032405278925056867 -0.0035326695615616704 0 -0.032418800079585933 -0.0035093505324223034 0 -0.032409963106423079 -0.0035291706408513823 0 -0.032405278925056867 -0.0035326695615616704 0 -0.033690037092514551 -0.0018158996880722491 0 -0.033700938541979787 -0.001776141042525209 0 -0.033875343329856498 -0.0027402615006796279 0 -0.034181915195046333 -0.0025319387241023268 0 -0.03400317922490028 -0.0024436681213614547 0 -0.03400317922490028 -0.0024436681213614547 0 -0.0340996096275379 -0.0023128634000256407 0 -0.034168952696067664 -0.0024042773947777402 0 -0.034181915195046333 -0.0025319387241023268 0 -0.03400317922490028 -0.0024436681213614547 0 -0.034168952696067664 -0.0024042773947777402 0 -0.03400317922490028 -0.0024436681213614547 0 -0.0340996096275379 -0.0023128634000256407 0 -0.033928860504942322 -0.0022194448936157045 0 -0.0340996096275379 -0.0023128634000256407 0 -0.034276339331506742 -0.002248876287425163 0 -0.034093953645490706 -0.0021933374747307509 0 -0.0340996096275379 -0.0023128634000256407 0 -0.034093953645490706 -0.0021933374747307509 0 -0.033928860504942322 -0.0022194448936157045 0 -0.0340996096275379 -0.0023128634000256407 0 -0.034276339331506742 -0.002248876287425163 0 -0.034168952696067664 -0.0024042773947777402 0 -0.034020154222267236 -0.0013867953172262918 0 -0.033872772455929422 -0.0015451015820834616 0 -0.034276339331506742 -0.002248876287425163 0 -0.034168952696067664 -0.0024042773947777402 0 -0.034272707101267945 -0.0024521020918445795 0 -0.034077830909020515 -0.0016789643425290713 0 -0.034139466123988396 -0.00080169603966413609 0 -0.03381812633304547 -0.0010646451868770159 0 -0.033872772455929422 -0.0015451015820834616 0 -0.034006293677644336 -0.0013642319028092768 0 -0.034181915195046333 -0.0025319387241023268 0 -0.034168952696067664 -0.0024042773947777402 0 -0.034272707101267945 -0.0024521020918445795 0 -0.033700938541979787 -0.001776141042525209 0 -0.033872772455929422 -0.0015451015820834616 0 -0.034020154222267236 -0.0013867953172262918 0 -0.034006293677644336 -0.0013642319028092768 0 -0.034006293677644336 -0.0013642319028092768 0 -0.034432928304604288 -0.00075097825230160508 0 -0.035045607406958335 0.00034625126843535863 0 -0.0350284243752653 0.00029289359086698036 0 -0.034982545586513043 0.0002959045366994563 0 -0.035052497762045547 0.00033019301490339991 0 -0.035045607406958335 0.00034625126843535863 0 -0.0350284243752653 0.00029289359086698036 0 -0.034276339331506742 -0.002248876287425163 0 -0.034040881337609241 -0.0019857294386555579 0 -0.034093953645490706 -0.0021933374747307509 0 -0.034040881337609241 -0.0019857294386555579 0 -0.034093953645490706 -0.0021933374747307509 0 -0.033928860504942322 -0.0022194448936157045 0 -0.033682669861266279 -0.0007830228999817718 0 -0.033923733062558914 -0.00064797651185479496 0 -0.033949273036120484 -0.00061353186677034696 0 -0.033682669861266279 -0.0007830228999817718 0 -0.033896186713134435 -0.00075443323535489854 0 -0.033923733062558914 -0.00064797651185479496 0 -0.034006293677644336 -0.0013642319028092768 0 -0.034308915342109579 -0.0007534415269044324 0 -0.033998623171304442 -0.0011135512156445224 0 -0.034291773346378854 -0.00087197803355287264 0 -0.034424212937711772 -0.00084589648434137577 0 -0.033896186713134435 -0.00075443323535489854 0 -0.033989468798011929 -0.00079563207038573446 0 -0.034006427504635554 -0.00068214240612942886 0 -0.033878491255143875 -0.00085573522673218895 0 -0.033896186713134435 -0.00075443323535489854 0 -0.033989468798011929 -0.00079563207038573446 0 -0.033878491255143875 -0.00085573522673218895 0 -0.033682669861266279 -0.0007830228999817718 0 -0.033896186713134435 -0.00075443323535489854 0 -0.033896186713134435 -0.00075443323535489854 0 -0.033923733062558914 -0.00064797651185479496 0 -0.034006427504635554 -0.00068214240612942886 0 -0.034306563917066345 -0.00075418694373094615 0 -0.034308915342109579 -0.0007534415269044324 0 -0.033923733062558914 -0.00064797651185479496 0 -0.033949656505683434 -0.00061203118269355665 0 -0.034006427504635554 -0.00068214240612942886 0 -0.034982545586513043 0.0002959045366994563 0 -0.034977658920698977 0.00021171931286747091 0 -0.034915754843848061 0.00024511205535215371 0 -0.034982545586513043 0.0002959045366994563 0 -0.03500952675509926 0.00025209467959241193 0 -0.034977658920698977 0.00021171931286747091 0 -0.034291773346378854 -0.00087197803355287264 0 -0.034424212937711772 -0.00084589648434137577 0 -0.034584888244723694 -0.00063057167926829159 0 -0.034432928304604288 -0.00075097825230160508 0 -0.034496155940969393 -0.00050928109649123134 0 -0.0350284243752653 0.00029289359086698036 0 -0.034982545586513043 0.0002959045366994563 0 -0.03500952675509926 0.00025209467959241193 0 -0.03500952675509926 0.00025209467959241193 0 -0.03504927575219971 0.00021619388519084271 0 -0.034977658920698977 0.00021171931286747091 0 -0.034977658920698977 0.00021171931286747091 0 -0.034937041325093607 0.00020209258468607968 0 -0.034915754843848061 0.00024511205535215371 0 -0.034020154222267236 -0.0013867953172262918 0 -0.03448777621974871 -0.00075389059334209985 0 -0.0350284243752653 0.00029289359086698036 0 -0.03500952675509926 0.00025209467959241193 0 -0.03504927575219971 0.00021619388519084271 0 -0.034276339331506742 -0.002248876287425163 0 -0.034040881337609241 -0.0019857294386555579 0 -0.03396698362929694 -0.0014859193582611168 0 -0.035052497762045547 0.00033019301490339991 0 -0.0350284243752653 0.00029289359086698036 0 -0.03504927575219971 0.00021619388519084271 0 -0.034020154222267236 -0.0013867953172262918 0 -0.034103248550917231 -0.0014512662778538422 0 -0.034805559118470247 -0.0025546703666875729 0 -0.034876639450362831 -0.0015809510846600311 0 -0.034446378575149129 -0.0017048783652787963 0 -0.03396698362929694 -0.0014859193582611168 0 -0.033733924856808942 -0.001604741916189903 0 -0.033833502299303882 -0.0017673121599390562 0 -0.03396698362929694 -0.0014859193582611168 0 -0.033631976640873126 -0.0014417212621260108 0 -0.033695804600714946 -0.0012636553330527818 0 -0.033631976640873126 -0.0014417212621260108 0 -0.033733924856808942 -0.001604741916189903 0 -0.033507481686332802 -0.0016955927481195798 0 -0.03396698362929694 -0.0014859193582611168 0 -0.033631976640873126 -0.0014417212621260108 0 -0.033733924856808942 -0.001604741916189903 0 -0.033733924856808942 -0.001604741916189903 0 -0.033624550062320367 -0.0017963296157844598 0 -0.033833502299303882 -0.0017673121599390562 0 -0.033733924856808942 -0.001604741916189903 0 -0.033507481686332802 -0.0016955927481195798 0 -0.033624550062320367 -0.0017963296157844598 0 -0.033507481686332802 -0.0016955927481195798 0 -0.033624550062320367 -0.0017963296157844598 0 -0.03338630245727784 -0.0018989268732338617 0 -0.034040881337609241 -0.0019857294386555579 0 -0.03396698362929694 -0.0014859193582611168 0 -0.033833502299303882 -0.0017673121599390562 0 -0.033624550062320367 -0.0017963296157844598 0 -0.033833502299303882 -0.0017673121599390562 0 -0.03379926042952397 -0.0019846790182777505 0 -0.034040881337609241 -0.0019857294386555579 0 -0.033833502299303882 -0.0017673121599390562 0 -0.03379926042952397 -0.0019846790182777505 0 -0.034040881337609241 -0.0019857294386555579 0 -0.03379926042952397 -0.0019846790182777505 0 -0.033928860504942322 -0.0022194448936157045 0 -0.03379926042952397 -0.0019846790182777505 0 -0.033928860504942322 -0.0022194448936157045 0 -0.033730597757647356 -0.0022070940180174774 0 -0.033624550062320367 -0.0017963296157844598 0 -0.03379926042952397 -0.0019846790182777505 0 -0.033502735335406958 -0.0020711248334313284 0 -0.033624550062320367 -0.0017963296157844598 0 -0.033502735335406958 -0.0020711248334313284 0 -0.03338630245727784 -0.0018989268732338617 0 -0.03379926042952397 -0.0019846790182777505 0 -0.033502735335406958 -0.0020711248334313284 0 -0.033730597757647356 -0.0022070940180174774 0 -0.033502735335406958 -0.0020711248334313284 0 -0.033524308143326895 -0.002320869526832187 0 -0.033730597757647356 -0.0022070940180174774 0 -0.033524308143326895 -0.002320869526832187 0 -0.033767054443413651 -0.0024115184799873815 0 -0.033730597757647356 -0.0022070940180174774 0 -0.033502735335406958 -0.0020711248334313284 0 -0.033524308143326895 -0.002320869526832187 0 -0.033254349129056608 -0.0023208090308581503 0 -0.033274649227669616 -0.0025583992677573465 0 -0.033524308143326895 -0.002320869526832187 0 -0.033254349129056608 -0.0023208090308581503 0 -0.033541356566216339 -0.0025644759632625367 0 -0.033274649227669616 -0.0025583992677573465 0 -0.033524308143326895 -0.002320869526832187 0 -0.033541356566216339 -0.0025644759632625367 0 -0.033524308143326895 -0.002320869526832187 0 -0.033767054443413651 -0.0024115184799873815 0 -0.03400317922490028 -0.0024436681213614547 0 -0.033767054443413651 -0.0024115184799873815 0 -0.033928860504942322 -0.0022194448936157045 0 -0.033767054443413651 -0.0024115184799873815 0 -0.033928860504942322 -0.0022194448936157045 0 -0.033730597757647356 -0.0022070940180174774 0 -0.028231784140757808 0.00022196873904120992 0 -0.028253480991356189 -0.00027495274757607881 0 -0.028435491180086911 0.00021818029797289056 0 -0.030319909423863905 -0.0013083701577912671 0 -0.031123294808176057 -0.00074589030471253692 0 -0.032605242787026693 -0.0027767951400094054 0 -0.0331542232968461 -0.0022285485454568168 0 -0.033140968436679449 -0.0017728793505974341 0 -0.033017226830225871 -0.002572164196469415 0 -0.032605242787026693 -0.0027767951400094054 0 -0.0331542232968461 -0.0022285485454568168 0 -0.033017226830225871 -0.002572164196469415 0 -0.033254349129056608 -0.0023208090308581503 0 -0.0331542232968461 -0.0022285485454568168 0 -0.033274649227669616 -0.0025583992677573465 0 -0.033017226830225871 -0.002572164196469415 0 -0.033254349129056608 -0.0023208090308581503 0 -0.033502735335406958 -0.0020711248334313284 0 -0.0331542232968461 -0.0022285485454568168 0 -0.03338630245727784 -0.0018989268732338617 0 -0.0331542232968461 -0.0022285485454568168 0 -0.033140968436679449 -0.0017728793505974341 0 -0.03338630245727784 -0.0018989268732338617 0 -0.033502735335406958 -0.0020711248334313284 0 -0.033254349129056608 -0.0023208090308581503 0 -0.0331542232968461 -0.0022285485454568168 0 -0.030164117191719571 -6.7038626997646013e-05 0 -0.031686830518790968 0.0002996074339356729 0 -0.028231784140757808 0.00022196873904120992 0 -0.028435491180086911 0.00021818029797289056 0 -0.028345870750518618 0.00072284755705715744 0 -0.031123294808176057 -0.00074589030471253692 0 -0.032291563844940571 0.00039320539999604891 0 -0.033631976640873126 -0.0014417212621260108 0 -0.033140968436679449 -0.0017728793505974341 0 -0.033695804600714946 -0.0012636553330527818 0 -0.033631976640873126 -0.0014417212621260108 0 -0.033507481686332802 -0.0016955927481195798 0 -0.033140968436679449 -0.0017728793505974341 0 -0.033507481686332802 -0.0016955927481195798 0 -0.033140968436679449 -0.0017728793505974341 0 -0.03338630245727784 -0.0018989268732338617 0 -0.028435491180086911 0.00021818029797289056 0 -0.028345870750518618 0.00072284755705715744 0 -0.028609760962364925 0.00072320262195120174 0 -0.028185432246845651 0.00064581080888019939 0 -0.028201540724799284 0.00017575271925104072 0 -0.028322343212066291 0.00066600894913920164 0 -0.033140968436679449 -0.0017728793505974341 0 -0.033695804600714946 -0.0012636553330527818 0 -0.033738487505413237 -0.001015776805383384 0 -0.031686830518790968 0.0002996074339356729 0 -0.032291563844940571 0.00039320539999604891 0 -0.034992983457691883 4.5259634698823123e-05 0 -0.034983257405530578 4.5144882561065862e-05 0 -0.034989586450197792 3.8715434844110797e-05 0 -0.034446378575149129 -0.0017048783652787963 0 -0.034032597298119652 -0.00083383750036295683 0 -0.034574583848376493 -0.0010884140889344711 0 -0.034103248550917231 -0.0014512662778538422 0 -0.034033677012283846 -0.0012250894936001653 0 -0.03396698362929694 -0.0014859193582611168 0 -0.033837632974553063 -0.0010231691315863206 0 -0.034032597298119652 -0.00083383750036295683 0 -0.03396698362929694 -0.0014859193582611168 0 -0.033695804600714946 -0.0012636553330527818 0 -0.033837632974553063 -0.0010231691315863206 0 -0.033695804600714946 -0.0012636553330527818 0 -0.033837632974553063 -0.0010231691315863206 0 -0.033738487505413237 -0.001015776805383384 0 -0.032301730653809708 0.00039077978311233421 0 -0.032291563844940571 0.00039320539999604891 0 -0.033837632974553063 -0.0010231691315863206 0 -0.033758218640746282 -0.0010263337057625688 0 -0.034032597298119652 -0.00083383750036295683 0 -0.033758218640746282 -0.0010263337057625688 0 -0.034032597298119652 -0.00083383750036295683 0 -0.034423260278173204 -0.00028293852387297689 0 -0.032291563844940571 0.00039320539999604891 0 -0.033308554649388075 0.00017328643830845006 0 -0.034983257405530578 4.5144882561065862e-05 0 -0.034989586450197792 3.8715434844110797e-05 0 -0.034980410345451789 2.5144569571084316e-05 0 -0.034490681517823689 -0.00068633440292509827 0 -0.034032597298119652 -0.00083383750036295683 0 -0.034423260278173204 -0.00028293852387297689 0 -0.034490681517823689 -0.00068633440292509827 0 -0.034032597298119652 -0.00083383750036295683 0 -0.034574583848376493 -0.0010884140889344711 0 -0.034993666619964177 3.0379078713127265e-05 0 -0.034989586450197792 3.8715434844110797e-05 0 -0.034980410345451789 2.5144569571084316e-05 0 -0.034990237797358124 -5.6957643975732872e-06 0 -0.03499277522429451 -1.0100863456552399e-05 0 -0.034995039080791039 -1.4808891847519188e-06 0 -0.031686830518790968 0.0002996074339356729 0 -0.032588231364553119 0.00035892675646999946 0 -0.034992983457691883 4.5259634698823123e-05 0 -0.034993666619964177 3.0379078713127265e-05 0 -0.034989586450197792 3.8715434844110797e-05 0 -0.034992978769366585 2.0684256449428385e-06 0 -0.034995039080791039 -1.4808891847519188e-06 0 -0.034994769412568988 9.6914859735146878e-06 0 -0.034993666619964177 3.0379078713127265e-05 0 -0.034994769412568988 9.6914859735146878e-06 0 -0.034980410345451789 2.5144569571084316e-05 0 -0.032588231364553119 0.00035892675646999946 0 -0.03286220554914742 0.00036027575361487012 0 -0.033308554649388075 0.00017328643830845006 0 -0.033639072531763417 0.00017278923450475469 0 -0.034980410345451789 2.5144569571084316e-05 0 -0.03498216786241104 1.3322804343815342e-05 0 -0.034955918604743494 1.1227561655043422e-05 0 -0.034994769412568988 9.6914859735146878e-06 0 -0.034980410345451789 2.5144569571084316e-05 0 -0.03498216786241104 1.3322804343815342e-05 0 -0.034994769412568988 9.6914859735146878e-06 0 -0.034988445231382004 4.0167807049119052e-06 0 -0.03498216786241104 1.3322804343815342e-05 0 -0.034988445231382004 4.0167807049119052e-06 0 -0.035000047528294054 -2.4991369608089678e-08 0 -0.034999773780351996 8.8148047025578901e-08 0 -0.034988445231382004 4.0167807049119052e-06 0 -0.03498216786241104 1.3322804343815342e-05 0 -0.034955918604743494 1.1227561655043422e-05 0 -0.034988445231382004 4.0167807049119052e-06 0 -0.034955918604743494 1.1227561655043422e-05 0 -0.034999773780351996 8.8148047025578901e-08 0 -0.034997022804485751 3.531353175246453e-06 0 -0.034994769412568988 9.6914859735146878e-06 0 -0.035000047528294054 -2.4991369608089678e-08 0 -0.034994769412568988 9.6914859735146878e-06 0 -0.034988445231382004 4.0167807049119052e-06 0 -0.035000047528294054 -2.4991369608089678e-08 0 -0.034987665722137816 -2.1044589510385396e-05 0 -0.035000017535425726 -7.1582798609345836e-08 0 -0.035001063300436133 -3.3679179374650618e-05 0 -0.034987665722137816 -2.1044589510385396e-05 0 -0.035000017535425726 -7.1582798609345836e-08 0 -0.034968791485213771 -3.1244675337721259e-05 0 -0.035000017535425726 -7.1582798609345836e-08 0 -0.034999773780351996 8.8148047025578901e-08 0 -0.035001063300436133 -3.3679179374650618e-05 0 -0.034955918604743494 1.1227561655043422e-05 0 -0.034999773780351996 8.8148047025578901e-08 0 -0.035001063300436133 -3.3679179374650618e-05 0 -0.034769934369918341 -0.00019872213750521346 0 -0.034704199109074949 -0.00036201184779620588 0 -0.034423260278173204 -0.00028293852387297689 0 -0.034955918604743494 1.1227561655043422e-05 0 -0.035001063300436133 -3.3679179374650618e-05 0 -0.034423260278173204 -0.00028293852387297689 0 -0.035001063300436133 -3.3679179374650618e-05 0 -0.034905583577243555 -0.00062234255279133984 0 -0.035001063300436133 -3.3679179374650618e-05 0 -0.034978912578825225 2.6153229891634536e-05 0 -0.035042754680816024 8.6452401865192428e-05 0 -0.034987665722137816 -2.1044589510385396e-05 0 -0.035001063300436133 -3.3679179374650618e-05 0 -0.034978912578825225 2.6153229891634536e-05 0 -0.034987665722137816 -2.1044589510385396e-05 0 -0.034978912578825225 2.6153229891634536e-05 0 -0.034968791485213771 -3.1244675337721259e-05 0 -0.034978912578825225 2.6153229891634536e-05 0 -0.034945458753788371 8.261835461189329e-05 0 -0.035042754680816024 8.6452401865192428e-05 0 -0.034945458753788371 8.261835461189329e-05 0 -0.035042754680816024 8.6452401865192428e-05 0 -0.034953228741957706 0.00014421764910719413 0 -0.034490681517823689 -0.00068633440292509827 0 -0.034423260278173204 -0.00028293852387297689 0 -0.034905583577243555 -0.00062234255279133984 0 -0.034490681517823689 -0.00068633440292509827 0 -0.034905583577243555 -0.00062234255279133984 0 -0.034574583848376493 -0.0010884140889344711 0 -0.03448777621974871 -0.00075389059334209985 0 -0.034704199109074949 -0.00036201184779620588 0 -0.034876639450362831 -0.0015809510846600311 0 -0.034905583577243555 -0.00062234255279133984 0 -0.034574583848376493 -0.0010884140889344711 0 -0.03504927575219971 0.00021619388519084271 0 -0.035042754680816024 8.6452401865192428e-05 0 -0.034977658920698977 0.00021171931286747091 0 -0.034876639450362831 -0.0015809510846600311 0 -0.034446378575149129 -0.0017048783652787963 0 -0.034574583848376493 -0.0010884140889344711 0 -0.035042754680816024 8.6452401865192428e-05 0 -0.034953228741957706 0.00014421764910719413 0 -0.034977658920698977 0.00021171931286747091 0 -0.034953228741957706 0.00014421764910719413 0 -0.034977658920698977 0.00021171931286747091 0 -0.034937041325093607 0.00020209258468607968 0 -0.034478456573733766 -0.00048284289371576305 0 -0.034496155940969393 -0.00050928109649123134 0 -0.034618470899699869 -0.00022092615205366499 0 -0.034496155940969393 -0.00050928109649123134 0 -0.034904294218536039 0.00018717077662642841 0 -0.034845506699278501 0.00017142235365380103 0 -0.034915754843848061 0.00024511205535215371 0 -0.034937041325093607 0.00020209258468607968 0 -0.034904294218536039 0.00018717077662642841 0 -0.034915754843848061 0.00024511205535215371 0 -0.034413441925324771 -0.00031458742474841473 0 -0.034384420882610359 -0.00028541588128733154 0 -0.034283615039803192 -0.00042230390493084441 0 -0.034953228741957706 0.00014421764910719413 0 -0.034937041325093607 0.00020209258468607968 0 -0.034904294218536039 0.00018717077662642841 0 -0.034904294218536039 0.00018717077662642841 0 -0.034877494776518213 0.00015800641498995327 0 -0.034897276665004147 0.00012824979397173055 0 -0.034904294218536039 0.00018717077662642841 0 -0.034877494776518213 0.00015800641498995327 0 -0.034845506699278501 0.00017142235365380103 0 -0.034863912345702408 0.00014372808799271983 0 -0.034877494776518213 0.00015800641498995327 0 -0.034845506699278501 0.00017142235365380103 0 -0.034863912345702408 0.00014372808799271983 0 -0.034877494776518213 0.00015800641498995327 0 -0.034897276665004147 0.00012824979397173055 0 -0.034953228741957706 0.00014421764910719413 0 -0.034904294218536039 0.00018717077662642841 0 -0.034897276665004147 0.00012824979397173055 0 -0.034445563169717766 -0.00049450118832289553 0 -0.03437930053408516 -0.0005744404622858144 0 -0.034413441925324771 -0.00031458742474841473 0 -0.0345226278710613 -0.00029757912236434323 0 -0.034384830376146001 -0.00038709094021854309 0 -0.0345226278710613 -0.00029757912236434323 0 -0.034399066416200601 -0.00045906260277854571 0 -0.034235853442302087 -0.00043315804272733648 0 -0.034384420882610359 -0.00028541588128733154 0 -0.034436325766337018 -0.00027693843153431995 0 -0.034463861590455926 -0.0002405543671479376 0 -0.034413441925324771 -0.00031458742474841473 0 -0.034384420882610359 -0.00028541588128733154 0 -0.034436325766337018 -0.00027693843153431995 0 -0.034413441925324771 -0.00031458742474841473 0 -0.034436325766337018 -0.00027693843153431995 0 -0.0345226278710613 -0.00029757912236434323 0 -0.034436325766337018 -0.00027693843153431995 0 -0.034463861590455926 -0.0002405543671479376 0 -0.0345226278710613 -0.00029757912236434323 0 -0.034384420882610359 -0.00028541588128733154 0 -0.034463861590455926 -0.0002405543671479376 0 -0.03449712464415125 -0.00015636669283922725 0 -0.034845506699278501 0.00017142235365380103 0 -0.034831545995252372 0.00010984519908530742 0 -0.034734669968924367 8.3501363863252055e-05 0 -0.034618470899699869 -0.00022092615205366499 0 -0.034640045287909579 -0.00013118220026648537 0 -0.034863912345702408 0.00014372808799271983 0 -0.034845506699278501 0.00017142235365380103 0 -0.034831545995252372 0.00010984519908530742 0 -0.034831545995252372 0.00010984519908530742 0 -0.034825944738282363 5.7695555300675236e-05 0 -0.034734669968924367 8.3501363863252055e-05 0 -0.034945458753788371 8.261835461189329e-05 0 -0.034953228741957706 0.00014421764910719413 0 -0.034897276665004147 0.00012824979397173055 0 -0.034863912345702408 0.00014372808799271983 0 -0.034831545995252372 0.00010984519908530742 0 -0.034897276665004147 0.00012824979397173055 0 -0.034831545995252372 0.00010984519908530742 0 -0.034897276665004147 0.00012824979397173055 0 -0.034897175870185301 6.6295551569653274e-05 0 -0.034831545995252372 0.00010984519908530742 0 -0.034825944738282363 5.7695555300675236e-05 0 -0.034897175870185301 6.6295551569653274e-05 0 -0.034978912578825225 2.6153229891634536e-05 0 -0.034945458753788371 8.261835461189329e-05 0 -0.034897175870185301 6.6295551569653274e-05 0 -0.034945458753788371 8.261835461189329e-05 0 -0.034897276665004147 0.00012824979397173055 0 -0.034897175870185301 6.6295551569653274e-05 0 -0.034905045421706297 1.6924065778111489e-05 0 -0.034805184309607336 -4.2655040258685177e-06 0 -0.034968791485213771 -3.1244675337721259e-05 0 -0.034978912578825225 2.6153229891634536e-05 0 -0.034897175870185301 6.6295551569653274e-05 0 -0.034905045421706297 1.6924065778111489e-05 0 -0.034978912578825225 2.6153229891634536e-05 0 -0.034905045421706297 1.6924065778111489e-05 0 -0.034968791485213771 -3.1244675337721259e-05 0 -0.034825944738282363 5.7695555300675236e-05 0 -0.034897175870185301 6.6295551569653274e-05 0 -0.034905045421706297 1.6924065778111489e-05 0 -0.034825944738282363 5.7695555300675236e-05 0 -0.034734669968924367 8.3501363863252055e-05 0 -0.034805184309607336 -4.2655040258685177e-06 0 -0.034805184309607336 -4.2655040258685177e-06 0 -0.034686948742474251 -0.00011345845679661976 0 -0.034968791485213771 -3.1244675337721259e-05 0 -0.034825944738282363 5.7695555300675236e-05 0 -0.034905045421706297 1.6924065778111489e-05 0 -0.034805184309607336 -4.2655040258685177e-06 0 -0.034734669968924367 8.3501363863252055e-05 0 -0.034707879228912719 -2.7269951733203995e-05 0 -0.034805184309607336 -4.2655040258685177e-06 0 -0.034707879228912719 -2.7269951733203995e-05 0 -0.034805184309607336 -4.2655040258685177e-06 0 -0.034686948742474251 -0.00011345845679661976 0 -0.034999961809750429 3.5398044698754717e-09 0 -0.035003158468176587 -7.6721642873540612e-06 0 -0.034968791485213771 -3.1244675337721259e-05 0 -0.034857313816131795 -3.9788942006629797e-05 0 -0.034890354265211206 -3.9062052962630558e-05 0 -0.035000017535425726 -7.1582798609345836e-08 0 -0.034999961809750429 3.5398044698754717e-09 0 -0.034968791485213771 -3.1244675337721259e-05 0 -0.034999841811382847 -6.2872101547964306e-08 0 -0.03500007947859099 2.0588389983642825e-08 0 -0.035009326049813813 6.0756700267829367e-06 0 -0.034686948742474251 -0.00011345845679661976 0 -0.034580196486772553 -6.082456229010195e-05 0 -0.034612054558659754 -7.4903705340614228e-05 0 -0.035003158468176587 -7.6721642873540612e-06 0 -0.03500007947859099 2.0588389983642825e-08 0 -0.035009326049813813 6.0756700267829367e-06 0 -0.034857313816131795 -3.9788942006629797e-05 0 -0.03484370069270671 -3.2563979846348224e-05 0 -0.034999961809750429 3.5398044698754717e-09 0 -0.035003158468176587 -7.6721642873540612e-06 0 -0.03500007947859099 2.0588389983642825e-08 0 -0.034640045287909579 -0.00013118220026648537 0 -0.034639473740350715 -0.00011553866574368725 0 -0.034734669968924367 8.3501363863252055e-05 0 -0.034707879228912719 -2.7269951733203995e-05 0 -0.034612873823059713 -7.6291071735203205e-05 0 -0.034499212234524734 -0.00015442916536107643 0 -0.034464638346426879 -0.00022361339922048997 0 -0.034686948742474251 -0.00011345845679661976 0 -0.034612054558659754 -7.4903705340614228e-05 0 -0.034612873823059713 -7.6291071735203205e-05 0 -0.034612054558659754 -7.4903705340614228e-05 0 -0.034612873823059713 -7.6291071735203205e-05 0 -0.034582111598234627 -0.00012240751496400058 0 -0.03449712464415125 -0.00015636669283922725 0 -0.034612873823059713 -7.6291071735203205e-05 0 -0.034582111598234627 -0.00012240751496400058 0 -0.034612054558659754 -7.4903705340614228e-05 0 -0.034607867918006588 -0.00014736632820605956 0 -0.034573904976273905 -0.00019109927057013452 0 -0.034612054558659754 -7.4903705340614228e-05 0 -0.034582111598234627 -0.00012240751496400058 0 -0.034589626237830552 -0.000188458491014614 0 -0.034707879228912719 -2.7269951733203995e-05 0 -0.034686948742474251 -0.00011345845679661976 0 -0.034612873823059713 -7.6291071735203205e-05 0 -0.034580196486772553 -6.082456229010195e-05 0 -0.034612054558659754 -7.4903705340614228e-05 0 -0.034609967053871753 -0.00011314522564281215 0 -0.034612054558659754 -7.4903705340614228e-05 0 -0.034607867918006588 -0.00014736632820605956 0 -0.034609967053871753 -0.00011314522564281215 0 -0.034659831145214599 -0.00012370965839366148 0 -0.034580196486772553 -6.082456229010195e-05 0 -0.034609967053871753 -0.00011314522564281215 0 -0.034659831145214599 -0.00012370965839366148 0 -0.034609967053871753 -0.00011314522564281215 0 -0.034628451483006695 -0.00016376036787447385 0 -0.034607867918006588 -0.00014736632820605956 0 -0.034609967053871753 -0.00011314522564281215 0 -0.034628451483006695 -0.00016376036787447385 0 -0.034607867918006588 -0.00014736632820605956 0 -0.034628451483006695 -0.00016376036787447385 0 -0.034617014805169891 -0.0001974498023977199 0 -0.034607867918006588 -0.00014736632820605956 0 -0.034617014805169891 -0.0001974498023977199 0 -0.034573904976273905 -0.00019109927057013452 0 -0.034617014805169891 -0.0001974498023977199 0 -0.034573904976273905 -0.00019109927057013452 0 -0.034608246797526658 -0.00022116065148065423 0 -0.034463861590455926 -0.0002405543671479376 0 -0.03449712464415125 -0.00015636669283922725 0 -0.034589626237830552 -0.000188458491014614 0 -0.034463861590455926 -0.0002405543671479376 0 -0.034589626237830552 -0.000188458491014614 0 -0.0345226278710613 -0.00029757912236434323 0 -0.03449712464415125 -0.00015636669283922725 0 -0.034582111598234627 -0.00012240751496400058 0 -0.034589626237830552 -0.000188458491014614 0 -0.034464638346426879 -0.00022361339922048997 0 -0.034353590130311897 -0.00040803940674012602 0 -0.034573904976273905 -0.00019109927057013452 0 -0.034608246797526658 -0.00022116065148065423 0 -0.034577115304819842 -0.00024133803464680657 0 -0.034589626237830552 -0.000188458491014614 0 -0.0345226278710613 -0.00029757912236434323 0 -0.034557555417032496 -0.00043494983937762043 0 -0.0345226278710613 -0.00029757912236434323 0 -0.034557555417032496 -0.00043494983937762043 0 -0.034399066416200601 -0.00045906260277854571 0 -0.034627138027560615 -0.00021428764015855568 0 -0.034617014805169891 -0.0001974498023977199 0 -0.034608246797526658 -0.00022116065148065423 0 -0.034633291048449026 -0.00021452365794884958 0 -0.034608246797526658 -0.00022116065148065423 0 -0.034605386716229751 -0.00025786131345213948 0 -0.034297936518859179 -0.00050096592181537981 0 -0.034193364315933221 -0.0006447477692708781 0 -0.034608246797526658 -0.00022116065148065423 0 -0.034605386716229751 -0.00025786131345213948 0 -0.034577115304819842 -0.00024133803464680657 0 -0.033626076556732866 -0.00088678714706107219 0 -0.033466021142124831 -0.0011286262345453517 0 -0.033644393289616027 -0.0011444892293743438 0 -0.033906091721912029 -0.00094688423155066812 0 -0.033626076556732866 -0.00088678714706107219 0 -0.033644393289616027 -0.0011444892293743438 0 -0.034103002632099921 -0.00083811860442927475 0 -0.034353590130311897 -0.00040803940674012602 0 -0.034193364315933221 -0.0006447477692708781 0 -0.034103002632099921 -0.00083811860442927475 0 -0.034605386716229751 -0.00025786131345213948 0 -0.0345707142279853 -0.00029104754189993319 0 -0.034577115304819842 -0.00024133803464680657 0 -0.03451525919058071 -0.00077915529383345162 0 -0.034557555417032496 -0.00043494983937762043 0 -0.034400396022177177 -0.00059068310749709732 0 -0.034557555417032496 -0.00043494983937762043 0 -0.034399066416200601 -0.00045906260277854571 0 -0.034400396022177177 -0.00059068310749709732 0 -0.034399066416200601 -0.00045906260277854571 0 -0.034235853442302087 -0.00043315804272733648 0 -0.034278868353475413 -0.00056038576928658446 0 -0.034399066416200601 -0.00045906260277854571 0 -0.034278868353475413 -0.00056038576928658446 0 -0.034400396022177177 -0.00059068310749709732 0 -0.034308915342109579 -0.0007534415269044324 0 -0.03437930053408516 -0.0005744404622858144 0 -0.033949656505683434 -0.00061203118269355665 0 -0.034235853442302087 -0.00043315804272733648 0 -0.034142114296397845 -0.00059941880630652773 0 -0.034413441925324771 -0.00031458742474841473 0 -0.034384830376146001 -0.00038709094021854309 0 -0.03429947465234115 -0.0004087677469800821 0 -0.034247665413300897 -0.00047872254688704309 0 -0.034384830376146001 -0.00038709094021854309 0 -0.03429947465234115 -0.0004087677469800821 0 -0.034235853442302087 -0.00043315804272733648 0 -0.034278868353475413 -0.00056038576928658446 0 -0.034142114296397845 -0.00059941880630652773 0 -0.034308915342109579 -0.0007534415269044324 0 -0.034496155940969393 -0.00050928109649123134 0 -0.034142114296397845 -0.00059941880630652773 0 -0.034006427504635554 -0.00068214240612942886 0 -0.034122302235146278 -0.00079751015633947259 0 -0.033949656505683434 -0.00061203118269355665 0 -0.034142114296397845 -0.00059941880630652773 0 -0.034006427504635554 -0.00068214240612942886 0 -0.034142114296397845 -0.00059941880630652773 0 -0.034122302235146278 -0.00079751015633947259 0 -0.034294651642139962 -0.00073563988532390702 0 -0.033989468798011929 -0.00079563207038573446 0 -0.034006427504635554 -0.00068214240612942886 0 -0.034122302235146278 -0.00079751015633947259 0 -0.03451525919058071 -0.00077915529383345162 0 -0.034400396022177177 -0.00059068310749709732 0 -0.034294651642139962 -0.00073563988532390702 0 -0.034278868353475413 -0.00056038576928658446 0 -0.034400396022177177 -0.00059068310749709732 0 -0.034294651642139962 -0.00073563988532390702 0 -0.034278868353475413 -0.00056038576928658446 0 -0.034142114296397845 -0.00059941880630652773 0 -0.034294651642139962 -0.00073563988532390702 0 -0.033505991176960792 -0.001366020560904842 0 -0.033580381478614217 -0.0013512699362729348 0 -0.033513023914058283 -0.0013166085003868879 0 -0.034103002632099921 -0.00083811860442927475 0 -0.033921016285469383 -0.001095225545428166 0 -0.034122302235146278 -0.00079751015633947259 0 -0.034294651642139962 -0.00073563988532390702 0 -0.034234581939077212 -0.001023399542066416 0 -0.03451525919058071 -0.00077915529383345162 0 -0.034294651642139962 -0.00073563988532390702 0 -0.034234581939077212 -0.001023399542066416 0 -0.033925723425010143 -0.0010916991059966956 0 -0.033986666347524334 -0.00093154056486816658 0 -0.034234581939077212 -0.001023399542066416 0 -0.033986666347524334 -0.00093154056486816658 0 -0.034122302235146278 -0.00079751015633947259 0 -0.034234581939077212 -0.001023399542066416 0 -0.033986666347524334 -0.00093154056486816658 0 -0.033989468798011929 -0.00079563207038573446 0 -0.034122302235146278 -0.00079751015633947259 0 -0.033580381478614217 -0.0013512699362729348 0 -0.033617327700824422 -0.001345826924575716 0 -0.033687816066179425 -0.0013542552173762741 0 -0.033925723425010143 -0.0010916991059966956 0 -0.034234581939077212 -0.001023399542066416 0 -0.033944183978832372 -0.001239168451656999 0 -0.033921016285469383 -0.001095225545428166 0 -0.033840713598559627 -0.0012104389624422883 0 -0.033580381478614217 -0.0013512699362729348 0 -0.033617327700824422 -0.001345826924575716 0 -0.033552635674755117 -0.0013477616089783422 0 -0.033580381478614217 -0.0013512699362729348 0 -0.033552635674755117 -0.0013477616089783422 0 -0.033513023914058283 -0.0013166085003868879 0 -0.033552635674755117 -0.0013477616089783422 0 -0.033544192579733782 -0.0013699165679900329 0 -0.033513023914058283 -0.0013166085003868879 0 -0.033544192579733782 -0.0013699165679900329 0 -0.03357548418332032 -0.0012859025619333408 0 -0.033513023914058283 -0.0013166085003868879 0 -0.033641170021859824 -0.0013130050251111461 0 -0.033544192579733782 -0.0013699165679900329 0 -0.03357548418332032 -0.0012859025619333408 0 -0.033641170021859824 -0.0013130050251111461 0 -0.033544192579733782 -0.0013699165679900329 0 -0.033528419580313343 -0.0014434951967515293 0 -0.033466021142124831 -0.0011286262345453517 0 -0.033644393289616027 -0.0011444892293743438 0 -0.03357548418332032 -0.0012859025619333408 0 -0.033641170021859824 -0.0013130050251111461 0 -0.033644393289616027 -0.0011444892293743438 0 -0.03357548418332032 -0.0012859025619333408 0 -0.033466021142124831 -0.0011286262345453517 0 -0.03357548418332032 -0.0012859025619333408 0 -0.033513023914058283 -0.0013166085003868879 0 -0.034103002632099921 -0.00083811860442927475 0 -0.034032416064786845 -0.00099135965054034992 0 -0.033557451264703095 -0.0013357774457523031 0 -0.033528419580313343 -0.0014434951967515293 0 -0.03346601767406842 -0.0012615453605548566 0 -0.033544192579733782 -0.0013699165679900329 0 -0.033557451264703095 -0.0013357774457523031 0 -0.033528419580313343 -0.0014434951967515293 0 -0.033552635674755117 -0.0013477616089783422 0 -0.033544192579733782 -0.0013699165679900329 0 -0.033557451264703095 -0.0013357774457523031 0 -0.033617327700824422 -0.001345826924575716 0 -0.033552635674755117 -0.0013477616089783422 0 -0.033604091903846625 -0.0013300727605551461 0 -0.033552635674755117 -0.0013477616089783422 0 -0.033557451264703095 -0.0013357774457523031 0 -0.033604091903846625 -0.0013300727605551461 0 -0.033617327700824422 -0.001345826924575716 0 -0.033651421649426055 -0.0013304285822157182 0 -0.033687816066179425 -0.0013542552173762741 0 -0.033651421649426055 -0.0013304285822157182 0 -0.03370324367615582 -0.0013088203726093477 0 -0.033687816066179425 -0.0013542552173762741 0 -0.033617327700824422 -0.001345826924575716 0 -0.033604091903846625 -0.0013300727605551461 0 -0.033651421649426055 -0.0013304285822157182 0 -0.033604091903846625 -0.0013300727605551461 0 -0.033651421649426055 -0.0013304285822157182 0 -0.033665746706502762 -0.0013003934652567281 0 -0.033604091903846625 -0.0013300727605551461 0 -0.033665746706502762 -0.0013003934652567281 0 -0.0336308351680581 -0.0012865147039947862 0 -0.033651421649426055 -0.0013304285822157182 0 -0.033665746706502762 -0.0013003934652567281 0 -0.03370324367615582 -0.0013088203726093477 0 -0.033665746706502762 -0.0013003934652567281 0 -0.0336308351680581 -0.0012865147039947862 0 -0.033703159068673175 -0.0012406994350606583 0 -0.033665746706502762 -0.0013003934652567281 0 -0.033703159068673175 -0.0012406994350606583 0 -0.033723514930143805 -0.0012776692656941747 0 -0.033665746706502762 -0.0013003934652567281 0 -0.033723514930143805 -0.0012776692656941747 0 -0.03370324367615582 -0.0013088203726093477 0 -0.033557451264703095 -0.0013357774457523031 0 -0.033604091903846625 -0.0013300727605551461 0 -0.0336308351680581 -0.0012865147039947862 0 -0.033557451264703095 -0.0013357774457523031 0 -0.0336308351680581 -0.0012865147039947862 0 -0.033623328540057874 -0.0011978414316181408 0 -0.0336308351680581 -0.0012865147039947862 0 -0.033623328540057874 -0.0011978414316181408 0 -0.033703159068673175 -0.0012406994350606583 0 -0.033623328540057874 -0.0011978414316181408 0 -0.033593223023345609 -0.0010712129343491861 0 -0.033544127989459292 -0.001184703288063021 0 -0.033629065674537426 -0.0011660248273221339 0 -0.033604653034171691 -0.001119938320309219 0 -0.033703159068673175 -0.0012406994350606583 0 -0.033704050390584654 -0.0011777305523164672 0 -0.033741848850952827 -0.0012241312471673034 0 -0.033623328540057874 -0.0011978414316181408 0 -0.033703159068673175 -0.0012406994350606583 0 -0.033737554075717789 -0.0010597810471703272 0 -0.033623328540057874 -0.0011978414316181408 0 -0.033737554075717789 -0.0010597810471703272 0 -0.033593223023345609 -0.0010712129343491861 0 -0.033737554075717789 -0.0010597810471703272 0 -0.033593223023345609 -0.0010712129343491861 0 -0.033617936433081745 -0.00097987897703672778 0 -0.033593223023345609 -0.0010712129343491861 0 -0.033472832836793066 -0.0010116706821991965 0 -0.033544127989459292 -0.001184703288063021 0 -0.033593223023345609 -0.0010712129343491861 0 -0.033472832836793066 -0.0010116706821991965 0 -0.033617936433081745 -0.00097987897703672778 0 -0.033557451264703095 -0.0013357774457523031 0 -0.033623328540057874 -0.0011978414316181408 0 -0.033544127989459292 -0.001184703288063021 0 -0.033557451264703095 -0.0013357774457523031 0 -0.033544127989459292 -0.001184703288063021 0 -0.03346601767406842 -0.0012615453605548566 0 -0.033472832836793066 -0.0010116706821991965 0 -0.033544127989459292 -0.001184703288063021 0 -0.03346601767406842 -0.0012615453605548566 0 -0.033297027581024902 -0.0010410800582593238 0 -0.033472832836793066 -0.0010116706821991965 0 -0.03346601767406842 -0.0012615453605548566 0 -0.033297027581024902 -0.0010410800582593238 0 -0.033472832836793066 -0.0010116706821991965 0 -0.03332998311425308 -0.00077226695920280797 0 -0.033472832836793066 -0.0010116706821991965 0 -0.03332998311425308 -0.00077226695920280797 0 -0.033501228626602257 -0.00069085407366280488 0 -0.033472832836793066 -0.0010116706821991965 0 -0.033501228626602257 -0.00069085407366280488 0 -0.033667173061951099 -0.00072804354264830666 0 -0.03354800994972048 -0.00099324802768904893 0 -0.033605350427498105 -0.00096671317522201063 0 -0.033501228626602257 -0.00069085407366280488 0 -0.033574896605605628 -0.00057302147644182355 0 -0.033667173061951099 -0.00072804354264830666 0 -0.033501228626602257 -0.00069085407366280488 0 -0.033574896605605628 -0.00057302147644182355 0 -0.03345050376588022 -0.00041407421156456318 0 -0.03332998311425308 -0.00077226695920280797 0 -0.033501228626602257 -0.00069085407366280488 0 -0.03345050376588022 -0.00041407421156456318 0 -0.03332998311425308 -0.00077226695920280797 0 -0.033309154447686964 -0.00036591241047058485 0 -0.033303299494303142 -0.00046422225240315396 0 -0.033309154447686964 -0.00036591241047058485 0 -0.033303299494303142 -0.00046422225240315396 0 -0.033117775197229679 -0.0002964916253096519 0 -0.033574896605605628 -0.00057302147644182355 0 -0.03345050376588022 -0.00041407421156456318 0 -0.033581823736775256 -0.00044173223596726837 0 -0.033308266327459715 -0.0005556309576067427 0 -0.033388588013514117 -0.00035863670143613217 0 -0.033118081032264692 -0.00051966846098690526 0 -0.03332998311425308 -0.00077226695920280797 0 -0.033303299494303142 -0.00046422225240315396 0 -0.032703698781994327 -0.00053038889864570507 0 -0.033303299494303142 -0.00046422225240315396 0 -0.033117775197229679 -0.0002964916253096519 0 -0.032825681324475692 -0.00050470562800685522 0 -0.033062744364152553 -0.0004777282085180028 0 -0.032703698781994327 -0.00053038889864570507 0 -0.032955601030404819 -0.00010621035467714342 0 -0.033117775197229679 -0.0002964916253096519 0 -0.032955601030404819 -0.00010621035467714342 0 -0.033117775197229679 -0.0002964916253096519 0 -0.03321521357446923 -6.2524172784379509e-05 0 -0.033388588013514117 -0.00035863670143613217 0 -0.033541646622196906 -9.48869978535841e-06 0 -0.033309154447686964 -0.00036591241047058485 0 -0.03321521357446923 -6.2524172784379509e-05 0 -0.03345634966598978 6.6168803695914474e-05 0 -0.033309154447686964 -0.00036591241047058485 0 -0.033117775197229679 -0.0002964916253096519 0 -0.03321521357446923 -6.2524172784379509e-05 0 -0.03345050376588022 -0.00041407421156456318 0 -0.033616084378588082 -0.00030196407173701297 0 -0.033581823736775256 -0.00044173223596726837 0 -0.03321521357446923 -6.2524172784379509e-05 0 -0.033049952304090822 0.00015776188164091324 0 -0.03345634966598978 6.6168803695914474e-05 0 -0.032955601030404819 -0.00010621035467714342 0 -0.03321521357446923 -6.2524172784379509e-05 0 -0.033049952304090822 0.00015776188164091324 0 -0.032799050443598966 0.00012407735931621754 0 -0.032955601030404819 -0.00010621035467714342 0 -0.033049952304090822 0.00015776188164091324 0 -0.033805507263851911 1.4858853659763159e-05 0 -0.033717079731919265 -0.00017111400424902506 0 -0.033885177220520681 -0.00016783149500052973 0 -0.033805507263851911 1.4858853659763159e-05 0 -0.033885177220520681 -0.00016783149500052973 0 -0.033959529064944177 -3.9143502116725485e-05 0 -0.033885177220520681 -0.00016783149500052973 0 -0.033959529064944177 -3.9143502116725485e-05 0 -0.033975148963233365 -0.00013097717090237881 0 -0.033805507263851911 1.4858853659763159e-05 0 -0.033959529064944177 -3.9143502116725485e-05 0 -0.034001190877194075 0.00011546946251080677 0 -0.033805507263851911 1.4858853659763159e-05 0 -0.033565937813083341 -2.4650616939772292e-05 0 -0.033717079731919265 -0.00017111400424902506 0 -0.033717079731919265 -0.00017111400424902506 0 -0.033714688373394572 -0.0003124214624875654 0 -0.033788243631380173 -0.00027211816921330977 0 -0.03345050376588022 -0.00041407421156456318 0 -0.033565937813083341 -2.4650616939772292e-05 0 -0.033616084378588082 -0.00030196407173701297 0 -0.033717079731919265 -0.00017111400424902506 0 -0.033616084378588082 -0.00030196407173701297 0 -0.033714688373394572 -0.0003124214624875654 0 -0.033565937813083341 -2.4650616939772292e-05 0 -0.033717079731919265 -0.00017111400424902506 0 -0.033616084378588082 -0.00030196407173701297 0 -0.033616084378588082 -0.00030196407173701297 0 -0.033581823736775256 -0.00044173223596726837 0 -0.033681269444367237 -0.0004246141757509899 0 -0.033616084378588082 -0.00030196407173701297 0 -0.033714688373394572 -0.0003124214624875654 0 -0.033681269444367237 -0.0004246141757509899 0 -0.033714688373394572 -0.0003124214624875654 0 -0.033772318302197284 -0.00038852116516651882 0 -0.033681269444367237 -0.0004246141757509899 0 -0.033772318302197284 -0.00038852116516651882 0 -0.033838642794823542 -0.00033761863467570081 0 -0.033836838313149188 -0.00041438392371425113 0 -0.033838642794823542 -0.00033761863467570081 0 -0.033903324216857517 -0.000302917761350605 0 -0.033836838313149188 -0.00041438392371425113 0 -0.033838642794823542 -0.00033761863467570081 0 -0.033788243631380173 -0.00027211816921330977 0 -0.033880589257958803 -0.0002739068272887498 0 -0.033772318302197284 -0.00038852116516651882 0 -0.033838642794823542 -0.00033761863467570081 0 -0.033788243631380173 -0.00027211816921330977 0 -0.033714688373394572 -0.0003124214624875654 0 -0.033772318302197284 -0.00038852116516651882 0 -0.033788243631380173 -0.00027211816921330977 0 -0.033717079731919265 -0.00017111400424902506 0 -0.033788243631380173 -0.00027211816921330977 0 -0.033885177220520681 -0.00016783149500052973 0 -0.033885177220520681 -0.00016783149500052973 0 -0.033879963112980027 -0.00027269818032547123 0 -0.033990706600148794 -0.00021550296285431669 0 -0.033885177220520681 -0.00016783149500052973 0 -0.033880589257958803 -0.0002739068272887498 0 -0.0339049445220568 -0.00030197690456803145 0 -0.033386645960553248 -0.00097098860204989583 0 -0.033373503096552369 -0.0010487790600259804 0 -0.033788243631380173 -0.00027211816921330977 0 -0.033885177220520681 -0.00016783149500052973 0 -0.033880589257958803 -0.0002739068272887498 0 -0.033373503096552369 -0.0010487790600259804 0 -0.033314737673472601 -0.0013600983488965823 0 -0.033838642794823542 -0.00033761863467570081 0 -0.033880589257958803 -0.0002739068272887498 0 -0.033903324216857517 -0.000302917761350605 0 -0.03337344137813409 -0.0010461711474435932 0 -0.033373503096552369 -0.0010487790600259804 0 -0.033373503096552369 -0.0010487790600259804 0 -0.033510137100708583 -0.0010923305845089344 0 -0.033394286701752991 -0.0011750901671975917 0 -0.033392925965479082 -0.0013967507560947198 0 -0.0335044559720096 -0.0013195808237444165 0 -0.033770588118055125 -0.00051447393994808648 0 -0.033904922979737025 -0.00052334541008062683 0 -0.033667173061951099 -0.00072804354264830666 0 -0.033903324216857517 -0.000302917761350605 0 -0.033836838313149188 -0.00041438392371425113 0 -0.033904922979737025 -0.00052334541008062683 0 -0.033510137100708583 -0.0010923305845089344 0 -0.033314737673472601 -0.0013600983488965823 0 -0.033836838313149188 -0.00041438392371425113 0 -0.033770588118055125 -0.00051447393994808648 0 -0.033904922979737025 -0.00052334541008062683 0 -0.033772318302197284 -0.00038852116516651882 0 -0.033836838313149188 -0.00041438392371425113 0 -0.033770588118055125 -0.00051447393994808648 0 -0.033581823736775256 -0.00044173223596726837 0 -0.033681269444367237 -0.0004246141757509899 0 -0.033655364151190782 -0.00053812891461722529 0 -0.033772318302197284 -0.00038852116516651882 0 -0.033770588118055125 -0.00051447393994808648 0 -0.033681269444367237 -0.0004246141757509899 0 -0.033770588118055125 -0.00051447393994808648 0 -0.033681269444367237 -0.0004246141757509899 0 -0.033655364151190782 -0.00053812891461722529 0 -0.033770588118055125 -0.00051447393994808648 0 -0.033655364151190782 -0.00053812891461722529 0 -0.033667173061951099 -0.00072804354264830666 0 -0.033574896605605628 -0.00057302147644182355 0 -0.033655364151190782 -0.00053812891461722529 0 -0.033667173061951099 -0.00072804354264830666 0 -0.033574896605605628 -0.00057302147644182355 0 -0.033581823736775256 -0.00044173223596726837 0 -0.033655364151190782 -0.00053812891461722529 0 -0.033704050390584654 -0.0011777305523164672 0 -0.033703677604054599 -0.0011067715317315259 0 -0.033731030716919616 -0.0011470778818214236 0 -0.033604653034171691 -0.001119938320309219 0 -0.033510137100708583 -0.0010923305845089344 0 -0.033510137100708583 -0.0010923305845089344 0 -0.033605350427498105 -0.00096671317522201063 0 -0.033737554075717789 -0.0010597810471703272 0 -0.033740580908600153 -0.00089715545084146557 0 -0.033617936433081745 -0.00097987897703672778 0 -0.032832025643612268 -0.0016549069962840291 0 -0.033215007282000358 -0.0014686277528535552 0 -0.033731030716919616 -0.0011470778818214236 0 -0.033766319840072855 -0.0011460267567540642 0 -0.033750169338224452 -0.0011804128685560349 0 -0.033731030716919616 -0.0011470778818214236 0 -0.033766319840072855 -0.0011460267567540642 0 -0.033726828485981776 -0.001115444374982947 0 -0.032313917251304607 -0.0013863498252136976 0 -0.03173686893285628 -0.0015361950654816045 0 -0.031797623732630592 -0.00071019960203251966 0 -0.032313917251304607 -0.0013863498252136976 0 -0.032072932417698513 -0.0020021335025770942 0 -0.03173686893285628 -0.0015361950654816045 0 -0.032313917251304607 -0.0013863498252136976 0 -0.032072932417698513 -0.0020021335025770942 0 -0.032423687274060413 -0.0021042151121948845 0 -0.032072932417698513 -0.0020021335025770942 0 -0.031656488725632308 -0.0023830637044557003 0 -0.03173686893285628 -0.0015361950654816045 0 -0.032423687274060413 -0.0021042151121948845 0 -0.032169590314334778 -0.0024050172807683515 0 -0.032577911585916865 -0.0024991410672174637 0 -0.032072932417698513 -0.0020021335025770942 0 -0.032423687274060413 -0.0021042151121948845 0 -0.032169590314334778 -0.0024050172807683515 0 -0.032072932417698513 -0.0020021335025770942 0 -0.032169590314334778 -0.0024050172807683515 0 -0.031656488725632308 -0.0023830637044557003 0 -0.032313917251304607 -0.0013863498252136976 0 -0.032423687274060413 -0.0021042151121948845 0 -0.032825575723152887 -0.0020680662280533023 0 -0.033766319840072855 -0.0011460267567540642 0 -0.033733016102655757 -0.0011039107934894057 0 -0.033726828485981776 -0.001115444374982947 0 -0.033732925174226776 -0.0011039014261176121 0 -0.033726828485981776 -0.001115444374982947 0 -0.033724258532306615 -0.0010925660370580458 0 -0.033703677604054599 -0.0011067715317315259 0 -0.033731030716919616 -0.0011470778818214236 0 -0.033726828485981776 -0.001115444374982947 0 -0.033703677604054599 -0.0011067715317315259 0 -0.033726828485981776 -0.001115444374982947 0 -0.033724258532306615 -0.0010925660370580458 0 -0.033215007282000358 -0.0014686277528535552 0 -0.033227635475623525 -0.001451142277105025 0 -0.032423687274060413 -0.0021042151121948845 0 -0.032825575723152887 -0.0020680662280533023 0 -0.032577911585916865 -0.0024991410672174637 0 -0.033215007282000358 -0.0014686277528535552 0 -0.033073265261276637 -0.0015754229052517576 0 -0.033314737673472601 -0.0013600983488965823 0 -0.033073265261276637 -0.0015754229052517576 0 -0.033140938988196943 -0.0013922272318264398 0 -0.033127758480534487 -0.0013749455585281415 0 -0.033163724374215206 -0.0013500373641479803 0 -0.033215007282000358 -0.0014686277528535552 0 -0.033314737673472601 -0.0013600983488965823 0 -0.033879963112980027 -0.00027269818032547123 0 -0.033985743278721829 -0.00041961328838835936 0 -0.033999692571858357 -0.00030026115189172426 0 -0.033985743278721829 -0.00041961328838835936 0 -0.033999692571858357 -0.00030026115189172426 0 -0.034117781248836423 -0.00033334414194617585 0 -0.033879963112980027 -0.00027269818032547123 0 -0.033999692571858357 -0.00030026115189172426 0 -0.033990706600148794 -0.00021550296285431669 0 -0.034088939972077438 -0.00019242391184212267 0 -0.034117781248836423 -0.00033334414194617585 0 -0.034270279630538164 -6.8528514974274939e-06 0 -0.033885177220520681 -0.00016783149500052973 0 -0.033990706600148794 -0.00021550296285431669 0 -0.033975148963233365 -0.00013097717090237881 0 -0.033999692571858357 -0.00030026115189172426 0 -0.033990706600148794 -0.00021550296285431669 0 -0.034088939972077438 -0.00019242391184212267 0 -0.033990706600148794 -0.00021550296285431669 0 -0.033975148963233365 -0.00013097717090237881 0 -0.034069161582100896 -9.9528864368170545e-05 0 -0.033990706600148794 -0.00021550296285431669 0 -0.034088939972077438 -0.00019242391184212267 0 -0.034069161582100896 -9.9528864368170545e-05 0 -0.033999692571858357 -0.00030026115189172426 0 -0.034088939972077438 -0.00019242391184212267 0 -0.034117781248836423 -0.00033334414194617585 0 -0.033073265261276637 -0.0015754229052517576 0 -0.03268877552435151 -0.001811605940092326 0 -0.033073265261276637 -0.0015754229052517576 0 -0.032652750272784588 -0.0019456239682086097 0 -0.032169590314334778 -0.0024050172807683515 0 -0.032577911585916865 -0.0024991410672174637 0 -0.032006923660456807 -0.0029204066589986703 0 -0.032969285398036563 -0.0022518678290243386 0 -0.032006923660456807 -0.0029204066589986703 0 -0.032349748747242321 -0.0034636597544976709 0 -0.032169590314334778 -0.0024050172807683515 0 -0.032006923660456807 -0.0029204066589986703 0 -0.031656488725632308 -0.0023830637044557003 0 -0.032349748747242321 -0.0034636597544976709 0 -0.031480256678745454 -0.0038017281264832591 0 -0.031752371673896239 -0.0048777471547768458 0 -0.032349748747242321 -0.0034636597544976709 0 -0.031480256678745454 -0.0038017281264832591 0 -0.031719365332389775 -0.0031913173884752176 0 -0.032006923660456807 -0.0029204066589986703 0 -0.032349748747242321 -0.0034636597544976709 0 -0.031719365332389775 -0.0031913173884752176 0 -0.034270279630538164 -6.8528514974274939e-06 0 -0.034132989047677101 3.630035428114682e-05 0 -0.034281052198931579 8.5281092970721642e-05 0 -0.034132989047677101 3.630035428114682e-05 0 -0.033959529064944177 -3.9143502116725485e-05 0 -0.034001190877194075 0.00011546946251080677 0 -0.034132989047677101 3.630035428114682e-05 0 -0.033959529064944177 -3.9143502116725485e-05 0 -0.034069161582100896 -9.9528864368170545e-05 0 -0.033959529064944177 -3.9143502116725485e-05 0 -0.033975148963233365 -0.00013097717090237881 0 -0.034069161582100896 -9.9528864368170545e-05 0 -0.034088939972077438 -0.00019242391184212267 0 -0.034270279630538164 -6.8528514974274939e-06 0 -0.034069161582100896 -9.9528864368170545e-05 0 -0.034270279630538164 -6.8528514974274939e-06 0 -0.034132989047677101 3.630035428114682e-05 0 -0.034069161582100896 -9.9528864368170545e-05 0 -0.029895990601431225 -0.0030088978676635946 0 -0.030640768368658387 -0.0037066651292943604 0 -0.031052556344198321 -0.0028759008773277871 0 -0.029895990601431225 -0.0030088978676635946 0 -0.02969816297104997 -0.0039623914379721056 0 -0.030640768368658387 -0.0037066651292943604 0 -0.02969816297104997 -0.0039623914379721056 0 -0.030640768368658387 -0.0037066651292943604 0 -0.030625749780051059 -0.0046062707008143362 0 -0.030640768368658387 -0.0037066651292943604 0 -0.031480256678745454 -0.0038017281264832591 0 -0.030625749780051059 -0.0046062707008143362 0 -0.031480256678745454 -0.0038017281264832591 0 -0.031719365332389775 -0.0031913173884752176 0 -0.031052556344198321 -0.0028759008773277871 0 -0.030640768368658387 -0.0037066651292943604 0 -0.031480256678745454 -0.0038017281264832591 0 -0.031052556344198321 -0.0028759008773277871 0 -0.031052556344198321 -0.0028759008773277871 0 -0.031457025076007596 -0.0025558729767913677 0 -0.031514943310640371 -0.002313968387627807 0 -0.031719365332389775 -0.0031913173884752176 0 -0.031052556344198321 -0.0028759008773277871 0 -0.031457025076007596 -0.0025558729767913677 0 -0.032006923660456807 -0.0029204066589986703 0 -0.031719365332389775 -0.0031913173884752176 0 -0.031457025076007596 -0.0025558729767913677 0 -0.032006923660456807 -0.0029204066589986703 0 -0.031457025076007596 -0.0025558729767913677 0 -0.031656488725632308 -0.0023830637044557003 0 -0.030894443539778299 -0.0023179554220152166 0 -0.030723345746918235 -0.0018882508884307547 0 -0.031052556344198321 -0.0028759008773277871 0 -0.030286815366795936 -0.0011076318572582281 0 -0.029565167517455776 -0.0019791114740509278 0 -0.029895990601431225 -0.0030088978676635946 0 -0.031052556344198321 -0.0028759008773277871 0 -0.029565167517455776 -0.0019791114740509278 0 -0.030286815366795936 -0.0011076318572582281 0 -0.029548016916790307 -0.0012147202038483105 0 -0.029565167517455776 -0.0019791114740509278 0 -0.031514943310640371 -0.002313968387627807 0 -0.031557701006537694 -0.0023480122080516024 0 -0.031648613045234461 -0.0024147145309694725 0 -0.030286815366795936 -0.0011076318572582281 0 -0.029546249787899791 -0.00032082103798357901 0 -0.029548016916790307 -0.0012147202038483105 0 -0.032152818803602247 -0.0022168138580622759 0 -0.032240561866825716 -0.0021340232375971326 0 -0.031656488725632308 -0.0023830637044557003 0 -0.031557701006537694 -0.0023480122080516024 0 -0.031508873271856697 -0.0023868737890295642 0 -0.031457025076007596 -0.0025558729767913677 0 -0.031656488725632308 -0.0023830637044557003 0 -0.031557701006537694 -0.0023480122080516024 0 -0.031457025076007596 -0.0025558729767913677 0 -0.031514943310640371 -0.002313968387627807 0 -0.031557701006537694 -0.0023480122080516024 0 -0.031508873271856697 -0.0023868737890295642 0 -0.031611387696423084 -0.0025399039914359911 0 -0.031648613045234461 -0.0024147145309694725 0 -0.031557701006537694 -0.0023480122080516024 0 -0.031508873271856697 -0.0023868737890295642 0 -0.031648613045234461 -0.0024147145309694725 0 -0.032240561866825716 -0.0021340232375971326 0 -0.032522714013955317 -0.0021628040319205573 0 -0.031508873271856697 -0.0023868737890295642 0 -0.031611387696423084 -0.0025399039914359911 0 -0.031421756954759517 -0.0027112692397217768 0 -0.031611387696423084 -0.0025399039914359911 0 -0.031648613045234461 -0.0024147145309694725 0 -0.031782841935266683 -0.0025720684260299221 0 -0.031514943310640371 -0.002313968387627807 0 -0.031648613045234461 -0.0024147145309694725 0 -0.031964474341275299 -0.0024931602294016842 0 -0.030723345746918235 -0.0018882508884307547 0 -0.030363666843701908 -0.0012249826854723465 0 -0.030286815366795936 -0.0011076318572582281 0 -0.029600400867800924 0.00054203532650015456 0 -0.029546249787899791 -0.00032082103798357901 0 -0.031648613045234461 -0.0024147145309694725 0 -0.031964474341275299 -0.0024931602294016842 0 -0.031782841935266683 -0.0025720684260299221 0 -0.031964474341275299 -0.0024931602294016842 0 -0.031782841935266683 -0.0025720684260299221 0 -0.031956134672932443 -0.0027384756397335233 0 -0.031782841935266683 -0.0025720684260299221 0 -0.031751725478460294 -0.0027448007669347613 0 -0.031956134672932443 -0.0027384756397335233 0 -0.031751725478460294 -0.0027448007669347613 0 -0.031956134672932443 -0.0027384756397335233 0 -0.031993846050545907 -0.0029424740648503005 0 -0.031956134672932443 -0.0027384756397335233 0 -0.031993846050545907 -0.0029424740648503005 0 -0.032317435346700646 -0.0029576800451830429 0 -0.031751725478460294 -0.0027448007669347613 0 -0.031993846050545907 -0.0029424740648503005 0 -0.031750643165120745 -0.0031354552488381854 0 -0.031993846050545907 -0.0029424740648503005 0 -0.032163339670001498 -0.0032046694727054952 0 -0.032317435346700646 -0.0029576800451830429 0 -0.031993846050545907 -0.0029424740648503005 0 -0.032163339670001498 -0.0032046694727054952 0 -0.031750643165120745 -0.0031354552488381854 0 -0.032490851930008925 -0.0028098315508532454 0 -0.032522714013955317 -0.0021628040319205573 0 -0.032386468529773282 -0.0035635368216318281 0 -0.032437841083241152 -0.0036277473317466473 0 -0.032441560624427122 -0.0035153428282265302 0 -0.031751725478460294 -0.0027448007669347613 0 -0.031750643165120745 -0.0031354552488381854 0 -0.031421756954759517 -0.0027112692397217768 0 -0.031611387696423084 -0.0025399039914359911 0 -0.031751725478460294 -0.0027448007669347613 0 -0.031421756954759517 -0.0027112692397217768 0 -0.031611387696423084 -0.0025399039914359911 0 -0.031782841935266683 -0.0025720684260299221 0 -0.031751725478460294 -0.0027448007669347613 0 -0.032832025643612268 -0.0016549069962840291 0 -0.032522714013955317 -0.0021628040319205573 0 -0.033766319840072855 -0.0011460267567540642 0 -0.0338019896277428 -0.0011897007614795835 0 -0.033750169338224452 -0.0011804128685560349 0 -0.0338019896277428 -0.0011897007614795835 0 -0.033750169338224452 -0.0011804128685560349 0 -0.033741848850952827 -0.0012241312471673034 0 -0.033704050390584654 -0.0011777305523164672 0 -0.033731030716919616 -0.0011470778818214236 0 -0.033750169338224452 -0.0011804128685560349 0 -0.033704050390584654 -0.0011777305523164672 0 -0.033750169338224452 -0.0011804128685560349 0 -0.033741848850952827 -0.0012241312471673034 0 -0.0338019896277428 -0.0011897007614795835 0 -0.033771751864161662 -0.0012544550949888733 0 -0.033791209712868704 -0.0012824100593248474 0 -0.0338019896277428 -0.0011897007614795835 0 -0.033741848850952827 -0.0012241312471673034 0 -0.033771751864161662 -0.0012544550949888733 0 -0.032522714013955317 -0.0021628040319205573 0 -0.032968077613507667 -0.0023313995032513551 0 -0.033791209712868704 -0.0012824100593248474 0 -0.033794307745402194 -0.0012817367231561755 0 -0.033813141222734017 -0.0012490468370872463 0 -0.033771751864161662 -0.0012544550949888733 0 -0.033791209712868704 -0.0012824100593248474 0 -0.033794307745402194 -0.0012817367231561755 0 -0.033741848850952827 -0.0012241312471673034 0 -0.033771751864161662 -0.0012544550949888733 0 -0.033723514930143805 -0.0012776692656941747 0 -0.033703159068673175 -0.0012406994350606583 0 -0.033741848850952827 -0.0012241312471673034 0 -0.033723514930143805 -0.0012776692656941747 0 -0.033794307745402194 -0.0012817367231561755 0 -0.033723514930143805 -0.0012776692656941747 0 -0.03370324367615582 -0.0013088203726093477 0 -0.033771751864161662 -0.0012544550949888733 0 -0.033794307745402194 -0.0012817367231561755 0 -0.033723514930143805 -0.0012776692656941747 0 -0.033794307745402194 -0.0012817367231561755 0 -0.03370324367615582 -0.0013088203726093477 0 -0.033687816066179425 -0.0013542552173762741 0 -0.033818076244953491 -0.001240553494282693 0 -0.033840713598559627 -0.0012104389624422883 0 -0.033794307745402194 -0.0012817367231561755 0 -0.033886929297819592 -0.0012287322258637406 0 -0.033944183978832372 -0.001239168451656999 0 -0.03383432360879704 -0.0012140673713944771 0 -0.033886929297819592 -0.0012287322258637406 0 -0.033813141222734017 -0.0012490468370872463 0 -0.033796535979529217 -0.0012174523235819023 0 -0.033791209712868704 -0.0012824100593248474 0 -0.033813141222734017 -0.0012490468370872463 0 -0.033794307745402194 -0.0012817367231561755 0 -0.033886929297819592 -0.0012287322258637406 0 -0.033813141222734017 -0.0012490468370872463 0 -0.033318867786013888 -0.0022424809213141051 0 -0.032968077613507667 -0.0023313995032513551 0 -0.033796535979529217 -0.0012174523235819023 0 -0.03383432360879704 -0.0012140673713944771 0 -0.033813141222734017 -0.0012490468370872463 0 -0.032418520211593076 -0.0034775209936038875 0 -0.032441560624427122 -0.0035153428282265302 0 -0.032418396764094151 -0.003477875189729222 0 -0.032428697936320576 -0.0034761951129474705 0 -0.032418520211593076 -0.0034775209936038875 0 -0.032418396764094151 -0.003477875189729222 0 -0.032428697936320576 -0.0034761951129474705 0 -0.032418396764094151 -0.003477875189729222 0 -0.032419501476380105 -0.0034739206725133082 0 -0.032418396764094151 -0.003477875189729222 0 -0.032419501476380105 -0.0034739206725133082 0 -0.03229160057245388 -0.0034826291339368517 0 -0.032540855447465482 -0.0034796896809243566 0 -0.032419501476380105 -0.0034739206725133082 0 -0.032368637699529162 -0.0035161233905486098 0 -0.032419501476380105 -0.0034739206725133082 0 -0.03229160057245388 -0.0034826291339368517 0 -0.032368637699529162 -0.0035161233905486098 0 -0.032418396764094151 -0.003477875189729222 0 -0.03229160057245388 -0.0034826291339368517 0 -0.032393526259761815 -0.0035109259793476809 0 -0.032163339670001498 -0.0032046694727054952 0 -0.031750643165120745 -0.0031354552488381854 0 -0.03229160057245388 -0.0034826291339368517 0 -0.032386468529773282 -0.0035635368216318281 0 -0.03229160057245388 -0.0034826291339368517 0 -0.032393526259761815 -0.0035109259793476809 0 -0.032490851930008925 -0.0028098315508532454 0 -0.032489856787651393 -0.0029962297770760493 0 -0.032386468529773282 -0.0035635368216318281 0 -0.032441560624427122 -0.0035153428282265302 0 -0.032393526259761815 -0.0035109259793476809 0 -0.032441560624427122 -0.0035153428282265302 0 -0.032418396764094151 -0.003477875189729222 0 -0.032393526259761815 -0.0035109259793476809 0 -0.027767099447095649 0.002555036510741935 0 -0.026758545046723644 0.0029587596457271359 0 -0.026834962117698744 0.0020044393956944974 0 -0.032163339670001498 -0.0032046694727054952 0 -0.03229160057245388 -0.0034826291339368517 0 -0.032484650583020969 -0.0034039627598890809 0 -0.029575028663205081 -0.0013569515771726908 0 -0.028798513304208979 4.1033173884132955e-05 0 -0.032345457675693329 -0.0035388704766268955 0 -0.032484650583020969 -0.0034039627598890809 0 -0.032368637699529162 -0.0035161233905486098 0 -0.03229160057245388 -0.0034826291339368517 0 -0.032484650583020969 -0.0034039627598890809 0 -0.032368637699529162 -0.0035161233905486098 0 -0.032345457675693329 -0.0035388704766268955 0 -0.032540855447465482 -0.0034796896809243566 0 -0.032368637699529162 -0.0035161233905486098 0 -0.027659634527062438 0.0011744382752633018 0 -0.028798513304208979 4.1033173884132955e-05 0 -0.027773943999026302 -0.00070702034457902508 0 -0.028093269876512738 -0.00072405701089122906 0 -0.027949636401573792 -0.0011627621128498958 0 -0.027253868360608377 0.0038988960065376938 0 -0.027767099447095649 0.002555036510741935 0 -0.026758545046723644 0.0029587596457271359 0 -0.025826843437566031 0.0039600532947257948 0 -0.027253868360608377 0.0038988960065376938 0 -0.026758545046723644 0.0029587596457271359 0 -0.025826843437566031 0.0039600532947257948 0 -0.026758545046723644 0.0029587596457271359 0 -0.0258586291769567 0.0029712072398335181 0 -0.025826843437566031 0.0039600532947257948 0 -0.0258586291769567 0.0029712072398335181 0 -0.02487897938142546 0.0026753508495966655 0 -0.026543787543062278 0.0016007638438414358 0 -0.025731374555582845 0.0013475665024141954 0 -0.026068602767484936 0.0022341558603555856 0 -0.025230781278217557 0.0014256934005197682 0 -0.02487897938142546 0.0026753508495966655 0 -0.0258586291769567 0.0029712072398335181 0 -0.026068602767484936 0.0022341558603555856 0 -0.02487897938142546 0.0026753508495966655 0 -0.026758545046723644 0.0029587596457271359 0 -0.026068602767484936 0.0022341558603555856 0 -0.026834962117698744 0.0020044393956944974 0 -0.026758545046723644 0.0029587596457271359 0 -0.0258586291769567 0.0029712072398335181 0 -0.026068602767484936 0.0022341558603555856 0 -0.026834962117698744 0.0020044393956944974 0 -0.026286955071365518 0.0012245555347241703 0 -0.027288148416606397 0.0010433522650009032 0 -0.026068602767484936 0.0022341558603555856 0 -0.026834962117698744 0.0020044393956944974 0 -0.026286955071365518 0.0012245555347241703 0 -0.026068602767484936 0.0022341558603555856 0 -0.026286955071365518 0.0012245555347241703 0 -0.025230781278217557 0.0014256934005197682 0 -0.026286955071365518 0.0012245555347241703 0 -0.025230781278217557 0.0014256934005197682 0 -0.025479380931283633 0.00028906165958622561 0 -0.026286955071365518 0.0012245555347241703 0 -0.026505201376543386 0.00045220047152352822 0 -0.027288148416606397 0.0010433522650009032 0 -0.026286955071365518 0.0012245555347241703 0 -0.026505201376543386 0.00045220047152352822 0 -0.025479380931283633 0.00028906165958622561 0 -0.027577633979212958 0.0017479149257533142 0 -0.028198203694438373 0.00071856852272189338 0 -0.027760396374228308 0.00022900987251130649 0 -0.027577633979212958 0.0017479149257533142 0 -0.028722867838116221 0.0011666913927914509 0 -0.028198203694438373 0.00071856852272189338 0 -0.028307692277596577 0.0039330183960015015 0 -0.027577633979212958 0.0017479149257533142 0 -0.028944634177686373 0.0022426701663194491 0 -0.027767099447095649 0.002555036510741935 0 -0.026834962117698744 0.0020044393956944974 0 -0.027288148416606397 0.0010433522650009032 0 -0.028798513304208979 4.1033173884132955e-05 0 -0.028148117889434426 0.00086321642741330991 0 -0.028798513304208979 4.1033173884132955e-05 0 -0.029795284055737999 -0.00060911271206711835 0 -0.032163339670001498 -0.0032046694727054952 0 -0.032484650583020969 -0.0034039627598890809 0 -0.032317435346700646 -0.0029576800451830429 0 -0.031964474341275299 -0.0024931602294016842 0 -0.031956134672932443 -0.0027384756397335233 0 -0.032317435346700646 -0.0029576800451830429 0 -0.030363666843701908 -0.0012249826854723465 0 -0.029795284055737999 -0.00060911271206711835 0 -0.027577633979212958 0.0017479149257533142 0 -0.028944634177686373 0.0022426701663194491 0 -0.028722867838116221 0.0011666913927914509 0 -0.029600400867800924 0.00054203532650015456 0 -0.028944634177686373 0.0022426701663194491 0 -0.028722867838116221 0.0011666913927914509 0 -0.029600400867800924 0.00054203532650015456 0 -0.028722867838116221 0.0011666913927914509 0 -0.028628867736551156 0.00021564848865583496 0 -0.029600400867800924 0.00054203532650015456 0 -0.028628867736551156 0.00021564848865583496 0 -0.029546249787899791 -0.00032082103798357901 0 -0.028628867736551156 0.00021564848865583496 0 -0.029546249787899791 -0.00032082103798357901 0 -0.027269531107366896 -0.00092447637959615055 0 -0.028722867838116221 0.0011666913927914509 0 -0.028628867736551156 0.00021564848865583496 0 -0.028198203694438373 0.00071856852272189338 0 -0.027577633979212958 0.0017479149257533142 0 -0.027760396374228308 0.00022900987251130649 0 -0.026857015623472844 -0.00051567362409135685 0 -0.028148117889434426 0.00086321642741330991 0 -0.027695749120384069 0.00021304890249899892 0 -0.028628867736551156 0.00021564848865583496 0 -0.027760396374228308 0.00022900987251130649 0 -0.027269531107366896 -0.00092447637959615055 0 -0.028628867736551156 0.00021564848865583496 0 -0.028198203694438373 0.00071856852272189338 0 -0.027760396374228308 0.00022900987251130649 0 -0.027760396374228308 0.00022900987251130649 0 -0.027269531107366896 -0.00092447637959615055 0 -0.026857015623472844 -0.00051567362409135685 0 -0.027384459903586393 -0.00087351095668713173 0 -0.028377652325840247 -0.0011284360224715607 0 -0.027772850742437193 -0.0018640910227049896 0 -0.028801646830467174 -0.0014631421491443026 0 -0.028377652325840247 -0.0011284360224715607 0 -0.027772850742437193 -0.0018640910227049896 0 -0.027384459903586393 -0.00087351095668713173 0 -0.027772850742437193 -0.0018640910227049896 0 -0.026652550119721535 -0.0018161725839387481 0 -0.028232417432711449 -0.00035571234269679021 0 -0.027065245541365159 -0.00055033463728116944 0 -0.029546249787899791 -0.00032082103798357901 0 -0.027384459903586393 -0.00087351095668713173 0 -0.028377652325840247 -0.0011284360224715607 0 -0.029546249787899791 -0.00032082103798357901 0 -0.028801646830467174 -0.0014631421491443026 0 -0.029548016916790307 -0.0012147202038483105 0 -0.029546249787899791 -0.00032082103798357901 0 -0.028801646830467174 -0.0014631421491443026 0 -0.028377652325840247 -0.0011284360224715607 0 -0.028801646830467174 -0.0014631421491443026 0 -0.029548016916790307 -0.0012147202038483105 0 -0.029565167517455776 -0.0019791114740509278 0 -0.028801646830467174 -0.0014631421491443026 0 -0.029565167517455776 -0.0019791114740509278 0 -0.028826302206808766 -0.0027433935356875384 0 -0.028801646830467174 -0.0014631421491443026 0 -0.028826302206808766 -0.0027433935356875384 0 -0.027772850742437193 -0.0018640910227049896 0 -0.029895990601431225 -0.0030088978676635946 0 -0.029565167517455776 -0.0019791114740509278 0 -0.028826302206808766 -0.0027433935356875384 0 -0.027772850742437193 -0.0018640910227049896 0 -0.027812808055722896 -0.0031025361358845713 0 -0.026900313231113325 -0.0027245886350530353 0 -0.028826302206808766 -0.0027433935356875384 0 -0.027772850742437193 -0.0018640910227049896 0 -0.027812808055722896 -0.0031025361358845713 0 -0.027812808055722896 -0.0031025361358845713 0 -0.02847644234514864 -0.003994714215545433 0 -0.027090467337718589 -0.0041727964637780302 0 -0.027812808055722896 -0.0031025361358845713 0 -0.026900313231113325 -0.0027245886350530353 0 -0.027090467337718589 -0.0041727964637780302 0 -0.02969816297104997 -0.0039623914379721056 0 -0.028826302206808766 -0.0027433935356875384 0 -0.02847644234514864 -0.003994714215545433 0 -0.028826302206808766 -0.0027433935356875384 0 -0.027812808055722896 -0.0031025361358845713 0 -0.02847644234514864 -0.003994714215545433 0 -0.029895990601431225 -0.0030088978676635946 0 -0.02969816297104997 -0.0039623914379721056 0 -0.028826302206808766 -0.0027433935356875384 0 -0.02591910669406575 -0.0035332707846052855 0 -0.024503624611705511 -0.003060953402572317 0 -0.025033647204505089 -0.0047860811883157686 0 -0.02591910669406575 -0.0035332707846052855 0 -0.025880328120273136 -0.0024192220513783568 0 -0.024503624611705511 -0.003060953402572317 0 -0.02591910669406575 -0.0035332707846052855 0 -0.026900313231113325 -0.0027245886350530353 0 -0.027090467337718589 -0.0041727964637780302 0 -0.02591910669406575 -0.0035332707846052855 0 -0.026900313231113325 -0.0027245886350530353 0 -0.025880328120273136 -0.0024192220513783568 0 -0.026652550119721535 -0.0018161725839387481 0 -0.025880328120273136 -0.0024192220513783568 0 -0.025221868302673717 -0.0014432976965852839 0 -0.026900313231113325 -0.0027245886350530353 0 -0.026652550119721535 -0.0018161725839387481 0 -0.025880328120273136 -0.0024192220513783568 0 -0.027772850742437193 -0.0018640910227049896 0 -0.026900313231113325 -0.0027245886350530353 0 -0.026652550119721535 -0.0018161725839387481 0 -0.025880328120273136 -0.0024192220513783568 0 -0.025221868302673717 -0.0014432976965852839 0 -0.024503624611705511 -0.003060953402572317 0 -0.025525791091519597 -0.0013353539511779438 0 -0.025826034888464185 -0.00041106238558836534 0 -0.024739661603460517 -0.00099604808988704358 0 -0.027065245541365159 -0.00055033463728116944 0 -0.024869136276507203 -0.00071277676697754011 0 -0.027384459903586393 -0.00087351095668713173 0 -0.026652550119721535 -0.0018161725839387481 0 -0.025221868302673717 -0.0014432976965852839 0 -0.025525791091519597 -0.0013353539511779438 0 -0.026857015623472844 -0.00051567362409135685 0 -0.025826034888464185 -0.00041106238558836534 0 -0.027269531107366896 -0.00092447637959615055 0 -0.025525791091519597 -0.0013353539511779438 0 -0.026857015623472844 -0.00051567362409135685 0 -0.026505201376543386 0.00045220047152352822 0 -0.027288148416606397 0.0010433522650009032 0 -0.026857015623472844 -0.00051567362409135685 0 -0.026505201376543386 0.00045220047152352822 0 -0.026857015623472844 -0.00051567362409135685 0 -0.025826034888464185 -0.00041106238558836534 0 -0.026505201376543386 0.00045220047152352822 0 -0.025826034888464185 -0.00041106238558836534 0 -0.025479380931283633 0.00028906165958622561 0 -0.025826034888464185 -0.00041106238558836534 0 -0.025479380931283633 0.00028906165958622561 0 -0.024739661603460517 -0.00099604808988704358 0 -0.025479380931283633 0.00028906165958622561 0 -0.024326007815340441 -0.00026818392074567444 0 -0.024440739648648142 0.00059174022778040966 0 -0.02434156964125753 0.00036005523400495253 0 -0.023716767179213102 0.00019176120184390239 0 -0.025479380931283633 0.00028906165958622561 0 -0.024217881463872482 -0.00031101724950809108 0 -0.024739661603460517 -0.00099604808988704358 0 -0.024326007815340441 -0.00026818392074567444 0 -0.023172534942404073 -0.00076012708577611232 0 -0.023028534984107781 3.1622914195833099e-05 0 -0.024326007815340441 -0.00026818392074567444 0 -0.023028534984107781 3.1622914195833099e-05 0 -0.024440739648648142 0.00059174022778040966 0 -0.023919429292148717 -0.0012668284227333433 0 -0.023409472911292355 -0.0014748962046341667 0 -0.022966678977758326 -0.00092492615110972018 0 -0.023716767179213102 0.00019176120184390239 0 -0.022338243951707529 -9.045405269481818e-06 0 -0.024217881463872482 -0.00031101724950809108 0 -0.023919429292148717 -0.0012668284227333433 0 -0.022966678977758326 -0.00092492615110972018 0 -0.023919429292148717 -0.0012668284227333433 0 -0.023409472911292355 -0.0014748962046341667 0 -0.023869146301651063 -0.0017764741912015395 0 -0.025525791091519597 -0.0013353539511779438 0 -0.024739661603460517 -0.00099604808988704358 0 -0.023871515531239552 -0.0017692223327923765 0 -0.024217881463872482 -0.00031101724950809108 0 -0.023919429292148717 -0.0012668284227333433 0 -0.024739661603460517 -0.00099604808988704358 0 -0.023919429292148717 -0.0012668284227333433 0 -0.024739661603460517 -0.00099604808988704358 0 -0.023871515531239552 -0.0017692223327923765 0 -0.024869136276507203 -0.00071277676697754011 0 -0.021054366461468552 -0.00070664153818858976 0 -0.025221868302673717 -0.0014432976965852839 0 -0.023083432025539703 -0.0020080378270589134 0 -0.024503624611705511 -0.003060953402572317 0 -0.021130512367281449 -0.00076191650986364942 0 -0.021054366461468552 -0.00070664153818858976 0 -0.023409472911292355 -0.0014748962046341667 0 -0.023869146301651063 -0.0017764741912015395 0 -0.022922851791939841 -0.0016878712706147221 0 -0.021054366461468552 -0.00070664153818858976 0 -0.019778957474563666 -0.0018092843499882079 0 -0.016102845748587797 -0.00064165033853709583 0 -0.016158805839423127 -3.1360810777860144e-05 0 -0.01643124131164082 -0.00035073765487856197 0 -0.016158805839423127 -3.1360810777860144e-05 0 -0.016547609591750268 2.0495526328267016e-06 0 -0.01643124131164082 -0.00035073765487856197 0 -0.022910913408529968 -0.0038179903227549597 0 -0.024503624611705511 -0.003060953402572317 0 -0.023753075793415162 -0.00475393332170004 0 -0.023083432025539703 -0.0020080378270589134 0 -0.022910913408529968 -0.0038179903227549597 0 -0.024503624611705511 -0.003060953402572317 0 -0.017761868348543465 -3.7498567624954011e-05 0 -0.017778129685248337 6.8369053672305601e-07 0 -0.018370455739377747 -6.7640948483785595e-05 0 -0.017761868348543465 -3.7498567624954011e-05 0 -0.017232618453206255 1.5863700396626361e-05 0 -0.01754366089657396 -0.00015645779327098751 0 -0.017761868348543465 -3.7498567624954011e-05 0 -0.017778129685248337 6.8369053672305601e-07 0 -0.017232618453206255 1.5863700396626361e-05 0 -0.019200974621850705 0.00016663672165225961 0 -0.019818502369573304 -0.00030720923862718406 0 -0.016547609591750268 2.0495526328267016e-06 0 -0.016801876206765379 -0.0003777377608587934 0 -0.01643124131164082 -0.00035073765487856197 0 -0.017232618453206255 1.5863700396626361e-05 0 -0.016547609591750268 2.0495526328267016e-06 0 -0.01754366089657396 -0.00015645779327098751 0 -0.016102845748587797 -0.00064165033853709583 0 -0.01643124131164082 -0.00035073765487856197 0 -0.01684791462731831 -0.00044720889794992339 0 -0.021054366461468552 -0.00070664153818858976 0 -0.020074753603568987 -0.00050870671409976689 0 -0.023869146301651063 -0.0017764741912015395 0 -0.022922851791939841 -0.0016878712706147221 0 -0.022169355382744817 -0.0022280028944393899 0 -0.016801876206765379 -0.0003777377608587934 0 -0.01643124131164082 -0.00035073765487856197 0 -0.01684791462731831 -0.00044720889794992339 0 -0.023409472911292355 -0.0014748962046341667 0 -0.022922851791939841 -0.0016878712706147221 0 -0.022880144515372115 -0.0014069056663972377 0 -0.022922851791939841 -0.0016878712706147221 0 -0.022363219162077633 -0.0015942970841841706 0 -0.022880144515372115 -0.0014069056663972377 0 -0.022922851791939841 -0.0016878712706147221 0 -0.022363219162077633 -0.0015942970841841706 0 -0.022169355382744817 -0.0022280028944393899 0 -0.020074753603568987 -0.00050870671409976689 0 -0.020126845943933235 -0.00010091928762742062 0 -0.017768979559385514 -0.00015662600325827938 0 -0.018370455739377747 -6.7640948483785595e-05 0 -0.018634568647588435 -0.00052747656895261259 0 -0.022363219162077633 -0.0015942970841841706 0 -0.022169355382744817 -0.0022280028944393899 0 -0.021710757258281262 -0.0015479118895183768 0 -0.017778129685248337 6.8369053672305601e-07 0 -0.018370455739377747 -6.7640948483785595e-05 0 -0.019417506638018889 -1.7835486232249834e-06 0 -0.01754366089657396 -0.00015645779327098751 0 -0.017768979559385514 -0.00015662600325827938 0 -0.018370455739377747 -6.7640948483785595e-05 0 -0.017761868348543465 -3.7498567624954011e-05 0 -0.01754366089657396 -0.00015645779327098751 0 -0.018370455739377747 -6.7640948483785595e-05 0 -0.019818502369573304 -0.00030720923862718406 0 -0.020074753603568987 -0.00050870671409976689 0 -0.018370455739377747 -6.7640948483785595e-05 0 -0.018634568647588435 -0.00052747656895261259 0 -0.019417506638018889 -1.7835486232249834e-06 0 -0.020126845943933235 -0.00010091928762742062 0 -0.019422694178437155 -1.6305976225991089e-06 0 -0.019645426083612163 1.0827392249767921e-07 0 -0.019421059591493164 7.2875035736772481e-10 0 -0.020311733316470397 -2.7440470820214899e-10 0 -0.020998108903648369 -0.0011927047081592519 0 -0.020319425860560226 -3.1817020525489983e-06 0 -0.023172534942404073 -0.00076012708577611232 0 -0.020126845943933235 -0.00010091928762742062 0 -0.020312273175128862 -4.4914290354552956e-07 0 -0.020319425860560226 -3.1817020525489983e-06 0 -0.023172534942404073 -0.00076012708577611232 0 -0.023028534984107781 3.1622914195833099e-05 0 -0.020126845943933235 -0.00010091928762742062 0 -0.022338243951707529 -9.045405269481818e-06 0 -0.022363219162077633 -0.0015942970841841706 0 -0.021710757258281262 -0.0015479118895183768 0 -0.022966678977758326 -0.00092492615110972018 0 -0.023409472911292355 -0.0014748962046341667 0 -0.022880144515372115 -0.0014069056663972377 0 -0.022966678977758326 -0.00092492615110972018 0 -0.022363219162077633 -0.0015942970841841706 0 -0.022880144515372115 -0.0014069056663972377 0 -0.022966678977758326 -0.00092492615110972018 0 -0.020319425860560226 -3.1817020525489983e-06 0 -0.023028534984107781 3.1622914195833099e-05 0 -0.025482178828673371 1.6068124809088811e-06 0 -0.023028534984107781 3.1622914195833099e-05 0 -0.025115352808573119 -1.0804829400137564e-05 0 -0.025482178828673371 1.6068124809088811e-06 0 -0.024331259268044886 0.00043994542498396037 0 -0.02486804252347297 0.00082942958848142669 0 -0.023028534984107781 3.1622914195833099e-05 0 -0.024440739648648142 0.00059174022778040966 0 -0.023924010662223136 0.0013587185042550306 0 -0.025230781278217557 0.0014256934005197682 0 -0.025479380931283633 0.00028906165958622561 0 -0.024440739648648142 0.00059174022778040966 0 -0.025230781278217557 0.0014256934005197682 0 -0.024440739648648142 0.00059174022778040966 0 -0.023924010662223136 0.0013587185042550306 0 -0.02486804252347297 0.00082942958848142669 0 -0.025731374555582845 0.0013475665024141954 0 -0.025230781278217557 0.0014256934005197682 0 -0.023924010662223136 0.0013587185042550306 0 -0.02487897938142546 0.0026753508495966655 0 -0.025115352808573119 -1.0804829400137564e-05 0 -0.025954918455068289 6.7955751798498478e-05 0 -0.026436120882345419 8.3070920746095716e-05 0 -0.026613975128291466 0.00011336213027041558 0 -0.026436120882345419 8.3070920746095716e-05 0 -0.026678284799305597 0.00011689043136335205 0 -0.026613975128291466 0.00011336213027041558 0 -0.026681954060281305 9.8486783962411622e-05 0 -0.026436120882345419 8.3070920746095716e-05 0 -0.025954918455068289 6.7955751798498478e-05 0 -0.026436120882345419 8.3070920746095716e-05 0 -0.026678284799305597 0.00011689043136335205 0 -0.025954918455068289 6.7955751798498478e-05 0 -0.026678284799305597 0.00011689043136335205 0 -0.026509297715493284 9.8644471504901244e-05 0 -0.025115352808573119 -1.0804829400137564e-05 0 -0.025954918455068289 6.7955751798498478e-05 0 -0.025482178828673371 1.6068124809088811e-06 0 -0.027644341963351228 8.614516939975034e-05 0 -0.026509297715493284 9.8644471504901244e-05 0 -0.025482178828673371 1.6068124809088811e-06 0 -0.025954918455068289 6.7955751798498478e-05 0 -0.026509297715493284 9.8644471504901244e-05 0 -0.025482178828673371 1.6068124809088811e-06 0 -0.0080067350565187646 -0.00038907687591611701 0 -0.0082265006169930637 -0.00070616887857071257 0 -0.0078969525342790954 -0.0010894233495504614 0 -0.011966248979579593 -0.0016820217459103692 0 -0.01240042775683753 -0.0021574870847788346 0 -0.0083126409758149424 -0.00047795132504914326 0 -0.0087656200574155532 -0.00050849075817694799 0 -0.0082682117373600698 -0.0004180351139741754 0 -0.0087656200574155532 -0.00050849075817694799 0 -0.0093092716726233416 -0.00024170147042053503 0 -0.0082682117373600698 -0.0004180351139741754 0 -0.0083126409758149424 -0.00047795132504914326 0 -0.0080067350565187646 -0.00038907687591611701 0 -0.0082265006169930637 -0.00070616887857071257 0 -0.0083126409758149424 -0.00047795132504914326 0 -0.0080067350565187646 -0.00038907687591611701 0 -0.0082682117373600698 -0.0004180351139741754 0 -0.0082265006169930637 -0.00070616887857071257 0 -0.0085168971696493127 -0.0010093998059377462 0 -0.0078969525342790954 -0.0010894233495504614 0 -0.0082265006169930637 -0.00070616887857071257 0 -0.0087656200574155532 -0.00050849075817694799 0 -0.0085168971696493127 -0.0010093998059377462 0 -0.0083126409758149424 -0.00047795132504914326 0 -0.0082265006169930637 -0.00070616887857071257 0 -0.0087656200574155532 -0.00050849075817694799 0 -0.0087656200574155532 -0.00050849075817694799 0 -0.0091052461380769657 -0.00078195914590238169 0 -0.0085168971696493127 -0.0010093998059377462 0 -0.0087656200574155532 -0.00050849075817694799 0 -0.0091052461380769657 -0.00078195914590238169 0 -0.0094677682957111844 -0.00040680441762102053 0 -0.0091052461380769657 -0.00078195914590238169 0 -0.0094677682957111844 -0.00040680441762102053 0 -0.010525301166402391 -0.00031091865573816297 0 -0.0087656200574155532 -0.00050849075817694799 0 -0.0094677682957111844 -0.00040680441762102053 0 -0.0093092716726233416 -0.00024170147042053503 0 -0.0094677682957111844 -0.00040680441762102053 0 -0.010525301166402391 -0.00031091865573816297 0 -0.0093092716726233416 -0.00024170147042053503 0 -0.010817422600292125 -9.1881569036744009e-07 0 -0.0093092716726233416 -0.00024170147042053503 0 -0.0087792450887396681 -1.0567144164019459e-06 0 -0.010817422600292125 -9.1881569036744009e-07 0 -0.010525301166402391 -0.00031091865573816297 0 -0.0093092716726233416 -0.00024170147042053503 0 -0.0093092716726233416 -0.00024170147042053503 0 -0.0087792450887396681 -1.0567144164019459e-06 0 -0.0082401214230479712 -0.00040494181038594381 0 -0.0093092716726233416 -0.00024170147042053503 0 -0.0082401214230479712 -0.00040494181038594381 0 -0.0082682117373600698 -0.0004180351139741754 0 -0.0082401214230479712 -0.00040494181038594381 0 -0.0075617911781465669 -0.00079555786955231808 0 -0.0072239833241460726 -0.00069871556066657776 0 -0.0075617911781465669 -0.00079555786955231808 0 -0.0081668812253349737 -0.00040396687177467243 0 -0.0065894420386560862 -0.0017199964544841401 0 -0.0082401214230479712 -0.00040494181038594381 0 -0.0082682117373600698 -0.0004180351139741754 0 -0.0075617911781465669 -0.00079555786955231808 0 -0.0080067350565187646 -0.00038907687591611701 0 -0.0082682117373600698 -0.0004180351139741754 0 -0.0075617911781465669 -0.00079555786955231808 0 -0.0080067350565187646 -0.00038907687591611701 0 -0.0075617911781465669 -0.00079555786955231808 0 -0.0081668812253349737 -0.00040396687177467243 0 -0.0049952183580326001 -0.0033218448672774044 0 -0.0063263956796258567 -0.0062844448116000104 0 -0.0065894420386560862 -0.0017199964544841401 0 -0.0098153115787996802 -0.0037688442607977557 0 -0.0094281838914947493 -0.0030880013857980267 0 -0.0049952183580326001 -0.0033218448672774044 0 -0.0049628581109100135 -0.0053777780020254108 0 -0.0040374625105023187 -0.0051869042408841329 0 -0.0049628581109100135 -0.0053777780020254108 0 -0.0040374625105023187 -0.0051869042408841329 0 -0.0045636513616034331 -0.0066333205211166523 0 -0.0049628581109100135 -0.0053777780020254108 0 -0.0063263956796258567 -0.0062844448116000104 0 -0.0045636513616034331 -0.0066333205211166523 0 -0.0049952183580326001 -0.0033218448672774044 0 -0.0049628581109100135 -0.0053777780020254108 0 -0.0063263956796258567 -0.0062844448116000104 0 -0.0049952183580326001 -0.0033218448672774044 0 -0.0040374625105023187 -0.0051869042408841329 0 -0.0026370999217907786 -0.0038551768366541887 0 -0.0040374625105023187 -0.0051869042408841329 0 -0.0024457599275263782 -0.0062504459399820075 0 -0.0035898321028038751 -0.0064196930429794097 0 -0.0040374625105023187 -0.0051869042408841329 0 -0.0035898321028038751 -0.0064196930429794097 0 -0.0045636513616034331 -0.0066333205211166523 0 -0.0024457599275263782 -0.0062504459399820075 0 -0.0010161951030137305 -0.0057409751053238761 0 -0.0026370999217907786 -0.0038551768366541887 0 -0.0040374625105023187 -0.0051869042408841329 0 -0.0024457599275263782 -0.0062504459399820075 0 -0.0026370999217907786 -0.0038551768366541887 0 -0.0024457599275263782 -0.0062504459399820075 0 -0.0033680623115778167 -0.0075768499416920413 0 -0.0021277050239640093 -0.0078134849181418393 0 -0.0033680623115778167 -0.0075768499416920413 0 -0.0045636513616034331 -0.0066333205211166523 0 -0.0045758029766853631 -0.0081564379533688672 0 -0.0024457599275263782 -0.0062504459399820075 0 -0.0035898321028038751 -0.0064196930429794097 0 -0.0033680623115778167 -0.0075768499416920413 0 -0.0035898321028038751 -0.0064196930429794097 0 -0.0033680623115778167 -0.0075768499416920413 0 -0.0045636513616034331 -0.0066333205211166523 0 -0.0033680623115778167 -0.0075768499416920413 0 -0.0045758029766853631 -0.0081564379533688672 0 -0.0032313948550956703 -0.0090147453307552871 0 -0.0021277050239640093 -0.0078134849181418393 0 -0.0032313948550956703 -0.0090147453307552871 0 -0.0014763725456029451 -0.0092703137876201155 0 -0.0033680623115778167 -0.0075768499416920413 0 -0.0021277050239640093 -0.0078134849181418393 0 -0.0032313948550956703 -0.0090147453307552871 0 -0.0081668812253349737 -0.00040396687177467243 0 -0.0082128409325482616 -2.5052298280051761e-05 0 -0.0080800281636267748 -8.0042057112375285e-05 0 -0.0080067350565187646 -0.00038907687591611701 0 -0.0081668812253349737 -0.00040396687177467243 0 -0.0080800281636267748 -8.0042057112375285e-05 0 -0.0098153115787996802 -0.0037688442607977557 0 -0.011127220196870345 -0.0049533376295354302 0 -0.0063263956796258567 -0.0062844448116000104 0 -0.0045758029766853631 -0.0081564379533688672 0 -0.005645761978066691 -0.009543675627377228 0 -0.0063263956796258567 -0.0062844448116000104 0 -0.0045636513616034331 -0.0066333205211166523 0 -0.0045758029766853631 -0.0081564379533688672 0 -0.005645761978066691 -0.009543675627377228 0 -0.0034863207608717157 -0.01076057284711987 0 -0.0051178267008559373 -0.012558823880885795 0 -0.011127220196870345 -0.0049533376295354302 0 -0.014020184565126329 -0.0056505035757502976 0 -0.0082128409325482616 -2.5052298280051761e-05 0 -0.0081245353588691952 0.00017936316212442875 0 -0.0080800281636267748 -8.0042057112375285e-05 0 -0.0045758029766853631 -0.0081564379533688672 0 -0.005645761978066691 -0.009543675627377228 0 -0.0042316109544495977 -0.0093767252512809429 0 -0.005645761978066691 -0.009543675627377228 0 -0.0042316109544495977 -0.0093767252512809429 0 -0.0034863207608717157 -0.01076057284711987 0 -0.0032313948550956703 -0.0090147453307552871 0 -0.0034863207608717157 -0.01076057284711987 0 -0.0014763725456029451 -0.0092703137876201155 0 -0.0045758029766853631 -0.0081564379533688672 0 -0.0042316109544495977 -0.0093767252512809429 0 -0.0032313948550956703 -0.0090147453307552871 0 -0.0042316109544495977 -0.0093767252512809429 0 -0.0032313948550956703 -0.0090147453307552871 0 -0.0034863207608717157 -0.01076057284711987 0 -0.014431928104217364 -0.0057992555895275176 0 -0.01326777064043258 -0.0081504611279050003 0 -0.023018110138444802 -0.0092770142654322856 0 -0.024361075691212288 -0.0082590701420030728 0 -0.02506817729189113 -0.0092998898433201554 0 -0.0034863207608717157 -0.01076057284711987 0 -0.0048191707492303481 -0.012782423462661875 0 -0.0010255973048249277 -0.012633469174266368 0 -0.0082128409325482616 -2.5052298280051761e-05 0 -0.0081245353588691952 0.00017936316212442875 0 -0.0082645092244073397 0.0002810886100723154 0 -0.013791469280595065 -0.0038386320869238707 0 -0.014020184565126329 -0.0056505035757502976 0 -0.013791469280595065 -0.0038386320869238707 0 -0.014772345484055198 -0.0042895132649349178 0 -0.0034863207608717157 -0.01076057284711987 0 -0.0051178267008559373 -0.012558823880885795 0 -0.0048191707492303481 -0.012782423462661875 0 -0.014020184565126329 -0.0056505035757502976 0 -0.014431928104217364 -0.0057992555895275176 0 -0.014517660616472907 -0.0048596211852391276 0 -0.014384992843821116 -0.0057293494221251039 0 -0.01340513276741016 -0.005713807660688526 0 -0.014020184565126329 -0.0056505035757502976 0 -0.014350633307404957 -0.0056248448473081945 0 -0.014350633307404957 -0.0056248448473081945 0 -0.014431928104217364 -0.0057992555895275176 0 -0.014113163146410429 -0.0050719752640157505 0 -0.014598598638244946 -0.0046997051100735347 0 -0.01415771880853923 -0.0046088482650707826 0 -0.014350633307404957 -0.0056248448473081945 0 -0.014772345484055198 -0.0042895132649349178 0 -0.014598598638244946 -0.0046997051100735347 0 -0.014611304581802645 -0.0046163928939480774 0 -0.01415771880853923 -0.0046088482650707826 0 -0.015610050541287675 -0.00068173330122024288 0 -0.014730939750957704 -0.00067708202640874191 0 -0.015249587055107233 -0.00017119599714466284 0 -0.014772345484055198 -0.0042895132649349178 0 -0.01362264392825884 -0.0019660534722341391 0 -0.011434892581779066 -0.00018426813756017779 0 -0.011624199989946217 -0.00020266958210347403 0 -0.01154421089120874 -9.1342670227743158e-05 0 -0.01145324818419342 -9.2763101040185841e-05 0 -0.011434892581779066 -0.00018426813756017779 0 -0.01154421089120874 -9.1342670227743158e-05 0 -0.013791469280595065 -0.0038386320869238707 0 -0.01240042775683753 -0.0021574870847788346 0 -0.013791469280595065 -0.0038386320869238707 0 -0.012743653968929212 -0.0033223657149110946 0 -0.007712359451533049 -0.002653785429953464 0 -0.0087823946461009997 -0.0018508007855613635 0 -0.0078969525342790954 -0.0010894233495504614 0 -0.01145324818419342 -9.2763101040185841e-05 0 -0.01154421089120874 -9.1342670227743158e-05 0 -0.011553603556770634 -3.6304225922480651e-05 0 -0.01154421089120874 -9.1342670227743158e-05 0 -0.011553603556770634 -3.6304225922480651e-05 0 -0.011610561885622667 3.4165737568049024e-05 0 -0.0091052461380769657 -0.00078195914590238169 0 -0.0087823946461009997 -0.0018508007855613635 0 -0.0085168971696493127 -0.0010093998059377462 0 -0.0087823946461009997 -0.0018508007855613635 0 -0.0085168971696493127 -0.0010093998059377462 0 -0.0078969525342790954 -0.0010894233495504614 0 -0.010817422600292125 -9.1881569036744009e-07 0 -0.011610561885622667 3.4165737568049024e-05 0 -0.012852293022107565 -3.4619380053185784e-07 0 -0.010817422600292125 -9.1881569036744009e-07 0 -0.010525301166402391 -0.00031091865573816297 0 -0.011610561885622667 3.4165737568049024e-05 0 -0.010525301166402391 -0.00031091865573816297 0 -0.011553603556770634 -3.6304225922480651e-05 0 -0.011610561885622667 3.4165737568049024e-05 0 -0.012526882476663634 -0.0030653042873989428 0 -0.012743653968929212 -0.0033223657149110946 0 -0.0091052461380769657 -0.00078195914590238169 0 -0.010525301166402391 -0.00031091865573816297 0 -0.0087823946461009997 -0.0018508007855613635 0 -0.01362264392825884 -0.0019660534722341391 0 -0.012855874151247886 -5.7776934244661007e-06 0 -0.011624199989946217 -0.00020266958210347403 0 -0.011610561885622667 3.4165737568049024e-05 0 -0.012852293022107565 -3.4619380053185784e-07 0 -0.011624199989946217 -0.00020266958210347403 0 -0.01154421089120874 -9.1342670227743158e-05 0 -0.011610561885622667 3.4165737568049024e-05 0 -0.014730939750957704 -0.00067708202640874191 0 -0.012857492828294763 -2.1417164610687457e-06 0 -0.014693455542514378 4.2825840989289924e-05 0 -0.012857492828294763 -2.1417164610687457e-06 0 -0.014693455542514378 4.2825840989289924e-05 0 -0.014495969556896724 9.677701025246802e-07 0 -0.015610050541287675 -0.00068173330122024288 0 -0.015249587055107233 -0.00017119599714466284 0 -0.01572945979218968 0.00019604912080316083 0 -0.014730939750957704 -0.00067708202640874191 0 -0.014693455542514378 4.2825840989289924e-05 0 -0.015249587055107233 -0.00017119599714466284 0 -0.014693455542514378 4.2825840989289924e-05 0 -0.015249587055107233 -0.00017119599714466284 0 -0.015385961059906699 0.00016913052988992488 0 -0.015249587055107233 -0.00017119599714466284 0 -0.015385961059906699 0.00016913052988992488 0 -0.01572945979218968 0.00019604912080316083 0 -0.014693455542514378 4.2825840989289924e-05 0 -0.015385961059906699 0.00016913052988992488 0 -0.015430894396470001 0.00020705575468614264 0 -0.015385961059906699 0.00016913052988992488 0 -0.015749421760280838 0.00029612584489968911 0 -0.01572945979218968 0.00019604912080316083 0 -0.015385961059906699 0.00016913052988992488 0 -0.015749421760280838 0.00029612584489968911 0 -0.015430894396470001 0.00020705575468614264 0 -0.014495969556896724 9.677701025246802e-07 0 -0.015430894396470001 0.00020705575468614264 0 -0.016137332963274079 3.0092685667587137e-07 0 -0.014693455542514378 4.2825840989289924e-05 0 -0.014495969556896724 9.677701025246802e-07 0 -0.015430894396470001 0.00020705575468614264 0 -0.015430894396470001 0.00020705575468614264 0 -0.016137332963274079 3.0092685667587137e-07 0 -0.016356754687849265 0.00022916512197214799 0 -0.015749421760280838 0.00029612584489968911 0 -0.016356754687849265 0.00022916512197214799 0 -0.015962581769780704 0.00033210121428754209 0 -0.015749421760280838 0.00029612584489968911 0 -0.015430894396470001 0.00020705575468614264 0 -0.016356754687849265 0.00022916512197214799 0 -0.017232618453206255 1.5863700396626361e-05 0 -0.016547609591750268 2.0495526328267016e-06 0 -0.016356754687849265 0.00022916512197214799 0 -0.016547609591750268 2.0495526328267016e-06 0 -0.016356754687849265 0.00022916512197214799 0 -0.015962581769780704 0.00033210121428754209 0 -0.017778129685248337 6.8369053672305601e-07 0 -0.016137332963274079 3.0092685667587137e-07 0 -0.016356754687849265 0.00022916512197214799 0 -0.017778129685248337 6.8369053672305601e-07 0 -0.017232618453206255 1.5863700396626361e-05 0 -0.016356754687849265 0.00022916512197214799 0 -0.024503624611705511 -0.003060953402572317 0 -0.023753075793415162 -0.00475393332170004 0 -0.025033647204505089 -0.0047860811883157686 0 -0.023753075793415162 -0.00475393332170004 0 -0.024293831768250715 -0.0060608420332489083 0 -0.025033647204505089 -0.0047860811883157686 0 -0.019778957474563666 -0.0018092843499882079 0 -0.018654519590471201 -0.0025996994038969888 0 -0.022910913408529968 -0.0038179903227549597 0 -0.023753075793415162 -0.00475393332170004 0 -0.022736216492698195 -0.0056180432556635022 0 -0.016158805839423127 -3.1360810777860144e-05 0 -0.016547609591750268 2.0495526328267016e-06 0 -0.015962581769780704 0.00033210121428754209 0 -0.023753075793415162 -0.00475393332170004 0 -0.022736216492698195 -0.0056180432556635022 0 -0.024293831768250715 -0.0060608420332489083 0 -0.022736216492698195 -0.0056180432556635022 0 -0.024293831768250715 -0.0060608420332489083 0 -0.023407497360090332 -0.0068033869498197947 0 -0.024293831768250715 -0.0060608420332489083 0 -0.024207224157955887 -0.0072384250266160858 0 -0.023407497360090332 -0.0068033869498197947 0 -0.024207224157955887 -0.0072384250266160858 0 -0.023407497360090332 -0.0068033869498197947 0 -0.023268071067086633 -0.0075881789153458782 0 -0.022736216492698195 -0.0056180432556635022 0 -0.023407497360090332 -0.0068033869498197947 0 -0.022561222273731155 -0.0074053346233381072 0 -0.015749421760280838 0.00029612584489968911 0 -0.015962581769780704 0.00033210121428754209 0 -0.01572945979218968 0.00019604912080316083 0 -0.018654519590471201 -0.0025996994038969888 0 -0.017187622660219528 -0.0034631276197459905 0 -0.023407497360090332 -0.0068033869498197947 0 -0.023268071067086633 -0.0075881789153458782 0 -0.022561222273731155 -0.0074053346233381072 0 -0.023006059423153511 -0.0092194054315778828 0 -0.023140882886333345 -0.0092217223528599027 0 -0.023268071067086633 -0.0075881789153458782 0 -0.014350633307404957 -0.0056248448473081945 0 -0.015738071396658476 -0.0064024452849882852 0 -0.022382874050901676 -0.0091510828003496473 0 -0.023268071067086633 -0.0075881789153458782 0 -0.022561222273731155 -0.0074053346233381072 0 -0.023009876442271371 -0.0091608193656411655 0 -0.022382874050901676 -0.0091510828003496473 0 -0.023268071067086633 -0.0075881789153458782 0 -0.014772345484055198 -0.0042895132649349178 0 -0.017187622660219528 -0.0034631276197459905 0 -0.014431928104217364 -0.0057992555895275176 0 -0.019735416013168805 -0.0051785593060272262 0 -0.023140882886333345 -0.0092217223528599027 0 -0.023268071067086633 -0.0075881789153458782 0 -0.024419791176144318 -0.008252259374579584 0 -0.024207224157955887 -0.0072384250266160858 0 -0.023268071067086633 -0.0075881789153458782 0 -0.024419791176144318 -0.008252259374579584 0 -0.019735416013168805 -0.0051785593060272262 0 -0.021311594244346664 -0.004996161243700308 0 -0.024361075691212288 -0.0082590701420030728 0 -0.025867492489886842 -0.0083791099200136443 0 -0.02506817729189113 -0.0092998898433201554 0 -0.024361075691212288 -0.0082590701420030728 0 -0.025867492489886842 -0.0083791099200136443 0 -0.025690941531292345 -0.0072879178267567573 0 -0.025867492489886842 -0.0083791099200136443 0 -0.025690941531292345 -0.0072879178267567573 0 -0.027117130672510165 -0.0077536845637954689 0 -0.025867492489886842 -0.0083791099200136443 0 -0.027117130672510165 -0.0077536845637954689 0 -0.027056729240057076 -0.0092935966110792266 0 -0.025690941531292345 -0.0072879178267567573 0 -0.0270784561908201 -0.0060869267184601962 0 -0.027117130672510165 -0.0077536845637954689 0 -0.024207224157955887 -0.0072384250266160858 0 -0.024419791176144318 -0.008252259374579584 0 -0.025690941531292345 -0.0072879178267567573 0 -0.024293831768250715 -0.0060608420332489083 0 -0.024207224157955887 -0.0072384250266160858 0 -0.025690941531292345 -0.0072879178267567573 0 -0.024293831768250715 -0.0060608420332489083 0 -0.025690941531292345 -0.0072879178267567573 0 -0.0256220172243651 -0.0059304103199668088 0 -0.024293831768250715 -0.0060608420332489083 0 -0.0256220172243651 -0.0059304103199668088 0 -0.025033647204505089 -0.0047860811883157686 0 -0.025690941531292345 -0.0072879178267567573 0 -0.0256220172243651 -0.0059304103199668088 0 -0.0270784561908201 -0.0060869267184601962 0 -0.0256220172243651 -0.0059304103199668088 0 -0.0270784561908201 -0.0060869267184601962 0 -0.026203853156068185 -0.0049926993368402612 0 -0.02591910669406575 -0.0035332707846052855 0 -0.026203853156068185 -0.0049926993368402612 0 -0.027090467337718589 -0.0041727964637780302 0 -0.0270784561908201 -0.0060869267184601962 0 -0.026203853156068185 -0.0049926993368402612 0 -0.027090467337718589 -0.0041727964637780302 0 -0.02591910669406575 -0.0035332707846052855 0 -0.026203853156068185 -0.0049926993368402612 0 -0.025033647204505089 -0.0047860811883157686 0 -0.0256220172243651 -0.0059304103199668088 0 -0.026203853156068185 -0.0049926993368402612 0 -0.025033647204505089 -0.0047860811883157686 0 -0.029304352138851388 -0.0048788394404525454 0 -0.028062502087726458 -0.0050260274143050562 0 -0.028674611001618746 -0.0059722274674255966 0 -0.02847644234514864 -0.003994714215545433 0 -0.029304352138851388 -0.0048788394404525454 0 -0.028062502087726458 -0.0050260274143050562 0 -0.02969816297104997 -0.0039623914379721056 0 -0.02847644234514864 -0.003994714215545433 0 -0.029304352138851388 -0.0048788394404525454 0 -0.02847644234514864 -0.003994714215545433 0 -0.027090467337718589 -0.0041727964637780302 0 -0.028062502087726458 -0.0050260274143050562 0 -0.0270784561908201 -0.0060869267184601962 0 -0.027090467337718589 -0.0041727964637780302 0 -0.028062502087726458 -0.0050260274143050562 0 -0.0270784561908201 -0.0060869267184601962 0 -0.028674611001618746 -0.0059722274674255966 0 -0.028444481688917309 -0.0071622795803185525 0 -0.0270784561908201 -0.0060869267184601962 0 -0.028062502087726458 -0.0050260274143050562 0 -0.028674611001618746 -0.0059722274674255966 0 -0.028674611001618746 -0.0059722274674255966 0 -0.029380939362362659 -0.0065959940501360776 0 -0.030046038121306948 -0.0055973796961473719 0 -0.029304352138851388 -0.0048788394404525454 0 -0.028674611001618746 -0.0059722274674255966 0 -0.030046038121306948 -0.0055973796961473719 0 -0.028674611001618746 -0.0059722274674255966 0 -0.029380939362362659 -0.0065959940501360776 0 -0.028444481688917309 -0.0071622795803185525 0 -0.029380939362362659 -0.0065959940501360776 0 -0.028444481688917309 -0.0071622795803185525 0 -0.029813431818678248 -0.0072946224901669302 0 -0.028444481688917309 -0.0071622795803185525 0 -0.029562784420163048 -0.0082291993332148563 0 -0.029813431818678248 -0.0072946224901669302 0 -0.0270784561908201 -0.0060869267184601962 0 -0.028444481688917309 -0.0071622795803185525 0 -0.027117130672510165 -0.0077536845637954689 0 -0.027117130672510165 -0.0077536845637954689 0 -0.028240407120931055 -0.0083402126994169441 0 -0.027056729240057076 -0.0092935966110792266 0 -0.028444481688917309 -0.0071622795803185525 0 -0.027117130672510165 -0.0077536845637954689 0 -0.028240407120931055 -0.0083402126994169441 0 -0.028444481688917309 -0.0071622795803185525 0 -0.028240407120931055 -0.0083402126994169441 0 -0.029562784420163048 -0.0082291993332148563 0 -0.028240407120931055 -0.0083402126994169441 0 -0.028984760358534038 -0.0092668683202852646 0 -0.029562784420163048 -0.0082291993332148563 0 0.0053999453575637665 -0.011900708919871598 0 0.0043584945332885124 -0.010200152027764866 0 0.0064779943723251507 -0.01026581159819827 0 0.0043584945332885124 -0.010200152027764866 0 0.0060034385136933177 -0.0088182148899838605 0 0.0045504970506888573 -0.0086103304861743276 0 0.0043584945332885124 -0.010200152027764866 0 0.0060034385136933177 -0.0088182148899838605 0 0.0064779943723251507 -0.01026581159819827 0 0.0043584945332885124 -0.010200152027764866 0 0.0021496793886144026 -0.010341247599114211 0 0.0030193338868569571 -0.0090237854309698513 0 0.0043584945332885124 -0.010200152027764866 0 0.0025014542208278605 -0.012296967322782335 0 0.0021496793886144026 -0.010341247599114211 0 0.0043584945332885124 -0.010200152027764866 0 0.0045504970506888573 -0.0086103304861743276 0 0.0030193338868569571 -0.0090237854309698513 0 0.0053999453575637665 -0.011900708919871598 0 0.0043584945332885124 -0.010200152027764866 0 0.0025014542208278605 -0.012296967322782335 0 -0.011988324350069418 -0.0087121667140955539 0 -0.012498743920862134 -0.0089445746535766237 0 -0.028240407120931055 -0.0083402126994169441 0 -0.028984760358534038 -0.0092668683202852646 0 -0.027056729240057076 -0.0092935966110792266 0 -0.012498743920862134 -0.0089445746535766237 0 -0.01326777064043258 -0.0081504611279050003 0 0.0025014542208278605 -0.012296967322782335 0 -3.2559117653511809e-05 -0.010771510898797814 0 0.0021496793886144026 -0.010341247599114211 0 -0.025867492489886842 -0.0083791099200136443 0 -0.027056729240057076 -0.0092935966110792266 0 -0.02506817729189113 -0.0092998898433201554 0 0.0025014542208278605 -0.012296967322782335 0 -0.0010255973048249277 -0.012633469174266368 0 -3.2559117653511809e-05 -0.010771510898797814 0 -0.0034863207608717157 -0.01076057284711987 0 -0.0010255973048249277 -0.012633469174266368 0 -3.2559117653511809e-05 -0.010771510898797814 0 -0.0034863207608717157 -0.01076057284711987 0 -3.2559117653511809e-05 -0.010771510898797814 0 -0.0014763725456029451 -0.0092703137876201155 0 -3.2559117653511809e-05 -0.010771510898797814 0 -0.0014763725456029451 -0.0092703137876201155 0 0.00091086523277418324 -0.0089677911630804703 0 -3.2559117653511809e-05 -0.010771510898797814 0 0.0021496793886144026 -0.010341247599114211 0 0.00091086523277418324 -0.0089677911630804703 0 0.0021496793886144026 -0.010341247599114211 0 0.00091086523277418324 -0.0089677911630804703 0 0.0030193338868569571 -0.0090237854309698513 0 0.00091086523277418324 -0.0089677911630804703 0 0.0021338437435272227 -0.0079988840640304176 0 0.0030193338868569571 -0.0090237854309698513 0 0.00091086523277418324 -0.0089677911630804703 0 0.00096661855378666641 -0.0075842291694126849 0 -0.0006358329738101738 -0.0074009878236405962 0 0.00091086523277418324 -0.0089677911630804703 0 0.00096661855378666641 -0.0075842291694126849 0 0.0021338437435272227 -0.0079988840640304176 0 0.00096661855378666641 -0.0075842291694126849 0 0.0021338437435272227 -0.0079988840640304176 0 0.0019631275514423738 -0.0067973725065993019 0 -0.0014763725456029451 -0.0092703137876201155 0 0.00091086523277418324 -0.0089677911630804703 0 -0.0006358329738101738 -0.0074009878236405962 0 -0.0021277050239640093 -0.0078134849181418393 0 -0.0014763725456029451 -0.0092703137876201155 0 -0.0006358329738101738 -0.0074009878236405962 0 0.00096661855378666641 -0.0075842291694126849 0 -0.0006358329738101738 -0.0074009878236405962 0 0.00043825170250186491 -0.006123467194204443 0 -0.0024457599275263782 -0.0062504459399820075 0 -0.0021277050239640093 -0.0078134849181418393 0 -0.0006358329738101738 -0.0074009878236405962 0 -0.0010161951030137305 -0.0057409751053238761 0 -0.00037953991952185154 -0.0043042555136726069 0 -0.0026370999217907786 -0.0038551768366541887 0 -0.0024457599275263782 -0.0062504459399820075 0 -0.0006358329738101738 -0.0074009878236405962 0 -0.0010161951030137305 -0.0057409751053238761 0 -0.0006358329738101738 -0.0074009878236405962 0 -0.0010161951030137305 -0.0057409751053238761 0 0.00043825170250186491 -0.006123467194204443 0 -0.0010161951030137305 -0.0057409751053238761 0 0.00043825170250186491 -0.006123467194204443 0 -0.00037953991952185154 -0.0043042555136726069 0 0.0019631275514423738 -0.0067973725065993019 0 0.00043825170250186491 -0.006123467194204443 0 0.0017387787517051004 -0.0050527241546078792 0 0.00096661855378666641 -0.0075842291694126849 0 0.0019631275514423738 -0.0067973725065993019 0 0.00043825170250186491 -0.006123467194204443 0 0.00043825170250186491 -0.006123467194204443 0 0.0017387787517051004 -0.0050527241546078792 0 -0.00037953991952185154 -0.0043042555136726069 0 0.0019631275514423738 -0.0067973725065993019 0 0.0017387787517051004 -0.0050527241546078792 0 0.0030653138575471579 -0.0065102316829432254 0 0.004638685842146056 -0.0064849566268957602 0 0.0054251520051395866 -0.0075003007786297532 0 0.0037718545824333097 -0.0076116955106356483 0 0.0017387787517051004 -0.0050527241546078792 0 0.0030653138575471579 -0.0065102316829432254 0 0.004638685842146056 -0.0064849566268957602 0 0.0030653138575471579 -0.0065102316829432254 0 0.004638685842146056 -0.0064849566268957602 0 0.0037718545824333097 -0.0076116955106356483 0 0.0019631275514423738 -0.0067973725065993019 0 0.0030653138575471579 -0.0065102316829432254 0 0.0037718545824333097 -0.0076116955106356483 0 0.004638685842146056 -0.0064849566268957602 0 0.0054251520051395866 -0.0075003007786297532 0 0.0062841941195359644 -0.0062737531324396217 0 0.004638685842146056 -0.0064849566268957602 0 0.0062841941195359644 -0.0062737531324396217 0 0.0048537363275429138 -0.0065414638023137813 0 0.0054251520051395866 -0.0075003007786297532 0 0.0045504970506888573 -0.0086103304861743276 0 0.0037718545824333097 -0.0076116955106356483 0 0.0054251520051395866 -0.0075003007786297532 0 0.0060034385136933177 -0.0088182148899838605 0 0.0045504970506888573 -0.0086103304861743276 0 0.0045504970506888573 -0.0086103304861743276 0 0.0030193338868569571 -0.0090237854309698513 0 0.0037718545824333097 -0.0076116955106356483 0 0.0021338437435272227 -0.0079988840640304176 0 0.0030193338868569571 -0.0090237854309698513 0 0.0037718545824333097 -0.0076116955106356483 0 0.0021338437435272227 -0.0079988840640304176 0 0.0019631275514423738 -0.0067973725065993019 0 0.0037718545824333097 -0.0076116955106356483 0 0.0089804064862171098 -0.0079996219559118013 0 0.0079795838486504036 -0.0090675518384349205 0 0.0071646824086724972 -0.0077029047874866297 0 0.0089804064862171098 -0.0079996219559118013 0 0.0079795838486504036 -0.0090675518384349205 0 0.0093287975226563971 -0.0090658360885951146 0 0.0054251520051395866 -0.0075003007786297532 0 0.0060034385136933177 -0.0088182148899838605 0 0.0071646824086724972 -0.0077029047874866297 0 0.0060034385136933177 -0.0088182148899838605 0 0.0079795838486504036 -0.0090675518384349205 0 0.0071646824086724972 -0.0077029047874866297 0 0.0071646824086724972 -0.0077029047874866297 0 0.0062841941195359644 -0.0062737531324396217 0 0.0085461265323947544 -0.0065720665481911814 0 0.0073064090344127381 -0.0071681346586325804 0 0.0082570997195386998 -0.0073738734463041234 0 0.0054251520051395866 -0.0075003007786297532 0 0.0071646824086724972 -0.0077029047874866297 0 0.0062841941195359644 -0.0062737531324396217 0 0.0089804064862171098 -0.0079996219559118013 0 0.0071646824086724972 -0.0077029047874866297 0 0.0085461265323947544 -0.0065720665481911814 0 0.0082570997195386998 -0.0073738734463041234 0 0.0068902152711737014 -0.0071872615157880775 0 0.0089804064862171098 -0.0079996219559118013 0 0.0085461265323947544 -0.0065720665481911814 0 0.010756179878174394 -0.0069799260212231803 0 0.010183653251600833 -0.0084063653139494106 0 0.0119120108758445 -0.0085316061986566126 0 0.010902568357593879 -0.0071813777238723033 0 0.012114104262322699 -0.007662142254260644 0 0.01196040859243468 -0.0077882533343454569 0 0.012218932329082404 -0.0078287989518835439 0 0.012114104262322699 -0.007662142254260644 0 0.012218932329082404 -0.0078287989518835439 0 0.012357885288259079 -0.0074741461447449748 0 0.012114104262322699 -0.007662142254260644 0 0.01196040859243468 -0.0077882533343454569 0 0.011952770254863333 -0.0075927097223952309 0 0.0068902152711737014 -0.0071872615157880775 0 0.0071816025165876447 -0.0072361017865719551 0 0.012091975804652225 -0.007963024467096869 0 0.012218932329082404 -0.0078287989518835439 0 0.012073666166174554 -0.0078890289468129642 0 0.0068902152711737014 -0.0071872615157880775 0 0.0081095213488779402 -0.0073943252021661434 0 0.012073666166174554 -0.0078890289468129642 0 0.012023249021039607 -0.0078311845084937971 0 0.01254747121116726 -0.0080567119881210653 0 0.012091975804652225 -0.007963024467096869 0 0.012073666166174554 -0.0078890289468129642 0 0.012276507094226447 -0.0076577984964088771 0 0.0068902152711737014 -0.0071872615157880775 0 5.6954407347555586e-05 -0.0066465844170348811 0 0.012073666166174554 -0.0078890289468129642 0 0.012023249021039607 -0.0078311845084937971 0 0.012276507094226447 -0.0076577984964088771 0 0.012023249021039607 -0.0078311845084937971 0 0.011126799013433912 -0.0072456314887073834 0 0.010321676596823648 -0.0077591237327101744 0 0.0089804064862171098 -0.0079996219559118013 0 0.010756179878174394 -0.0069799260212231803 0 0.009896568893054054 -0.0083370024633563338 0 0.010756179878174394 -0.0069799260212231803 0 0.009896568893054054 -0.0083370024633563338 0 0.010521676827372824 -0.0092988513867200071 0 0.009896568893054054 -0.0083370024633563338 0 0.0093287975226563971 -0.0090658360885951146 0 0.010521676827372824 -0.0092988513867200071 0 0.0089804064862171098 -0.0079996219559118013 0 0.009896568893054054 -0.0083370024633563338 0 0.0093287975226563971 -0.0090658360885951146 0 5.6954407347555586e-05 -0.0066465844170348811 0 -0.012252208275566903 -0.0044650442982094272 0 0.0093287975226563971 -0.0090658360885951146 0 0.010521676827372824 -0.0092988513867200071 0 0.0091597855254424709 -0.010327681121403722 0 0.010521676827372824 -0.0092988513867200071 0 0.0091597855254424709 -0.010327681121403722 0 0.010275588001323728 -0.011592911690222951 0 0.012276507094226447 -0.0076577984964088771 0 0.011745533899562595 -0.0060984034888845757 0 0.012729045196264619 -0.0048527187639265295 0 0.011126799013433912 -0.0072456314887073834 0 0.011174841815755654 -0.0066593281693546405 0 0.010372505363408571 -0.0067484489164788761 0 0.012023249021039607 -0.0078311845084937971 0 0.011126799013433912 -0.0072456314887073834 0 0.011688138042878306 -0.0072075487436689253 0 0.011126799013433912 -0.0072456314887073834 0 0.011688138042878306 -0.0072075487436689253 0 0.011174841815755654 -0.0066593281693546405 0 0.012276507094226447 -0.0076577984964088771 0 0.011688138042878306 -0.0072075487436689253 0 0.011745533899562595 -0.0060984034888845757 0 0.012023249021039607 -0.0078311845084937971 0 0.012276507094226447 -0.0076577984964088771 0 0.011688138042878306 -0.0072075487436689253 0 0.011174841815755654 -0.0066593281693546405 0 0.010471252661653966 -0.0057275090963523683 0 0.010372505363408571 -0.0067484489164788761 0 0.011745533899562595 -0.0060984034888845757 0 0.011174841815755654 -0.0066593281693546405 0 0.010471252661653966 -0.0057275090963523683 0 0.011688138042878306 -0.0072075487436689253 0 0.011745533899562595 -0.0060984034888845757 0 0.011174841815755654 -0.0066593281693546405 0 -0.013222262349710112 -0.0030899073143050627 0 -0.010699607896581117 -0.0018245746971274723 0 0.011745533899562595 -0.0060984034888845757 0 0.011331588478142288 -0.0048754524835365942 0 0.010471252661653966 -0.0057275090963523683 0 0.011745533899562595 -0.0060984034888845757 0 0.011331588478142288 -0.0048754524835365942 0 0.012729045196264619 -0.0048527187639265295 0 -0.013222262349710112 -0.0030899073143050627 0 -0.022036253467241865 -0.0038540875461005341 0 -0.013222262349710112 -0.0030899073143050627 0 -0.012252208275566903 -0.0044650442982094272 0 -0.016721688460966021 -0.00080870044233008909 0 -0.018437145614404595 -0.00083707520434109098 0 -0.018594288930399494 -0.0026922150693591529 0 -0.012252208275566903 -0.0044650442982094272 0 -0.011761892174371812 -0.007430993528297819 0 -0.032569982020926036 -0.0092223354973286348 0 -0.030823720596886126 -0.0092288495411759382 0 -0.03219038990938719 -0.0084173240662911483 0 0.0091597855254424709 -0.010327681121403722 0 0.010275588001323728 -0.011592911690222951 0 0.0078685457398049892 -0.011672701962105351 0 -0.012252208275566903 -0.0044650442982094272 0 -0.022036253467241865 -0.0038540875461005341 0 0.0079795838486504036 -0.0090675518384349205 0 0.0091597855254424709 -0.010327681121403722 0 0.0078685457398049892 -0.011672701962105351 0 0.0079795838486504036 -0.0090675518384349205 0 0.0093287975226563971 -0.0090658360885951146 0 0.0091597855254424709 -0.010327681121403722 0 0.0060034385136933177 -0.0088182148899838605 0 0.0079795838486504036 -0.0090675518384349205 0 0.0064779943723251507 -0.01026581159819827 0 0.0079795838486504036 -0.0090675518384349205 0 0.0078685457398049892 -0.011672701962105351 0 0.0064779943723251507 -0.01026581159819827 0 -0.011988324350069418 -0.0087121667140955539 0 -0.011761892174371812 -0.007430993528297819 0 -0.028984760358534038 -0.0092668683202852646 0 -0.030823720596886126 -0.0092288495411759382 0 -0.029562784420163048 -0.0082291993332148563 0 0.0053999453575637665 -0.011900708919871598 0 0.0078685457398049892 -0.011672701962105351 0 0.0064779943723251507 -0.01026581159819827 0 -0.030823720596886126 -0.0092288495411759382 0 -0.029562784420163048 -0.0082291993332148563 0 -0.030653523154700265 -0.0078932595655931762 0 -0.029562784420163048 -0.0082291993332148563 0 -0.030653523154700265 -0.0078932595655931762 0 -0.029813431818678248 -0.0072946224901669302 0 -0.030823720596886126 -0.0092288495411759382 0 -0.031327350159782677 -0.0082393129370146242 0 -0.03219038990938719 -0.0084173240662911483 0 -0.030823720596886126 -0.0092288495411759382 0 -0.031327350159782677 -0.0082393129370146242 0 -0.030653523154700265 -0.0078932595655931762 0 -0.031327350159782677 -0.0082393129370146242 0 -0.030653523154700265 -0.0078932595655931762 0 -0.031639176657161046 -0.0074201315196141789 0 -0.031639176657161046 -0.0074201315196141789 0 -0.03051536426918585 -0.0070231637331849067 0 -0.03078569978591604 -0.0065246555656766911 0 -0.030653523154700265 -0.0078932595655931762 0 -0.031639176657161046 -0.0074201315196141789 0 -0.03051536426918585 -0.0070231637331849067 0 -0.029699187254532126 -0.0045737585669539315 0 -0.029736734595954856 -0.0043973670798350727 0 -0.034271156595593634 0.00019646222972958294 0 -0.034302765573876001 0.00017450065428935676 0 -0.034285794605339835 0.00017232765164801146 0 -0.027612009207215796 -0.0049280085580043756 0 -0.029736734595954856 -0.0043973670798350727 0 -0.030653523154700265 -0.0078932595655931762 0 -0.029813431818678248 -0.0072946224901669302 0 -0.03051536426918585 -0.0070231637331849067 0 -0.03051536426918585 -0.0070231637331849067 0 -0.030096915589645858 -0.0064103676201658546 0 -0.030831573383487822 -0.0064746909395362699 0 -0.029813431818678248 -0.0072946224901669302 0 -0.03051536426918585 -0.0070231637331849067 0 -0.030096915589645858 -0.0064103676201658546 0 -0.029380939362362659 -0.0065959940501360776 0 -0.029813431818678248 -0.0072946224901669302 0 -0.030096915589645858 -0.0064103676201658546 0 -0.029380939362362659 -0.0065959940501360776 0 -0.030046038121306948 -0.0055973796961473719 0 -0.030096915589645858 -0.0064103676201658546 0 -0.030046038121306948 -0.0055973796961473719 0 -0.030942744074586796 -0.0064671506471002706 0 -0.03084555899279505 -0.0053817184047431459 0 -0.030046038121306948 -0.0055973796961473719 0 -0.030096915589645858 -0.0064103676201658546 0 -0.030831573383487822 -0.0064746909395362699 0 -0.030019142425695877 -0.0047674194577701041 0 -0.029736734595954856 -0.0043973670798350727 0 -0.034302765573876001 0.00017450065428935676 0 -0.034285794605339835 0.00017232765164801146 0 -0.034310653640464289 0.00013495999431361488 0 -0.029736734595954856 -0.0043973670798350727 0 -0.031777933222972329 -0.0025354972087170088 0 -0.030942744074586796 -0.0064671506471002706 0 -0.03084555899279505 -0.0053817184047431459 0 -0.031752371673896239 -0.0048777471547768458 0 -0.03084555899279505 -0.0053817184047431459 0 -0.031752371673896239 -0.0048777471547768458 0 -0.030625749780051059 -0.0046062707008143362 0 -0.031480256678745454 -0.0038017281264832591 0 -0.031752371673896239 -0.0048777471547768458 0 -0.030625749780051059 -0.0046062707008143362 0 -0.02969816297104997 -0.0039623914379721056 0 -0.029304352138851388 -0.0048788394404525454 0 -0.030625749780051059 -0.0046062707008143362 0 -0.029304352138851388 -0.0048788394404525454 0 -0.030046038121306948 -0.0055973796961473719 0 -0.030625749780051059 -0.0046062707008143362 0 -0.030046038121306948 -0.0055973796961473719 0 -0.03084555899279505 -0.0053817184047431459 0 -0.030625749780051059 -0.0046062707008143362 0 -0.034140602006908743 0.00032806416985571758 0 -0.034001190877194075 0.00011546946251080677 0 -0.033700886551013741 0.00042272591552211037 0 -0.034140602006908743 0.00032806416985571758 0 -0.034001190877194075 0.00011546946251080677 0 -0.03414942229200215 0.00014664471645522287 0 -0.034132989047677101 3.630035428114682e-05 0 -0.034001190877194075 0.00011546946251080677 0 -0.03414942229200215 0.00014664471645522287 0 -0.02939919598673468 -0.00042479079629733469 0 -0.027807896857068949 -0.00084097447365737317 0 -0.034132989047677101 3.630035428114682e-05 0 -0.03414942229200215 0.00014664471645522287 0 -0.034281052198931579 8.5281092970721642e-05 0 -0.03268877552435151 -0.001811605940092326 0 -0.031777933222972329 -0.0025354972087170088 0 -0.034140602006908743 0.00032806416985571758 0 -0.03414942229200215 0.00014664471645522287 0 -0.034281052198931579 8.5281092970721642e-05 0 -0.034270279630538164 -6.8528514974274939e-06 0 -0.034310653640464289 0.00013495999431361488 0 -0.034281052198931579 8.5281092970721642e-05 0 -0.034140602006908743 0.00032806416985571758 0 -0.034281052198931579 8.5281092970721642e-05 0 -0.03428873247433533 0.00059613768289063375 0 -0.034310653640464289 0.00013495999431361488 0 -0.034281052198931579 8.5281092970721642e-05 0 -0.034259589459092556 0.0001766788676557555 0 -0.034285794605339835 0.00017232765164801146 0 -0.034310653640464289 0.00013495999431361488 0 -0.034259589459092556 0.0001766788676557555 0 -0.034140602006908743 0.00032806416985571758 0 -0.033992905154740197 0.00063395215689397071 0 -0.033700886551013741 0.00042272591552211037 0 -0.034140602006908743 0.00032806416985571758 0 -0.03428873247433533 0.00059613768289063375 0 -0.033992905154740197 0.00063395215689397071 0 -0.033992905154740197 0.00063395215689397071 0 -0.034069692447137638 0.00089761170510063693 0 -0.033803859996962948 0.00098243170028691523 0 -0.03428873247433533 0.00059613768289063375 0 -0.033992905154740197 0.00063395215689397071 0 -0.034069692447137638 0.00089761170510063693 0 -0.03428873247433533 0.00059613768289063375 0 -0.034069692447137638 0.00089761170510063693 0 -0.034223495403604628 0.0010933681650985027 0 -0.027807896857068949 -0.00084097447365737317 0 -0.022036253467241865 -0.0038540875461005341 0 -0.034271156595593634 0.00019646222972958294 0 -0.034259589459092556 0.0001766788676557555 0 -0.034234089328526597 0.0002128426478193995 0 -0.034271156595593634 0.00019646222972958294 0 -0.034285794605339835 0.00017232765164801146 0 -0.034259589459092556 0.0001766788676557555 0 -0.031639176657161046 -0.0074201315196141789 0 -0.032507331109772414 -0.0083274204839920742 0 -0.03219038990938719 -0.0084173240662911483 0 -0.027612009207215796 -0.0049280085580043756 0 -0.022036253467241865 -0.0038540875461005341 0 -0.031327350159782677 -0.0082393129370146242 0 -0.031639176657161046 -0.0074201315196141789 0 -0.03219038990938719 -0.0084173240662911483 0 -0.032569982020926036 -0.0092223354973286348 0 -0.03250178078520112 -0.0083290566649036526 0 -0.03219038990938719 -0.0084173240662911483 0 -0.022036253467241865 -0.0038540875461005341 0 -0.022347678973813033 -0.0038335067346842145 0 -0.030770556350830588 -0.00013905760634941493 0 -0.030283492731166671 0.00033412766955981458 0 -0.031195387737678128 0.00057835758944149609 0 -0.034069692447137638 0.00089761170510063693 0 -0.034223495403604628 0.0010933681650985027 0 -0.033803859996962948 0.00098243170028691523 0 -0.022036253467241865 -0.0038540875461005341 0 -0.030471512697406573 -0.00066020800651579628 0 -0.033803859996962948 0.00098243170028691523 0 -0.033372514894293312 0.00089013676343925596 0 -0.033700886551013741 0.00042272591552211037 0 -0.033992905154740197 0.00063395215689397071 0 -0.033803859996962948 0.00098243170028691523 0 -0.033700886551013741 0.00042272591552211037 0 -0.031195387737678128 0.00057835758944149609 0 -0.032061010787865961 0.00076999108142961244 0 -0.03176066310497274 -0.00010907958385787435 0 -0.032061010787865961 0.00076999108142961244 0 -0.032376780028251229 0.0003497937997117643 0 -0.03176066310497274 -0.00010907958385787435 0 -0.030471512697406573 -0.00066020800651579628 0 -0.032275358890140195 0.00020309254460988739 0 -0.033372514894293312 0.00089013676343925596 0 -0.033700886551013741 0.00042272591552211037 0 -0.03321063824252151 0.00058333231360785593 0 -0.033700886551013741 0.00042272591552211037 0 -0.03339438913130275 0.00035406154730750473 0 -0.03321063824252151 0.00058333231360785593 0 -0.03345634966598978 6.6168803695914474e-05 0 -0.033700886551013741 0.00042272591552211037 0 -0.03339438913130275 0.00035406154730750473 0 -0.033541646622196906 -9.48869978535841e-06 0 -0.03364407975902535 0.00020387228109002451 0 -0.033805507263851911 1.4858853659763159e-05 0 -0.033565937813083341 -2.4650616939772292e-05 0 -0.033700886551013741 0.00042272591552211037 0 -0.033805507263851911 1.4858853659763159e-05 0 -0.034001190877194075 0.00011546946251080677 0 -0.033700886551013741 0.00042272591552211037 0 -0.033049952304090822 0.00015776188164091324 0 -0.033129996370112567 0.00035931738969244764 0 -0.032804596133472697 0.00039604373532897724 0 -0.033129996370112567 0.00035931738969244764 0 -0.032921711942992683 0.00054603035614999315 0 -0.032804596133472697 0.00039604373532897724 0 -0.032799050443598966 0.00012407735931621754 0 -0.033049952304090822 0.00015776188164091324 0 -0.032804596133472697 0.00039604373532897724 0 -0.03345634966598978 6.6168803695914474e-05 0 -0.03339438913130275 0.00035406154730750473 0 -0.033129996370112567 0.00035931738969244764 0 -0.033049952304090822 0.00015776188164091324 0 -0.03345634966598978 6.6168803695914474e-05 0 -0.033129996370112567 0.00035931738969244764 0 -0.033129996370112567 0.00035931738969244764 0 -0.03321063824252151 0.00058333231360785593 0 -0.032921711942992683 0.00054603035614999315 0 -0.03339438913130275 0.00035406154730750473 0 -0.033129996370112567 0.00035931738969244764 0 -0.03321063824252151 0.00058333231360785593 0 -0.032921711942992683 0.00054603035614999315 0 -0.032793932754752599 0.00061884865052031814 0 -0.032804596133472697 0.00039604373532897724 0 -0.03321063824252151 0.00058333231360785593 0 -0.032921711942992683 0.00054603035614999315 0 -0.032836473632091939 0.00075336568472402724 0 -0.032921711942992683 0.00054603035614999315 0 -0.032836473632091939 0.00075336568472402724 0 -0.032793932754752599 0.00061884865052031814 0 -0.032836473632091939 0.00075336568472402724 0 -0.032735892822409456 0.0005062575158918713 0 -0.032855336904247898 0.00071328014145357525 0 -0.032836473632091939 0.00075336568472402724 0 -0.032590438012938115 0.00054173719285195297 0 -0.032735892822409456 0.0005062575158918713 0 -0.032275358890140195 0.00020309254460988739 0 -0.032597636680427776 0.00038563223441532641 0 -0.033372514894293312 0.00089013676343925596 0 -0.03321063824252151 0.00058333231360785593 0 -0.032836473632091939 0.00075336568472402724 0 -0.032061010787865961 0.00076999108142961244 0 -0.032836473632091939 0.00075336568472402724 0 -0.032590438012938115 0.00054173719285195297 0 -0.032061010787865961 0.00076999108142961244 0 -0.032590438012938115 0.00054173719285195297 0 -0.032376780028251229 0.0003497937997117643 0 -0.032590438012938115 0.00054173719285195297 0 -0.032376780028251229 0.0003497937997117643 0 -0.032615069624643715 0.00031488795352948575 0 -0.032376780028251229 0.0003497937997117643 0 -0.032615069624643715 0.00031488795352948575 0 -0.032607718217145927 -7.7753375255727827e-06 0 -0.032735892822409456 0.0005062575158918713 0 -0.032729462684503517 0.00010199540015433193 0 -0.032855336904247898 0.00071328014145357525 0 -0.024081592012848676 0.00010821069594856326 0 -0.029039623501939314 0.0015980929774296088 0 -0.032735892822409456 0.0005062575158918713 0 -0.032615069624643715 0.00031488795352948575 0 -0.032729462684503517 0.00010199540015433193 0 -0.024081592012848676 0.00010821069594856326 0 -0.030004055582568238 0.0018653304876376686 0 -0.032590438012938115 0.00054173719285195297 0 -0.032735892822409456 0.0005062575158918713 0 -0.032615069624643715 0.00031488795352948575 0 -0.019523878681129068 -0.0015785376773394611 0 -0.015731397704214237 -0.001675480624269608 0 0.0050135152422952044 -0.0048737972756511937 0 0.0045857766317177195 -0.0059582966048962452 0 0.0021333110995201449 -0.0049549169708814848 0 -0.031007811707160337 0.0010512625762784682 0 -0.030986874030703243 0.0010330790216017559 0 -0.031104114485579384 0.0010643964688805874 0 -0.032615069624643715 0.00031488795352948575 0 -0.032729462684503517 0.00010199540015433193 0 -0.032607718217145927 -7.7753375255727827e-06 0 -0.024081592012848676 0.00010821069594856326 0 -0.019523878681129068 -0.0015785376773394611 0 0.0050135152422952044 -0.0048737972756511937 0 0.0045857766317177195 -0.0059582966048962452 0 0.0055067685004161707 -0.0051746445200670996 0 0.0045857766317177195 -0.0059582966048962452 0 0.0055897074471972005 -0.0068399944240164741 0 0.0038234034754525198 -0.0078992088940625371 0 0.0045857766317177195 -0.0059582966048962452 0 0.0038234034754525198 -0.0078992088940625371 0 0.0021333110995201449 -0.0049549169708814848 0 0.0055897074471972005 -0.0068399944240164741 0 0.0071119945904426799 -0.0069312726354450816 0 0.006148753027177347 -0.0079949879290107297 0 0.0045857766317177195 -0.0059582966048962452 0 0.0055897074471972005 -0.0068399944240164741 0 0.0054875043634578999 -0.0060073181607614495 0 0.0055897074471972005 -0.0068399944240164741 0 0.0054875043634578999 -0.0060073181607614495 0 0.0062503608452076035 -0.0061667077630488849 0 0.0055897074471972005 -0.0068399944240164741 0 0.0062503608452076035 -0.0061667077630488849 0 0.0071119945904426799 -0.0069312726354450816 0 0.0062503608452076035 -0.0061667077630488849 0 0.0072997155824517414 -0.0059139760267282815 0 0.0071119945904426799 -0.0069312726354450816 0 -0.019523878681129068 -0.0015785376773394611 0 -0.013350739245667159 -0.0023323628912279401 0 0.0049909895818066085 -0.0048473576948978442 0 0.0055067685004161707 -0.0051746445200670996 0 0.0081960016318756955 -0.0047939165260481933 0 0.0062503608452076035 -0.0061667077630488849 0 0.0055067685004161707 -0.0051746445200670996 0 0.0072997155824517414 -0.0059139760267282815 0 -0.032376780028251229 0.0003497937997117643 0 -0.032607718217145927 -7.7753375255727827e-06 0 -0.03176066310497274 -0.00010907958385787435 0 0.0045857766317177195 -0.0059582966048962452 0 0.0054875043634578999 -0.0060073181607614495 0 0.0055067685004161707 -0.0051746445200670996 0 0.0054875043634578999 -0.0060073181607614495 0 0.0062503608452076035 -0.0061667077630488849 0 0.0055067685004161707 -0.0051746445200670996 0 -0.019523878681129068 -0.0015785376773394611 0 -0.018682284752833202 -0.0019878938220456647 0 0.0055067685004161707 -0.0051746445200670996 0 0.0081960016318756955 -0.0047939165260481933 0 0.0072997155824517414 -0.0059139760267282815 0 0.0081960016318756955 -0.0047939165260481933 0 0.0089267665774405754 -0.0065933295286869737 0 0.0072997155824517414 -0.0059139760267282815 0 -0.013222262349710112 -0.0030899073143050627 0 -0.013350739245667159 -0.0023323628912279401 0 0.011391103107818832 -0.0047943115045896278 0 0.0081960016318756955 -0.0047939165260481933 0 0.010471252661653966 -0.0057275090963523683 0 0.0081960016318756955 -0.0047939165260481933 0 0.010471252661653966 -0.0057275090963523683 0 0.0089267665774405754 -0.0065933295286869737 0 -0.030770556350830588 -0.00013905760634941493 0 -0.031195387737678128 0.00057835758944149609 0 -0.03176066310497274 -0.00010907958385787435 0 0.0089267665774405754 -0.0065933295286869737 0 0.0079181674418222492 -0.0079625806278737533 0 0.010321676596823648 -0.0077591237327101744 0 0.010471252661653966 -0.0057275090963523683 0 0.0089267665774405754 -0.0065933295286869737 0 0.010372505363408571 -0.0067484489164788761 0 0.0089267665774405754 -0.0065933295286869737 0 0.010372505363408571 -0.0067484489164788761 0 0.010321676596823648 -0.0077591237327101744 0 0.011126799013433912 -0.0072456314887073834 0 0.010372505363408571 -0.0067484489164788761 0 0.010321676596823648 -0.0077591237327101744 0 0.0089267665774405754 -0.0065933295286869737 0 0.0072997155824517414 -0.0059139760267282815 0 0.0071119945904426799 -0.0069312726354450816 0 0.0089267665774405754 -0.0065933295286869737 0 0.0071119945904426799 -0.0069312726354450816 0 0.0079181674418222492 -0.0079625806278737533 0 0.010600528032642985 -0.0079494382765055941 0 0.0095550958795018841 -0.0078954337575182741 0 0.0071119945904426799 -0.0069312726354450816 0 0.0079181674418222492 -0.0079625806278737533 0 0.006148753027177347 -0.0079949879290107297 0 0.0079181674418222492 -0.0079625806278737533 0 0.0089886314105915004 -0.0088038663086633714 0 0.0060930017816837202 -0.009495513339141462 0 0.0079181674418222492 -0.0079625806278737533 0 0.0089886314105915004 -0.0088038663086633714 0 0.010321676596823648 -0.0077591237327101744 0 0.011209036828104571 -0.0078580226702175474 0 0.010600528032642985 -0.0079494382765055941 0 0.012218932329082404 -0.0078287989518835439 0 0.012073666166174554 -0.0078890289468129642 0 0.01254747121116726 -0.0080567119881210653 0 0.012023249021039607 -0.0078311845084937971 0 0.0089886314105915004 -0.0088038663086633714 0 0.010321676596823648 -0.0077591237327101744 0 0.012218932329082404 -0.0078287989518835439 0 0.012708512840663858 -0.0075631264371810872 0 0.012357885288259079 -0.0074741461447449748 0 0.012218932329082404 -0.0078287989518835439 0 0.01254747121116726 -0.0080567119881210653 0 0.012708512840663858 -0.0075631264371810872 0 0.01254747121116726 -0.0080567119881210653 0 0.012708512840663858 -0.0075631264371810872 0 0.013276368743361616 -0.0078923837110548463 0 0.012708512840663858 -0.0075631264371810872 0 0.013276368743361616 -0.0078923837110548463 0 0.013184433830291867 -0.0073408730597949142 0 0.0095550958795018841 -0.0078954337575182741 0 0.0085643429667579766 -0.0073616039539334171 0 0.013276368743361616 -0.0078923837110548463 0 0.013719402564481743 -0.0072875447935184696 0 0.013906521733305933 -0.0076987071848543939 0 0.0060930017816837202 -0.009495513339141462 0 0.0038234034754525198 -0.0078992088940625371 0 0.0033250891805944411 -0.010173935336630619 0 0.0055897074471972005 -0.0068399944240164741 0 0.0038234034754525198 -0.0078992088940625371 0 0.006148753027177347 -0.0079949879290107297 0 0.0060930017816837202 -0.009495513339141462 0 0.0038234034754525198 -0.0078992088940625371 0 0.006148753027177347 -0.0079949879290107297 0 0.0079181674418222492 -0.0079625806278737533 0 0.0060930017816837202 -0.009495513339141462 0 0.006148753027177347 -0.0079949879290107297 0 0.013467487026967097 -0.0070195012322789192 0 0.013184065592935399 -0.0068691543982112926 0 0.013184433830291867 -0.0073408730597949142 0 0.013467487026967097 -0.0070195012322789192 0 0.013184065592935399 -0.0068691543982112926 0 0.013472227831785777 -0.0066842426351434395 0 0.013467487026967097 -0.0070195012322789192 0 0.013746777641893082 -0.0068665887953290343 0 0.013719402564481743 -0.0072875447935184696 0 0.013467487026967097 -0.0070195012322789192 0 0.013746777641893082 -0.0068665887953290343 0 0.013472227831785777 -0.0066842426351434395 0 0.013746777641893082 -0.0068665887953290343 0 0.013719402564481743 -0.0072875447935184696 0 0.014040991742072807 -0.0069775059492902681 0 0.013276368743361616 -0.0078923837110548463 0 0.013719402564481743 -0.0072875447935184696 0 0.013184433830291867 -0.0073408730597949142 0 0.013467487026967097 -0.0070195012322789192 0 0.013719402564481743 -0.0072875447935184696 0 0.013184433830291867 -0.0073408730597949142 0 0.012708512840663858 -0.0075631264371810872 0 0.012591665774435665 -0.0072133986763498548 0 0.012874598294393608 -0.0071050731794711948 0 0.012708512840663858 -0.0075631264371810872 0 0.013184433830291867 -0.0073408730597949142 0 0.012874598294393608 -0.0071050731794711948 0 0.012708512840663858 -0.0075631264371810872 0 0.012357885288259079 -0.0074741461447449748 0 0.012591665774435665 -0.0072133986763498548 0 0.012357885288259079 -0.0074741461447449748 0 0.012591665774435665 -0.0072133986763498548 0 0.012331387418379464 -0.0070245630889758451 0 0.012591665774435665 -0.0072133986763498548 0 0.012331387418379464 -0.0070245630889758451 0 0.012648057673896734 -0.0068815182668347935 0 0.012591665774435665 -0.0072133986763498548 0 0.012648057673896734 -0.0068815182668347935 0 0.012874598294393608 -0.0071050731794711948 0 0.012648057673896734 -0.0068815182668347935 0 0.012915992976370836 -0.0067250989949345624 0 0.012709869672764171 -0.0065932426583846793 0 0.012331387418379464 -0.0070245630889758451 0 0.012648057673896734 -0.0068815182668347935 0 0.012417799976475475 -0.0066250610624013434 0 0.013184065592935399 -0.0068691543982112926 0 0.013184433830291867 -0.0073408730597949142 0 0.012874598294393608 -0.0071050731794711948 0 0.012648057673896734 -0.0068815182668347935 0 0.012874598294393608 -0.0071050731794711948 0 0.012915992976370836 -0.0067250989949345624 0 0.013184065592935399 -0.0068691543982112926 0 0.012874598294393608 -0.0071050731794711948 0 0.012915992976370836 -0.0067250989949345624 0 0.013184065592935399 -0.0068691543982112926 0 0.012915992976370836 -0.0067250989949345624 0 0.013167401570937232 -0.0065288378645421349 0 0.012915992976370836 -0.0067250989949345624 0 0.013167401570937232 -0.0065288378645421349 0 0.012899681108183845 -0.0064204600472133116 0 0.012915992976370836 -0.0067250989949345624 0 0.012899681108183845 -0.0064204600472133116 0 0.012709869672764171 -0.0065932426583846793 0 0.013167401570937232 -0.0065288378645421349 0 0.012899681108183845 -0.0064204600472133116 0 0.012995148051598326 -0.0062205221608123903 0 0.012417799976475475 -0.0066250610624013434 0 0.012671864625954862 -0.0063963937339888803 0 0.012298280122768219 -0.0062884482313492491 0 0.012417799976475475 -0.0066250610624013434 0 0.012709869672764171 -0.0065932426583846793 0 0.012671864625954862 -0.0063963937339888803 0 0.012648057673896734 -0.0068815182668347935 0 0.012417799976475475 -0.0066250610624013434 0 0.012709869672764171 -0.0065932426583846793 0 0.012899681108183845 -0.0064204600472133116 0 0.012709869672764171 -0.0065932426583846793 0 0.012671864625954862 -0.0063963937339888803 0 0.013089029784613401 -0.0045250585383170023 0 0.012568967920953474 -0.0051903097724623386 0 0.012671864625954862 -0.0063963937339888803 0 0.013004880968904483 -0.0061601355452286181 0 0.012298280122768219 -0.0062884482313492491 0 0.013004880968904483 -0.0061601355452286181 0 0.012898985525583438 -0.0053715915823796707 0 0.012298280122768219 -0.0062884482313492491 0 0.012899681108183845 -0.0064204600472133116 0 0.012671864625954862 -0.0063963937339888803 0 0.013004880968904483 -0.0061601355452286181 0 0.013813560568842066 -0.0064858735984652484 0 0.015504653407448419 -0.0063047789050176706 0 0.014456735345923654 -0.0052023598498595093 0 0.012899681108183845 -0.0064204600472133116 0 0.013004880968904483 -0.0061601355452286181 0 0.012995148051598326 -0.0062205221608123903 0 0.014426937562836658 -0.0038301469240372712 0 0.014527617970328574 -0.0037685616546370634 0 0.013004880968904483 -0.0061601355452286181 0 0.013813560568842066 -0.0064858735984652484 0 0.01368394627567667 -0.0056630926442119006 0 0.013167401570937232 -0.0065288378645421349 0 0.012995148051598326 -0.0062205221608123903 0 0.013491008882543083 -0.0063318083692815936 0 0.014527617970328574 -0.0037685616546370634 0 0.015468843472778966 -0.0035064120714714455 0 0.014527617970328574 -0.0037685616546370634 0 0.014835291431780391 -0.0036560984325849201 0 0.014728421666497774 -0.0025203060733463263 0 0.015454077686953257 -0.0024041953418519769 0 0.015572925712143991 -0.0027305085446429982 0 0.013167401570937232 -0.0065288378645421349 0 0.013491008882543083 -0.0063318083692815936 0 0.013472227831785777 -0.0066842426351434395 0 0.013184065592935399 -0.0068691543982112926 0 0.013167401570937232 -0.0065288378645421349 0 0.013472227831785777 -0.0066842426351434395 0 0.013491008882543083 -0.0063318083692815936 0 0.013787586290163099 -0.0065320048492766049 0 0.014103417632757581 -0.0064591731001715762 0 0.014835291431780391 -0.0036560984325849201 0 0.015494509328704078 -0.0030626924692810772 0 0.013746777641893082 -0.0068665887953290343 0 0.013787586290163099 -0.0065320048492766049 0 0.013997971235554603 -0.0067326139448204312 0 0.013746777641893082 -0.0068665887953290343 0 0.013472227831785777 -0.0066842426351434395 0 0.013787586290163099 -0.0065320048492766049 0 0.013491008882543083 -0.0063318083692815936 0 0.013472227831785777 -0.0066842426351434395 0 0.013787586290163099 -0.0065320048492766049 0 0.015572925712143991 -0.0027305085446429982 0 0.016179539461249122 -0.002288806964102285 0 0.016416713308416112 -0.0029401380435577469 0 0.015454077686953257 -0.0024041953418519769 0 0.015572925712143991 -0.0027305085446429982 0 0.016179539461249122 -0.002288806964102285 0 0.015468843472778966 -0.0035064120714714455 0 0.016603315411346305 -0.0028644299322167972 0 0.015504653407448419 -0.0063047789050176706 0 0.015795203085341509 -0.0048845344755100275 0 0.016974439582324714 -0.0061195254787265096 0 0.015795203085341509 -0.0048845344755100275 0 0.016974439582324714 -0.0061195254787265096 0 0.017284132887132059 -0.0050287596392007868 0 0.015504653407448419 -0.0063047789050176706 0 0.015795203085341509 -0.0048845344755100275 0 0.014456735345923654 -0.0052023598498595093 0 0.015795203085341509 -0.0048845344755100275 0 0.014080377674495288 -0.0038283141824033287 0 0.014456735345923654 -0.0052023598498595093 0 0.015795203085341509 -0.0048845344755100275 0 0.015490550177426118 -0.0034430451546802457 0 0.014080377674495288 -0.0038283141824033287 0 0.015795203085341509 -0.0048845344755100275 0 0.016667666102326131 -0.0040300643712625709 0 0.015490550177426118 -0.0034430451546802457 0 0.015795203085341509 -0.0048845344755100275 0 0.016667666102326131 -0.0040300643712625709 0 0.017284132887132059 -0.0050287596392007868 0 0.016667666102326131 -0.0040300643712625709 0 0.015490550177426118 -0.0034430451546802457 0 0.016545365674072915 -0.002856019779524118 0 0.015490550177426118 -0.0034430451546802457 0 0.014352187394065845 -0.0030417886719411088 0 0.015619946987830547 -0.0023753467252003949 0 0.015490550177426118 -0.0034430451546802457 0 0.016545365674072915 -0.002856019779524118 0 0.015619946987830547 -0.0023753467252003949 0 0.016545365674072915 -0.002856019779524118 0 0.016554120235300295 -0.0020259955487796719 0 0.015619946987830547 -0.0023753467252003949 0 0.013579793803181226 -0.0027684142579995361 0 0.014352187394065845 -0.0030417886719411088 0 0.01454295232668721 -0.0020338249418886539 0 0.014352187394065845 -0.0030417886719411088 0 0.01454295232668721 -0.0020338249418886539 0 0.015619946987830547 -0.0023753467252003949 0 0.015490550177426118 -0.0034430451546802457 0 0.014352187394065845 -0.0030417886719411088 0 0.014080377674495288 -0.0038283141824033287 0 0.013579793803181226 -0.0027684142579995361 0 0.014352187394065845 -0.0030417886719411088 0 0.013295969009668909 -0.0035977731082776319 0 0.014352187394065845 -0.0030417886719411088 0 0.014080377674495288 -0.0038283141824033287 0 0.013295969009668909 -0.0035977731082776319 0 0.013391889650527046 -0.0041489230209800134 0 0.013089029784613401 -0.0045250585383170023 0 0.014080377674495288 -0.0038283141824033287 0 0.013292224990424241 -0.0037781109605998712 0 0.013295969009668909 -0.0035977731082776319 0 0.014080377674495288 -0.0038283141824033287 0 0.014456735345923654 -0.0052023598498595093 0 0.012898985525583438 -0.0053715915823796707 0 0.014456735345923654 -0.0052023598498595093 0 0.01368394627567667 -0.0056630926442119006 0 0.012898985525583438 -0.0053715915823796707 0 0.013813560568842066 -0.0064858735984652484 0 0.014456735345923654 -0.0052023598498595093 0 0.01368394627567667 -0.0056630926442119006 0 0.013004880968904483 -0.0061601355452286181 0 0.01368394627567667 -0.0056630926442119006 0 0.012898985525583438 -0.0053715915823796707 0 0.012829294224377725 -0.0036513307800349038 0 0.012852049777334049 -0.0036325377667616671 0 0.012074857775493705 -0.0035813112393768094 0 0.013292224990424241 -0.0037781109605998712 0 0.012829294224377725 -0.0036513307800349038 0 0.013295969009668909 -0.0035977731082776319 0 0.011808869142169033 -0.00085900003618631052 0 0.010379743179777572 -0.0028126253724929744 0 0.012074857775493705 -0.0035813112393768094 0 0.012395721803725002 -0.0024357082543202853 0 0.012330116608429141 -0.0030676768540063687 0 0.012395721803725002 -0.0024357082543202853 0 0.012553124908447021 -0.0016282651163824944 0 0.012852049777334049 -0.0036325377667616671 0 0.013295969009668909 -0.0035977731082776319 0 0.012845145592380503 -0.0031216618208538731 0 0.012829294224377725 -0.0036513307800349038 0 0.012852049777334049 -0.0036325377667616671 0 0.013295969009668909 -0.0035977731082776319 0 0.013579793803181226 -0.0027684142579995361 0 0.013295969009668909 -0.0035977731082776319 0 0.012845145592380503 -0.0031216618208538731 0 0.011516929611268524 0.00040816608066952576 0 0.011427240834037823 0.00033966434839233537 0 0.010587229735309164 0.00028327752512657858 0 0.011808869142169033 -0.00085900003618631052 0 0.011516929611268524 0.00040816608066952576 0 0.010587229735309164 0.00028327752512657858 0 0.011516929611268524 0.00040816608066952576 0 0.011427240834037823 0.00033966434839233537 0 0.011678069471552203 -0.00011494708439794586 0 0.012553124908447021 -0.0016282651163824944 0 0.012932207900207739 -0.0014006981901635727 0 0.011516929611268524 0.00040816608066952576 0 0.011678069471552203 -0.00011494708439794586 0 0.011591765742618965 -0.00016264778716340719 0 0.012845145592380503 -0.0031216618208538731 0 0.013178576822575614 -0.0025258584387152162 0 0.012792200111710934 -0.0020254203641644694 0 0.013579793803181226 -0.0027684142579995361 0 0.012845145592380503 -0.0031216618208538731 0 0.013178576822575614 -0.0025258584387152162 0 0.013579793803181226 -0.0027684142579995361 0 0.013178576822575614 -0.0025258584387152162 0 0.013511805554464025 -0.0021451255734355398 0 0.0099175941515095099 0.00065615673225567729 0 0.0085535206348204933 0.00067722318337672463 0 0.011012294122355413 0.00067268518275159469 0 0.0092417963454781444 0.000776796304145266 0 0.0093262992940075142 0.0011492017296558879 0 0.011012294122355413 0.00067268518275159469 0 0.012652303598034561 0.00031242254554094691 0 0.01211911791860869 -0.0002608120585616865 0 0.011012294122355413 0.00067268518275159469 0 0.011427240834037823 0.00033966434839233537 0 0.011626540892831739 -5.5307905005948611e-05 0 0.011012294122355413 0.00067268518275159469 0 0.011427240834037823 0.00033966434839233537 0 0.010587229735309164 0.00028327752512657858 0 0.010587229735309164 0.00028327752512657858 0 0.0092417963454781444 0.000776796304145266 0 0.008679227577080291 -0.00052450012958691554 0 0.011012294122355413 0.00067268518275159469 0 0.010587229735309164 0.00028327752512657858 0 0.0092417963454781444 0.000776796304145266 0 0.010587229735309164 0.00028327752512657858 0 0.008679227577080291 -0.00052450012958691554 0 0.0097432427733919937 -0.0013810683738417742 0 0.011808869142169033 -0.00085900003618631052 0 0.010587229735309164 0.00028327752512657858 0 0.0097432427733919937 -0.0013810683738417742 0 0.011808869142169033 -0.00085900003618631052 0 0.0097432427733919937 -0.0013810683738417742 0 0.010379743179777572 -0.0028126253724929744 0 0.008679227577080291 -0.00052450012958691554 0 0.0097432427733919937 -0.0013810683738417742 0 0.0077103788561769786 -0.0017847313851566166 0 0.0097432427733919937 -0.0013810683738417742 0 0.008689047137692741 -0.0029172627996738231 0 0.0077103788561769786 -0.0017847313851566166 0 0.008689047137692741 -0.0029172627996738231 0 0.0077668696171035723 -0.0042249891490763209 0 0.0069702040534558576 -0.0030536055409867533 0 0.008689047137692741 -0.0029172627996738231 0 0.0069702040534558576 -0.0030536055409867533 0 0.0077103788561769786 -0.0017847313851566166 0 0.008689047137692741 -0.0029172627996738231 0 0.0077668696171035723 -0.0042249891490763209 0 0.0095318473987368556 -0.0042210272837692551 0 0.0077668696171035723 -0.0042249891490763209 0 0.0095318473987368556 -0.0042210272837692551 0 0.0088840972271287556 -0.0056409317682285338 0 0.0095318473987368556 -0.0042210272837692551 0 0.010379743179777572 -0.0028126253724929744 0 0.011019419090688546 -0.0044622193015884572 0 0.0095318473987368556 -0.0042210272837692551 0 0.011019419090688546 -0.0044622193015884572 0 0.010330682782157898 -0.0056236986471797897 0 0.008689047137692741 -0.0029172627996738231 0 0.0095318473987368556 -0.0042210272837692551 0 0.010379743179777572 -0.0028126253724929744 0 0.0097432427733919937 -0.0013810683738417742 0 0.008689047137692741 -0.0029172627996738231 0 0.010379743179777572 -0.0028126253724929744 0 0.010379743179777572 -0.0028126253724929744 0 0.012074857775493705 -0.0035813112393768094 0 0.011019419090688546 -0.0044622193015884572 0 0.012829294224377725 -0.0036513307800349038 0 0.012074857775493705 -0.0035813112393768094 0 0.012875436177637117 -0.0038306808618416535 0 0.013292224990424241 -0.0037781109605998712 0 0.012829294224377725 -0.0036513307800349038 0 0.012875436177637117 -0.0038306808618416535 0 0.012074857775493705 -0.0035813112393768094 0 0.012875436177637117 -0.0038306808618416535 0 0.012110293860250658 -0.0051979825950232966 0 0.012417799976475475 -0.0066250610624013434 0 0.012298280122768219 -0.0062884482313492491 0 0.011828705730644106 -0.0066281570914013864 0 0.012568967920953474 -0.0051903097724623386 0 0.011983870920304094 -0.005997370720600013 0 0.012074857775493705 -0.0035813112393768094 0 0.011019419090688546 -0.0044622193015884572 0 0.012110293860250658 -0.0051979825950232966 0 0.011019419090688546 -0.0044622193015884572 0 0.012110293860250658 -0.0051979825950232966 0 0.010330682782157898 -0.0056236986471797897 0 0.011983870920304094 -0.005997370720600013 0 0.011611245537127911 -0.0065302621451320134 0 0.011828705730644106 -0.0066281570914013864 0 0.01188972163396507 -0.0070902240724992341 0 0.010902568357593879 -0.0071813777238723033 0 0.012110293860250658 -0.0051979825950232966 0 0.010902568357593879 -0.0071813777238723033 0 0.010330682782157898 -0.0056236986471797897 0 0.012331387418379464 -0.0070245630889758451 0 0.012417799976475475 -0.0066250610624013434 0 0.011828705730644106 -0.0066281570914013864 0 0.012331387418379464 -0.0070245630889758451 0 0.011828705730644106 -0.0066281570914013864 0 0.01188972163396507 -0.0070902240724992341 0 0.012331387418379464 -0.0070245630889758451 0 0.012161160569916535 -0.007322651647067982 0 0.01188972163396507 -0.0070902240724992341 0 0.012357885288259079 -0.0074741461447449748 0 0.012331387418379464 -0.0070245630889758451 0 0.012161160569916535 -0.007322651647067982 0 0.012161160569916535 -0.007322651647067982 0 0.01188972163396507 -0.0070902240724992341 0 0.011952770254863333 -0.0075927097223952309 0 0.012114104262322699 -0.007662142254260644 0 0.012161160569916535 -0.007322651647067982 0 0.011952770254863333 -0.0075927097223952309 0 0.012114104262322699 -0.007662142254260644 0 0.012357885288259079 -0.0074741461447449748 0 0.012161160569916535 -0.007322651647067982 0 0.01188972163396507 -0.0070902240724992341 0 0.011952770254863333 -0.0075927097223952309 0 0.010902568357593879 -0.0071813777238723033 0 0.0119120108758445 -0.0085316061986566126 0 0.011952770254863333 -0.0075927097223952309 0 0.010902568357593879 -0.0071813777238723033 0 0.0076478336551587672 -0.0079909342487341148 0 0.010183653251600833 -0.0084063653139494106 0 0.0094173453312609481 -0.0070498275714079243 0 0.010902568357593879 -0.0071813777238723033 0 0.0094173453312609481 -0.0070498275714079243 0 0.010330682782157898 -0.0056236986471797897 0 0.010183653251600833 -0.0084063653139494106 0 0.010902568357593879 -0.0071813777238723033 0 0.0094173453312609481 -0.0070498275714079243 0 0.0076478336551587672 -0.0079909342487341148 0 0.0094173453312609481 -0.0070498275714079243 0 0.0079243780942264679 -0.0064956368122681607 0 0.0076478336551587672 -0.0079909342487341148 0 0.0079243780942264679 -0.0064956368122681607 0 0.0064106123709876074 -0.0063739630829938165 0 0.0079243780942264679 -0.0064956368122681607 0 0.0088840972271287556 -0.0056409317682285338 0 0.0069627434184852495 -0.0054440764457170578 0 0.0094173453312609481 -0.0070498275714079243 0 0.0079243780942264679 -0.0064956368122681607 0 0.0088840972271287556 -0.0056409317682285338 0 0.0077668696171035723 -0.0042249891490763209 0 0.0088840972271287556 -0.0056409317682285338 0 0.0069627434184852495 -0.0054440764457170578 0 0.0095318473987368556 -0.0042210272837692551 0 0.0088840972271287556 -0.0056409317682285338 0 0.010330682782157898 -0.0056236986471797897 0 0.0094173453312609481 -0.0070498275714079243 0 0.0088840972271287556 -0.0056409317682285338 0 0.010330682782157898 -0.0056236986471797897 0 0.0050707581387723086 -0.0057699107286923058 0 0.0035671536070429979 -0.0064568988780326205 0 0.0037585032226214233 -0.0048639846064952204 0 0.0050707581387723086 -0.0057699107286923058 0 0.0069627434184852495 -0.0054440764457170578 0 0.0064106123709876074 -0.0063739630829938165 0 0.0050707581387723086 -0.0057699107286923058 0 0.0069627434184852495 -0.0054440764457170578 0 0.0056125769446303724 -0.0041166503346888985 0 0.0079243780942264679 -0.0064956368122681607 0 0.0069627434184852495 -0.0054440764457170578 0 0.0064106123709876074 -0.0063739630829938165 0 0.0076478336551587672 -0.0079909342487341148 0 0.0064106123709876074 -0.0063739630829938165 0 0.0048537363275429138 -0.0065414638023137813 0 0.0050707581387723086 -0.0057699107286923058 0 0.0064106123709876074 -0.0063739630829938165 0 0.0048537363275429138 -0.0065414638023137813 0 0.0073064090344127381 -0.0071681346586325804 0 0.0065709107518879348 -0.0070116488395981294 0 0.0050707581387723086 -0.0057699107286923058 0 0.0048537363275429138 -0.0065414638023137813 0 0.0035671536070429979 -0.0064568988780326205 0 0.0029480257098394957 -0.0052840782170275932 0 0.0018335738628764441 -0.0043128036153833428 0 0.004638685842146056 -0.0064849566268957602 0 0.0048537363275429138 -0.0065414638023137813 0 0.0035671536070429979 -0.0064568988780326205 0 0.0017387787517051004 -0.0050527241546078792 0 0.0011316996280767437 -0.0021968953670663096 0 -0.00037953991952185154 -0.0043042555136726069 0 0.0017387787517051004 -0.0050527241546078792 0 0.004638685842146056 -0.0064849566268957602 0 0.0011316996280767437 -0.0021968953670663096 0 0.0011316996280767437 -0.0021968953670663096 0 -0.001684030986406306 -0.0022340603737529799 0 -0.00037953991952185154 -0.0043042555136726069 0 -0.001684030986406306 -0.0022340603737529799 0 -0.00037953991952185154 -0.0043042555136726069 0 -0.0026370999217907786 -0.0038551768366541887 0 0.0018335738628764441 -0.0043128036153833428 0 -7.3238529366285947e-05 -0.0027489002726812099 0 0.0011316996280767437 -0.0021968953670663096 0 -0.001684030986406306 -0.0022340603737529799 0 -0.0021969089700570685 -0.00048335191776037266 0 0.0035671536070429979 -0.0064568988780326205 0 0.0037585032226214233 -0.0048639846064952204 0 0.00077020755523633474 -0.004714606685175547 0 0.0037585032226214233 -0.0048639846064952204 0 0.00077020755523633474 -0.004714606685175547 0 0.0032546298868104551 -0.0029207100298981477 0 0.00077020755523633474 -0.004714606685175547 0 0.00098956710391357892 -0.0016188299729521115 0 0.0032546298868104551 -0.0029207100298981477 0 0.00098956710391357892 -0.0016188299729521115 0 0.0032546298868104551 -0.0029207100298981477 0 0.0031856356820749612 -0.00065371256149293589 0 0.0032546298868104551 -0.0029207100298981477 0 0.0053772254726936032 -0.0021759109201834803 0 0.0056125769446303724 -0.0041166503346888985 0 0.0037585032226214233 -0.0048639846064952204 0 0.0032546298868104551 -0.0029207100298981477 0 0.0056125769446303724 -0.0041166503346888985 0 0.0050707581387723086 -0.0057699107286923058 0 0.0037585032226214233 -0.0048639846064952204 0 0.0056125769446303724 -0.0041166503346888985 0 0.0077668696171035723 -0.0042249891490763209 0 0.0069627434184852495 -0.0054440764457170578 0 0.0056125769446303724 -0.0041166503346888985 0 0.0077668696171035723 -0.0042249891490763209 0 0.0056125769446303724 -0.0041166503346888985 0 0.0069702040534558576 -0.0030536055409867533 0 0.0053772254726936032 -0.0021759109201834803 0 0.0056125769446303724 -0.0041166503346888985 0 0.0069702040534558576 -0.0030536055409867533 0 0.0053772254726936032 -0.0021759109201834803 0 0.0069702040534558576 -0.0030536055409867533 0 0.0077103788561769786 -0.0017847313851566166 0 0.008679227577080291 -0.00052450012958691554 0 0.0077103788561769786 -0.0017847313851566166 0 0.0064424060671501929 -0.00055966184330092836 0 0.0053772254726936032 -0.0021759109201834803 0 0.0077103788561769786 -0.0017847313851566166 0 0.0064424060671501929 -0.00055966184330092836 0 0.0053772254726936032 -0.0021759109201834803 0 0.0064424060671501929 -0.00055966184330092836 0 0.0031856356820749612 -0.00065371256149293589 0 0.0064424060671501929 -0.00055966184330092836 0 0.0048133123624936325 0.0013915666208057643 0 0.0031856356820749612 -0.00065371256149293589 0 0.0092417963454781444 0.000776796304145266 0 0.008679227577080291 -0.00052450012958691554 0 0.0064424060671501929 -0.00055966184330092836 0 0.0092417963454781444 0.000776796304145266 0 0.0064424060671501929 -0.00055966184330092836 0 0.0048133123624936325 0.0013915666208057643 0 0.0092417963454781444 0.000776796304145266 0 0.0048133123624936325 0.0013915666208057643 0 0.0067860062040632288 0.0041100373596791506 0 0.0048133123624936325 0.0013915666208057643 0 0.0067860062040632288 0.0041100373596791506 0 0.0031221901400479424 0.0038445788838880786 0 0.0085535206348204933 0.00067722318337672463 0 0.0053103077814938802 0.0010273345867809406 0 0.0085555940105951252 0.00090051298922625464 0 0.0085535206348204933 0.00067722318337672463 0 0.00024567500690056177 0.0030613262388053267 0 0.0031221901400479424 0.0038445788838880786 0 0.0011070402789453086 0.0013433434958655414 0 0.0029155966195177339 0.0010085140496744905 0 0.0053103077814938802 0.0010273345867809406 0 0.0048133123624936325 0.0013915666208057643 0 0.0031221901400479424 0.0038445788838880786 0 0.0011070402789453086 0.0013433434958655414 0 0.0011070402789453086 0.0013433434958655414 0 0.0031856356820749612 -0.00065371256149293589 0 0.00029242869027328223 -0.00020902794707261277 0 0.0048133123624936325 0.0013915666208057643 0 0.0011070402789453086 0.0013433434958655414 0 0.0031856356820749612 -0.00065371256149293589 0 0.0032546298868104551 -0.0029207100298981477 0 0.0053772254726936032 -0.0021759109201834803 0 0.0031856356820749612 -0.00065371256149293589 0 0.00098956710391357892 -0.0016188299729521115 0 0.0031856356820749612 -0.00065371256149293589 0 0.00029242869027328223 -0.00020902794707261277 0 0.00098956710391357892 -0.0016188299729521115 0 0.00029242869027328223 -0.00020902794707261277 0 -0.0025502088539533009 -0.00093205865172294356 0 -0.0012501223271907465 0.00049177580255263607 0 -0.003082925943545283 0.00010090269193304473 0 -0.0025502088539533009 -0.00093205865172294356 0 0.00029242869027328223 -0.00020902794707261277 0 -0.0012501223271907465 0.00049177580255263607 0 -0.0025502088539533009 -0.00093205865172294356 0 -0.0012501223271907465 0.00049177580255263607 0 -0.0019508690305241046 0.00070555618834333537 0 -0.003082925943545283 0.00010090269193304473 0 0.0011070402789453086 0.0013433434958655414 0 0.00029242869027328223 -0.00020902794707261277 0 -0.0012501223271907465 0.00049177580255263607 0 0.00024567500690056177 0.0030613262388053267 0 0.0011070402789453086 0.0013433434958655414 0 -0.0011419956349936582 0.0013923636505526302 0 0.0011070402789453086 0.0013433434958655414 0 -0.0012501223271907465 0.00049177580255263607 0 -0.0011419956349936582 0.0013923636505526302 0 -0.0012501223271907465 0.00049177580255263607 0 -0.0011419956349936582 0.0013923636505526302 0 -0.0019508690305241046 0.00070555618834333537 0 -0.0011419956349936582 0.0013923636505526302 0 -0.0014721324523806964 0.001050773675781618 0 -0.0019508690305241046 0.00070555618834333537 0 -0.0011419956349936582 0.0013923636505526302 0 -0.0015095744018498319 0.0015556399034817496 0 -0.0014721324523806964 0.001050773675781618 0 0.00024567500690056177 0.0030613262388053267 0 -0.0011419956349936582 0.0013923636505526302 0 -0.0015095744018498319 0.0015556399034817496 0 0.0029155966195177339 0.0010085140496744905 0 0.0012859605291111044 0.00082322405101123192 0 -0.00063240799695050769 5.6139404126825694e-07 0 -0.00029143578656146948 8.9408280480159411e-05 0 -0.0013474680464021949 0.00045998286773669804 0 -0.00029143578656146948 8.9408280480159411e-05 0 -0.0014721324523806964 0.001050773675781618 0 -0.0013474680464021949 0.00045998286773669804 0 -0.0015095744018498319 0.0015556399034817496 0 -0.00029143578656146948 8.9408280480159411e-05 0 -0.0014721324523806964 0.001050773675781618 0 0.0012859605291111044 0.00082322405101123192 0 0.00072381732153239779 0.00071163850554848101 0 0.0020542336652806218 -0.00031408417028293761 0 -0.00029143578656146948 8.9408280480159411e-05 0 0.00090240448427695034 0.00029503838816537811 0 -0.0014721324523806964 0.001050773675781618 0 -0.0019508690305241046 0.00070555618834333537 0 -0.0013474680464021949 0.00045998286773669804 0 -0.0019508690305241046 0.00070555618834333537 0 -0.0013474680464021949 0.00045998286773669804 0 -0.0026697312027014054 9.4483040062879204e-07 0 -0.00063240799695050769 5.6139404126825694e-07 0 -0.0013474680464021949 0.00045998286773669804 0 -0.0026697312027014054 9.4483040062879204e-07 0 -0.0019508690305241046 0.00070555618834333537 0 -0.0026697312027014054 9.4483040062879204e-07 0 -0.003082925943545283 0.00010090269193304473 0 -0.0026697312027014054 9.4483040062879204e-07 0 -0.003082925943545283 0.00010090269193304473 0 -0.0047059326839103627 -2.6158988773598017e-07 0 -0.003082925943545283 0.00010090269193304473 0 -0.0047059326839103627 -2.6158988773598017e-07 0 -0.00430808015309037 -0.00027634852783519471 0 -0.0047059326839103627 -2.6158988773598017e-07 0 -0.00430808015309037 -0.00027634852783519471 0 -0.0067431518572047162 -6.5008042828093857e-07 0 -0.00430808015309037 -0.00027634852783519471 0 -0.0067431518572047162 -6.5008042828093857e-07 0 -0.0050317445664584924 -0.00056900867019649311 0 -0.003082925943545283 0.00010090269193304473 0 -0.00430808015309037 -0.00027634852783519471 0 -0.0025502088539533009 -0.00093205865172294356 0 -0.0025502088539533009 -0.00093205865172294356 0 -0.0039919520732879009 -0.0010795801700297313 0 -0.0050317445664584924 -0.00056900867019649311 0 -0.0021969089700570685 -0.00048335191776037266 0 -0.0025502088539533009 -0.00093205865172294356 0 -0.0039919520732879009 -0.0010795801700297313 0 0.00077020755523633474 -0.004714606685175547 0 0.00098956710391357892 -0.0016188299729521115 0 -0.0025502088539533009 -0.00093205865172294356 0 -7.3238529366285947e-05 -0.0027489002726812099 0 -0.0011080675683680413 -0.0018612821334968513 0 -0.00430808015309037 -0.00027634852783519471 0 -0.0025502088539533009 -0.00093205865172294356 0 -0.0050317445664584924 -0.00056900867019649311 0 -0.0039919520732879009 -0.0010795801700297313 0 -0.0065894420386560862 -0.0017199964544841401 0 -0.0050317445664584924 -0.00056900867019649311 0 -0.001684030986406306 -0.0022340603737529799 0 -0.0021969089700570685 -0.00048335191776037266 0 -0.0039919520732879009 -0.0010795801700297313 0 -0.0049952183580326001 -0.0033218448672774044 0 -0.0039919520732879009 -0.0010795801700297313 0 -0.0026370999217907786 -0.0038551768366541887 0 -0.001684030986406306 -0.0022340603737529799 0 -0.0039919520732879009 -0.0010795801700297313 0 -0.0026370999217907786 -0.0038551768366541887 0 -0.0049952183580326001 -0.0033218448672774044 0 -0.0039919520732879009 -0.0010795801700297313 0 -0.0065894420386560862 -0.0017199964544841401 0 -0.0075617911781465669 -0.00079555786955231808 0 -0.0065894420386560862 -0.0017199964544841401 0 -0.0072239833241460726 -0.00069871556066657776 0 -0.0065894420386560862 -0.0017199964544841401 0 -0.0072239833241460726 -0.00069871556066657776 0 -0.0050317445664584924 -0.00056900867019649311 0 -0.0087792450887396681 -1.0567144164019459e-06 0 -0.0072239833241460726 -0.00069871556066657776 0 -0.0067431518572047162 -6.5008042828093857e-07 0 -0.0087792450887396681 -1.0567144164019459e-06 0 -0.0082401214230479712 -0.00040494181038594381 0 -0.0072239833241460726 -0.00069871556066657776 0 -0.0072239833241460726 -0.00069871556066657776 0 -0.0067431518572047162 -6.5008042828093857e-07 0 -0.0050317445664584924 -0.00056900867019649311 0 0.017679251911292812 0.0070575404615742009 0 0.017742028569056351 0.0070672222656555164 0 0.017683949317036183 0.0070050303918930317 0 0.017742028569056351 0.0070672222656555164 0 0.017683949317036183 0.0070050303918930317 0 0.017782340525332709 0.0070141774477468716 0 0.017683949317036183 0.0070050303918930317 0 0.017782340525332709 0.0070141774477468716 0 0.017721327296027597 0.0069039793727642112 0 0.017683949317036183 0.0070050303918930317 0 0.017631074560124763 0.0070323024721907585 0 0.017628172207817927 0.0069570063453636526 0 0.017631074560124763 0.0070323024721907585 0 0.017628172207817927 0.0069570063453636526 0 0.017573882954820343 0.007015568294970501 0 0.017631074560124763 0.0070323024721907585 0 0.017578761291169025 0.0070779387733383263 0 0.017573882954820343 0.007015568294970501 0 0.017644694161975994 0.0070691626792764488 0 0.017631074560124763 0.0070323024721907585 0 0.017578761291169025 0.0070779387733383263 0 0.017679251911292812 0.0070575404615742009 0 0.017644694161975994 0.0070691626792764488 0 0.017631074560124763 0.0070323024721907585 0 0.017679251911292812 0.0070575404615742009 0 0.017683949317036183 0.0070050303918930317 0 0.017631074560124763 0.0070323024721907585 0 0.017578761291169025 0.0070779387733383263 0 0.017688798491642208 0.0071094082498932547 0 0.017505530454979223 0.0070941226216486523 0 -0.0080535489027356924 0.0055504107088938754 0 -0.0077242650603894765 0.0054409493622009052 0 -0.0083761334289003883 0.0054345546675321574 0 0.0030552174062284726 0.0046075237006805618 0 0.0036559009702438394 0.0062806901699611999 0 0.017644694161975994 0.0070691626792764488 0 0.017578761291169025 0.0070779387733383263 0 0.017688798491642208 0.0071094082498932547 0 -0.0080535489027356924 0.0055504107088938754 0 -0.0082447650227249879 0.0056324865988655742 0 -0.0081154236720896687 0.0057146779358042844 0 -0.0080535489027356924 0.0055504107088938754 0 -0.0079372716899937384 0.0057486196185408834 0 -0.0081154236720896687 0.0057146779358042844 0 -0.0080535489027356924 0.0055504107088938754 0 -0.007874871417577067 0.0055376876443495046 0 -0.0077242650603894765 0.0054409493622009052 0 -0.0080535489027356924 0.0055504107088938754 0 -0.007874871417577067 0.0055376876443495046 0 -0.0079372716899937384 0.0057486196185408834 0 -0.007874871417577067 0.0055376876443495046 0 -0.0078173641128174015 0.0056564666001059031 0 -0.0079372716899937384 0.0057486196185408834 0 -0.007874871417577067 0.0055376876443495046 0 -0.0078173641128174015 0.0056564666001059031 0 -0.0077817618817566494 0.0055440487669035261 0 -0.0077123091390753672 0.0055490207475371476 0 -0.0077242650603894765 0.0054409493622009052 0 -0.0071752709925864402 0.0054383159032229721 0 -0.0078173641128174015 0.0056564666001059031 0 -0.0077123091390753672 0.0055490207475371476 0 -0.0077817618817566494 0.0055440487669035261 0 -0.007874871417577067 0.0055376876443495046 0 -0.0077817618817566494 0.0055440487669035261 0 -0.0077242650603894765 0.0054409493622009052 0 -0.0077123091390753672 0.0055490207475371476 0 -0.0077817618817566494 0.0055440487669035261 0 -0.0077242650603894765 0.0054409493622009052 0 0.017679251911292812 0.0070575404615742009 0 0.017742028569056351 0.0070672222656555164 0 0.017688798491642208 0.0071094082498932547 0 0.017679251911292812 0.0070575404615742009 0 0.017644694161975994 0.0070691626792764488 0 0.017688798491642208 0.0071094082498932547 0 0.0030552174062284726 0.0046075237006805618 0 -0.0074168318356676423 0.0015073743935928238 0 0.017742028569056351 0.0070672222656555164 0 0.017688798491642208 0.0071094082498932547 0 0.017889425854924566 0.0071625143339296852 0 -0.0074168318356676423 0.0015073743935928238 0 -0.015375018331386561 0.0040879922597147587 0 -0.0077123091390753672 0.0055490207475371476 0 -0.0071752709925864402 0.0054383159032229721 0 -0.0075107888351610514 0.0057846514050986231 0 -0.02992800740407655 0.0014761951054320355 0 -0.030155114222022293 0.0012470215895716273 0 -0.03034760998453602 0.0014246692692013788 0 -0.0074168318356676423 0.0015073743935928238 0 -0.016973619415122515 -0.00032240426628654315 0 -0.0074168318356676423 0.0015073743935928238 0 0.00054036131684810228 -0.00085416887222125614 0 0.017889425854924566 0.0071625143339296852 0 0.017888798536362244 0.0069382913776181252 0 0.018077455818316907 0.0070655140446211706 0 0.017889425854924566 0.0071625143339296852 0 0.017782340525332709 0.0070141774477468716 0 0.017888798536362244 0.0069382913776181252 0 0.017742028569056351 0.0070672222656555164 0 0.017889425854924566 0.0071625143339296852 0 0.017782340525332709 0.0070141774477468716 0 0.017782340525332709 0.0070141774477468716 0 0.017888798536362244 0.0069382913776181252 0 0.017721327296027597 0.0069039793727642112 0 0.017888798536362244 0.0069382913776181252 0 0.017795260067959028 0.0068020541510296871 0 0.017721327296027597 0.0069039793727642112 0 0.017888798536362244 0.0069382913776181252 0 0.01787560578139117 0.0067306071050565403 0 0.018076564165106033 0.0068602510365699167 0 0.017888798536362244 0.0069382913776181252 0 0.018077455818316907 0.0070655140446211706 0 0.018076564165106033 0.0068602510365699167 0 0.01787560578139117 0.0067306071050565403 0 0.018076564165106033 0.0068602510365699167 0 0.018217209067660337 0.0065752674224737358 0 0.01787560578139117 0.0067306071050565403 0 0.017795260067959028 0.0068020541510296871 0 0.017792409619982016 0.0067408071738967804 0 0.017888798536362244 0.0069382913776181252 0 0.01787560578139117 0.0067306071050565403 0 0.017795260067959028 0.0068020541510296871 0 0.017795260067959028 0.0068020541510296871 0 0.017715911615288977 0.0067767479247308696 0 0.017792409619982016 0.0067408071738967804 0 0.017795260067959028 0.0068020541510296871 0 0.017715911615288977 0.0067767479247308696 0 0.017721327296027597 0.0069039793727642112 0 0.017683949317036183 0.0070050303918930317 0 0.017721327296027597 0.0069039793727642112 0 0.017628172207817927 0.0069570063453636526 0 0.017721327296027597 0.0069039793727642112 0 0.017628172207817927 0.0069570063453636526 0 0.01762906396120352 0.0068658310317814613 0 0.017715911615288977 0.0067767479247308696 0 0.017721327296027597 0.0069039793727642112 0 0.01762906396120352 0.0068658310317814613 0 0.017715911615288977 0.0067767479247308696 0 0.01762906396120352 0.0068658310317814613 0 0.017637485644902685 0.0067860513413802127 0 0.01762906396120352 0.0068658310317814613 0 0.017519818538309879 0.0068470059357896122 0 0.017637485644902685 0.0067860513413802127 0 0.017601585090684616 0.0074517166225117329 0 0.017255643924032955 0.0074099604574153566 0 0.017426282961434614 0.0071675023103719001 0 0.017601585090684616 0.0074517166225117329 0 0.017255643924032955 0.0074099604574153566 0 0.017499589510424639 0.0078469515545725229 0 0.017519818538309879 0.0068470059357896122 0 0.017554408247091684 0.0069481091409313144 0 0.017455470126771767 0.0069843487283315795 0 0.013155267441150763 0.0066995115719597834 0 0.0087989635897591911 0.0077294481697471962 0 0.01762906396120352 0.0068658310317814613 0 0.017519818538309879 0.0068470059357896122 0 0.017554408247091684 0.0069481091409313144 0 0.017628172207817927 0.0069570063453636526 0 0.01762906396120352 0.0068658310317814613 0 0.017554408247091684 0.0069481091409313144 0 0.003014998310754996 0.0059988148481996545 0 0.002770436460659683 0.0066141645735809957 0 0.017019634789765058 0.0073291076713166182 0 0.017255643924032955 0.0074099604574153566 0 0.017181095939054553 0.0075692083900898268 0 0.017019634789765058 0.0073291076713166182 0 0.017255643924032955 0.0074099604574153566 0 0.017207473474036172 0.0071888880862412676 0 0.017255643924032955 0.0074099604574153566 0 0.017181095939054553 0.0075692083900898268 0 0.017312583864794305 0.0076210809076175893 0 0.012197463365083219 0.0092488085452857669 0 0.0087989635897591911 0.0077294481697471962 0 -0.0096153255228049531 0.0040497905607147821 0 -0.0092106826019778612 0.0047873629951052108 0 -0.0096387902667098603 0.0046748984294497468 0 -0.0092106826019778612 0.0047873629951052108 0 -0.0096387902667098603 0.0046748984294497468 0 -0.009524990394128947 0.0051023243319204261 0 -0.0098492236777783949 0.0049715763211687566 0 -0.0096387902667098603 0.0046748984294497468 0 -0.009524990394128947 0.0051023243319204261 0 -0.0092106826019778612 0.0047873629951052108 0 -0.009524990394128947 0.0051023243319204261 0 -0.0092274172303335594 0.0052829756835699035 0 -0.0098367675852926457 0.0052616230447280104 0 -0.009524990394128947 0.0051023243319204261 0 -0.0095071017625483149 0.0055412976920771332 0 -0.009524990394128947 0.0051023243319204261 0 -0.0092274172303335594 0.0052829756835699035 0 -0.0095071017625483149 0.0055412976920771332 0 0.002770436460659683 0.0066141645735809957 0 0.0014612014307076393 0.0070335451825881646 0 0.017181095939054553 0.0075692083900898268 0 0.01724724400958853 0.0077190893585652445 0 0.017312583864794305 0.0076210809076175893 0 -0.0092106826019778612 0.0047873629951052108 0 -0.0092274172303335594 0.0052829756835699035 0 -0.0087925415311359799 0.0055552475514477635 0 -0.0088826373759473796 0.0055073694320411275 0 -0.0093042617597781027 0.0057759214893618373 0 -0.0095494699373618215 0.0055000001974578215 0 0.0014612014307076393 0.0070335451825881646 0 -0.006550469044995632 0.0064105230240419806 0 -0.0092274172303335594 0.0052829756835699035 0 -0.0087925415311359799 0.0055552475514477635 0 -0.0095071017625483149 0.0055412976920771332 0 -0.0088826373759473796 0.0055073694320411275 0 -0.008584295500969381 0.0060867259758521381 0 -0.0090400477617143919 0.0059259479855185608 0 -0.0088826373759473796 0.0055073694320411275 0 -0.0093042617597781027 0.0057759214893618373 0 -0.0090400477617143919 0.0059259479855185608 0 -0.0093042617597781027 0.0057759214893618373 0 -0.0095772910843781329 0.0058347579189917094 0 -0.0095494699373618215 0.0055000001974578215 0 -0.0098708735472284575 0.0056739234137508964 0 -0.0095772910843781329 0.0058347579189917094 0 -0.0095494699373618215 0.0055000001974578215 0 0.017554408247091684 0.0069481091409313144 0 0.017521704875764366 0.0070196582439182014 0 0.017455470126771767 0.0069843487283315795 0 0.017521704875764366 0.0070196582439182014 0 0.017573882954820343 0.007015568294970501 0 0.017526800311313366 0.0070747370043088694 0 0.017578761291169025 0.0070779387733383263 0 0.017573882954820343 0.007015568294970501 0 0.017505530454979223 0.0070941226216486523 0 0.0056322803250136938 0.0051429302138322926 0 0.0036559009702438394 0.0062806901699611999 0 0.017554408247091684 0.0069481091409313144 0 0.017521704875764366 0.0070196582439182014 0 0.017573882954820343 0.007015568294970501 0 0.017628172207817927 0.0069570063453636526 0 0.017554408247091684 0.0069481091409313144 0 0.017573882954820343 0.007015568294970501 0 0.0087989635897591911 0.0077294481697471962 0 0.0044382487887122688 0.0067938642046717953 0 0.017521704875764366 0.0070196582439182014 0 0.017455470126771767 0.0069843487283315795 0 0.017500142295606379 0.0070750786995333404 0 0.01724724400958853 0.0077190893585652445 0 0.017312583864794305 0.0076210809076175893 0 0.017275196338755714 0.0077193366414568029 0 0.0087989635897591911 0.0077294481697471962 0 0.0041469733916948588 0.0067295982595007879 0 0.0067103494495180998 0.0067606111179715047 0 0.006722603195360363 0.0066952547380329892 0 0.0066688026521212742 0.0066939299109871854 0 0.0014612014307076393 0.0070335451825881646 0 -0.0016344174720393262 0.0063610965915461334 0 0.0010917345818944634 0.0070207737885700739 0 0.00084589262271742417 0.0070408842070030413 0 0.00091115344590487004 0.0071501240159102496 0 0.0014081338930508726 0.0071605680954431412 0 0.001281837106744286 0.0071581451074016521 0 0.0011315409690794197 0.0066274914923488632 0 0.001281837106744286 0.0071581451074016521 0 0.0010917345818944634 0.0070207737885700739 0 0.0011315409690794197 0.0066274914923488632 0 0.001281837106744286 0.0071581451074016521 0 0.0010917345818944634 0.0070207737885700739 0 0.00091115344590487004 0.0071501240159102496 0 0.0044382487887122688 0.0067938642046717953 0 0.0041469733916948588 0.0067295982595007879 0 0.0014612014307076393 0.0070335451825881646 0 0.0044382487887122688 0.0067938642046717953 0 0.0010917345818944634 0.0070207737885700739 0 0.00084589262271742417 0.0070408842070030413 0 0.0011315409690794197 0.0066274914923488632 0 -0.0084387135853658934 0.0055221506898620277 0 -0.0083761334289003883 0.0054345546675321574 0 -0.0082447650227249879 0.0056324865988655742 0 0.0024232157752234109 0.0061977727215025563 0 0.0041469733916948588 0.0067295982595007879 0 0.0041469733916948588 0.0067295982595007879 0 0.0036559009702438394 0.0062806901699611999 0 0.017521704875764366 0.0070196582439182014 0 0.017500142295606379 0.0070750786995333404 0 0.017526800311313366 0.0070747370043088694 0 0.0016158405277886157 0.0073294582416150366 0 0.00062499245466515394 0.0056574393073686282 0 0.0027623814310121452 0.0056907662561367514 0 0.0024232157752234109 0.0061977727215025563 0 0.0036559009702438394 0.0062806901699611999 0 -0.0080535489027356924 0.0055504107088938754 0 -0.0083761334289003883 0.0054345546675321574 0 -0.0082447650227249879 0.0056324865988655742 0 -0.0082447650227249879 0.0056324865988655742 0 -0.0082261021492544117 0.005930344802955359 0 -0.0081154236720896687 0.0057146779358042844 0 -0.0085115329934063819 0.0055104739342829038 0 -0.008257029420295374 0.0059546661176566431 0 -0.0085173785494585697 0.0059491570335002903 0 -0.0084387135853658934 0.0055221506898620277 0 -0.0082447650227249879 0.0056324865988655742 0 -0.0082261021492544117 0.005930344802955359 0 0.0024232157752234109 0.0061977727215025563 0 -0.002116003149253773 0.0044594370449203141 0 -0.008257029420295374 0.0059546661176566431 0 -0.0085173785494585697 0.0059491570335002903 0 -0.0083997104443564504 0.0061751165584990357 0 -0.0085115329934063819 0.0055104739342829038 0 -0.0085173785494585697 0.0059491570335002903 0 -0.0087901519751012354 0.0058972072607610688 0 0.0024232157752234109 0.0061977727215025563 0 -0.0016344174720393262 0.0063610965915461334 0 -0.0016344174720393262 0.0063610965915461334 0 -0.0055699744303133241 0.0071668730101247559 0 -0.0085173785494585697 0.0059491570335002903 0 -0.0087901519751012354 0.0058972072607610688 0 -0.0086491466651425503 0.006196424170004944 0 -0.0016344174720393262 0.0063610965915461334 0 -0.0023582590598366666 0.0058335992622905912 0 -0.0086491466651425503 0.006196424170004944 0 -0.0088255146080435821 0.0064526107214949516 0 -0.0090650997265710413 0.0062656283412971456 0 -0.0088011854217060689 0.0058943576045610022 0 -0.0086491466651425503 0.006196424170004944 0 -0.0090650997265710413 0.0062656283412971456 0 -0.0088255146080435821 0.0064526107214949516 0 -0.0090650997265710413 0.0062656283412971456 0 -0.0089207226244860712 0.0067462515815895014 0 -0.0086491466651425503 0.006196424170004944 0 -0.0088255146080435821 0.0064526107214949516 0 -0.0086646077053551297 0.0065961322730911662 0 -0.0086491466651425503 0.006196424170004944 0 -0.0083788619592879542 0.0064632803455631615 0 -0.0086646077053551297 0.0065961322730911662 0 -0.0083788619592879542 0.0064632803455631615 0 -0.0082552910918083974 0.0062466158167236415 0 -0.0083997104443564504 0.0061751165584990357 0 -0.0083788619592879542 0.0064632803455631615 0 -0.0082552910918083974 0.0062466158167236415 0 -0.0079868619778184265 0.0063974311882811505 0 -0.008257029420295374 0.0059546661176566431 0 -0.0082552910918083974 0.0062466158167236415 0 -0.0083997104443564504 0.0061751165584990357 0 -0.0085173785494585697 0.0059491570335002903 0 -0.0086491466651425503 0.006196424170004944 0 -0.0083997104443564504 0.0061751165584990357 0 -0.0086491466651425503 0.006196424170004944 0 -0.0083788619592879542 0.0064632803455631615 0 -0.0083997104443564504 0.0061751165584990357 0 -0.010007293501890909 0.0061731559680967101 0 -0.0094701499545350124 0.00610862885469748 0 -0.0097647236978013266 0.0064178336041337018 0 -0.009889387040736412 0.0059369821884828677 0 -0.0095772910843781329 0.0058347579189917094 0 -0.0094701499545350124 0.00610862885469748 0 -0.0093042617597781027 0.0057759214893618373 0 -0.0095772910843781329 0.0058347579189917094 0 -0.0094701499545350124 0.00610862885469748 0 -0.0094701499545350124 0.00610862885469748 0 -0.0090958789977006512 0.0062464992403534932 0 -0.0094232610798160935 0.0065304207163686973 0 -0.008584295500969381 0.0060867259758521381 0 -0.0090958789977006512 0.0062464992403534932 0 -0.0088821402004133146 0.0065044965111118241 0 -0.008584295500969381 0.0060867259758521381 0 -0.0090958789977006512 0.0062464992403534932 0 -0.0090400477617143919 0.0059259479855185608 0 -0.0094701499545350124 0.00610862885469748 0 -0.0090958789977006512 0.0062464992403534932 0 -0.0090400477617143919 0.0059259479855185608 0 -0.0093042617597781027 0.0057759214893618373 0 -0.0094701499545350124 0.00610862885469748 0 -0.0090400477617143919 0.0059259479855185608 0 -0.0088821402004133146 0.0065044965111118241 0 -0.0094232610798160935 0.0065304207163686973 0 -0.0091779323226359334 0.006925040144965703 0 -0.0090958789977006512 0.0062464992403534932 0 -0.0088821402004133146 0.0065044965111118241 0 -0.0094232610798160935 0.0065304207163686973 0 -0.0055699744303133241 0.0071668730101247559 0 -0.0080086135106661391 0.007224097611337711 0 -0.0098991242151626243 0.0067131424485949798 0 -0.0094232610798160935 0.0065304207163686973 0 -0.0097647236978013266 0.0064178336041337018 0 -0.0098991242151626243 0.0067131424485949798 0 -0.0094232610798160935 0.0065304207163686973 0 -0.0091779323226359334 0.006925040144965703 0 -0.0094701499545350124 0.00610862885469748 0 -0.0094232610798160935 0.0065304207163686973 0 -0.0097647236978013266 0.0064178336041337018 0 -0.0099423225495578749 0.0068261647577042084 0 -0.0095531029580113169 0.0067045450937556535 0 -0.0097245915736490964 0.0069623204172635268 0 -0.0096169966456412861 0.0067579886742841298 0 -0.0080086135106661391 0.007224097611337711 0 -0.010152561388030144 0.0065684752501867149 0 -0.0099423225495578749 0.0068261647577042084 0 -0.0095531029580113169 0.0067045450937556535 0 -0.0095050204311419775 0.0066340769154257318 0 -0.0093308409890567531 0.0071221110709166159 0 -0.0097245915736490964 0.0069623204172635268 0 -0.0090650997265710413 0.0062656283412971456 0 -0.0093189391586208647 0.0066303346349650847 0 -0.0089207226244860712 0.0067462515815895014 0 -0.0095050204311419775 0.0066340769154257318 0 -0.0093308409890567531 0.0071221110709166159 0 -0.0090363729313967522 0.0067542980260259181 0 -0.0080086135106661391 0.007224097611337711 0 -0.008173626077276645 0.0072875589145506361 0 -0.0080086135106661391 0.007224097611337711 0 -0.0085271738174268769 0.0070284616427327964 0 -0.0089856367376922614 0.0074725530872558473 0 -0.0097004495362093962 0.0074422464530555761 0 -0.0093308409890567531 0.0071221110709166159 0 -0.0097004495362093962 0.0074422464530555761 0 -0.0093308409890567531 0.0071221110709166159 0 -0.0097245915736490964 0.0069623204172635268 0 -0.010141310269342049 0.0074723749986796064 0 -0.0097004495362093962 0.0074422464530555761 0 -0.010023328035998719 0.0071221028423384021 0 -0.0097004495362093962 0.0074422464530555761 0 -0.0097245915736490964 0.0069623204172635268 0 -0.010023328035998719 0.0071221028423384021 0 -0.0099423225495578749 0.0068261647577042084 0 -0.0097245915736490964 0.0069623204172635268 0 -0.010023328035998719 0.0071221028423384021 0 -0.0083788619592879542 0.0064632803455631615 0 -0.0083586281295069138 0.0068679513429281552 0 -0.0079868619778184265 0.0063974311882811505 0 -0.0085437754532854578 0.006878571411233647 0 -0.008487585923229778 0.0066995440323068586 0 -0.0086646077053551297 0.0065961322730911662 0 -0.0085437754532854578 0.006878571411233647 0 -0.0083586281295069138 0.0068679513429281552 0 -0.008487585923229778 0.0066995440323068586 0 -0.0083788619592879542 0.0064632803455631615 0 -0.0083586281295069138 0.0068679513429281552 0 -0.008487585923229778 0.0066995440323068586 0 -0.0083788619592879542 0.0064632803455631615 0 -0.008487585923229778 0.0066995440323068586 0 -0.0086646077053551297 0.0065961322730911662 0 -0.0088255146080435821 0.0064526107214949516 0 -0.0086646077053551297 0.0065961322730911662 0 -0.0089207226244860712 0.0067462515815895014 0 -0.0085437754532854578 0.006878571411233647 0 -0.0086646077053551297 0.0065961322730911662 0 -0.0089207226244860712 0.0067462515815895014 0 -0.0085843722080998306 0.0069976246803648582 0 -0.0085271738174268769 0.0070284616427327964 0 -0.0089856367376922614 0.0074725530872558473 0 -0.0093308409890567531 0.0071221110709166159 0 -0.0090363729313967522 0.0067542980260259181 0 -0.0089856367376922614 0.0074725530872558473 0 -0.0085437754532854578 0.006878571411233647 0 -0.0090363729313967522 0.0067542980260259181 0 -0.0089856367376922614 0.0074725530872558473 0 -0.0085437754532854578 0.006878571411233647 0 -0.0083586281295069138 0.0068679513429281552 0 -0.018588375790520837 0.0040647495389667387 0 -0.01856945123528736 0.0039894359039529112 0 -0.028246816943151627 0.0006443350540765141 0 -0.028760263580048389 0.0011589464619268398 0 -0.02881290511406057 0.00072892192243318669 0 -0.028760263580048389 0.0011589464619268398 0 -0.02881290511406057 0.00072892192243318669 0 -0.029121264693332677 0.0010280087204773136 0 -0.029019401469898547 0.00036885462151077509 0 -0.02881290511406057 0.00072892192243318669 0 -0.029121264693332677 0.0010280087204773136 0 -0.029366612195303874 0.00028412884526783362 0 -0.029213547371296566 0.00054419213893726489 0 -0.029475948638734827 0.00064494881952192006 0 -0.029366612195303874 0.00028412884526783362 0 -0.029475948638734827 0.00064494881952192006 0 -0.029669970867580192 0.00043865274532159246 0 -0.029475948638734827 0.00064494881952192006 0 -0.029329896910630062 0.00095615067933372481 0 -0.02970321348434431 0.00081210294775273836 0 -0.029475948638734827 0.00064494881952192006 0 -0.02970321348434431 0.00081210294775273836 0 -0.029669970867580192 0.00043865274532159246 0 -0.01856945123528736 0.0039894359039529112 0 -0.018513844631425184 0.0038551920196261704 0 -0.029213547371296566 0.00054419213893726489 0 -0.029475948638734827 0.00064494881952192006 0 -0.029329896910630062 0.00095615067933372481 0 -0.028760263580048389 0.0011589464619268398 0 -0.029121264693332677 0.0010280087204773136 0 -0.029230995103631304 0.0016522710835572159 0 -0.0083586281295069138 0.0068679513429281552 0 -0.0078374342422056105 0.0063210776452847957 0 -0.0079868619778184265 0.0063974311882811505 0 -0.023780710507303317 0.0019713352112731707 0 -0.018513844631425184 0.0038551920196261704 0 -0.008257029420295374 0.0059546661176566431 0 -0.0082552910918083974 0.0062466158167236415 0 -0.0079868619778184265 0.0063974311882811505 0 -0.0082261021492544117 0.005930344802955359 0 -0.007978143598832782 0.0060712685573492209 0 -0.0079868619778184265 0.0063974311882811505 0 -0.002116003149253773 0.0044594370449203141 0 -0.0032408041382967355 0.0043300392072032215 0 -0.018513844631425184 0.0038551920196261704 0 -0.016083528398397471 0.0042105655260421936 0 -0.007978143598832782 0.0060712685573492209 0 -0.0078374342422056105 0.0063210776452847957 0 -0.0077625270861052887 0.0059248904546944474 0 -0.007978143598832782 0.0060712685573492209 0 -0.0078374342422056105 0.0063210776452847957 0 -0.0079868619778184265 0.0063974311882811505 0 -0.029329896910630062 0.00095615067933372481 0 -0.029639263370224527 0.0012244466284750913 0 -0.02970321348434431 0.00081210294775273836 0 -0.018513844631425184 0.0038551920196261704 0 -0.015375018331386561 0.0040879922597147587 0 -0.0078667604948554157 0.0061311333525140904 0 -0.0077924464242815523 0.005834089395527509 0 -0.0075107888351610514 0.0057846514050986231 0 -0.0077123091390753672 0.0055490207475371476 0 -0.0077924464242815523 0.005834089395527509 0 -0.0075107888351610514 0.0057846514050986231 0 -0.0078173641128174015 0.0056564666001059031 0 -0.0077123091390753672 0.0055490207475371476 0 -0.0077625270861052887 0.0059248904546944474 0 -0.015315254851151641 0.0042807073629424945 0 -0.016083528398397471 0.0042105655260421936 0 -0.0078173641128174015 0.0056564666001059031 0 -0.0077625270861052887 0.0059248904546944474 0 -0.0079372716899937384 0.0057486196185408834 0 -0.0082261021492544117 0.005930344802955359 0 -0.0079372716899937384 0.0057486196185408834 0 -0.0081154236720896687 0.0057146779358042844 0 -0.0082261021492544117 0.005930344802955359 0 -0.007978143598832782 0.0060712685573492209 0 -0.0079372716899937384 0.0057486196185408834 0 -0.007978143598832782 0.0060712685573492209 0 -0.0077625270861052887 0.0059248904546944474 0 -0.0079372716899937384 0.0057486196185408834 0 -0.02992800740407655 0.0014761951054320355 0 -0.030155114222022293 0.0012470215895716273 0 -0.029639263370224527 0.0012244466284750913 0 -0.030155114222022293 0.0012470215895716273 0 -0.029639263370224527 0.0012244466284750913 0 -0.030061610213790193 0.00098485478031040273 0 -0.029639263370224527 0.0012244466284750913 0 -0.030061610213790193 0.00098485478031040273 0 -0.02970321348434431 0.00081210294775273836 0 -0.030061610213790193 0.00098485478031040273 0 -0.030037394169027919 0.00059670142219385804 0 -0.030265590893090194 0.0007792499437027702 0 -0.030061610213790193 0.00098485478031040273 0 -0.02970321348434431 0.00081210294775273836 0 -0.030037394169027919 0.00059670142219385804 0 -0.02970321348434431 0.00081210294775273836 0 -0.029669970867580192 0.00043865274532159246 0 -0.030037394169027919 0.00059670142219385804 0 -0.029927054310776868 0.00030450523259149164 0 -0.029669970867580192 0.00043865274532159246 0 -0.030037394169027919 0.00059670142219385804 0 -0.030227765693323735 0.00016981846756770547 0 -0.029927054310776868 0.00030450523259149164 0 -0.030037394169027919 0.00059670142219385804 0 -0.030227765693323735 0.00016981846756770547 0 -0.030037394169027919 0.00059670142219385804 0 -0.03046956250163806 0.00058540027362769594 0 -0.03046956250163806 0.00058540027362769594 0 -0.030265590893090194 0.0007792499437027702 0 -0.030482602477340675 0.00094097684077775715 0 -0.030037394169027919 0.00059670142219385804 0 -0.03046956250163806 0.00058540027362769594 0 -0.030265590893090194 0.0007792499437027702 0 -0.03046956250163806 0.00058540027362769594 0 -0.030757873655460875 0.00075338606056610192 0 -0.030482602477340675 0.00094097684077775715 0 -0.03046956250163806 0.00058540027362769594 0 -0.030848947523535238 0.00045426261870307102 0 -0.030757873655460875 0.00075338606056610192 0 -0.030625979994953464 0.00019726939643193646 0 -0.03046956250163806 0.00058540027362769594 0 -0.030848947523535238 0.00045426261870307102 0 -0.030895225513743001 0.00078958950749265352 0 -0.031020896512622433 0.00094700844912045301 0 -0.030848947523535238 0.00045426261870307102 0 -0.030952145089330176 0.000713988345778502 0 -0.030757873655460875 0.00075338606056610192 0 -0.031480334863654306 5.0775644993906152e-05 0 -0.030848947523535238 0.00045426261870307102 0 -0.031429085821254352 0.00075715272495796983 0 -0.030952145089330176 0.000713988345778502 0 -0.030860923043854967 0.0010139322820891528 0 -0.031079011165781129 0.00089989627355893784 0 -0.030952145089330176 0.000713988345778502 0 -0.030757873655460875 0.00075338606056610192 0 -0.030860923043854967 0.0010139322820891528 0 -0.030757873655460875 0.00075338606056610192 0 -0.030860923043854967 0.0010139322820891528 0 -0.030482602477340675 0.00094097684077775715 0 -0.030860923043854967 0.0010139322820891528 0 -0.030525558010863926 0.0011913037235983007 0 -0.030705058403045226 0.0013290188449645523 0 -0.030155114222022293 0.0012470215895716273 0 -0.030525558010863926 0.0011913037235983007 0 -0.030482602477340675 0.00094097684077775715 0 -0.030061610213790193 0.00098485478031040273 0 -0.030265590893090194 0.0007792499437027702 0 -0.030482602477340675 0.00094097684077775715 0 -0.030155114222022293 0.0012470215895716273 0 -0.030061610213790193 0.00098485478031040273 0 -0.030482602477340675 0.00094097684077775715 0 -0.030860923043854967 0.0010139322820891528 0 -0.030525558010863926 0.0011913037235983007 0 -0.030482602477340675 0.00094097684077775715 0 -0.032793932754752599 0.00061884865052031814 0 -0.032457699883916905 0.00057232745848329806 0 -0.032855336904247898 0.00071328014145357525 0 -0.032793932754752599 0.00061884865052031814 0 -0.032804596133472697 0.00039604373532897724 0 -0.032457699883916905 0.00057232745848329806 0 -0.032517830376853907 0.00021403606546879661 0 -0.032799050443598966 0.00012407735931621754 0 -0.032804596133472697 0.00039604373532897724 0 -0.032018486851363423 0.00025850156150924439 0 -0.032517830376853907 0.00021403606546879661 0 -0.032457699883916905 0.00057232745848329806 0 -0.032517830376853907 0.00021403606546879661 0 -0.032804596133472697 0.00039604373532897724 0 -0.032457699883916905 0.00057232745848329806 0 -0.032018486851363423 0.00025850156150924439 0 -0.031429085821254352 0.00075715272495796983 0 -0.031926782559631814 0.0010336921717820013 0 -0.032018486851363423 0.00025850156150924439 0 -0.032383337634019668 0.00081686633978852302 0 -0.031926782559631814 0.0010336921717820013 0 -0.032383337634019668 0.00081686633978852302 0 -0.031926782559631814 0.0010336921717820013 0 -0.032346652540545272 0.0012540760661535067 0 -0.031490108064381094 0.00095842237025284835 0 -0.031329496238410699 0.0013237309055189243 0 -0.031020896512622433 0.00094700844912045301 0 -0.031123523342463381 0.0012656370122173066 0 -0.030860923043854967 0.0010139322820891528 0 -0.031079011165781129 0.00089989627355893784 0 -0.031070044493219848 0.0010744628548715446 0 -0.030860923043854967 0.0010139322820891528 0 -0.031070044493219848 0.0010744628548715446 0 -0.030958063561289453 0.0012332394696138872 0 -0.031070044493219848 0.0010744628548715446 0 -0.031132654095861426 0.0010405001443047025 0 -0.031117803922656267 0.0010853254564928054 0 -0.031070044493219848 0.0010744628548715446 0 -0.031117803922656267 0.0010853254564928054 0 -0.031093805008921643 0.0011383766711765375 0 -0.031079011165781129 0.00089989627355893784 0 -0.031070044493219848 0.0010744628548715446 0 -0.031132654095861426 0.0010405001443047025 0 -0.031123523342463381 0.0012656370122173066 0 -0.030814116419533563 0.0016139281371838606 0 -0.031329496238410699 0.0013237309055189243 0 -0.030004055582568238 0.0018653304876376686 0 -0.032383337634019668 0.00081686633978852302 0 -0.032346652540545272 0.0012540760661535067 0 -0.032653547288666908 0.0012506667280875363 0 -0.030814116419533563 0.0016139281371838606 0 -0.029039623501939314 0.0015980929774296088 0 -0.031132654095861426 0.0010405001443047025 0 -0.031117803922656267 0.0010853254564928054 0 -0.031096156692395734 0.0010947687402464267 0 -0.031117803922656267 0.0010853254564928054 0 -0.031096156692395734 0.0010947687402464267 0 -0.031104114485579384 0.0010643964688805874 0 -0.032346652540545272 0.0012540760661535067 0 -0.03266382407683649 0.0014342981643867632 0 -0.032653547288666908 0.0012506667280875363 0 -0.032862240391535021 0.0015789279202481498 0 -0.03266382407683649 0.0014342981643867632 0 -0.032653547288666908 0.0012506667280875363 0 -0.032836473632091939 0.00075336568472402724 0 -0.032793932754752599 0.00061884865052031814 0 -0.032855336904247898 0.00071328014145357525 0 0.0038234034754525198 -0.0078992088940625371 0 0.0021333110995201449 -0.0049549169708814848 0 0.001001680891497186 -0.0081089857525551579 0 -0.031007811707160337 0.0010512625762784682 0 -0.031096156692395734 0.0010947687402464267 0 -0.031104114485579384 0.0010643964688805874 0 0.0021333110995201449 -0.0049549169708814848 0 -0.00038472382279225513 -0.0069058779590243672 0 -0.00067300051186703822 -0.0050278596508634091 0 -0.031117803922656267 0.0010853254564928054 0 -0.031104114485579384 0.0010643964688805874 0 -0.031093805008921643 0.0011383766711765375 0 -0.015731397704214237 -0.001675480624269608 0 -0.016065896418577627 -0.0016736619679001959 0 0.0021333110995201449 -0.0049549169708814848 0 -0.00038472382279225513 -0.0069058779590243672 0 0.001001680891497186 -0.0081089857525551579 0 -0.00038472382279225513 -0.0069058779590243672 0 -0.00067300051186703822 -0.0050278596508634091 0 -0.0034480838844065391 -0.0050821116542491248 0 -0.031070044493219848 0.0010744628548715446 0 -0.031093805008921643 0.0011383766711765375 0 -0.030958063561289453 0.0012332394696138872 0 -0.016065896418577627 -0.0016736619679001959 0 -0.017100397969459929 -0.0015272909574169035 0 -0.00038472382279225513 -0.0069058779590243672 0 -0.0034480838844065391 -0.0050821116542491248 0 -0.0035190235907104008 -0.0073552139752833231 0 -0.001502016978301335 -0.0084228660086995803 0 -0.0035190235907104008 -0.0073552139752833231 0 -0.0040517614833267789 -0.0094107305316203822 0 -0.00038472382279225513 -0.0069058779590243672 0 -0.001502016978301335 -0.0084228660086995803 0 -0.0035190235907104008 -0.0073552139752833231 0 -0.0040517614833267789 -0.0094107305316203822 0 -0.0043214847896743949 -0.01094340151838108 0 -0.0020491078217515159 -0.011560815912439543 0 -0.001502016978301335 -0.0084228660086995803 0 -0.0040517614833267789 -0.0094107305316203822 0 -0.0020491078217515159 -0.011560815912439543 0 -0.001502016978301335 -0.0084228660086995803 0 -7.1341148031579203e-05 -0.0098803096885682583 0 -0.0020491078217515159 -0.011560815912439543 0 -7.1341148031579203e-05 -0.0098803096885682583 0 0.00063241305903733748 -0.010848995059269832 0 -0.0020491078217515159 -0.011560815912439543 0 -0.00038472382279225513 -0.0069058779590243672 0 -0.001502016978301335 -0.0084228660086995803 0 0.001001680891497186 -0.0081089857525551579 0 -0.001502016978301335 -0.0084228660086995803 0 0.001001680891497186 -0.0081089857525551579 0 -7.1341148031579203e-05 -0.0098803096885682583 0 0.001001680891497186 -0.0081089857525551579 0 -7.1341148031579203e-05 -0.0098803096885682583 0 0.00088609931013838308 -0.0095605025070756161 0 0.001001680891497186 -0.0081089857525551579 0 0.00088609931013838308 -0.0095605025070756161 0 0.0018290780566058518 -0.0095328254512980284 0 -7.1341148031579203e-05 -0.0098803096885682583 0 0.00063241305903733748 -0.010848995059269832 0 0.00088609931013838308 -0.0095605025070756161 0 0.00063241305903733748 -0.010848995059269832 0 0.00088609931013838308 -0.0095605025070756161 0 0.0018290780566058518 -0.0095328254512980284 0 0.00063241305903733748 -0.010848995059269832 0 0.0018290780566058518 -0.0095328254512980284 0 0.0033250891805944411 -0.010173935336630619 0 0.0083976256761883611 -0.0057083346500370292 0 0.0085643429667579766 -0.0073616039539334171 0 0.0038234034754525198 -0.0078992088940625371 0 0.001001680891497186 -0.0081089857525551579 0 0.0018290780566058518 -0.0095328254512980284 0 0.0038234034754525198 -0.0078992088940625371 0 0.0018290780566058518 -0.0095328254512980284 0 0.0033250891805944411 -0.010173935336630619 0 -0.0076472448730715353 -0.0067519064472752318 0 -0.0099598799412429322 -0.006959753776975156 0 -0.0082195502873400588 -0.0087371457286924067 0 -0.0076472448730715353 -0.0067519064472752318 0 -0.0099598799412429322 -0.006959753776975156 0 -0.0089531171680266395 -0.0051596095948009471 0 -0.011692106529084569 -0.0051881044323871597 0 -0.0099598799412429322 -0.006959753776975156 0 -0.0089531171680266395 -0.0051596095948009471 0 -0.030155114222022293 0.0012470215895716273 0 -0.030525558010863926 0.0011913037235983007 0 -0.03034760998453602 0.0014246692692013788 0 -0.0076472448730715353 -0.0067519064472752318 0 -0.0089531171680266395 -0.0051596095948009471 0 -0.0062060866517622522 -0.0051243311176225334 0 -0.016973619415122515 -0.00032240426628654315 0 -0.017899523360421641 -0.0011504791321210828 0 -0.030525558010863926 0.0011913037235983007 0 -0.03034760998453602 0.0014246692692013788 0 -0.030705058403045226 0.0013290188449645523 0 -0.030860923043854967 0.0010139322820891528 0 -0.030958063561289453 0.0012332394696138872 0 -0.030705058403045226 0.0013290188449645523 0 -0.017100397969459929 -0.0015272909574169035 0 -0.017899523360421641 -0.0011504791321210828 0 -0.0034480838844065391 -0.0050821116542491248 0 -0.0062060866517622522 -0.0051243311176225334 0 -0.0035190235907104008 -0.0073552139752833231 0 -0.0062060866517622522 -0.0051243311176225334 0 -0.0035190235907104008 -0.0073552139752833231 0 -0.0059300042952697522 -0.0079188350520456065 0 -0.0076472448730715353 -0.0067519064472752318 0 -0.0062060866517622522 -0.0051243311176225334 0 -0.0059300042952697522 -0.0079188350520456065 0 -0.0035190235907104008 -0.0073552139752833231 0 -0.0059300042952697522 -0.0079188350520456065 0 -0.0040517614833267789 -0.0094107305316203822 0 -0.0040517614833267789 -0.0094107305316203822 0 -0.0064688561558555726 -0.010516273239078788 0 -0.0043214847896743949 -0.01094340151838108 0 -0.0059300042952697522 -0.0079188350520456065 0 -0.0040517614833267789 -0.0094107305316203822 0 -0.0064688561558555726 -0.010516273239078788 0 0.0072797787198636641 -0.00077966309119179152 0 0.0043727693955256464 -0.0010820603868729032 0 0.018822310149077068 0.0065570184345920398 0 0.018419383459282748 0.0069005154701395144 0 0.018563465281867222 0.0064018251676860351 0 -0.0076472448730715353 -0.0067519064472752318 0 -0.0059300042952697522 -0.0079188350520456065 0 -0.0082195502873400588 -0.0087371457286924067 0 -0.0059300042952697522 -0.0079188350520456065 0 -0.0064688561558555726 -0.010516273239078788 0 -0.0082195502873400588 -0.0087371457286924067 0 0.018077455818316907 0.0070655140446211706 0 0.018419383459282748 0.0069005154701395144 0 0.018076564165106033 0.0068602510365699167 0 0.00054036131684810228 -0.00085416887222125614 0 0.0043727693955256464 -0.0010820603868729032 0 0.018419383459282748 0.0069005154701395144 0 0.018217209067660337 0.0065752674224737358 0 0.018563465281867222 0.0064018251676860351 0 0.018419383459282748 0.0069005154701395144 0 0.018076564165106033 0.0068602510365699167 0 0.018217209067660337 0.0065752674224737358 0 0.018217209067660337 0.0065752674224737358 0 0.018357913588732636 0.0062425681350623905 0 0.01801022125083274 0.0060770771572651811 0 0.018217209067660337 0.0065752674224737358 0 0.018357913588732636 0.0062425681350623905 0 0.018563465281867222 0.0064018251676860351 0 0.017871113171587127 0.0067094871041355007 0 0.017943708022210708 0.0066080043204225797 0 0.017868564212366721 0.0066747282140789191 0 0.01801022125083274 0.0060770771572651811 0 0.018414359865825455 0.005824244859938277 0 0.01835922430361743 0.0049849340227109303 0 0.018264319672159132 0.0063578917375366828 0 0.018747997219015499 0.0059263663138069056 0 0.018357913588732636 0.0062425681350623905 0 0.01801022125083274 0.0060770771572651811 0 0.018414359865825455 0.005824244859938277 0 0.018357913588732636 0.0062425681350623905 0 0.018414359865825455 0.005824244859938277 0 0.018639809419038492 0.006128005079325133 0 0.01919709706206036 0.0055307798596105221 0 0.01867952304668136 0.0055484723737151296 0 0.018639809419038492 0.006128005079325133 0 0.018414359865825455 0.005824244859938277 0 0.01867952304668136 0.0055484723737151296 0 0.018639809419038492 0.006128005079325133 0 0.018822310149077068 0.0065570184345920398 0 0.018563465281867222 0.0064018251676860351 0 0.018810362685050517 0.0061168565897377625 0 0.018639809419038492 0.006128005079325133 0 0.018563465281867222 0.0064018251676860351 0 0.018810362685050517 0.0061168565897377625 0 0.018357913588732636 0.0062425681350623905 0 0.018639809419038492 0.006128005079325133 0 0.018563465281867222 0.0064018251676860351 0 -0.0064688561558555726 -0.010516273239078788 0 -0.0043214847896743949 -0.01094340151838108 0 -0.004713934391434027 -0.012287176772025763 0 0.010586554254231927 0.00017535645054125854 0 0.013935870662221902 0.0015322079922865934 0 0.0072797787198636641 -0.00077966309119179152 0 0.010586554254231927 0.00017535645054125854 0 0.018822310149077068 0.0065570184345920398 0 0.019146362519319018 0.0062106583445192534 0 0.018810362685050517 0.0061168565897377625 0 -0.0043214847896743949 -0.01094340151838108 0 -0.004713934391434027 -0.012287176772025763 0 -0.0020491078217515159 -0.011560815912439543 0 0.018994568023044431 0.0061394689788930607 0 0.018926909587808231 0.0060439392625347386 0 0.019144779909902224 0.0059638304586876034 0 0.018017241088835838 0.0024191900557900001 0 0.016233168759106312 3.6610181572126356e-05 0 0.010586554254231927 0.00017535645054125854 0 0.016233168759106312 3.6610181572126356e-05 0 0.019868081668244865 0.0059184198108232049 0 0.020426514927187493 0.005476438233623814 0 0.021055761421544306 0.0055635163938448804 0 0.019868081668244865 0.0059184198108232049 0 0.019847959323513024 0.005312958045381783 0 0.020426514927187493 0.005476438233623814 0 0.01919709706206036 0.0055307798596105221 0 0.018639809419038492 0.006128005079325133 0 0.019868081668244865 0.0059184198108232049 0 0.018639809419038492 0.006128005079325133 0 0.018810362685050517 0.0061168565897377625 0 0.018926909587808231 0.0060439392625347386 0 0.018994568023044431 0.0061394689788930607 0 0.018810362685050517 0.0061168565897377625 0 0.018926909587808231 0.0060439392625347386 0 0.018184369494992192 0.0031284094994786481 0 0.018017241088835838 0.0024191900557900001 0 0.01919709706206036 0.0055307798596105221 0 0.019868081668244865 0.0059184198108232049 0 0.019847959323513024 0.005312958045381783 0 0.01919709706206036 0.0055307798596105221 0 0.019847959323513024 0.005312958045381783 0 0.019407826441121052 0.0050673649706569363 0 0.019847959323513024 0.005312958045381783 0 0.019755020620052216 0.0048276467926457664 0 0.019407826441121052 0.0050673649706569363 0 0.019847959323513024 0.005312958045381783 0 0.019755020620052216 0.0048276467926457664 0 0.020335201051357468 0.0048898404571888392 0 0.019755020620052216 0.0048276467926457664 0 0.019407826441121052 0.0050673649706569363 0 0.019436765141816637 0.0045767597787844515 0 0.0205963689242161 0.0049732450171084165 0 0.021370795233694 0.0056857517834319558 0 0.021277294828422794 0.0045485926204350373 0 0.019180221300550738 0.0031110894825790566 0 0.016233168759106312 3.6610181572126356e-05 0 0.020426514927187493 0.005476438233623814 0 0.020335201051357468 0.0048898404571888392 0 0.021055761421544306 0.0055635163938448804 0 0.019847959323513024 0.005312958045381783 0 0.020426514927187493 0.005476438233623814 0 0.020335201051357468 0.0048898404571888392 0 0.020913065646657653 0.0040219615137413586 0 0.020208293864527452 0.0043115663545273061 0 0.021425578588795985 0.0043914314688658388 0 0.0205963689242161 0.0049732450171084165 0 0.020208293864527452 0.0043115663545273061 0 0.021277294828422794 0.0045485926204350373 0 0.02060352041861711 0.0019132309125016978 0 0.020359084919168682 0.0014548274451950606 0 0.020913065646657653 0.0040219615137413586 0 0.020208293864527452 0.0043115663545273061 0 0.020282513785279874 0.0038557457806613353 0 0.019407826441121052 0.0050673649706569363 0 0.019436765141816637 0.0045767597787844515 0 0.018994118821959456 0.0045665751628945657 0 0.019755020620052216 0.0048276467926457664 0 0.019436765141816637 0.0045767597787844515 0 0.019699738398847769 0.0041913159097820632 0 0.0205963689242161 0.0049732450171084165 0 0.020208293864527452 0.0043115663545273061 0 0.019699738398847769 0.0041913159097820632 0 0.019755020620052216 0.0048276467926457664 0 0.020335201051357468 0.0048898404571888392 0 0.019699738398847769 0.0041913159097820632 0 0.019180221300550738 0.0031110894825790566 0 0.019612152804184692 0.0036060898707921075 0 0.020208293864527452 0.0043115663545273061 0 0.019780631043495575 0.0038576436834095108 0 0.020282513785279874 0.0038557457806613353 0 0.020208293864527452 0.0043115663545273061 0 0.019699738398847769 0.0041913159097820632 0 0.019780631043495575 0.0038576436834095108 0 0.019699738398847769 0.0041913159097820632 0 0.019372249820101561 0.0041685697702611669 0 0.019780631043495575 0.0038576436834095108 0 0.019436765141816637 0.0045767597787844515 0 0.019699738398847769 0.0041913159097820632 0 0.019372249820101561 0.0041685697702611669 0 0.018747997219015499 0.0059263663138069056 0 0.019745978805147054 0.0053571208159649882 0 0.019372249820101561 0.0041685697702611669 0 0.018994118821959456 0.0045665751628945657 0 0.018971736737794592 0.003599722735113249 0 0.018994118821959456 0.0045665751628945657 0 0.01835922430361743 0.0049849340227109303 0 0.018971736737794592 0.003599722735113249 0 0.017943708022210708 0.0066080043204225797 0 0.017926469918745944 0.0064885276748114567 0 0.01802080898742368 0.0064678058645297543 0 0.019436765141816637 0.0045767597787844515 0 0.019372249820101561 0.0041685697702611669 0 0.018994118821959456 0.0045665751628945657 0 0.017890557431391601 0.0065507705896687383 0 0.017943708022210708 0.0066080043204225797 0 0.017854568856441662 0.0065964185008305989 0 0.017890557431391601 0.0065507705896687383 0 0.017943708022210708 0.0066080043204225797 0 0.017926469918745944 0.0064885276748114567 0 0.017890557431391601 0.0065507705896687383 0 0.017926469918745944 0.0064885276748114567 0 0.01783802937836957 0.0065089704783750342 0 0.017943708022210708 0.0066080043204225797 0 0.017854568856441662 0.0065964185008305989 0 0.017868564212366721 0.0066747282140789191 0 0.018414359865825455 0.005824244859938277 0 0.01867952304668136 0.0055484723737151296 0 0.01835922430361743 0.0049849340227109303 0 0.01867952304668136 0.0055484723737151296 0 0.01835922430361743 0.0049849340227109303 0 0.018880799056274312 0.0051204147951068001 0 0.01919709706206036 0.0055307798596105221 0 0.019407826441121052 0.0050673649706569363 0 0.018880799056274312 0.0051204147951068001 0 0.01919709706206036 0.0055307798596105221 0 0.01867952304668136 0.0055484723737151296 0 0.018880799056274312 0.0051204147951068001 0 0.019407826441121052 0.0050673649706569363 0 0.018994118821959456 0.0045665751628945657 0 0.018880799056274312 0.0051204147951068001 0 0.018994118821959456 0.0045665751628945657 0 0.01835922430361743 0.0049849340227109303 0 0.018880799056274312 0.0051204147951068001 0 0.014040991742072807 -0.0069775059492902681 0 0.01424198016598326 -0.0072279359430651334 0 0.014302741149466364 -0.006829699308826387 0 0.013746777641893082 -0.0068665887953290343 0 0.013997971235554603 -0.0067326139448204312 0 0.014040991742072807 -0.0069775059492902681 0 0.013997971235554603 -0.0067326139448204312 0 0.014040991742072807 -0.0069775059492902681 0 0.014302741149466364 -0.006829699308826387 0 0.013719402564481743 -0.0072875447935184696 0 0.014040991742072807 -0.0069775059492902681 0 0.01424198016598326 -0.0072279359430651334 0 0.013719402564481743 -0.0072875447935184696 0 0.013906521733305933 -0.0076987071848543939 0 0.01424198016598326 -0.0072279359430651334 0 0.014514510215360621 -0.007517835139294847 0 0.013906521733305933 -0.0076987071848543939 0 0.01424198016598326 -0.0072279359430651334 0 0.01424198016598326 -0.0072279359430651334 0 0.014571589046986617 -0.0072198216042337945 0 0.014602871754438165 -0.0070091441794586989 0 0.014514510215360621 -0.007517835139294847 0 0.014571589046986617 -0.0072198216042337945 0 0.014941360056811395 -0.0071254416731011813 0 0.014514510215360621 -0.007517835139294847 0 0.01424198016598326 -0.0072279359430651334 0 0.014571589046986617 -0.0072198216042337945 0 0.01424198016598326 -0.0072279359430651334 0 0.014602871754438165 -0.0070091441794586989 0 0.014302741149466364 -0.006829699308826387 0 0.014602871754438165 -0.0070091441794586989 0 0.014302741149466364 -0.006829699308826387 0 0.014734111522675657 -0.0066049871692102913 0 0.015845350696422081 -0.0041392811560920654 0 0.016398506970135864 -0.002554502395663931 0 0.01488783756506714 -0.0068372787804926866 0 0.015415883133838949 -0.0066780429156928101 0 0.014744607664593455 -0.0065373059490079957 0 0.014602871754438165 -0.0070091441794586989 0 0.01488783756506714 -0.0068372787804926866 0 0.014744607664593455 -0.0065373059490079957 0 0.01488783756506714 -0.0068372787804926866 0 0.014941360056811395 -0.0071254416731011813 0 0.015415883133838949 -0.0066780429156928101 0 0.014602871754438165 -0.0070091441794586989 0 0.01488783756506714 -0.0068372787804926866 0 0.014941360056811395 -0.0071254416731011813 0 0.0083976256761883611 -0.0057083346500370292 0 0.0060839153907034996 -0.0044702997401651137 0 0.0086763914243138032 -0.0041198636471795691 0 0.010256627985103304 -0.002622461196791063 0 0.011118118458481218 -0.0034240927251055959 0 0.0083976256761883611 -0.0057083346500370292 0 0.012003038644794635 -0.0035228898829737817 0 0.014571589046986617 -0.0072198216042337945 0 0.014602871754438165 -0.0070091441794586989 0 0.014941360056811395 -0.0071254416731011813 0 0.010586554254231927 0.00017535645054125854 0 0.0060839153907034996 -0.0044702997401651137 0 0.010256627985103304 -0.002622461196791063 0 0.011118118458481218 -0.0034240927251055959 0 0.011756381401548036 -0.0022188411748545783 0 0.013551900040549974 -0.0027326087223849852 0 0.011118118458481218 -0.0034240927251055959 0 0.011756381401548036 -0.0022188411748545783 0 0.012003038644794635 -0.0035228898829737817 0 0.016233168759106312 3.6610181572126356e-05 0 0.010256627985103304 -0.002622461196791063 0 0.011756381401548036 -0.0022188411748545783 0 0.011906269906126485 -0.001068028115152287 0 0.013551900040549974 -0.0027326087223849852 0 0.011756381401548036 -0.0022188411748545783 0 0.011906269906126485 -0.001068028115152287 0 0.016233168759106312 3.6610181572126356e-05 0 0.01806331284450604 -0.00035374253077584492 0 0.021370795233694 0.0056857517834319558 0 0.021277294828422794 0.0045485926204350373 0 0.022288439889625963 0.0047489665177820354 0 0.016446293651755373 -0.00039924257187372823 0 0.017863824096319144 -0.0018319649240936208 0 0.017449217097979461 -0.0010378270206439701 0 0.020359084919168682 0.0014548274451950606 0 0.01806331284450604 -0.00035374253077584492 0 0.021425578588795985 0.0043914314688658388 0 0.021712359797294821 0.0042416505383245755 0 0.02162602120329413 0.0041678640104235521 0 0.020913065646657653 0.0040219615137413586 0 0.021425578588795985 0.0043914314688658388 0 0.02162524217250188 0.0040229171920055252 0 0.021425578588795985 0.0043914314688658388 0 0.02162524217250188 0.0040229171920055252 0 0.02162602120329413 0.0041678640104235521 0 0.02162524217250188 0.0040229171920055252 0 0.02162602120329413 0.0041678640104235521 0 0.021505708950798702 0.0041328100464417816 0 0.02162602120329413 0.0041678640104235521 0 0.021724429246883489 0.0042156809386040377 0 0.021505708950798702 0.0041328100464417816 0 0.018239535922177304 -0.00092675770420696016 0 0.018483335708293986 -0.0011740092954604475 0 0.018143411987221067 -0.0012258357699154755 0 0.017986406565794612 -0.00044197194705102141 0 0.019692091309296989 0.00013017475074482323 0 0.021712359797294821 0.0042416505383245755 0 0.02162602120329413 0.0041678640104235521 0 0.021724429246883489 0.0042156809386040377 0 0.017397357074373537 -0.0026705395514600647 0 0.017373581520304597 -0.0027437737340698649 0 0.016904074074143027 -0.0021739889012018804 0 0.017986406565794612 -0.00044197194705102141 0 0.017726668783034898 -0.00068159337868296734 0 0.016983247859531155 0.00061481070399815071 0 0.018791172523641559 -0.0012127381065205425 0 0.019552000069593439 0.0011322037400116056 0 0.01806331284450604 -0.00035374253077584492 0 0.017726668783034898 -0.00068159337868296734 0 0.01806331284450604 -0.00035374253077584492 0 0.017986406565794612 -0.00044197194705102141 0 0.017726668783034898 -0.00068159337868296734 0 0.016398506970135864 -0.002554502395663931 0 0.018058411186432002 -0.0017928775612486316 0 0.017449217097979461 -0.0010378270206439701 0 0.018373606802834851 -0.00082016124825661223 0 0.016446293651755373 -0.00039924257187372823 0 0.017449217097979461 -0.0010378270206439701 0 0.018373606802834851 -0.00082016124825661223 0 0.016233168759106312 3.6610181572126356e-05 0 0.016398506970135864 -0.002554502395663931 0 0.017863824096319144 -0.0018319649240936208 0 0.018058411186432002 -0.0017928775612486316 0 0.017449217097979461 -0.0010378270206439701 0 0.017726668783034898 -0.00068159337868296734 0 0.015494509328704078 -0.0030626924692810772 0 0.016398506970135864 -0.002554502395663931 0 0.015494509328704078 -0.0030626924692810772 0 0.01603923586220549 -0.0024387418825830573 0 0.016078418877679114 -0.002317113258006773 0 0.016328713009442709 -0.0023828034948994879 0 0.014302741149466364 -0.006829699308826387 0 0.014734111522675657 -0.0066049871692102913 0 0.014116688984548107 -0.0064562831975270287 0 0.017373581520304597 -0.0027437737340698649 0 0.016416713308416112 -0.0029401380435577469 0 0.016904074074143027 -0.0021739889012018804 0 0.017986406565794612 -0.00044197194705102141 0 0.018124072597117884 -0.0016110817632335396 0 0.016179539461249122 -0.002288806964102285 0 0.016416713308416112 -0.0029401380435577469 0 0.016904074074143027 -0.0021739889012018804 0 0.015007789122391471 -0.0033731382162665371 0 0.015494509328704078 -0.0030626924692810772 0 0.013997971235554603 -0.0067326139448204312 0 0.014302741149466364 -0.006829699308826387 0 0.014116688984548107 -0.0064562831975270287 0 0.013787586290163099 -0.0065320048492766049 0 0.013997971235554603 -0.0067326139448204312 0 0.014116688984548107 -0.0064562831975270287 0 0.016667666102326131 -0.0040300643712625709 0 0.017837858733686349 -0.0043619288529701252 0 0.017284132887132059 -0.0050287596392007868 0 0.017837858733686349 -0.0043619288529701252 0 0.017284132887132059 -0.0050287596392007868 0 0.018219305031205241 -0.005021047602239672 0 0.016974439582324714 -0.0061195254787265096 0 0.017284132887132059 -0.0050287596392007868 0 0.01805291675411785 -0.0056203983781105485 0 0.016974439582324714 -0.0061195254787265096 0 0.01805291675411785 -0.0056203983781105485 0 0.018359999815877458 -0.0059305795804129131 0 0.016603315411346305 -0.0028644299322167972 0 0.018124072597117884 -0.0016110817632335396 0 0.017284132887132059 -0.0050287596392007868 0 0.01805291675411785 -0.0056203983781105485 0 0.018219305031205241 -0.005021047602239672 0 0.01805291675411785 -0.0056203983781105485 0 0.018622601434728353 -0.0054723044828292105 0 0.018219305031205241 -0.005021047602239672 0 0.01805291675411785 -0.0056203983781105485 0 0.018354494323087372 -0.0059038002370202305 0 0.018622601434728353 -0.0054723044828292105 0 0.018234754048339099 -0.0017994386178536604 0 0.018124072597117884 -0.0016110817632335396 0 0.018622601434728353 -0.0054723044828292105 0 0.018219305031205241 -0.005021047602239672 0 0.018901330788160087 -0.0051026155379017939 0 0.018219305031205241 -0.005021047602239672 0 0.018671088283515665 -0.0045314639077391836 0 0.018901330788160087 -0.0051026155379017939 0 0.017837858733686349 -0.0043619288529701252 0 0.018219305031205241 -0.005021047602239672 0 0.018671088283515665 -0.0045314639077391836 0 0.017837858733686349 -0.0043619288529701252 0 0.018671088283515665 -0.0045314639077391836 0 0.018808013511585266 -0.0039248542913809109 0 0.018671088283515665 -0.0045314639077391836 0 0.018901330788160087 -0.0051026155379017939 0 0.019973686042119514 -0.0043213605442455026 0 0.018901330788160087 -0.0051026155379017939 0 0.01953082100127335 -0.0056892617974295756 0 0.019973686042119514 -0.0043213605442455026 0 0.018354494323087372 -0.0059038002370202305 0 0.018622601434728353 -0.0054723044828292105 0 0.01953082100127335 -0.0056892617974295756 0 0.018124072597117884 -0.0016110817632335396 0 0.019692091309296989 0.00013017475074482323 0 0.018622601434728353 -0.0054723044828292105 0 0.018901330788160087 -0.0051026155379017939 0 0.01953082100127335 -0.0056892617974295756 0 0.02162524217250188 0.0040229171920055252 0 0.021505708950798702 0.0041328100464417816 0 0.021927752315511289 0.0044483786712583625 0 0.024122051098132966 0.0047448528729045333 0 0.02367457919808277 0.0046791244076835065 0 0.023903282965209268 0.004030713439873196 0 0.019692091309296989 0.00013017475074482323 0 0.021741228556872924 0.0014144215117278683 0 0.02367457919808277 0.0046791244076835065 0 0.023903282965209268 0.004030713439873196 0 0.023518253733317795 0.0042562700833716936 0 0.019692091309296989 0.00013017475074482323 0 0.021030817323538908 0.0001080514257708523 0 0.021030817323538908 0.0001080514257708523 0 0.021744819750256605 0.00019456359898890963 0 0.023903282965209268 0.004030713439873196 0 0.023744760439370124 0.0033215343040463663 0 0.023346180141072603 0.0038644687291574525 0 0.019973686042119514 -0.0043213605442455026 0 0.020462124017091878 -0.0032916506423814299 0 0.019508879787012687 -0.0034193680796115642 0 0.020462124017091878 -0.0032916506423814299 0 0.019508879787012687 -0.0034193680796115642 0 0.019521218262151818 -0.0026574263178603041 0 0.019508879787012687 -0.0034193680796115642 0 0.018380361947283437 -0.0030573372817654736 0 0.019521218262151818 -0.0026574263178603041 0 0.018671088283515665 -0.0045314639077391836 0 0.019973686042119514 -0.0043213605442455026 0 0.018808013511585266 -0.0039248542913809109 0 0.019973686042119514 -0.0043213605442455026 0 0.019508879787012687 -0.0034193680796115642 0 0.018808013511585266 -0.0039248542913809109 0 0.017837858733686349 -0.0043619288529701252 0 0.018808013511585266 -0.0039248542913809109 0 0.017485449456185888 -0.0034908549056139569 0 0.018345637337092602 -0.0033102082769493855 0 0.017981625927348029 -0.002682971021146739 0 0.018808013511585266 -0.0039248542913809109 0 0.017485449456185888 -0.0034908549056139569 0 0.017713873333061646 -0.0023052163743888941 0 0.019508879787012687 -0.0034193680796115642 0 0.018808013511585266 -0.0039248542913809109 0 0.018380361947283437 -0.0030573372817654736 0 0.016545365674072915 -0.002856019779524118 0 0.017713873333061646 -0.0023052163743888941 0 0.016554120235300295 -0.0020259955487796719 0 0.016545365674072915 -0.002856019779524118 0 0.017485449456185888 -0.0034908549056139569 0 0.017713873333061646 -0.0023052163743888941 0 0.016667666102326131 -0.0040300643712625709 0 0.017837858733686349 -0.0043619288529701252 0 0.017485449456185888 -0.0034908549056139569 0 0.016667666102326131 -0.0040300643712625709 0 0.016545365674072915 -0.002856019779524118 0 0.017485449456185888 -0.0034908549056139569 0 0.022620754261806299 0.0044275150323919207 0 0.02287384095213341 0.0042890628271245847 0 0.02255594399490167 0.0040326840082707486 0 0.022620754261806299 0.0044275150323919207 0 0.022128572491392766 0.0042495812138771977 0 0.02255594399490167 0.0040326840082707486 0 0.021106122919487581 0.004773668042458103 0 0.021705840866393093 0.0044734123331828177 0 0.021265946567010762 0.0048914404571120864 0 0.021106122919487581 0.004773668042458103 0 0.020415432193091089 0.0051888966953485289 0 0.020320970234892752 0.0051545241059077042 0 0.020359843993674704 0.005208541607790565 0 0.020320970234892752 0.0051545241059077042 0 0.020359843993674704 0.005208541607790565 0 0.020315872393124195 0.0052154149831391576 0 0.020359843993674704 0.005208541607790565 0 0.02035354930483569 0.005257893053894758 0 0.020404259547024569 0.0052194476792900586 0 0.020315872393124195 0.0052154149831391576 0 0.02035354930483569 0.005257893053894758 0 0.020280227176708139 0.0052735327780700286 0 0.019376848130166463 0.0057024748135171823 0 0.019274753980908544 0.0059638864021004465 0 0.020359843993674704 0.005208541607790565 0 0.020315872393124195 0.0052154149831391576 0 0.02035354930483569 0.005257893053894758 0 0.02035354930483569 0.005257893053894758 0 0.020404259547024569 0.0052194476792900586 0 0.020427468478452785 0.0052419430799169053 0 0.019376848130166463 0.0057024748135171823 0 0.019745978805147054 0.0053571208159649882 0 0.020415432193091089 0.0051888966953485289 0 0.020359843993674704 0.005208541607790565 0 0.020404259547024569 0.0052194476792900586 0 0.020415432193091089 0.0051888966953485289 0 0.020404259547024569 0.0052194476792900586 0 0.020436453020055735 0.0052242500011915553 0 0.020404259547024569 0.0052194476792900586 0 0.020436453020055735 0.0052242500011915553 0 0.020427468478452785 0.0052419430799169053 0 0.019755151134887385 0.0053480155652465781 0 0.019745978805147054 0.0053571208159649882 0 0.018971736737794592 0.003599722735113249 0 0.019780631043495575 0.0038576436834095108 0 0.020091135789685355 0.0033159226134271791 0 0.020436453020055735 0.0052242500011915553 0 0.020427527149544312 0.005241677790298771 0 0.020511472376170119 0.0052229138314423057 0 0.020415432193091089 0.0051888966953485289 0 0.020436453020055735 0.0052242500011915553 0 0.020511472376170119 0.0052229138314423057 0 0.021265946567010762 0.0048914404571120864 0 0.020980467013452176 0.0049209164549638166 0 0.019745978805147054 0.0053571208159649882 0 0.020980467013452176 0.0049209164549638166 0 0.019372249820101561 0.0041685697702611669 0 0.018971736737794592 0.003599722735113249 0 0.019780631043495575 0.0038576436834095108 0 0.019780631043495575 0.0038576436834095108 0 0.020091135789685355 0.0033159226134271791 0 0.020282513785279874 0.0038557457806613353 0 0.023149389865321241 0.0045732761233433774 0 0.023162276028335423 0.0044645014452757278 0 0.02287384095213341 0.0042890628271245847 0 0.023232201442870391 0.004547628874860825 0 0.023149389865321241 0.0045732761233433774 0 0.023162276028335423 0.0044645014452757278 0 0.020997341353870567 0.0049175746680188539 0 0.020980467013452176 0.0049209164549638166 0 0.02367457919808277 0.0046791244076835065 0 0.023108159637179115 0.0045793022479462446 0 0.023316079891654917 0.0044356884903747123 0 0.02162524217250188 0.0040229171920055252 0 0.021927752315511289 0.0044483786712583625 0 0.023108159637179115 0.0045793022479462446 0 0.02162524217250188 0.0040229171920055252 0 0.023232201442870391 0.004547628874860825 0 0.023108159637179115 0.0045793022479462446 0 0.020913065646657653 0.0040219615137413586 0 0.02162524217250188 0.0040229171920055252 0 0.020091135789685355 0.0033159226134271791 0 0.02162524217250188 0.0040229171920055252 0 0.023232201442870391 0.004547628874860825 0 0.023380010028737557 0.0045075775866162777 0 0.021741228556872924 0.0014144215117278683 0 0.022267662384586679 0.0017960425828104773 0 0.021272164317181656 0.0047394999792245334 0 0.020980467013452176 0.0049209164549638166 0 0.020913065646657653 0.0040219615137413586 0 0.020091135789685355 0.0033159226134271791 0 0.020282513785279874 0.0038557457806613353 0 0.023232201442870391 0.004547628874860825 0 0.023162276028335423 0.0044645014452757278 0 0.023108159637179115 0.0045793022479462446 0 0.023162276028335423 0.0044645014452757278 0 0.023108159637179115 0.0045793022479462446 0 0.023316079891654917 0.0044356884903747123 0 0.02367457919808277 0.0046791244076835065 0 0.023316079891654917 0.0044356884903747123 0 0.023518253733317795 0.0042562700833716936 0 0.023903282965209268 0.004030713439873196 0 0.023518253733317795 0.0042562700833716936 0 0.023346180141072603 0.0038644687291574525 0 0.023316079891654917 0.0044356884903747123 0 0.023518253733317795 0.0042562700833716936 0 0.023233288792990879 0.0042578509137230613 0 0.023162276028335423 0.0044645014452757278 0 0.023316079891654917 0.0044356884903747123 0 0.023233288792990879 0.0042578509137230613 0 0.023233288792990879 0.0042578509137230613 0 0.023095839976235755 0.0040763368658727891 0 0.023346180141072603 0.0038644687291574525 0 0.023518253733317795 0.0042562700833716936 0 0.023233288792990879 0.0042578509137230613 0 0.023346180141072603 0.0038644687291574525 0 0.022620754261806299 0.0044275150323919207 0 0.023149389865321241 0.0045732761233433774 0 0.02287384095213341 0.0042890628271245847 0 0.02287384095213341 0.0042890628271245847 0 0.023095839976235755 0.0040763368658727891 0 0.022901377612355039 0.0038605117109582602 0 0.023162276028335423 0.0044645014452757278 0 0.023233288792990879 0.0042578509137230613 0 0.02287384095213341 0.0042890628271245847 0 0.023233288792990879 0.0042578509137230613 0 0.02287384095213341 0.0042890628271245847 0 0.023095839976235755 0.0040763368658727891 0 0.023095839976235755 0.0040763368658727891 0 0.022901377612355039 0.0038605117109582602 0 0.023346180141072603 0.0038644687291574525 0 0.022901377612355039 0.0038605117109582602 0 0.023346180141072603 0.0038644687291574525 0 0.023009399643373712 0.0033003567652903684 0 0.023744760439370124 0.0033215343040463663 0 0.023346180141072603 0.0038644687291574525 0 0.023009399643373712 0.0033003567652903684 0 0.023009399643373712 0.0033003567652903684 0 0.022465607094889612 0.0034901170737991326 0 0.022222640833916452 0.0027885102292269175 0 0.022901377612355039 0.0038605117109582602 0 0.023009399643373712 0.0033003567652903684 0 0.022465607094889612 0.0034901170737991326 0 0.02287384095213341 0.0042890628271245847 0 0.022901377612355039 0.0038605117109582602 0 0.02255594399490167 0.0040326840082707486 0 0.022901377612355039 0.0038605117109582602 0 0.022465607094889612 0.0034901170737991326 0 0.02255594399490167 0.0040326840082707486 0 0.021871228530847924 0.00450227615496019 0 0.022013940925164545 0.0037801132385686387 0 0.021591237943151684 0.0040516556069360183 0 0.022465607094889612 0.0034901170737991326 0 0.02255594399490167 0.0040326840082707486 0 0.022013940925164545 0.0037801132385686387 0 0.021871228530847924 0.00450227615496019 0 0.02255594399490167 0.0040326840082707486 0 0.022013940925164545 0.0037801132385686387 0 0.022048712714257557 0.0033402730638189019 0 0.021466669084733842 0.003326567981075649 0 0.022222640833916452 0.0027885102292269175 0 0.022465607094889612 0.0034901170737991326 0 0.022048712714257557 0.0033402730638189019 0 0.022222640833916452 0.0027885102292269175 0 0.022013940925164545 0.0037801132385686387 0 0.022048712714257557 0.0033402730638189019 0 0.021466669084733842 0.003326567981075649 0 0.022465607094889612 0.0034901170737991326 0 0.022013940925164545 0.0037801132385686387 0 0.022048712714257557 0.0033402730638189019 0 0.022187446056665266 0.0030948867509833734 0 0.021761239754634322 0.0030265115713710255 0 0.021694013160950737 0.0032511703515491776 0 0.022187446056665266 0.0030948867509833734 0 0.021761239754634322 0.0030265115713710255 0 0.02197877151576752 0.0028735991149492967 0 0.022187446056665266 0.0030948867509833734 0 0.021694013160950737 0.0032511703515491776 0 0.021744154657309181 0.0035273046486407685 0 0.020623101662205965 0.0044860693741408256 0 0.02119466864252385 0.0039756208795352077 0 0.020662985376760576 0.0050287720779517145 0 0.021680454064903338 0.003326150825652064 0 0.020778782116215054 0.0041163952215719874 0 0.021466669084733842 0.003326567981075649 0 0.020400821407194084 0.0041783554286488238 0 0.020708560583065978 0.0041255786819990158 0 0.020303022158751474 0.0042269413970633038 0 0.020623101662205965 0.0044860693741408256 0 0.020250262081369815 0.0048703590137525819 0 0.020303022158751474 0.0042269413970633038 0 0.020623101662205965 0.0044860693741408256 0 0.020708560583065978 0.0041255786819990158 0 0.020778782116215054 0.0041163952215719874 0 0.020770097284669182 0.0041182372466016491 0 0.020623101662205965 0.0044860693741408256 0 0.020708560583065978 0.0041255786819990158 0 0.02119466864252385 0.0039756208795352077 0 0.021591237943151684 0.0040516556069360183 0 0.02119466864252385 0.0039756208795352077 0 0.021338711540510719 0.0043554009870448813 0 0.021466669084733842 0.003326567981075649 0 0.020708560583065978 0.0041255786819990158 0 0.02119466864252385 0.0039756208795352077 0 0.022013940925164545 0.0037801132385686387 0 0.021466669084733842 0.003326567981075649 0 0.021591237943151684 0.0040516556069360183 0 0.021466669084733842 0.003326567981075649 0 0.021591237943151684 0.0040516556069360183 0 0.02119466864252385 0.0039756208795352077 0 0.020458012276263118 0.0044649579622281985 0 0.019551390677631269 0.0048882333586264563 0 0.019809484019998855 0.0043880124435957636 0 0.020063712017453068 0.0041357970409630056 0 0.020458012276263118 0.0044649579622281985 0 0.020306814343590475 0.0037392972237248099 0 0.020063712017453068 0.0041357970409630056 0 0.019809484019998855 0.0043880124435957636 0 0.019663307650809515 0.0039482582657554234 0 0.020063712017453068 0.0041357970409630056 0 0.020458012276263118 0.0044649579622281985 0 0.019809484019998855 0.0043880124435957636 0 0.021761239754634322 0.0030265115713710255 0 0.021265466788641121 0.0031910570619579875 0 0.0216714072976853 0.0026663051586445653 0 0.021761239754634322 0.0030265115713710255 0 0.021694013160950737 0.0032511703515491776 0 0.021265466788641121 0.0031910570619579875 0 0.021694013160950737 0.0032511703515491776 0 0.021265466788641121 0.0031910570619579875 0 0.021502008909750507 0.0034138281622749468 0 0.021744154657309181 0.0035273046486407685 0 0.021502008909750507 0.0034138281622749468 0 0.021303371731121932 0.0036303714979654092 0 0.020086037811981917 0.0045697930645704635 0 0.019280222395019198 0.0047655375972895462 0 0.019586789914681942 0.0050428027081463826 0 0.021265466788641121 0.0031910570619579875 0 0.021502008909750507 0.0034138281622749468 0 0.021303371731121932 0.0036303714979654092 0 0.020778782116215054 0.0041163952215719874 0 0.02022954829892205 0.0043636217654721525 0 0.021694013160950737 0.0032511703515491776 0 0.021744154657309181 0.0035273046486407685 0 0.021502008909750507 0.0034138281622749468 0 0.020778782116215054 0.0041163952215719874 0 0.020486379071138709 0.0043713032123652382 0 0.020618473930780722 0.0037981775931621342 0 0.019531874047841669 0.0046885237229014271 0 0.021265466788641121 0.0031910570619579875 0 0.021303371731121932 0.0036303714979654092 0 0.020856575278265139 0.0037314473784748081 0 0.020458012276263118 0.0044649579622281985 0 0.01960293559645266 0.0055884228557163945 0 0.019551390677631269 0.0048882333586264563 0 0.02022954829892205 0.0043636217654721525 0 0.019531874047841669 0.0046885237229014271 0 0.019280222395019198 0.0047655375972895462 0 0.018779695666108757 0.0051647891533998878 0 0.018424935003274499 0.0050736229761979565 0 0.018635681385716578 0.005463472636778933 0 0.018779695666108757 0.0051647891533998878 0 0.019046167269778105 0.0051997304984550191 0 0.018635681385716578 0.005463472636778933 0 0.019046167269778105 0.0051997304984550191 0 0.018926601647544158 0.0055671844575660096 0 0.018635681385716578 0.005463472636778933 0 0.018779695666108757 0.0051647891533998878 0 0.018514143737409762 0.005309916158498071 0 0.019280222395019198 0.0047655375972895462 0 0.018779695666108757 0.0051647891533998878 0 0.019046167269778105 0.0051997304984550191 0 0.019046167269778105 0.0051997304984550191 0 0.018926601647544158 0.0055671844575660096 0 0.019258552341741772 0.0054261174565882172 0 0.019046167269778105 0.0051997304984550191 0 0.019258552341741772 0.0054261174565882172 0 0.019586789914681942 0.0050428027081463826 0 0.019258552341741772 0.0054261174565882172 0 0.019586789914681942 0.0050428027081463826 0 0.019582598200196467 0.0055811512464249875 0 0.019280222395019198 0.0047655375972895462 0 0.019046167269778105 0.0051997304984550191 0 0.019586789914681942 0.0050428027081463826 0 0.020303022158751474 0.0042269413970633038 0 0.019586789914681942 0.0050428027081463826 0 0.020250262081369815 0.0048703590137525819 0 0.019586789914681942 0.0050428027081463826 0 0.02012793658158334 0.005405496895714664 0 0.020250262081369815 0.0048703590137525819 0 0.019586789914681942 0.0050428027081463826 0 0.02012793658158334 0.005405496895714664 0 0.019582598200196467 0.0055811512464249875 0 0.02012793658158334 0.005405496895714664 0 0.019771239011802413 0.0061218395482697963 0 0.019582598200196467 0.0055811512464249875 0 0.019771239011802413 0.0061218395482697963 0 0.019582598200196467 0.0055811512464249875 0 0.019226666000484519 0.0058945144317161828 0 0.019258552341741772 0.0054261174565882172 0 0.019582598200196467 0.0055811512464249875 0 0.019226666000484519 0.0058945144317161828 0 0.019226666000484519 0.0058945144317161828 0 0.018513567705009785 0.006495608268873623 0 0.018540686103120312 0.0061083441478580868 0 0.019771239011802413 0.0061218395482697963 0 0.019226666000484519 0.0058945144317161828 0 0.018513567705009785 0.006495608268873623 0 0.018926601647544158 0.0055671844575660096 0 0.019258552341741772 0.0054261174565882172 0 0.019226666000484519 0.0058945144317161828 0 0.018926601647544158 0.0055671844575660096 0 0.019226666000484519 0.0058945144317161828 0 0.018862836333438507 0.005843815819465724 0 0.019226666000484519 0.0058945144317161828 0 0.018862836333438507 0.005843815819465724 0 0.018540686103120312 0.0061083441478580868 0 0.018862836333438507 0.005843815819465724 0 0.018573204347181561 0.0058316506500130701 0 0.018540686103120312 0.0061083441478580868 0 0.018926601647544158 0.0055671844575660096 0 0.018862836333438507 0.005843815819465724 0 0.018573204347181561 0.0058316506500130701 0 0.018635681385716578 0.005463472636778933 0 0.018926601647544158 0.0055671844575660096 0 0.018573204347181561 0.0058316506500130701 0 0.020373258554800253 0.0048372617356946439 0 0.020233981004825107 0.0052656579224273567 0 0.02119466864252385 0.0039756208795352077 0 0.021385530521352562 0.0047473161910264261 0 0.021338711540510719 0.0043554009870448813 0 0.020320970234892752 0.0051545241059077042 0 0.020315872393124195 0.0052154149831391576 0 0.020264883249895879 0.0051828915813118435 0 0.021106122919487581 0.004773668042458103 0 0.020233981004825107 0.0052656579224273567 0 0.021106122919487581 0.004773668042458103 0 0.021175127645379103 0.0047601823835707454 0 0.021809581594739735 0.0045285310287731754 0 0.021385530521352562 0.0047473161910264261 0 0.021338711540510719 0.0043554009870448813 0 0.021871228530847924 0.00450227615496019 0 0.021591237943151684 0.0040516556069360183 0 0.021338711540510719 0.0043554009870448813 0 0.02119466864252385 0.0039756208795352077 0 0.021423759795712316 0.0054082734377163691 0 0.020662985376760576 0.0050287720779517145 0 0.02012793658158334 0.005405496895714664 0 0.021423759795712316 0.0054082734377163691 0 0.020662985376760576 0.0050287720779517145 0 0.02012793658158334 0.005405496895714664 0 0.020662985376760576 0.0050287720779517145 0 0.020250262081369815 0.0048703590137525819 0 0.020623101662205965 0.0044860693741408256 0 0.020662985376760576 0.0050287720779517145 0 0.020250262081369815 0.0048703590137525819 0 0.02012793658158334 0.005405496895714664 0 0.019771239011802413 0.0061218395482697963 0 0.021423759795712316 0.0054082734377163691 0 0.019562555134344958 0.0058439860719897707 0 0.020233981004825107 0.0052656579224273567 0 0.019333483209202414 0.0060908681293069637 0 0.020127892146689082 0.0056924218480782236 0 0.019816727354047357 0.0060626201549904817 0 0.019816727354047357 0.0060626201549904817 0 0.019707235818743722 0.0062318701701862458 0 0.020236698254879355 0.0063012826834651751 0 0.019333483209202414 0.0060908681293069637 0 0.019816727354047357 0.0060626201549904817 0 0.019707235818743722 0.0062318701701862458 0 0.020233981004825107 0.0052656579224273567 0 0.019274753980908544 0.0059638864021004465 0 0.020315872393124195 0.0052154149831391576 0 0.020264883249895879 0.0051828915813118435 0 0.020280227176708139 0.0052735327780700286 0 0.020127892146689082 0.0056924218480782236 0 0.019816727354047357 0.0060626201549904817 0 0.020236698254879355 0.0063012826834651751 0 0.017890557431391601 0.0065507705896687383 0 0.01783802937836957 0.0065089704783750342 0 0.017854568856441662 0.0065964185008305989 0 0.017852649042932253 0.0066094315939648858 0 0.017858368237519604 0.006648651251965081 0 0.0178212542500501 0.0066393688556380705 0 0.019274753980908544 0.0059638864021004465 0 0.018949395449545554 0.0062598947173852929 0 0.018949395449545554 0.0062598947173852929 0 0.018847837033332131 0.0063472736503189806 0 0.017858368237519604 0.006648651251965081 0 0.017840292800844763 0.0066729387307068368 0 0.017868564212366721 0.0066747282140789191 0 0.017858368237519604 0.006648651251965081 0 0.017833060346569209 0.0066568110077696281 0 0.017840292800844763 0.0066729387307068368 0 0.017858368237519604 0.006648651251965081 0 0.017833060346569209 0.0066568110077696281 0 0.0178212542500501 0.0066393688556380705 0 0.017810474294034137 0.0066664547973436421 0 0.017791103734132663 0.0066577071158543432 0 0.017782465332834774 0.0066795472443338527 0 0.017833060346569209 0.0066568110077696281 0 0.017840292800844763 0.0066729387307068368 0 0.017810474294034137 0.0066664547973436421 0 0.017833060346569209 0.0066568110077696281 0 0.017810474294034137 0.0066664547973436421 0 0.0178212542500501 0.0066393688556380705 0 0.017810474294034137 0.0066664547973436421 0 0.017791103734132663 0.0066577071158543432 0 0.0178212542500501 0.0066393688556380705 0 0.019274753980908544 0.0059638864021004465 0 0.018637112517971312 0.0063305908711492982 0 0.017791103734132663 0.0066577071158543432 0 0.0178212542500501 0.0066393688556380705 0 0.017783735919130413 0.0066299477272892624 0 0.017852649042932253 0.0066094315939648858 0 0.0178212542500501 0.0066393688556380705 0 0.017783735919130413 0.0066299477272892624 0 0.019707235818743722 0.0062318701701862458 0 0.020236698254879355 0.0063012826834651751 0 0.019441171114390601 0.0064714299098367943 0 0.019333483209202414 0.0060908681293069637 0 0.019707235818743722 0.0062318701701862458 0 0.019441171114390601 0.0064714299098367943 0 0.018637112517971312 0.0063305908711492982 0 0.018222279611615697 0.0065107005794570582 0 0.019333483209202414 0.0060908681293069637 0 0.019441171114390601 0.0064714299098367943 0 0.018979765436432965 0.0064275140146616691 0 0.019441171114390601 0.0064714299098367943 0 0.018979765436432965 0.0064275140146616691 0 0.018627489938622756 0.006651627763012734 0 0.019333483209202414 0.0060908681293069637 0 0.018979765436432965 0.0064275140146616691 0 0.018513567705009785 0.006495608268873623 0 0.017783735919130413 0.0066299477272892624 0 0.017735364515689772 0.0066662353096716125 0 0.017745467659887743 0.0066686627124512366 0 0.019562555134344958 0.0058439860719897707 0 0.019056133197275917 0.0061463827511811916 0 0.018979765436432965 0.0064275140146616691 0 0.018627489938622756 0.006651627763012734 0 0.018513567705009785 0.006495608268873623 0 0.017728061283343029 0.0066896617214918051 0 0.01776099191385281 0.0066723048836309544 0 0.017755998071826522 0.0067048620261779884 0 0.017745467659887743 0.0066686627124512366 0 0.017728061283343029 0.0066896617214918051 0 0.017728976727472184 0.006684271982219942 0 0.017735364515689772 0.0066662353096716125 0 0.017745467659887743 0.0066686627124512366 0 0.017728976727472184 0.006684271982219942 0 0.017745467659887743 0.0066686627124512366 0 0.017728061283343029 0.0066896617214918051 0 0.01776099191385281 0.0066723048836309544 0 0.017783735919130413 0.0066299477272892624 0 0.017745467659887743 0.0066686627124512366 0 0.01776099191385281 0.0066723048836309544 0 0.017791103734132663 0.0066577071158543432 0 0.017783735919130413 0.0066299477272892624 0 0.01776099191385281 0.0066723048836309544 0 0.017791103734132663 0.0066577071158543432 0 0.01776099191385281 0.0066723048836309544 0 0.017782465332834774 0.0066795472443338527 0 0.017782465332834774 0.0066795472443338527 0 0.017755998071826522 0.0067048620261779884 0 0.017813175986110513 0.0067031930125489554 0 0.01776099191385281 0.0066723048836309544 0 0.017782465332834774 0.0066795472443338527 0 0.017755998071826522 0.0067048620261779884 0 0.017755998071826522 0.0067048620261779884 0 0.017792409619982016 0.0067408071738967804 0 0.017813175986110513 0.0067031930125489554 0 0.017728061283343029 0.0066896617214918051 0 0.017755998071826522 0.0067048620261779884 0 0.017691025339504028 0.0067217339448351256 0 0.017715911615288977 0.0067767479247308696 0 0.017755998071826522 0.0067048620261779884 0 0.017691025339504028 0.0067217339448351256 0 0.017715911615288977 0.0067767479247308696 0 0.017691025339504028 0.0067217339448351256 0 0.017637485644902685 0.0067860513413802127 0 0.017715911615288977 0.0067767479247308696 0 0.017755998071826522 0.0067048620261779884 0 0.017792409619982016 0.0067408071738967804 0 0.01787560578139117 0.0067306071050565403 0 0.017792409619982016 0.0067408071738967804 0 0.017813175986110513 0.0067031930125489554 0 0.01787560578139117 0.0067306071050565403 0 0.018217209067660337 0.0065752674224737358 0 0.01801022125083274 0.0060770771572651811 0 0.01787560578139117 0.0067306071050565403 0 0.017871113171587127 0.0067094871041355007 0 0.017851665328656081 0.0067047400269044976 0 0.01787560578139117 0.0067306071050565403 0 0.017851665328656081 0.0067047400269044976 0 0.017813175986110513 0.0067031930125489554 0 0.018107049224250524 0.0065512571967350471 0 0.018264319672159132 0.0063578917375366828 0 0.017871113171587127 0.0067094871041355007 0 0.017851665328656081 0.0067047400269044976 0 0.017868564212366721 0.0066747282140789191 0 0.017840292800844763 0.0066729387307068368 0 0.017851665328656081 0.0067047400269044976 0 0.017868564212366721 0.0066747282140789191 0 0.017840292800844763 0.0066729387307068368 0 0.017851665328656081 0.0067047400269044976 0 0.017813175986110513 0.0067031930125489554 0 0.017840292800844763 0.0066729387307068368 0 0.017810474294034137 0.0066664547973436421 0 0.017813175986110513 0.0067031930125489554 0 0.017810474294034137 0.0066664547973436421 0 0.017782465332834774 0.0066795472443338527 0 0.017813175986110513 0.0067031930125489554 0 0.017281622122180318 0.006962152286323138 0 0.017550308525675108 0.0068640201017235707 0 0.017376013307855528 0.0066968254264898278 0 0.017281622122180318 0.006962152286323138 0 0.017376013307855528 0.0066968254264898278 0 0.017046852553270535 0.0067757888053342503 0 0.017281622122180318 0.006962152286323138 0 0.017426282961434614 0.0071675023103719001 0 0.017550308525675108 0.0068640201017235707 0 0.017281622122180318 0.006962152286323138 0 0.017063013548947528 0.0070502515504551021 0 0.017046852553270535 0.0067757888053342503 0 0.016772572343174679 0.0069691796249650101 0 0.017063013548947528 0.0070502515504551021 0 0.017046852553270535 0.0067757888053342503 0 0.017281622122180318 0.006962152286323138 0 0.017063013548947528 0.0070502515504551021 0 0.017207473474036172 0.0071888880862412676 0 0.016772572343174679 0.0069691796249650101 0 0.017019634789765058 0.0073291076713166182 0 0.017063013548947528 0.0070502515504551021 0 0.017019634789765058 0.0073291076713166182 0 0.017063013548947528 0.0070502515504551021 0 0.017207473474036172 0.0071888880862412676 0 0.017255643924032955 0.0074099604574153566 0 0.017207473474036172 0.0071888880862412676 0 0.017426282961434614 0.0071675023103719001 0 0.017281622122180318 0.006962152286323138 0 0.017207473474036172 0.0071888880862412676 0 0.017426282961434614 0.0071675023103719001 0 0.017426282961434614 0.0071675023103719001 0 0.017702229108509684 0.0070718884515504656 0 0.017550308525675108 0.0068640201017235707 0 0.013155267441150763 0.0066995115719597834 0 0.0150677558980807 0.0065231247979715126 0 0.017601585090684616 0.0074517166225117329 0 0.017426282961434614 0.0071675023103719001 0 0.017702229108509684 0.0070718884515504656 0 0.017519818538309879 0.0068470059357896122 0 0.017617312678625725 0.0067364827838440585 0 0.017637485644902685 0.0067860513413802127 0 0.017691025339504028 0.0067217339448351256 0 0.017617312678625725 0.0067364827838440585 0 0.017637485644902685 0.0067860513413802127 0 0.0150677558980807 0.0065231247979715126 0 0.015616230786971053 0.0064752642395048453 0 0.017728061283343029 0.0066896617214918051 0 0.017691025339504028 0.0067217339448351256 0 0.017724373227212577 0.0067086011101377702 0 0.017691025339504028 0.0067217339448351256 0 0.017617312678625725 0.0067364827838440585 0 0.017724373227212577 0.0067086011101377702 0 0.017702229108509684 0.0070718884515504656 0 0.017550308525675108 0.0068640201017235707 0 0.017724373227212577 0.0067086011101377702 0 0.017550308525675108 0.0068640201017235707 0 0.017687139011786462 0.006655542063916991 0 0.017376013307855528 0.0066968254264898278 0 0.017550308525675108 0.0068640201017235707 0 0.017687139011786462 0.006655542063916991 0 0.017724373227212577 0.0067086011101377702 0 0.017687139011786462 0.006655542063916991 0 0.017724373227212577 0.0067086011101377702 0 0.017728976727472184 0.006684271982219942 0 0.017735364515689772 0.0066662353096716125 0 0.017687139011786462 0.006655542063916991 0 0.017728976727472184 0.006684271982219942 0 0.017728061283343029 0.0066896617214918051 0 0.017724373227212577 0.0067086011101377702 0 0.017728976727472184 0.006684271982219942 0 0.018627489938622756 0.006651627763012734 0 0.017687139011786462 0.006655542063916991 0 0.01821018666494198 0.0064673864109044202 0 0.018222279611615697 0.0065107005794570582 0 0.017998868044073701 0.0065741298485073058 0 0.018627489938622756 0.006651627763012734 0 0.018513567705009785 0.006495608268873623 0 0.01821018666494198 0.0064673864109044202 0 0.01821018666494198 0.0064673864109044202 0 0.018280617824529923 0.0062724911378566261 0 0.017956847037187577 0.0062649984144107348 0 0.018513567705009785 0.006495608268873623 0 0.01821018666494198 0.0064673864109044202 0 0.018280617824529923 0.0062724911378566261 0 0.018513567705009785 0.006495608268873623 0 0.018280617824529923 0.0062724911378566261 0 0.018540686103120312 0.0061083441478580868 0 0.017687139011786462 0.006655542063916991 0 0.017956847037187577 0.0062649984144107348 0 0.017596580764083016 0.0061971670613898159 0 0.017687139011786462 0.006655542063916991 0 0.017596580764083016 0.0061971670613898159 0 0.017426832899994117 0.0064445330965368398 0 0.017687139011786462 0.006655542063916991 0 0.01821018666494198 0.0064673864109044202 0 0.017956847037187577 0.0062649984144107348 0 0.017596580764083016 0.0061971670613898159 0 0.017426832899994117 0.0064445330965368398 0 0.017318314972965352 0.0061768807370982688 0 0.017426832899994117 0.0064445330965368398 0 0.017152376499130303 0.0065050427700331205 0 0.017318314972965352 0.0061768807370982688 0 0.017687139011786462 0.006655542063916991 0 0.017426832899994117 0.0064445330965368398 0 0.017376013307855528 0.0066968254264898278 0 0.017426832899994117 0.0064445330965368398 0 0.017376013307855528 0.0066968254264898278 0 0.017152376499130303 0.0065050427700331205 0 0.017376013307855528 0.0066968254264898278 0 0.017046852553270535 0.0067757888053342503 0 0.017152376499130303 0.0065050427700331205 0 0.017046852553270535 0.0067757888053342503 0 0.016930866202172948 0.006540780370105588 0 0.017152376499130303 0.0065050427700331205 0 0.016800954807850071 0.0066715172364461423 0 0.017046852553270535 0.0067757888053342503 0 0.016930866202172948 0.006540780370105588 0 0.016930866202172948 0.006540780370105588 0 0.017152376499130303 0.0065050427700331205 0 0.0169679540666017 0.0063327161297809494 0 0.0169679540666017 0.0063327161297809494 0 0.017056980906174576 0.0061025951729083826 0 0.017318314972965352 0.0061768807370982688 0 0.017152376499130303 0.0065050427700331205 0 0.0169679540666017 0.0063327161297809494 0 0.017318314972965352 0.0061768807370982688 0 0.017056980906174576 0.0061025951729083826 0 0.017318314972965352 0.0061768807370982688 0 0.017456000500077614 0.0057623318689324658 0 0.017056980906174576 0.0061025951729083826 0 0.017456000500077614 0.0057623318689324658 0 0.01702245654500854 0.0057762959506001176 0 0.017596580764083016 0.0061971670613898159 0 0.017456000500077614 0.0057623318689324658 0 0.017818175794683051 0.0058800615933156447 0 0.017596580764083016 0.0061971670613898159 0 0.017318314972965352 0.0061768807370982688 0 0.017456000500077614 0.0057623318689324658 0 0.018205785697013695 0.0052533309189549283 0 0.018576587810643402 0.0051092106107162444 0 0.017456000500077614 0.0057623318689324658 0 0.018550123612791541 0.0057617772496919668 0 0.018080613904584313 0.0052213460052482523 0 0.017456000500077614 0.0057623318689324658 0 0.017518318598368558 0.0052302068569453934 0 0.018080613904584313 0.0052213460052482523 0 0.017456000500077614 0.0057623318689324658 0 0.017149805568602617 0.005402974498604521 0 0.017518318598368558 0.0052302068569453934 0 0.017149805568602617 0.005402974498604521 0 0.016915579166160578 0.0055177794403798008 0 0.01702245654500854 0.0057762959506001176 0 0.016840780280365474 0.0052752566937001623 0 0.017149805568602617 0.005402974498604521 0 0.016915579166160578 0.0055177794403798008 0 0.017456000500077614 0.0057623318689324658 0 0.017149805568602617 0.005402974498604521 0 0.01702245654500854 0.0057762959506001176 0 0.018635681385716578 0.005463472636778933 0 0.018351721571122904 0.0056902012003455342 0 0.018573204347181561 0.0058316506500130701 0 0.018351721571122904 0.0056902012003455342 0 0.018573204347181561 0.0058316506500130701 0 0.018181325188506639 0.0059705731956139121 0 0.018280617824529923 0.0062724911378566261 0 0.018540686103120312 0.0061083441478580868 0 0.018181325188506639 0.0059705731956139121 0 0.018573204347181561 0.0058316506500130701 0 0.018540686103120312 0.0061083441478580868 0 0.018181325188506639 0.0059705731956139121 0 0.018280617824529923 0.0062724911378566261 0 0.017956847037187577 0.0062649984144107348 0 0.018181325188506639 0.0059705731956139121 0 0.018351721571122904 0.0056902012003455342 0 0.018181325188506639 0.0059705731956139121 0 0.018134090051181599 0.0056620161259168661 0 0.018181325188506639 0.0059705731956139121 0 0.017818175794683051 0.0058800615933156447 0 0.018134090051181599 0.0056620161259168661 0 0.017956847037187577 0.0062649984144107348 0 0.018181325188506639 0.0059705731956139121 0 0.017818175794683051 0.0058800615933156447 0 0.017956847037187577 0.0062649984144107348 0 0.017596580764083016 0.0061971670613898159 0 0.017818175794683051 0.0058800615933156447 0 0.017456000500077614 0.0057623318689324658 0 0.017818175794683051 0.0058800615933156447 0 0.017821437235059742 0.0055063517501295189 0 0.017818175794683051 0.0058800615933156447 0 0.017821437235059742 0.0055063517501295189 0 0.018134090051181599 0.0056620161259168661 0 0.018576587810643402 0.0051092106107162444 0 0.019531874047841669 0.0046885237229014271 0 0.017821437235059742 0.0055063517501295189 0 0.0182939845094298 0.0053557600023983404 0 0.018396240117690879 0.005186945479444911 0 0.017821437235059742 0.0055063517501295189 0 0.018134090051181599 0.0056620161259168661 0 0.0182939845094298 0.0053557600023983404 0 0.018550123612791541 0.0057617772496919668 0 0.01960293559645266 0.0055884228557163945 0 0.019145047765374443 0.0053251748842340777 0 0.018134090051181599 0.0056620161259168661 0 0.0182939845094298 0.0053557600023983404 0 0.018393122631472553 0.0054958778192048217 0 0.018779695666108757 0.0051647891533998878 0 0.018424935003274499 0.0050736229761979565 0 0.018514143737409762 0.005309916158498071 0 0.019489164319706046 0.0047319153081640765 0 0.019531874047841669 0.0046885237229014271 0 0.0182939845094298 0.0053557600023983404 0 0.018424935003274499 0.0050736229761979565 0 0.018514143737409762 0.005309916158498071 0 0.018635681385716578 0.005463472636778933 0 0.018514143737409762 0.005309916158498071 0 0.018393122631472553 0.0054958778192048217 0 0.0182939845094298 0.0053557600023983404 0 0.018514143737409762 0.005309916158498071 0 0.018393122631472553 0.0054958778192048217 0 0.018351721571122904 0.0056902012003455342 0 0.018134090051181599 0.0056620161259168661 0 0.018393122631472553 0.0054958778192048217 0 0.018635681385716578 0.005463472636778933 0 0.018351721571122904 0.0056902012003455342 0 0.018393122631472553 0.0054958778192048217 0 0.01960293559645266 0.0055884228557163945 0 0.019551390677631269 0.0048882333586264563 0 0.019145047765374443 0.0053251748842340777 0 0.019551390677631269 0.0048882333586264563 0 0.019145047765374443 0.0053251748842340777 0 0.018875751499296246 0.0050599600765543259 0 0.019551390677631269 0.0048882333586264563 0 0.018875751499296246 0.0050599600765543259 0 0.019197398557000169 0.0045344072366056021 0 0.018875751499296246 0.0050599600765543259 0 0.018435735633071021 0.0046468672282798705 0 0.019197398557000169 0.0045344072366056021 0 0.018550123612791541 0.0057617772496919668 0 0.019145047765374443 0.0053251748842340777 0 0.018875751499296246 0.0050599600765543259 0 0.018550123612791541 0.0057617772496919668 0 0.018875751499296246 0.0050599600765543259 0 0.018080613904584313 0.0052213460052482523 0 0.018875751499296246 0.0050599600765543259 0 0.018435735633071021 0.0046468672282798705 0 0.018080613904584313 0.0052213460052482523 0 0.018435735633071021 0.0046468672282798705 0 0.018962150217631698 0.0040708444886162695 0 0.018100766648713351 0.0038928826202106305 0 0.018435735633071021 0.0046468672282798705 0 0.018962150217631698 0.0040708444886162695 0 0.019197398557000169 0.0045344072366056021 0 0.018962150217631698 0.0040708444886162695 0 0.019197398557000169 0.0045344072366056021 0 0.019663307650809515 0.0039482582657554234 0 0.019197398557000169 0.0045344072366056021 0 0.019809484019998855 0.0043880124435957636 0 0.019663307650809515 0.0039482582657554234 0 0.019551390677631269 0.0048882333586264563 0 0.019197398557000169 0.0045344072366056021 0 0.019809484019998855 0.0043880124435957636 0 0.017260165264610786 0.0049789934995196914 0 0.016968587131218026 0.0049472277003312125 0 0.017315292699283589 0.0044419606219759586 0 0.017260165264610786 0.0049789934995196914 0 0.017667100615502244 0.0047475147528933713 0 0.017315292699283589 0.0044419606219759586 0 0.017260165264610786 0.0049789934995196914 0 0.016968587131218026 0.0049472277003312125 0 0.017046561155779086 0.0051505052995076735 0 0.016840780280365474 0.0052752566937001623 0 0.016968587131218026 0.0049472277003312125 0 0.017046561155779086 0.0051505052995076735 0 0.016840780280365474 0.0052752566937001623 0 0.017149805568602617 0.005402974498604521 0 0.017046561155779086 0.0051505052995076735 0 0.017149805568602617 0.005402974498604521 0 0.017260165264610786 0.0049789934995196914 0 0.017046561155779086 0.0051505052995076735 0 0.017149805568602617 0.005402974498604521 0 0.017260165264610786 0.0049789934995196914 0 0.017518318598368558 0.0052302068569453934 0 0.017518318598368558 0.0052302068569453934 0 0.018080613904584313 0.0052213460052482523 0 0.017667100615502244 0.0047475147528933713 0 0.018435735633071021 0.0046468672282798705 0 0.018080613904584313 0.0052213460052482523 0 0.017667100615502244 0.0047475147528933713 0 0.017260165264610786 0.0049789934995196914 0 0.017518318598368558 0.0052302068569453934 0 0.017667100615502244 0.0047475147528933713 0 0.016947353628693651 0.0058734790220775074 0 0.016457536102940845 0.0068944537452689447 0 0.011276640745701604 0.016215422883272081 0 0.011395411183156309 0.014438459578000723 0 0.013401010204750118 0.015090356909091133 0 0.018435735633071021 0.0046468672282798705 0 0.017667100615502244 0.0047475147528933713 0 0.018100766648713351 0.0038928826202106305 0 0.013769535957192868 0.0086523607846319978 0 0.016457536102940845 0.0068944537452689447 0 0.017667100615502244 0.0047475147528933713 0 0.017315292699283589 0.0044419606219759586 0 0.017949972538434274 0.0041043768702735718 0 0.0093033575863062708 0.016063482254343165 0 0.011276640745701604 0.016215422883272081 0 0.0096752488203206751 0.015043205339010171 0 0.0093033575863062708 0.016063482254343165 0 0.0095282255057428274 0.01682921056802102 0 0.011276640745701604 0.016215422883272081 0 0.011230413510582932 0.0097355850361610478 0 0.013769535957192868 0.0086523607846319978 0 0.0091693333439883395 0.017282066832131265 0 0.0095282255057428274 0.01682921056802102 0 0.011276640745701604 0.016215422883272081 0 0.011276640745701604 0.016215422883272081 0 0.011395411183156309 0.014438459578000723 0 0.0096752488203206751 0.015043205339010171 0 0.016685724262949616 0.00479993104193043 0 0.016968587131218026 0.0049472277003312125 0 0.017315292699283589 0.0044419606219759586 0 0.011395411183156309 0.014438459578000723 0 0.0096752488203206751 0.015043205339010171 0 0.0084758612144141977 0.013669819604261835 0 0.011395411183156309 0.014438459578000723 0 0.011611996966366847 0.012652685424510039 0 0.0084758612144141977 0.013669819604261835 0 0.013401010204750118 0.015090356909091133 0 0.012818198496011436 0.013217097055582537 0 0.01461827360744512 0.01235391343193732 0 0.011395411183156309 0.014438459578000723 0 0.013401010204750118 0.015090356909091133 0 0.012818198496011436 0.013217097055582537 0 0.011395411183156309 0.014438459578000723 0 0.012818198496011436 0.013217097055582537 0 0.011611996966366847 0.012652685424510039 0 0.012818198496011436 0.013217097055582537 0 0.013044781665280209 0.011574681230547171 0 0.011611996966366847 0.012652685424510039 0 0.012818198496011436 0.013217097055582537 0 0.013044781665280209 0.011574681230547171 0 0.01461827360744512 0.01235391343193732 0 0.011611996966366847 0.012652685424510039 0 0.010629303488630641 0.010797989721219379 0 0.0084758612144141977 0.013669819604261835 0 0.013044781665280209 0.011574681230547171 0 0.011611996966366847 0.012652685424510039 0 0.010629303488630641 0.010797989721219379 0 0.019663307650809515 0.0039482582657554234 0 0.019393432054963865 0.0033422260489541084 0 0.020306814343590475 0.0037392972237248099 0 0.018962150217631698 0.0040708444886162695 0 0.019663307650809515 0.0039482582657554234 0 0.019393432054963865 0.0033422260489541084 0 0.019980468074664786 0.0034182115263082908 0 0.020312911808203014 0.0032618825784451336 0 0.02014574292391641 0.0030716678250978899 0 0.016457536102940845 0.0068944537452689447 0 0.01694585565640417 0.0071951078186843704 0 0.018962150217631698 0.0040708444886162695 0 0.018100766648713351 0.0038928826202106305 0 0.019393432054963865 0.0033422260489541084 0 0.016457536102940845 0.0068944537452689447 0 0.019515076748694574 0.0044370169175414744 0 0.013044781665280209 0.011574681230547171 0 0.01461827360744512 0.01235391343193732 0 0.014025726416983268 0.010543562302123525 0 0.020312911808203014 0.0032618825784451336 0 0.02014574292391641 0.0030716678250978899 0 0.020303305182025794 0.0031383869541694552 0 0.02014574292391641 0.0030716678250978899 0 0.020303305182025794 0.0031383869541694552 0 0.020111202737694282 0.0030522458782557306 0 0.020303305182025794 0.0031383869541694552 0 0.020486893213766937 0.0029782723776842785 0 0.020582050224125212 0.0031418543581023806 0 0.020312911808203014 0.0032618825784451336 0 0.020303305182025794 0.0031383869541694552 0 0.020582050224125212 0.0031418543581023806 0 0.020111202737694282 0.0030522458782557306 0 0.020108123539187076 0.0033836152723327735 0 0.019029400135553445 0.0041640047479953391 0 0.020111202737694282 0.0030522458782557306 0 0.020758633610229914 0.0019178513758415924 0 0.020684600721069785 0.0025857397918765024 0 0.020486893213766937 0.0029782723776842785 0 0.020111202737694282 0.0030522458782557306 0 0.020684600721069785 0.0025857397918765024 0 0.020303305182025794 0.0031383869541694552 0 0.020486893213766937 0.0029782723776842785 0 0.020111202737694282 0.0030522458782557306 0 0.01694585565640417 0.0071951078186843704 0 0.017561889243536154 0.0064575270454547921 0 0.02014574292391641 0.0030716678250978899 0 0.020111202737694282 0.0030522458782557306 0 0.020108123539187076 0.0033836152723327735 0 0.01461827360744512 0.01235391343193732 0 0.015779915689570465 0.0097360966807970434 0 0.014025726416983268 0.010543562302123525 0 0.015779915689570465 0.0097360966807970434 0 0.014025726416983268 0.010543562302123525 0 0.014102171954179017 0.009271051083202168 0 0.014102171954179017 0.009271051083202168 0 0.014592989724039275 0.0078750699982427421 0 0.015130947704798963 0.0089005813191997529 0 0.014102171954179017 0.009271051083202168 0 0.014592989724039275 0.0078750699982427421 0 0.012805877084999268 0.0081551576046012368 0 0.014592989724039275 0.0078750699982427421 0 0.015130947704798963 0.0089005813191997529 0 0.01571899822930363 0.0080360990609524754 0 0.015779915689570465 0.0097360966807970434 0 0.015130947704798963 0.0089005813191997529 0 0.01571899822930363 0.0080360990609524754 0 0.015779915689570465 0.0097360966807970434 0 0.014102171954179017 0.009271051083202168 0 0.015130947704798963 0.0089005813191997529 0 0.020108123539187076 0.0033836152723327735 0 0.019174095347119301 0.0044282688045955195 0 0.019029400135553445 0.0041640047479953391 0 0.020054939288828646 0.0031704492590678068 0 0.020109239759761019 0.0031078525882403838 0 0.017561889243536154 0.0064575270454547921 0 0.017993175517240518 0.0056981897140657867 0 0.015779915689570465 0.0097360966807970434 0 0.01571899822930363 0.0080360990609524754 0 0.016986894796912396 0.0072988559674481649 0 0.010629303488630641 0.010797989721219379 0 0.011013920018243887 0.0086067581580623106 0 0.0083044880653556051 0.0097141401735618815 0 0.010629303488630641 0.010797989721219379 0 0.012548597796943034 0.0097966747010955688 0 0.011013920018243887 0.0086067581580623106 0 0.013044781665280209 0.011574681230547171 0 0.010629303488630641 0.010797989721219379 0 0.012548597796943034 0.0097966747010955688 0 0.013044781665280209 0.011574681230547171 0 0.014025726416983268 0.010543562302123525 0 0.012548597796943034 0.0097966747010955688 0 0.014025726416983268 0.010543562302123525 0 0.014102171954179017 0.009271051083202168 0 0.012548597796943034 0.0097966747010955688 0 0.012805877084999268 0.0081551576046012368 0 0.011013920018243887 0.0086067581580623106 0 0.011996941658690755 0.0065089985978989771 0 0.012548597796943034 0.0097966747010955688 0 0.012805877084999268 0.0081551576046012368 0 0.011013920018243887 0.0086067581580623106 0 0.014102171954179017 0.009271051083202168 0 0.012548597796943034 0.0097966747010955688 0 0.012805877084999268 0.0081551576046012368 0 0.011013920018243887 0.0086067581580623106 0 0.011996941658690755 0.0065089985978989771 0 0.0096779685863858135 0.0068191050029993948 0 0.010708306296532579 0.0051192365219320368 0 0.011996941658690755 0.0065089985978989771 0 0.0096779685863858135 0.0068191050029993948 0 0.010708306296532579 0.0051192365219320368 0 0.010396611861331295 0.0035582152987351456 0 0.012652597401161262 0.0039993570847893746 0 0.010708306296532579 0.0051192365219320368 0 0.011996941658690755 0.0065089985978989771 0 0.012652597401161262 0.0039993570847893746 0 0.011996941658690755 0.0065089985978989771 0 0.013940819111699124 0.0062842889845526042 0 0.012652597401161262 0.0039993570847893746 0 0.013940819111699124 0.0062842889845526042 0 0.014631096314800425 0.0048958256274281072 0 0.012652597401161262 0.0039993570847893746 0 0.012805877084999268 0.0081551576046012368 0 0.011996941658690755 0.0065089985978989771 0 0.013940819111699124 0.0062842889845526042 0 0.014592989724039275 0.0078750699982427421 0 0.012805877084999268 0.0081551576046012368 0 0.013940819111699124 0.0062842889845526042 0 0.014592989724039275 0.0078750699982427421 0 0.015445484028910205 0.0069407250397161913 0 0.013940819111699124 0.0062842889845526042 0 0.014592989724039275 0.0078750699982427421 0 0.01571899822930363 0.0080360990609524754 0 0.015445484028910205 0.0069407250397161913 0 0.015445484028910205 0.0069407250397161913 0 0.013940819111699124 0.0062842889845526042 0 0.015470207912199859 0.0057514756469066305 0 0.01571899822930363 0.0080360990609524754 0 0.015445484028910205 0.0069407250397161913 0 0.016110372258888936 0.007168037609134011 0 0.01571899822930363 0.0080360990609524754 0 0.016986894796912396 0.0072988559674481649 0 0.016110372258888936 0.007168037609134011 0 0.016986894796912396 0.0072988559674481649 0 0.016110372258888936 0.007168037609134011 0 0.016286072860285671 0.0063899480949220653 0 0.015445484028910205 0.0069407250397161913 0 0.016110372258888936 0.007168037609134011 0 0.016286072860285671 0.0063899480949220653 0 0.015445484028910205 0.0069407250397161913 0 0.016286072860285671 0.0063899480949220653 0 0.015470207912199859 0.0057514756469066305 0 0.016986894796912396 0.0072988559674481649 0 0.016286072860285671 0.0063899480949220653 0 0.017132328841286629 0.00568480935369544 0 0.016986894796912396 0.0072988559674481649 0 0.017132328841286629 0.00568480935369544 0 0.018420273008430854 0.0047460755078120248 0 0.017132328841286629 0.00568480935369544 0 0.016547266806172963 0.0053567512607482068 0 0.017178538373046205 0.0045698790410356469 0 0.016286072860285671 0.0063899480949220653 0 0.016547266806172963 0.0053567512607482068 0 0.015470207912199859 0.0057514756469066305 0 0.016547266806172963 0.0053567512607482068 0 0.015996006370812294 0.0046393694925458044 0 0.015470207912199859 0.0057514756469066305 0 0.016286072860285671 0.0063899480949220653 0 0.017132328841286629 0.00568480935369544 0 0.016547266806172963 0.0053567512607482068 0 0.016547266806172963 0.0053567512607482068 0 0.015996006370812294 0.0046393694925458044 0 0.017178538373046205 0.0045698790410356469 0 0.015996006370812294 0.0046393694925458044 0 0.017178538373046205 0.0045698790410356469 0 0.016875297603882487 0.0036218095900581908 0 0.017132328841286629 0.00568480935369544 0 0.017178538373046205 0.0045698790410356469 0 0.018420273008430854 0.0047460755078120248 0 0.014631096314800425 0.0048958256274281072 0 0.015201511825900207 0.0036262951072349747 0 0.012652597401161262 0.0039993570847893746 0 0.013940819111699124 0.0062842889845526042 0 0.015470207912199859 0.0057514756469066305 0 0.014631096314800425 0.0048958256274281072 0 0.015996006370812294 0.0046393694925458044 0 0.015470207912199859 0.0057514756469066305 0 0.014631096314800425 0.0048958256274281072 0 0.015996006370812294 0.0046393694925458044 0 0.014631096314800425 0.0048958256274281072 0 0.015201511825900207 0.0036262951072349747 0 0.014135216014664134 0.0025059839115132931 0 0.015201511825900207 0.0036262951072349747 0 0.016740313438546633 0.001892436668504269 0 0.014135216014664134 0.0025059839115132931 0 0.015201511825900207 0.0036262951072349747 0 0.012652597401161262 0.0039993570847893746 0 0.015201511825900207 0.0036262951072349747 0 0.016875297603882487 0.0036218095900581908 0 0.016740313438546633 0.001892436668504269 0 0.016875297603882487 0.0036218095900581908 0 0.016740313438546633 0.001892436668504269 0 0.018575554392681711 0.0030784803606082583 0 0.017178538373046205 0.0045698790410356469 0 0.016875297603882487 0.0036218095900581908 0 0.018051045082032816 0.0040546100005849619 0 0.015996006370812294 0.0046393694925458044 0 0.015201511825900207 0.0036262951072349747 0 0.016875297603882487 0.0036218095900581908 0 0.014135216014664134 0.0025059839115132931 0 0.012870244482876984 0.0013008174471248759 0 0.014858046386170115 0.00019414691325628705 0 0.014135216014664134 0.0025059839115132931 0 0.016740313438546633 0.001892436668504269 0 0.014858046386170115 0.00019414691325628705 0 0.012870244482876984 0.0013008174471248759 0 0.010847072295361556 0.0017120712660286964 0 0.012652597401161262 0.0039993570847893746 0 0.012870244482876984 0.0013008174471248759 0 0.010847072295361556 0.0017120712660286964 0 0.012718423403875617 -0.00091528328085016693 0 0.010847072295361556 0.0017120712660286964 0 0.010396611861331295 0.0035582152987351456 0 0.012652597401161262 0.0039993570847893746 0 0.014135216014664134 0.0025059839115132931 0 0.012870244482876984 0.0013008174471248759 0 0.012652597401161262 0.0039993570847893746 0 0.022458719230922859 0.00090032336227712764 0 0.022674438718172884 0.00062278036120670373 0 0.022175059671485468 0.00058527059447509668 0 0.022826623494380527 0.00084722421707588845 0 0.022988052007498035 0.00059308423588537613 0 0.022674438718172884 0.00062278036120670373 0 0.022458719230922859 0.00090032336227712764 0 0.022826623494380527 0.00084722421707588845 0 0.022674438718172884 0.00062278036120670373 0 0.022458719230922859 0.00090032336227712764 0 0.022826623494380527 0.00084722421707588845 0 0.022698645520356674 0.0012268566891599525 0 0.022826623494380527 0.00084722421707588845 0 0.023105489939513071 0.00089878316946134004 0 0.022698645520356674 0.0012268566891599525 0 0.022826623494380527 0.00084722421707588845 0 0.023105489939513071 0.00089878316946134004 0 0.023199766770564213 0.00066610501785812455 0 0.023105489939513071 0.00089878316946134004 0 0.023199766770564213 0.00066610501785812455 0 0.023437359412582463 0.00065561427481517257 0 0.022826623494380527 0.00084722421707588845 0 0.023199766770564213 0.00066610501785812455 0 0.022988052007498035 0.00059308423588537613 0 0.023199766770564213 0.00066610501785812455 0 0.022988052007498035 0.00059308423588537613 0 0.023270438307346427 0.00044380919186819145 0 0.022988052007498035 0.00059308423588537613 0 0.023270438307346427 0.00044380919186819145 0 0.023008070276399284 0.00042699242826781027 0 0.023199766770564213 0.00066610501785812455 0 0.023270438307346427 0.00044380919186819145 0 0.023427051571108318 0.00049847727774113228 0 0.023270438307346427 0.00044380919186819145 0 0.023467028502832787 0.00028572255329450372 0 0.023259733386685286 0.00029918762704390076 0 0.023270438307346427 0.00044380919186819145 0 0.023476943775015194 0.00038572060755342243 0 0.023467028502832787 0.00028572255329450372 0 0.023270438307346427 0.00044380919186819145 0 0.023476943775015194 0.00038572060755342243 0 0.023427051571108318 0.00049847727774113228 0 0.023270438307346427 0.00044380919186819145 0 0.023008070276399284 0.00042699242826781027 0 0.023259733386685286 0.00029918762704390076 0 0.022761677337521748 0.00037796495235634358 0 0.022674438718172884 0.00062278036120670373 0 0.022175059671485468 0.00058527059447509668 0 0.023008070276399284 0.00042699242826781027 0 0.022761677337521748 0.00037796495235634358 0 0.023071323037815627 0.00018544397135389484 0 0.022761677337521748 0.00037796495235634358 0 0.022175059671485468 0.00058527059447509668 0 0.022619888894524803 -5.2155563174482287e-05 0 0.023008070276399284 0.00042699242826781027 0 0.022761677337521748 0.00037796495235634358 0 0.022674438718172884 0.00062278036120670373 0 0.022988052007498035 0.00059308423588537613 0 0.023008070276399284 0.00042699242826781027 0 0.022674438718172884 0.00062278036120670373 0 0.020476684124692699 0.0025938729949609596 0 0.019164087385682736 0.0014775531962481915 0 0.020510419076280314 0.00052338418879416964 0 0.021232273850529122 0.0014858719954603914 0 0.021757275522696219 0.00062859620119710264 0 0.020476684124692699 0.0025938729949609596 0 0.019164087385682736 0.0014775531962481915 0 0.018575554392681711 0.0030784803606082583 0 0.016740313438546633 0.001892436668504269 0 0.019164087385682736 0.0014775531962481915 0 0.018527670904741569 7.593734551962207e-05 0 0.016740313438546633 0.001892436668504269 0 0.019164087385682736 0.0014775531962481915 0 0.018575554392681711 0.0030784803606082583 0 0.020476684124692699 0.0025938729949609596 0 0.018575554392681711 0.0030784803606082583 0 0.018712912627964848 0.0049147055064444828 0 0.018575554392681711 0.0030784803606082583 0 0.018051045082032816 0.0040546100005849619 0 0.018712912627964848 0.0049147055064444828 0 0.016875297603882487 0.0036218095900581908 0 0.018575554392681711 0.0030784803606082583 0 0.018051045082032816 0.0040546100005849619 0 0.021232273850529122 0.0014858719954603914 0 0.020459318591732317 0.0026661776326936761 0 0.022175059671485468 0.00058527059447509668 0 0.022021605255604145 0.0010520869351639324 0 0.021530097413424404 0.0011430543582551071 0 0.022458719230922859 0.00090032336227712764 0 0.022175059671485468 0.00058527059447509668 0 0.022021605255604145 0.0010520869351639324 0 0.022458719230922859 0.00090032336227712764 0 0.022021605255604145 0.0010520869351639324 0 0.022138531388258161 0.0013382516315360161 0 0.022021605255604145 0.0010520869351639324 0 0.021794003582147007 0.0013673981954605541 0 0.021530097413424404 0.0011430543582551071 0 0.022021605255604145 0.0010520869351639324 0 0.021794003582147007 0.0013673981954605541 0 0.022138531388258161 0.0013382516315360161 0 0.019174095347119301 0.0044282688045955195 0 0.018420273008430854 0.0047460755078120248 0 0.018712912627964848 0.0049147055064444828 0 0.018051045082032816 0.0040546100005849619 0 0.018420273008430854 0.0047460755078120248 0 0.018712912627964848 0.0049147055064444828 0 0.017178538373046205 0.0045698790410356469 0 0.018051045082032816 0.0040546100005849619 0 0.018420273008430854 0.0047460755078120248 0 0.019174095347119301 0.0044282688045955195 0 0.018712912627964848 0.0049147055064444828 0 0.019029400135553445 0.0041640047479953391 0 0.017993175517240518 0.0056981897140657867 0 0.018205068333661964 0.0052479990141714016 0 0.021530097413424404 0.0011430543582551071 0 0.021478812891845833 0.0016663409904107526 0 0.020758633610229914 0.0019178513758415924 0 0.020459318591732317 0.0026661776326936761 0 0.020109239759761019 0.0031078525882403838 0 0.021794003582147007 0.0013673981954605541 0 0.021530097413424404 0.0011430543582551071 0 0.021478812891845833 0.0016663409904107526 0 0.022138531388258161 0.0013382516315360161 0 0.021861780541524135 0.0016438729109150448 0 0.022118205853039662 0.0016761082329131169 0 0.021794003582147007 0.0013673981954605541 0 0.022138531388258161 0.0013382516315360161 0 0.021861780541524135 0.0016438729109150448 0 0.021794003582147007 0.0013673981954605541 0 0.021478812891845833 0.0016663409904107526 0 0.021861780541524135 0.0016438729109150448 0 0.021478812891845833 0.0016663409904107526 0 0.021861780541524135 0.0016438729109150448 0 0.021645161070899862 0.0019437976035912342 0 0.021861780541524135 0.0016438729109150448 0 0.02203757451883815 0.0018958456730654939 0 0.021645161070899862 0.0019437976035912342 0 0.021861780541524135 0.0016438729109150448 0 0.022118205853039662 0.0016761082329131169 0 0.02203757451883815 0.0018958456730654939 0 0.022118205853039662 0.0016761082329131169 0 0.022358982498711114 0.0015910180913097972 0 0.022318332625264167 0.0018550280614338219 0 0.022118205853039662 0.0016761082329131169 0 0.022318332625264167 0.0018550280614338219 0 0.02203757451883815 0.0018958456730654939 0 0.022358982498711114 0.0015910180913097972 0 0.022635709201932981 0.0015582781255970603 0 0.022580562042841024 0.0018063279866184236 0 0.022358982498711114 0.0015910180913097972 0 0.022580562042841024 0.0018063279866184236 0 0.022318332625264167 0.0018550280614338219 0 0.022358982498711114 0.0015910180913097972 0 0.022698645520356674 0.0012268566891599525 0 0.022635709201932981 0.0015582781255970603 0 0.022138531388258161 0.0013382516315360161 0 0.022118205853039662 0.0016761082329131169 0 0.022358982498711114 0.0015910180913097972 0 0.022458719230922859 0.00090032336227712764 0 0.022138531388258161 0.0013382516315360161 0 0.022698645520356674 0.0012268566891599525 0 0.022138531388258161 0.0013382516315360161 0 0.022358982498711114 0.0015910180913097972 0 0.022698645520356674 0.0012268566891599525 0 0.022698645520356674 0.0012268566891599525 0 0.022891989336592401 0.0015264826727230561 0 0.023159032315417487 0.0011473333176364774 0 0.023105489939513071 0.00089878316946134004 0 0.022698645520356674 0.0012268566891599525 0 0.023159032315417487 0.0011473333176364774 0 0.022698645520356674 0.0012268566891599525 0 0.022891989336592401 0.0015264826727230561 0 0.022635709201932981 0.0015582781255970603 0 0.022891989336592401 0.0015264826727230561 0 0.022635709201932981 0.0015582781255970603 0 0.022580562042841024 0.0018063279866184236 0 0.022891989336592401 0.0015264826727230561 0 0.022580562042841024 0.0018063279866184236 0 0.022784269408150291 0.0018904235519984201 0 0.022891989336592401 0.0015264826727230561 0 0.022784269408150291 0.0018904235519984201 0 0.022914076464125344 0.0018675943263019973 0 0.022784269408150291 0.0018904235519984201 0 0.022890887389388728 0.0020199806787823968 0 0.02262864473366015 0.0020487928727552173 0 0.022784269408150291 0.0018904235519984201 0 0.022890887389388728 0.0020199806787823968 0 0.022914076464125344 0.0018675943263019973 0 0.022890887389388728 0.0020199806787823968 0 0.02262864473366015 0.0020487928727552173 0 0.022516533682311768 0.0023360681061870506 0 0.022580562042841024 0.0018063279866184236 0 0.022784269408150291 0.0018904235519984201 0 0.02262864473366015 0.0020487928727552173 0 0.022580562042841024 0.0018063279866184236 0 0.022318332625264167 0.0018550280614338219 0 0.022334941969829967 0.0021242538423276915 0 0.022580562042841024 0.0018063279866184236 0 0.02262864473366015 0.0020487928727552173 0 0.022334941969829967 0.0021242538423276915 0 0.02203757451883815 0.0018958456730654939 0 0.022334941969829967 0.0021242538423276915 0 0.021859057344311126 0.002229340831520492 0 0.022318332625264167 0.0018550280614338219 0 0.02203757451883815 0.0018958456730654939 0 0.022334941969829967 0.0021242538423276915 0 0.022334941969829967 0.0021242538423276915 0 0.022102536586829761 0.002527683750068007 0 0.021859057344311126 0.002229340831520492 0 0.022334941969829967 0.0021242538423276915 0 0.022516533682311768 0.0023360681061870506 0 0.022102536586829761 0.002527683750068007 0 0.02262864473366015 0.0020487928727552173 0 0.022334941969829967 0.0021242538423276915 0 0.022516533682311768 0.0023360681061870506 0 0.022516533682311768 0.0023360681061870506 0 0.022102536586829761 0.002527683750068007 0 0.022578466019634379 0.0028119060266447397 0 0.022102536586829761 0.002527683750068007 0 0.022578466019634379 0.0028119060266447397 0 0.021744900073217499 0.003072474671053909 0 0.022045879640836638 0.0025115872654552724 0 0.021453855653401532 0.002748759532347469 0 0.022890887389388728 0.0020199806787823968 0 0.022516533682311768 0.0023360681061870506 0 0.022578466019634379 0.0028119060266447397 0 0.02206349230082515 0.0021667334273378965 0 0.022356726895237461 0.0023716737287332377 0 0.022441095821636271 0.0021105254540963523 0 0.022890887389388728 0.0020199806787823968 0 0.022928182797709504 0.0019602211213035413 0 0.022870981912505552 0.0019695528926283374 0 0.022045879640836638 0.0025115872654552724 0 0.022463027962293547 0.0023451837335968511 0 0.02233426866603044 0.0022532919372291412 0 0.022045879640836638 0.0025115872654552724 0 0.020758633610229914 0.0019178513758415924 0 0.021019205460792872 0.002270484185705256 0 0.020684600721069785 0.0025857397918765024 0 0.021019205460792872 0.002270484185705256 0 0.021013120783935687 0.0025177434671835304 0 0.020684600721069785 0.0025857397918765024 0 0.020758633610229914 0.0019178513758415924 0 0.021237142975996 0.002015611831949181 0 0.021019205460792872 0.002270484185705256 0 0.021478812891845833 0.0016663409904107526 0 0.020758633610229914 0.0019178513758415924 0 0.021237142975996 0.002015611831949181 0 0.021019205460792872 0.002270484185705256 0 0.02136785654069898 0.0023256981117906 0 0.021013120783935687 0.0025177434671835304 0 0.021237142975996 0.002015611831949181 0 0.021019205460792872 0.002270484185705256 0 0.02136785654069898 0.0023256981117906 0 0.02136785654069898 0.0023256981117906 0 0.021859057344311126 0.002229340831520492 0 0.021605974493083425 0.0026021011540615711 0 0.02136785654069898 0.0023256981117906 0 0.021645161070899862 0.0019437976035912342 0 0.021859057344311126 0.002229340831520492 0 0.021478812891845833 0.0016663409904107526 0 0.021237142975996 0.002015611831949181 0 0.021645161070899862 0.0019437976035912342 0 0.021237142975996 0.002015611831949181 0 0.02136785654069898 0.0023256981117906 0 0.021645161070899862 0.0019437976035912342 0 0.02203757451883815 0.0018958456730654939 0 0.021645161070899862 0.0019437976035912342 0 0.021859057344311126 0.002229340831520492 0 0.022102536586829761 0.002527683750068007 0 0.021859057344311126 0.002229340831520492 0 0.021605974493083425 0.0026021011540615711 0 0.022102536586829761 0.002527683750068007 0 0.021605974493083425 0.0026021011540615711 0 0.021744900073217499 0.003072474671053909 0 0.021605974493083425 0.0026021011540615711 0 0.021063116317725474 0.0027840354950760572 0 0.021744900073217499 0.003072474671053909 0 0.02136785654069898 0.0023256981117906 0 0.021605974493083425 0.0026021011540615711 0 0.021063116317725474 0.0027840354950760572 0 0.021063116317725474 0.0027840354950760572 0 0.020582050224125212 0.0031418543581023806 0 0.021744900073217499 0.003072474671053909 0 0.02136785654069898 0.0023256981117906 0 0.021013120783935687 0.0025177434671835304 0 0.021063116317725474 0.0027840354950760572 0 0.021013120783935687 0.0025177434671835304 0 0.021063116317725474 0.0027840354950760572 0 0.020767096110490997 0.0028141238084909157 0 0.020486893213766937 0.0029782723776842785 0 0.020767096110490997 0.0028141238084909157 0 0.020582050224125212 0.0031418543581023806 0 0.021063116317725474 0.0027840354950760572 0 0.020767096110490997 0.0028141238084909157 0 0.020582050224125212 0.0031418543581023806 0 0.020486893213766937 0.0029782723776842785 0 0.020767096110490997 0.0028141238084909157 0 0.020684600721069785 0.0025857397918765024 0 0.021013120783935687 0.0025177434671835304 0 0.020767096110490997 0.0028141238084909157 0 0.020684600721069785 0.0025857397918765024 0 0.021162506080473376 0.0028396081623490144 0 0.021453855653401532 0.002748759532347469 0 0.019515076748694574 0.0044370169175414744 0 0.020189378717797433 0.0038761486120241842 0 0.020312911808203014 0.0032618825784451336 0 0.020582050224125212 0.0031418543581023806 0 0.020677866476177441 0.0030913973794809749 0 0.020582050224125212 0.0031418543581023806 0 0.020677866476177441 0.0030913973794809749 0 0.020881766990509254 0.0029694307490392381 0 0.019393432054963865 0.0033422260489541084 0 0.020677866476177441 0.0030913973794809749 0 0.02028903044476256 0.0033756644367845439 0 0.020677866476177441 0.0030913973794809749 0 0.02028903044476256 0.0033756644367845439 0 0.020682155812848511 0.0033303948197088958 0 0.020682155812848511 0.0033303948197088958 0 0.020881766990509254 0.0029694307490392381 0 0.021076112381521076 0.0035345254931371198 0 0.020677866476177441 0.0030913973794809749 0 0.020682155812848511 0.0033303948197088958 0 0.020881766990509254 0.0029694307490392381 0 0.020682155812848511 0.0033303948197088958 0 0.021076112381521076 0.0035345254931371198 0 0.020306814343590475 0.0037392972237248099 0 0.020458012276263118 0.0044649579622281985 0 0.021076112381521076 0.0035345254931371198 0 0.020306814343590475 0.0037392972237248099 0 0.020618473930780722 0.0037981775931621342 0 0.021344112570748888 0.0031402053149330246 0 0.019393432054963865 0.0033422260489541084 0 0.02028903044476256 0.0033756644367845439 0 0.020306814343590475 0.0037392972237248099 0 0.02028903044476256 0.0033756644367845439 0 0.020682155812848511 0.0033303948197088958 0 0.020306814343590475 0.0037392972237248099 0 0.020063712017453068 0.0041357970409630056 0 0.019663307650809515 0.0039482582657554234 0 0.020306814343590475 0.0037392972237248099 0 0.02206349230082515 0.0021667334273378965 0 0.022356726895237461 0.0023716737287332377 0 0.022144415449082064 0.0026242878348048354 0 0.022356726895237461 0.0023716737287332377 0 0.022144415449082064 0.0026242878348048354 0 0.02261287932632822 0.002664647227765131 0 0.02206349230082515 0.0021667334273378965 0 0.0216714072976853 0.0026663051586445653 0 0.022144415449082064 0.0026242878348048354 0 0.022045879640836638 0.0025115872654552724 0 0.021344112570748888 0.0031402053149330246 0 0.021533720448733477 0.0028561345136349338 0 0.020881766990509254 0.0029694307490392381 0 0.021076112381521076 0.0035345254931371198 0 0.021761239754634322 0.0030265115713710255 0 0.0216714072976853 0.0026663051586445653 0 0.02197877151576752 0.0028735991149492967 0 0.0216714072976853 0.0026663051586445653 0 0.02197877151576752 0.0028735991149492967 0 0.022144415449082064 0.0026242878348048354 0 0.022187446056665266 0.0030948867509833734 0 0.02197877151576752 0.0028735991149492967 0 0.022144415449082064 0.0026242878348048354 0 0.022187446056665266 0.0030948867509833734 0 0.022144415449082064 0.0026242878348048354 0 0.02261287932632822 0.002664647227765131 0 0.021680454064903338 0.003326150825652064 0 0.022271526798447499 0.0028156569366072767 0 0.022356726895237461 0.0023716737287332377 0 0.02261287932632822 0.002664647227765131 0 0.022638003903043557 0.0023048543714777004 0 0.022356726895237461 0.0023716737287332377 0 0.022638003903043557 0.0023048543714777004 0 0.022441095821636271 0.0021105254540963523 0 0.022222640833916452 0.0027885102292269175 0 0.022934925443860835 0.0022954818429836866 0 0.023115967910287881 0.0027446141946292205 0 0.02261287932632822 0.002664647227765131 0 0.022638003903043557 0.0023048543714777004 0 0.022934925443860835 0.0022954818429836866 0 0.022271526798447499 0.0028156569366072767 0 0.022549780739068617 0.0025728339922499789 0 0.023009399643373712 0.0033003567652903684 0 0.022222640833916452 0.0027885102292269175 0 0.023115967910287881 0.0027446141946292205 0 0.023744760439370124 0.0033215343040463663 0 0.023009399643373712 0.0033003567652903684 0 0.023115967910287881 0.0027446141946292205 0 0.023744760439370124 0.0033215343040463663 0 0.023115967910287881 0.0027446141946292205 0 0.023553512706819612 0.0025722866884424797 0 0.021744819750256605 0.00019456359898890963 0 0.022212662001845056 0.00039575263669189737 0 0.022934925443860835 0.0022954818429836866 0 0.023115967910287881 0.0027446141946292205 0 0.023553512706819612 0.0025722866884424797 0 0.022934925443860835 0.0022954818429836866 0 0.023350188437053922 0.0019838305798694214 0 0.023018460979994777 0.0019531938680909674 0 0.022934925443860835 0.0022954818429836866 0 0.023553512706819612 0.0025722866884424797 0 0.023350188437053922 0.0019838305798694214 0 0.022212662001845056 0.00039575263669189737 0 0.022573488432757836 0.00071521274793512573 0 0.0211861665382399 -0.002179897906440608 0 0.022066028038896759 -0.00078850378379242329 0 0.02076872721958295 -0.0010154774463621342 0 0.022066028038896759 -0.00078850378379242329 0 0.021859903179271698 7.2399664892586581e-05 0 0.02076872721958295 -0.0010154774463621342 0 0.022573488432757836 0.00071521274793512573 0 0.02281409435142372 0.00099203547268151399 0 0.022066028038896759 -0.00078850378379242329 0 0.021859903179271698 7.2399664892586581e-05 0 0.022793815886247199 0.00071406242905232623 0 0.023350188437053922 0.0019838305798694214 0 0.023121515363295372 0.0017743299473394357 0 0.023018460979994777 0.0019531938680909674 0 0.023350188437053922 0.0019838305798694214 0 0.023121515363295372 0.0017743299473394357 0 0.023265998312622639 0.001564489936765458 0 0.023121515363295372 0.0017743299473394357 0 0.023018460979994777 0.0019531938680909674 0 0.022948618406499862 0.001783110852367999 0 0.023018460979994777 0.0019531938680909674 0 0.02291574801193854 0.0019318401954284529 0 0.022948618406499862 0.001783110852367999 0 0.02291574801193854 0.0019318401954284529 0 0.022948618406499862 0.001783110852367999 0 0.022876271112622405 0.0019298752812115297 0 0.02291574801193854 0.0019318401954284529 0 0.022876271112622405 0.0019298752812115297 0 0.022840419459386373 0.0020563439162110471 0 0.022948618406499862 0.001783110852367999 0 0.022884923622440861 0.0017915697754561672 0 0.022876271112622405 0.0019298752812115297 0 0.022884923622440861 0.0017915697754561672 0 0.022887690446957088 0.0019320765813650885 0 0.022876271112622405 0.0019298752812115297 0 0.022890887389388728 0.0020199806787823968 0 0.022887690446957088 0.0019320765813650885 0 0.022914076464125344 0.0018675943263019973 0 0.022884923622440861 0.0017915697754561672 0 0.022887690446957088 0.0019320765813650885 0 0.022914076464125344 0.0018675943263019973 0 0.022890887389388728 0.0020199806787823968 0 0.022887690446957088 0.0019320765813650885 0 0.022862048574010339 0.0019856873934276245 0 0.022887690446957088 0.0019320765813650885 0 0.022876271112622405 0.0019298752812115297 0 0.022862048574010339 0.0019856873934276245 0 0.022463027962293547 0.0023451837335968511 0 0.022598240663645686 0.0022947765013838885 0 0.022862048574010339 0.0019856873934276245 0 0.022870981912505552 0.0019695528926283374 0 0.022840419459386373 0.0020563439162110471 0 0.022638003903043557 0.0023048543714777004 0 0.022441095821636271 0.0021105254540963523 0 0.022840419459386373 0.0020563439162110471 0 0.022876271112622405 0.0019298752812115297 0 0.022862048574010339 0.0019856873934276245 0 0.022840419459386373 0.0020563439162110471 0 0.022890887389388728 0.0020199806787823968 0 0.022862048574010339 0.0019856873934276245 0 0.022870981912505552 0.0019695528926283374 0 0.022638003903043557 0.0023048543714777004 0 0.022934925443860835 0.0022954818429836866 0 0.022840419459386373 0.0020563439162110471 0 0.022934925443860835 0.0022954818429836866 0 0.023018460979994777 0.0019531938680909674 0 0.022840419459386373 0.0020563439162110471 0 0.023018460979994777 0.0019531938680909674 0 0.02291574801193854 0.0019318401954284529 0 0.022840419459386373 0.0020563439162110471 0 0.017606258531992509 -0.001937017770963521 0 0.018380361947283437 -0.0030573372817654736 0 0.018741398618551109 -0.002076252246724683 0 0.017406615481802265 -0.0017134467289500088 0 0.017981625927348029 -0.002682971021146739 0 0.016917096730270208 -0.0013164561154138917 0 0.017713873333061646 -0.0023052163743888941 0 0.016554120235300295 -0.0020259955487796719 0 0.018380361947283437 -0.0030573372817654736 0 0.018741398618551109 -0.002076252246724683 0 0.019521218262151818 -0.0026574263178603041 0 0.017606258531992509 -0.001937017770963521 0 0.018741398618551109 -0.002076252246724683 0 0.018595855557092068 -0.0011814229228043376 0 0.018741398618551109 -0.002076252246724683 0 0.019521218262151818 -0.0026574263178603041 0 0.019629129755115948 -0.0014354950194852905 0 0.019521218262151818 -0.0026574263178603041 0 0.020233444058102106 -0.0020856173174934227 0 0.019629129755115948 -0.0014354950194852905 0 0.020462124017091878 -0.0032916506423814299 0 0.019521218262151818 -0.0026574263178603041 0 0.020233444058102106 -0.0020856173174934227 0 0.020462124017091878 -0.0032916506423814299 0 0.0211861665382399 -0.002179897906440608 0 0.020233444058102106 -0.0020856173174934227 0 0.0211861665382399 -0.002179897906440608 0 0.020233444058102106 -0.0020856173174934227 0 0.02076872721958295 -0.0010154774463621342 0 0.020233444058102106 -0.0020856173174934227 0 0.02076872721958295 -0.0010154774463621342 0 0.019629129755115948 -0.0014354950194852905 0 0.02076872721958295 -0.0010154774463621342 0 0.020585474005168452 -3.4320610689299202e-05 0 0.019744931521407747 -0.00049775663136628957 0 0.021859903179271698 7.2399664892586581e-05 0 0.02076872721958295 -0.0010154774463621342 0 0.020585474005168452 -3.4320610689299202e-05 0 0.020373874078064479 -0.00052948216694094421 0 0.020600259819791883 -0.00027682596640667871 0 0.020585474005168452 -3.4320610689299202e-05 0 0.019744931521407747 -0.00049775663136628957 0 0.019788907953327103 0.00052216669921718536 0 0.019632078561637054 -0.00057691279259080642 0 0.018425613167262385 3.7105086479534669e-06 0 0.019651295653021421 0.00031900452728631846 0 0.019632078561637054 -0.00057691279259080642 0 0.019629129755115948 -0.0014354950194852905 0 0.018595855557092068 -0.0011814229228043376 0 0.020373874078064479 -0.00052948216694094421 0 0.020298865600069153 -0.00074680912799689853 0 0.02076872721958295 -0.0010154774463621342 0 0.019744931521407747 -0.00049775663136628957 0 0.019629129755115948 -0.0014354950194852905 0 0.018741398618551109 -0.002076252246724683 0 0.019629129755115948 -0.0014354950194852905 0 0.018595855557092068 -0.0011814229228043376 0 0.018595855557092068 -0.0011814229228043376 0 0.018425613167262385 3.7105086479534669e-06 0 0.017638550244800773 -0.00094117383726506707 0 0.019632078561637054 -0.00057691279259080642 0 0.018595855557092068 -0.0011814229228043376 0 0.018425613167262385 3.7105086479534669e-06 0 0.019136683699763339 -0.00059682110041388129 0 0.018141323426412254 -0.00081975890744525389 0 0.019451737246830501 -0.0012129512371780067 0 0.018253086267923258 -0.001419868351110192 0 0.018255750377045729 -0.0008405937151507452 0 0.018425613167262385 3.7105086479534669e-06 0 0.017638550244800773 -0.00094117383726506707 0 0.017064000079484269 -0.00041454172269938725 0 0.017606258531992509 -0.001937017770963521 0 0.018595855557092068 -0.0011814229228043376 0 0.017638550244800773 -0.00094117383726506707 0 0.019110998021605326 -5.2423403649630155e-05 0 0.018738612350635345 -0.00047414143910475801 0 0.018364701655116594 6.534239012994888e-05 0 0.019110998021605326 -5.2423403649630155e-05 0 0.018738612350635345 -0.00047414143910475801 0 0.019706078667732555 -0.0004251856536460023 0 0.019451737246830501 -0.0012129512371780067 0 0.018738612350635345 -0.00047414143910475801 0 0.018255750377045729 -0.0008405937151507452 0 0.019451737246830501 -0.0012129512371780067 0 0.018738612350635345 -0.00047414143910475801 0 0.019706078667732555 -0.0004251856536460023 0 0.019451737246830501 -0.0012129512371780067 0 0.019706078667732555 -0.0004251856536460023 0 0.020303861946240558 -0.0009822502723342303 0 0.019136683699763339 -0.00059682110041388129 0 0.020600259819791883 -0.00027682596640667871 0 0.019706078667732555 -0.0004251856536460023 0 0.020316799612663024 -0.00013869881520123969 0 0.020303861946240558 -0.0009822502723342303 0 0.021222757661776226 0.00020886097339889114 0 0.020600259819791883 -0.00027682596640667871 0 0.023180520629218607 0.00060168997822334063 0 0.023208170059644852 0.0009560809086019607 0 0.022982872068557147 0.00090636871436270946 0 0.021859903179271698 7.2399664892586581e-05 0 0.020585474005168452 -3.4320610689299202e-05 0 0.021028840855369341 0.00078585083033736933 0 0.020600259819791883 -0.00027682596640667871 0 0.02156065635279961 0.00017260153406122128 0 0.020585474005168452 -3.4320610689299202e-05 0 0.019788907953327103 0.00052216669921718536 0 0.021028840855369341 0.00078585083033736933 0 0.023180520629218607 0.00060168997822334063 0 0.022982872068557147 0.00090636871436270946 0 0.022937154504321874 0.00069237679876161412 0 0.023180520629218607 0.00060168997822334063 0 0.022937154504321874 0.00069237679876161412 0 0.023032618889943551 0.00051053066150388469 0 0.023180520629218607 0.00060168997822334063 0 0.023055388961988103 0.00035636564215474895 0 0.023032618889943551 0.00051053066150388469 0 0.023055388961988103 0.00035636564215474895 0 0.023032618889943551 0.00051053066150388469 0 0.023132188325840634 0.00033322851765271759 0 0.021222757661776226 0.00020886097339889114 0 0.021541990655023952 0.00053415427814050391 0 0.020316799612663024 -0.00013869881520123969 0 0.020485966084740126 0.000387479883222285 0 0.0197614144716961 0.00030184917488604079 0 0.019110998021605326 -5.2423403649630155e-05 0 0.019706078667732555 -0.0004251856536460023 0 0.0197614144716961 0.00030184917488604079 0 0.019706078667732555 -0.0004251856536460023 0 0.020316799612663024 -0.00013869881520123969 0 0.0197614144716961 0.00030184917488604079 0 0.020485966084740126 0.000387479883222285 0 0.0197614144716961 0.00030184917488604079 0 0.020287518540426631 0.0006780778572693148 0 0.0197614144716961 0.00030184917488604079 0 0.019458208123309693 0.0006531838573176445 0 0.01882106385456362 0.00046374817454770972 0 0.019110998021605326 -5.2423403649630155e-05 0 0.0197614144716961 0.00030184917488604079 0 0.01882106385456362 0.00046374817454770972 0 0.022981931800210274 0.0012971434898966772 0 0.022712667089955191 0.0012725239840865601 0 0.022967703723349508 0.00077614088174008842 0 0.022981931800210274 0.0012971434898966772 0 0.022712667089955191 0.0012725239840865601 0 0.023005701658543497 0.0015616691341464462 0 0.022891989336592401 0.0015264826727230561 0 0.023159032315417487 0.0011473333176364774 0 0.023576582145173035 0.0012252728603080064 0 0.023159032315417487 0.0011473333176364774 0 0.023576582145173035 0.0012252728603080064 0 0.023489609389499733 0.00082667051513715098 0 0.022884923622440861 0.0017915697754561672 0 0.022914076464125344 0.0018675943263019973 0 0.022712667089955191 0.0012725239840865601 0 0.022891989336592401 0.0015264826727230561 0 0.022914076464125344 0.0018675943263019973 0 0.023576582145173035 0.0012252728603080064 0 0.023068737292600634 0.001342640818625123 0 0.023172320540512058 0.0011080062226755498 0 0.022884923622440861 0.0017915697754561672 0 0.022712667089955191 0.0012725239840865601 0 0.022893875108338603 0.0016154010515027624 0 0.022948618406499862 0.001783110852367999 0 0.022884923622440861 0.0017915697754561672 0 0.022893875108338603 0.0016154010515027624 0 0.022948618406499862 0.001783110852367999 0 0.022893875108338603 0.0016154010515027624 0 0.023005701658543497 0.0015616691341464462 0 0.022712667089955191 0.0012725239840865601 0 0.022893875108338603 0.0016154010515027624 0 0.023005701658543497 0.0015616691341464462 0 0.023121515363295372 0.0017743299473394357 0 0.022948618406499862 0.001783110852367999 0 0.023005701658543497 0.0015616691341464462 0 0.023121515363295372 0.0017743299473394357 0 0.023005701658543497 0.0015616691341464462 0 0.023265998312622639 0.001564489936765458 0 0.022981931800210274 0.0012971434898966772 0 0.023005701658543497 0.0015616691341464462 0 0.023265998312622639 0.001564489936765458 0 0.022982872068557147 0.00090636871436270946 0 0.022574773057868473 0.00082333794416978028 0 0.022937154504321874 0.00069237679876161412 0 0.021859903179271698 7.2399664892586581e-05 0 0.021028840855369341 0.00078585083033736933 0 0.022574773057868473 0.00082333794416978028 0 0.02156065635279961 0.00017260153406122128 0 0.021872329691053745 0.00030680453234286357 0 0.021859903179271698 7.2399664892586581e-05 0 0.022793815886247199 0.00071406242905232623 0 0.022574773057868473 0.00082333794416978028 0 0.022937154504321874 0.00069237679876161412 0 0.022840886380175354 0.00072989474221954475 0 0.023032618889943551 0.00051053066150388469 0 0.022574773057868473 0.00082333794416978028 0 0.022937154504321874 0.00069237679876161412 0 0.022840886380175354 0.00072989474221954475 0 0.022981931800210274 0.0012971434898966772 0 0.023265998312622639 0.001564489936765458 0 0.022967703723349508 0.00077614088174008842 0 0.022793815886247199 0.00071406242905232623 0 0.022840886380175354 0.00072989474221954475 0 0.022967703723349508 0.00077614088174008842 0 0.022793815886247199 0.00071406242905232623 0 0.022574773057868473 0.00082333794416978028 0 0.022840886380175354 0.00072989474221954475 0 0.02281409435142372 0.00099203547268151399 0 0.022861205748539573 0.00098128483270939148 0 0.022840886380175354 0.00072989474221954475 0 0.023058011473389914 0.00053766205372346866 0 0.022967703723349508 0.00077614088174008842 0 0.023058011473389914 0.00053766205372346866 0 0.022914392440066034 0.00055269719499127941 0 0.022967703723349508 0.00077614088174008842 0 0.022840886380175354 0.00072989474221954475 0 0.023058011473389914 0.00053766205372346866 0 0.023032618889943551 0.00051053066150388469 0 0.023058011473389914 0.00053766205372346866 0 0.02341467675392328 0.00033871856736321766 0 0.023132188325840634 0.00033322851765271759 0 0.023058011473389914 0.00053766205372346866 0 0.023032618889943551 0.00051053066150388469 0 0.023132188325840634 0.00033322851765271759 0 0.023058011473389914 0.00053766205372346866 0 0.022914392440066034 0.00055269719499127941 0 0.02341467675392328 0.00033871856736321766 0 0.023840630953682891 0.00050464812353014088 0 0.023697655645960991 0.0003558087371518465 0 0.02341467675392328 0.00033871856736321766 0 0.023307172188873789 0.00077230468428790783 0 0.0233453030955535 0.00065819242402917586 0 0.023737036753511916 0.00043967627862540732 0 0.023840630953682891 0.00050464812353014088 0 0.023697655645960991 0.0003558087371518465 0 0.023700041393791654 0.00040814659514306587 0 0.023737036753511916 0.00043967627862540732 0 0.023697655645960991 0.0003558087371518465 0 0.023700041393791654 0.00040814659514306587 0 0.023744203188958677 0.00033924679362281148 0 0.023697655645960991 0.0003558087371518465 0 0.023737036753511916 0.00043967627862540732 0 0.023840630953682891 0.00050464812353014088 0 0.023655602019332516 0.00055717458303038928 0 0.023700041393791654 0.00040814659514306587 0 0.023737036753511916 0.00043967627862540732 0 0.023655602019332516 0.00055717458303038928 0 0.023172320540512058 0.0011080062226755498 0 0.023307172188873789 0.00077230468428790783 0 0.023840630953682891 0.00050464812353014088 0 0.023655602019332516 0.00055717458303038928 0 0.023489609389499733 0.00082667051513715098 0 0.023576582145173035 0.0012252728603080064 0 0.023840630953682891 0.00050464812353014088 0 0.023489609389499733 0.00082667051513715098 0 0.022712667089955191 0.0012725239840865601 0 0.022914392440066034 0.00055269719499127941 0 0.022967703723349508 0.00077614088174008842 0 0.023105489939513071 0.00089878316946134004 0 0.023489609389499733 0.00082667051513715098 0 0.023437359412582463 0.00065561427481517257 0 0.023105489939513071 0.00089878316946134004 0 0.023159032315417487 0.0011473333176364774 0 0.023489609389499733 0.00082667051513715098 0 0.023655602019332516 0.00055717458303038928 0 0.023489609389499733 0.00082667051513715098 0 0.023437359412582463 0.00065561427481517257 0 0.023655602019332516 0.00055717458303038928 0 0.023437359412582463 0.00065561427481517257 0 0.023579294009454351 0.00050118412490213172 0 0.023199766770564213 0.00066610501785812455 0 0.023437359412582463 0.00065561427481517257 0 0.023427051571108318 0.00049847727774113228 0 0.023437359412582463 0.00065561427481517257 0 0.023427051571108318 0.00049847727774113228 0 0.023579294009454351 0.00050118412490213172 0 0.023427051571108318 0.00049847727774113228 0 0.023579294009454351 0.00050118412490213172 0 0.023606747771695181 0.00040554877835098483 0 0.023700041393791654 0.00040814659514306587 0 0.023655602019332516 0.00055717458303038928 0 0.023579294009454351 0.00050118412490213172 0 0.023700041393791654 0.00040814659514306587 0 0.023606747771695181 0.00040554877835098483 0 0.023744203188958677 0.00033924679362281148 0 0.023700041393791654 0.00040814659514306587 0 0.023579294009454351 0.00050118412490213172 0 0.023606747771695181 0.00040554877835098483 0 0.023476943775015194 0.00038572060755342243 0 0.023427051571108318 0.00049847727774113228 0 0.023606747771695181 0.00040554877835098483 0 0.023476943775015194 0.00038572060755342243 0 0.023606747771695181 0.00040554877835098483 0 0.023634407289139271 0.00031638148400004725 0 0.023634407289139271 0.00031638148400004725 0 0.023671957922163176 0.00024100043724937454 0 0.023467028502832787 0.00028572255329450372 0 0.023634407289139271 0.00031638148400004725 0 0.023763604409015524 0.00027953788334302417 0 0.023671957922163176 0.00024100043724937454 0 0.023634407289139271 0.00031638148400004725 0 0.023744203188958677 0.00033924679362281148 0 0.023763604409015524 0.00027953788334302417 0 0.023606747771695181 0.00040554877835098483 0 0.023634407289139271 0.00031638148400004725 0 0.023744203188958677 0.00033924679362281148 0 0.023763604409015524 0.00027953788334302417 0 0.023870231695290043 0.00021969460403597764 0 0.023858637942714887 0.00032780734117896339 0 0.023744203188958677 0.00033924679362281148 0 0.023763604409015524 0.00027953788334302417 0 0.023858637942714887 0.00032780734117896339 0 0.023763604409015524 0.00027953788334302417 0 0.023671957922163176 0.00024100043724937454 0 0.023870231695290043 0.00021969460403597764 0 0.023870231695290043 0.00021969460403597764 0 0.024164807145405864 0.00045317638853677736 0 0.024057569114166736 0.00022074435468053864 0 0.023870231695290043 0.00021969460403597764 0 0.023858637942714887 0.00032780734117896339 0 0.024164807145405864 0.00045317638853677736 0 0.023858637942714887 0.00032780734117896339 0 0.023762196292958154 0.00045039372236142133 0 0.024164807145405864 0.00045317638853677736 0 0.023762196292958154 0.00045039372236142133 0 0.023891564160435523 0.00071166149171849843 0 0.024164807145405864 0.00045317638853677736 0 0.023858637942714887 0.00032780734117896339 0 0.023697655645960991 0.0003558087371518465 0 0.023762196292958154 0.00045039372236142133 0 0.023744203188958677 0.00033924679362281148 0 0.023858637942714887 0.00032780734117896339 0 0.023697655645960991 0.0003558087371518465 0 0.023697655645960991 0.0003558087371518465 0 0.02341467675392328 0.00033871856736321766 0 0.023762196292958154 0.00045039372236142133 0 0.02341467675392328 0.00033871856736321766 0 0.023132188325840634 0.00033322851765271759 0 0.023322021172068108 0.0005944791865341581 0 0.02341467675392328 0.00033871856736321766 0 0.023322021172068108 0.0005944791865341581 0 0.023762196292958154 0.00045039372236142133 0 0.023322021172068108 0.0005944791865341581 0 0.023762196292958154 0.00045039372236142133 0 0.023891564160435523 0.00071166149171849843 0 0.023891564160435523 0.00071166149171849843 0 0.023786955235774215 0.0011129798033675442 0 0.02434012080770049 0.0009819912466093963 0 0.023322021172068108 0.0005944791865341581 0 0.023891564160435523 0.00071166149171849843 0 0.023786955235774215 0.0011129798033675442 0 0.023322021172068108 0.0005944791865341581 0 0.023786955235774215 0.0011129798033675442 0 0.023324492378764501 0.001586936331227706 0 0.023786955235774215 0.0011129798033675442 0 0.023324492378764501 0.001586936331227706 0 0.024293577188406502 0.0017609124486288217 0 0.023786955235774215 0.0011129798033675442 0 0.02434012080770049 0.0009819912466093963 0 0.024293577188406502 0.0017609124486288217 0 0.02434012080770049 0.0009819912466093963 0 0.024865241121939965 0.0016905640705379627 0 0.024293577188406502 0.0017609124486288217 0 0.02434012080770049 0.0009819912466093963 0 0.024930832217885193 0.0012115979730989443 0 0.024865241121939965 0.0016905640705379627 0 0.02434012080770049 0.0009819912466093963 0 0.024930832217885193 0.0012115979730989443 0 0.024459901038177689 0.00031359972829239006 0 0.024164807145405864 0.00045317638853677736 0 0.024459901038177689 0.00031359972829239006 0 0.024057569114166736 0.00022074435468053864 0 0.02434012080770049 0.0009819912466093963 0 0.024164807145405864 0.00045317638853677736 0 0.024459901038177689 0.00031359972829239006 0 0.023891564160435523 0.00071166149171849843 0 0.02434012080770049 0.0009819912466093963 0 0.024164807145405864 0.00045317638853677736 0 0.019661326896882041 0.00086799859216576893 0 0.020287518540426631 0.0006780778572693148 0 0.020585219920760563 0.000910217413810246 0 0.019661326896882041 0.00086799859216576893 0 0.019458208123309693 0.0006531838573176445 0 0.020287518540426631 0.0006780778572693148 0 0.0197614144716961 0.00030184917488604079 0 0.019458208123309693 0.0006531838573176445 0 0.020287518540426631 0.0006780778572693148 0 0.020287518540426631 0.0006780778572693148 0 0.02101660144360705 0.0006597847732444206 0 0.020585219920760563 0.000910217413810246 0 0.021724355051323221 0.00089273869194362926 0 0.021803888890117584 0.0011535871194341951 0 0.020485966084740126 0.000387479883222285 0 0.020287518540426631 0.0006780778572693148 0 0.02101660144360705 0.0006597847732444206 0 0.021541990655023952 0.00053415427814050391 0 0.021724355051323221 0.00089273869194362926 0 0.023055388961988103 0.00035636564215474895 0 0.023132188325840634 0.00033322851765271759 0 0.022707167820798492 0.00043035746019699046 0 0.023322021172068108 0.0005944791865341581 0 0.022707167820798492 0.00043035746019699046 0 0.022156042231343136 0.001073359084250713 0 0.023132188325840634 0.00033322851765271759 0 0.023322021172068108 0.0005944791865341581 0 0.022707167820798492 0.00043035746019699046 0 0.023322021172068108 0.0005944791865341581 0 0.023324492378764501 0.001586936331227706 0 0.022156042231343136 0.001073359084250713 0 0.023324492378764501 0.001586936331227706 0 0.022156042231343136 0.001073359084250713 0 0.022435974888379704 0.0017341515072100372 0 0.022156042231343136 0.001073359084250713 0 0.020902985144809559 0.0013978147289406891 0 0.022435974888379704 0.0017341515072100372 0 0.02101660144360705 0.0006597847732444206 0 0.022156042231343136 0.001073359084250713 0 0.020585219920760563 0.000910217413810246 0 0.022156042231343136 0.001073359084250713 0 0.020585219920760563 0.000910217413810246 0 0.020902985144809559 0.0013978147289406891 0 0.020902985144809559 0.0013978147289406891 0 0.021610841286498237 0.0019452754001258823 0 0.022435974888379704 0.0017341515072100372 0 0.020902985144809559 0.0013978147289406891 0 0.020220302063089328 0.0016096882314306643 0 0.020928499967403945 0.0019402071770050421 0 0.020902985144809559 0.0013978147289406891 0 0.020220302063089328 0.0016096882314306643 0 0.019998005382342011 0.0011380940772730149 0 0.020585219920760563 0.000910217413810246 0 0.020902985144809559 0.0013978147289406891 0 0.019998005382342011 0.0011380940772730149 0 0.019661326896882041 0.00086799859216576893 0 0.020585219920760563 0.000910217413810246 0 0.019998005382342011 0.0011380940772730149 0 0.020414915307259123 0.002989688211204215 0 0.020522839719577253 0.0023506307906537671 0 0.021014091414873495 0.003721565658487505 0 0.022641432689597969 0.0022758305938432159 0 0.023490258955144991 0.0024804459394763131 0 0.020414915307259123 0.002989688211204215 0 0.020522839719577253 0.0023506307906537671 0 0.019817226842199411 0.0022627851937981327 0 0.020220302063089328 0.0016096882314306643 0 0.020522839719577253 0.0023506307906537671 0 0.019817226842199411 0.0022627851937981327 0 0.020220302063089328 0.0016096882314306643 0 0.020928499967403945 0.0019402071770050421 0 0.020522839719577253 0.0023506307906537671 0 0.020902985144809559 0.0013978147289406891 0 0.020928499967403945 0.0019402071770050421 0 0.021610841286498237 0.0019452754001258823 0 0.020928499967403945 0.0019402071770050421 0 0.020522839719577253 0.0023506307906537671 0 0.021681761830855906 0.0025879351042402119 0 0.020928499967403945 0.0019402071770050421 0 0.021610841286498237 0.0019452754001258823 0 0.021681761830855906 0.0025879351042402119 0 0.020522839719577253 0.0023506307906537671 0 0.021681761830855906 0.0025879351042402119 0 0.021306162554090725 0.0036697100466578825 0 0.021610841286498237 0.0019452754001258823 0 0.021681761830855906 0.0025879351042402119 0 0.02280566174100903 0.0024666520426240338 0 0.021681761830855906 0.0025879351042402119 0 0.02280566174100903 0.0024666520426240338 0 0.023032797660548405 0.003377355581077665 0 0.021610841286498237 0.0019452754001258823 0 0.02280566174100903 0.0024666520426240338 0 0.022435974888379704 0.0017341515072100372 0 0.023324492378764501 0.001586936331227706 0 0.022435974888379704 0.0017341515072100372 0 0.023747207529868936 0.0022935817701924392 0 0.02280566174100903 0.0024666520426240338 0 0.022435974888379704 0.0017341515072100372 0 0.023747207529868936 0.0022935817701924392 0 0.02280566174100903 0.0024666520426240338 0 0.023747207529868936 0.0022935817701924392 0 0.024406624247418015 0.003039244049068416 0 0.02280566174100903 0.0024666520426240338 0 0.023032797660548405 0.003377355581077665 0 0.024406624247418015 0.003039244049068416 0 0.025309675590085425 0.0041878225756469762 0 0.023032797660548405 0.003377355581077665 0 0.024406624247418015 0.003039244049068416 0 0.025139758224214895 0.0035391507456936015 0 0.025182585553566429 0.0032818225294648415 0 0.025309675590085425 0.0041878225756469762 0 0.023032797660548405 0.003377355581077665 0 0.022724913953657541 0.005214435853000193 0 0.021681761830855906 0.0025879351042402119 0 0.023032797660548405 0.003377355581077665 0 0.021306162554090725 0.0036697100466578825 0 0.023490258955144991 0.0024804459394763131 0 0.025182585553566429 0.0032818225294648415 0 0.024204946368939662 0.0024392119212311523 0 0.024637015658801845 0.003668748387725919 0 0.025092355962435791 0.0035371228519663297 0 0.023490258955144991 0.0024804459394763131 0 0.025707131896790393 0.0029705040713587428 0 0.023681888185426731 0.0014192069398061308 0 0.02367646198354733 0.0014340798917451159 0 0.023693624841703967 0.0014447343273341509 0 0.023032797660548405 0.003377355581077665 0 0.021306162554090725 0.0036697100466578825 0 0.022724913953657541 0.005214435853000193 0 0.02367646198354733 0.0014340798917451159 0 0.023659769053074271 0.0014241313613960176 0 0.02367004059465521 0.0014487428811427803 0 0.023681888185426731 0.0014192069398061308 0 0.02367646198354733 0.0014340798917451159 0 0.023659769053074271 0.0014241313613960176 0 0.023668523937420666 0.0014054135090332529 0 0.023681888185426731 0.0014192069398061308 0 0.023659769053074271 0.0014241313613960176 0 0.022495854913599317 0.002012994692452575 0 0.023490258955144991 0.0024804459394763131 0 0.025152978833303179 0.00249947926087489 0 0.025862416429546294 0.0029407070988369498 0 0.025631259413670913 0.0021007201326223189 0 0.024930832217885193 0.0012115979730989443 0 0.024865241121939965 0.0016905640705379627 0 0.025631259413670913 0.0021007201326223189 0 0.025152978833303179 0.00249947926087489 0 0.024865241121939965 0.0016905640705379627 0 0.025631259413670913 0.0021007201326223189 0 0.025152978833303179 0.00249947926087489 0 0.024865241121939965 0.0016905640705379627 0 0.024293577188406502 0.0017609124486288217 0 0.023324492378764501 0.001586936331227706 0 0.023747207529868936 0.0022935817701924392 0 0.024293577188406502 0.0017609124486288217 0 0.023747207529868936 0.0022935817701924392 0 0.024293577188406502 0.0017609124486288217 0 0.024563449937136404 0.0025231435274038678 0 0.023747207529868936 0.0022935817701924392 0 0.024563449937136404 0.0025231435274038678 0 0.024406624247418015 0.003039244049068416 0 0.025152978833303179 0.00249947926087489 0 0.024563449937136404 0.0025231435274038678 0 0.025198278237597991 0.0030852288684932597 0 0.025152978833303179 0.00249947926087489 0 0.024293577188406502 0.0017609124486288217 0 0.024563449937136404 0.0025231435274038678 0 0.024563449937136404 0.0025231435274038678 0 0.025198278237597991 0.0030852288684932597 0 0.024406624247418015 0.003039244049068416 0 0.025198278237597991 0.0030852288684932597 0 0.024406624247418015 0.003039244049068416 0 0.025315332891247037 0.003576344940938888 0 0.025309675590085425 0.0041878225756469762 0 0.024406624247418015 0.003039244049068416 0 0.025315332891247037 0.003576344940938888 0 0.025309675590085425 0.0041878225756469762 0 0.025315332891247037 0.003576344940938888 0 0.0258369617433611 0.0037788696897288047 0 0.025198278237597991 0.0030852288684932597 0 0.025809319200402716 0.0035868531085354381 0 0.025764104838155243 0.0032901358213744407 0 0.025315332891247037 0.003576344940938888 0 0.025809319200402716 0.0035868531085354381 0 0.0258369617433611 0.0037788696897288047 0 0.025198278237597991 0.0030852288684932597 0 0.025315332891247037 0.003576344940938888 0 0.025809319200402716 0.0035868531085354381 0 0.025809319200402716 0.0035868531085354381 0 0.026017303682072453 0.0035139543506486123 0 0.025764104838155243 0.0032901358213744407 0 0.026017303682072453 0.0035139543506486123 0 0.025764104838155243 0.0032901358213744407 0 0.026081826445696829 0.0034753885449274216 0 0.025152978833303179 0.00249947926087489 0 0.025198278237597991 0.0030852288684932597 0 0.025764104838155243 0.0032901358213744407 0 0.025152978833303179 0.00249947926087489 0 0.025764104838155243 0.0032901358213744407 0 0.025862416429546294 0.0029407070988369498 0 0.025058874912110004 0.00087042174454648211 0 0.025522674741412555 0.0014205734495354901 0 0.025764104838155243 0.0032901358213744407 0 0.025862416429546294 0.0029407070988369498 0 0.02609412547097506 0.0034893731400737395 0 0.025764104838155243 0.0032901358213744407 0 0.026081826445696829 0.0034753885449274216 0 0.02609412547097506 0.0034893731400737395 0 0.024478438290634098 -0.0011777023319552457 0 0.024530680009518524 -0.0011212249855640942 0 0.024442433827511895 -0.0010546968676702689 0 0.024530680009518524 -0.0011212249855640942 0 0.024524694535348689 -0.001053091936859906 0 0.024442433827511895 -0.0010546968676702689 0 0.024530680009518524 -0.0011212249855640942 0 0.024606434530310872 -0.0010506284493713724 0 0.024524694535348689 -0.001053091936859906 0 0.024530680009518524 -0.0011212249855640942 0 0.024601075745794867 -0.0011510530386251211 0 0.024606434530310872 -0.0010506284493713724 0 0.024601075745794867 -0.0011510530386251211 0 0.024555510921018056 -0.0012148860695149499 0 0.024631151746991872 -0.0012162776353294542 0 0.024530680009518524 -0.0011212249855640942 0 0.024601075745794867 -0.0011510530386251211 0 0.024555510921018056 -0.0012148860695149499 0 0.024478438290634098 -0.0011777023319552457 0 0.024530680009518524 -0.0011212249855640942 0 0.024555510921018056 -0.0012148860695149499 0 0.024555510921018056 -0.0012148860695149499 0 0.024571095269915886 -0.0013073959247800789 0 0.02452247979431706 -0.0012933879413891932 0 0.024478438290634098 -0.0011777023319552457 0 0.024555510921018056 -0.0012148860695149499 0 0.02452247979431706 -0.0012933879413891932 0 0.025058874912110004 0.00087042174454648211 0 0.024591872049441067 0.00011263156913217228 0 0.024571095269915886 -0.0013073959247800789 0 0.024557058929451557 -0.0013319598852994899 0 0.024566056162814494 -0.00137037289041298 0 0.025338289981669815 -0.0014524582591581646 0 0.025569116045779924 -0.0013358131426116227 0 0.024555510921018056 -0.0012148860695149499 0 0.024571095269915886 -0.0013073959247800789 0 0.024631151746991872 -0.0012162776353294542 0 0.024571095269915886 -0.0013073959247800789 0 0.024559316698624458 -0.0013059198747618821 0 0.024557858010754337 -0.0013361200516569468 0 0.024591872049441067 0.00011263156913217228 0 0.024003399661484213 -0.0014267938008782556 0 0.024571095269915886 -0.0013073959247800789 0 0.02452247979431706 -0.0012933879413891932 0 0.024557858010754337 -0.0013361200516569468 0 0.022431918650250997 -0.0033270020822186498 0 0.021361824879661241 -0.003870962523106149 0 0.018192204800508677 -0.0073773755510555261 0 0.021197998001283778 -0.0075347752198521483 0 0.018261277617096356 -0.0096843596658901937 0 0.024559316698624458 -0.0013059198747618821 0 0.024529625054709268 -0.0013525531458450882 0 0.024557058929451557 -0.0013319598852994899 0 0.024571095269915886 -0.0013073959247800789 0 0.024559316698624458 -0.0013059198747618821 0 0.024557058929451557 -0.0013319598852994899 0 0.024559316698624458 -0.0013059198747618821 0 0.024529625054709268 -0.0013525531458450882 0 0.0244807732273946 -0.0013456884180798811 0 0.024529625054709268 -0.0013525531458450882 0 0.024557058929451557 -0.0013319598852994899 0 0.024566056162814494 -0.00137037289041298 0 0.024529625054709268 -0.0013525531458450882 0 0.024566056162814494 -0.00137037289041298 0 0.024514435995166721 -0.0014038637077109198 0 0.024529625054709268 -0.0013525531458450882 0 0.0244807732273946 -0.0013456884180798811 0 0.024514435995166721 -0.0014038637077109198 0 0.021361824879661241 -0.003870962523106149 0 0.021800979063455839 -0.0033606694831644162 0 0.024458401760835313 -0.001324112852592449 0 0.024481763841629981 -0.0014036962868785431 0 0.024419845046534622 -0.0013524255023571047 0 0.025400759396291377 -0.0017906296913900912 0 0.022829127278266172 -0.00257392055764534 0 0.024458401760835313 -0.001324112852592449 0 0.024481763841629981 -0.0014036962868785431 0 0.024514435995166721 -0.0014038637077109198 0 0.032136766785290788 0.00060288328480948917 0 0.032139205195993455 0.00060249992100780739 0 0.032120960779683988 0.00061811436057978718 0 0.024481763841629981 -0.0014036962868785431 0 0.024514435995166721 -0.0014038637077109198 0 0.024537077457231916 -0.0014471678599221622 0 0.032136766785290788 0.00060288328480948917 0 0.032086001218184862 0.00064233452593745195 0 0.032136793402253033 0.00064563520996050588 0 0.025400759396291377 -0.0017906296913900912 0 0.02649215387975512 -0.0006442284113633215 0 0.032136766785290788 0.00060288328480948917 0 0.032149059668427023 0.00062723872783568171 0 0.032139205195993455 0.00060249992100780739 0 0.032136766785290788 0.00060288328480948917 0 0.032149059668427023 0.00062723872783568171 0 0.032136793402253033 0.00064563520996050588 0 0.024601075745794867 -0.0011510530386251211 0 0.024631151746991872 -0.0012162776353294542 0 0.024680864226445241 -0.0011193039507822263 0 0.024566056162814494 -0.00137037289041298 0 0.024514435995166721 -0.0014038637077109198 0 0.024537077457231916 -0.0014471678599221622 0 0.025569116045779924 -0.0013358131426116227 0 0.02649215387975512 -0.0006442284113633215 0 0.02649215387975512 -0.0006442284113633215 0 0.026552379499952341 0.0010447210893291647 0 0.026767114824268676 0.00088998113392832164 0 0.026451568945722814 0.00021750990014889998 0 0.027469849172853913 0.00025510370080249174 0 0.024601075745794867 -0.0011510530386251211 0 0.024680864226445241 -0.0011193039507822263 0 0.024606434530310872 -0.0010506284493713724 0 0.02649215387975512 -0.0006442284113633215 0 0.028829968149959223 0.0010413234928956792 0 0.032156700389939112 0.00065373694459100701 0 0.032136793402253033 0.00064563520996050588 0 0.032159772202180963 0.00067541051561045883 0 0.032149059668427023 0.00062723872783568171 0 0.032156700389939112 0.00065373694459100701 0 0.032167893905723062 0.00064839392759045847 0 0.032149059668427023 0.00062723872783568171 0 0.032156700389939112 0.00065373694459100701 0 0.032136793402253033 0.00064563520996050588 0 0.032086001218184862 0.00064233452593745195 0 0.032136793402253033 0.00064563520996050588 0 0.032129769728619653 0.00067060772936168459 0 0.032129769728619653 0.00067060772936168459 0 0.032148867194690789 0.00068738719783668152 0 0.032116300608150405 0.00070445026099944712 0 0.032086001218184862 0.00064233452593745195 0 0.032129769728619653 0.00067060772936168459 0 0.032116300608150405 0.00070445026099944712 0 0.032148867194690789 0.00068738719783668152 0 0.032178189387026032 0.00068758450537838019 0 0.032159339108888699 0.00070512377750208354 0 0.032136793402253033 0.00064563520996050588 0 0.032129769728619653 0.00067060772936168459 0 0.032159772202180963 0.00067541051561045883 0 0.032129769728619653 0.00067060772936168459 0 0.032148867194690789 0.00068738719783668152 0 0.032159772202180963 0.00067541051561045883 0 0.032156700389939112 0.00065373694459100701 0 0.032159772202180963 0.00067541051561045883 0 0.032170503659711525 0.00067188232075660005 0 0.032159772202180963 0.00067541051561045883 0 0.032174500453396107 0.00068345656415430426 0 0.032170503659711525 0.00067188232075660005 0 0.032159772202180963 0.00067541051561045883 0 0.032174500453396107 0.00068345656415430426 0 0.032178189387026032 0.00068758450537838019 0 0.032148867194690789 0.00068738719783668152 0 0.032159772202180963 0.00067541051561045883 0 0.032178189387026032 0.00068758450537838019 0 0.032190266870750966 0.00069771662314372827 0 0.032170503659711525 0.00067188232075660005 0 0.032167893905723062 0.00064839392759045847 0 0.032190266870750966 0.00069771662314372827 0 0.032089097157392957 0.00074932946612811188 0 0.032118419533704791 0.00090405911851747938 0 0.032190266870750966 0.00069771662314372827 0 0.032167893905723062 0.00064839392759045847 0 0.032175987796511075 0.00062038347854489128 0 0.027296486950457732 -0.0014364219947282462 0 0.026697635771162784 -0.0018218150402472507 0 0.032178189387026032 0.00068758450537838019 0 0.032190266870750966 0.00069771662314372827 0 0.032206733571815985 0.00067708321642078188 0 0.032174500453396107 0.00068345656415430426 0 0.032178189387026032 0.00068758450537838019 0 0.032190266870750966 0.00069771662314372827 0 0.032174500453396107 0.00068345656415430426 0 0.032190266870750966 0.00069771662314372827 0 0.032170503659711525 0.00067188232075660005 0 0.032156700389939112 0.00065373694459100701 0 0.032170503659711525 0.00067188232075660005 0 0.032167893905723062 0.00064839392759045847 0 0.032089097157392957 0.00074932946612811188 0 0.031968832159864305 0.00081164498402542878 0 0.032118419533704791 0.00090405911851747938 0 0.032190266870750966 0.00069771662314372827 0 0.032089097157392957 0.00074932946612811188 0 0.032135202934363179 0.00068085104266145488 0 0.032089097157392957 0.00074932946612811188 0 0.032030416796143248 0.00067179794689938618 0 0.032135202934363179 0.00068085104266145488 0 0.031968832159864305 0.00081164498402542878 0 0.031740327686087165 0.00089879987571842609 0 0.031885571818582426 0.00068577244046734258 0 0.031968832159864305 0.00081164498402542878 0 0.031885571818582426 0.00068577244046734258 0 0.032030416796143248 0.00067179794689938618 0 0.032089097157392957 0.00074932946612811188 0 0.031968832159864305 0.00081164498402542878 0 0.032030416796143248 0.00067179794689938618 0 0.031950004760399268 0.00096231529721547125 0 0.031740327686087165 0.00089879987571842609 0 0.031949821453514715 0.0011495183475513011 0 0.031968832159864305 0.00081164498402542878 0 0.031950004760399268 0.00096231529721547125 0 0.031740327686087165 0.00089879987571842609 0 0.031950004760399268 0.00096231529721547125 0 0.032118419533704791 0.00090405911851747938 0 0.03203397058318308 0.0010941039208324308 0 0.031968832159864305 0.00081164498402542878 0 0.031950004760399268 0.00096231529721547125 0 0.032118419533704791 0.00090405911851747938 0 0.026697635771162784 -0.0018218150402472507 0 0.024813087239220061 -0.0032464383992470143 0 0.032139205195993455 0.00060249992100780739 0 0.032175987796511075 0.00062038347854489128 0 0.03218707973594602 0.00055703202270942619 0 0.026564720500451649 -0.0033672954674193048 0 0.024813087239220061 -0.0032464383992470143 0 0.032149059668427023 0.00062723872783568171 0 0.032139205195993455 0.00060249992100780739 0 0.032158126077281204 0.00062323095150511017 0 0.032139205195993455 0.00060249992100780739 0 0.032158126077281204 0.00062323095150511017 0 0.032175987796511075 0.00062038347854489128 0 0.032149059668427023 0.00062723872783568171 0 0.032167893905723062 0.00064839392759045847 0 0.032158126077281204 0.00062323095150511017 0 0.032167893905723062 0.00064839392759045847 0 0.032158126077281204 0.00062323095150511017 0 0.032175987796511075 0.00062038347854489128 0 0.024471171181133233 -0.0048496217113001725 0 0.024631438750089135 -0.0048705597683549751 0 0.024642852163388511 -0.0046318303852551394 0 0.031740327686087165 0.00089879987571842609 0 0.031718114150524786 0.00057083202680727673 0 0.031515343732617371 0.00063797371347608281 0 0.024631438750089135 -0.0048705597683549751 0 0.024642852163388511 -0.0046318303852551394 0 0.024726767744940932 -0.0047594753399733507 0 0.026720777443829648 -0.0013403078790935573 0 0.02788373241113087 -1.4791488031365242e-05 0 0.031740327686087165 0.00089879987571842609 0 0.031718114150524786 0.00057083202680727673 0 0.031885571818582426 0.00068577244046734258 0 0.026720777443829648 -0.0013403078790935573 0 0.023539950075576157 -0.003387844545259317 0 0.024631438750089135 -0.0048705597683549751 0 0.024577333905104328 -0.0050256958409561833 0 0.024683268196829717 -0.0050283350439945503 0 0.024471171181133233 -0.0048496217113001725 0 0.024631438750089135 -0.0048705597683549751 0 0.024577333905104328 -0.0050256958409561833 0 0.024577333905104328 -0.0050256958409561833 0 0.024635617701766227 -0.0051492886073639639 0 0.024683268196829717 -0.0050283350439945503 0 0.024577333905104328 -0.0050256958409561833 0 0.024548939134535631 -0.0051130038611558225 0 0.024459897486081805 -0.0050711805537155671 0 0.024577333905104328 -0.0050256958409561833 0 0.024548939134535631 -0.0051130038611558225 0 0.024635617701766227 -0.0051492886073639639 0 0.024471171181133233 -0.0048496217113001725 0 0.024459897486081805 -0.0050711805537155671 0 0.024302636787762337 -0.0050582257787244586 0 0.024471171181133233 -0.0048496217113001725 0 0.024577333905104328 -0.0050256958409561833 0 0.024459897486081805 -0.0050711805537155671 0 0.024459897486081805 -0.0050711805537155671 0 0.024522897144353233 -0.0052054592650620192 0 0.024302636787762337 -0.0050582257787244586 0 0.011895185516075893 -0.0065667865309541442 0 0.01465196585984333 -0.0071811348374992128 0 0.012353755182376915 -0.0051482167852471162 0 0.021350767080860759 -0.0036187169126912239 0 0.01782873710313293 -0.0028736867093726889 0 0.019625393108822619 -0.004224182845857875 0 0.023539950075576157 -0.003387844545259317 0 0.024548939134535631 -0.0051130038611558225 0 0.024459897486081805 -0.0050711805537155671 0 0.024522897144353233 -0.0052054592650620192 0 0.024522897144353233 -0.0052054592650620192 0 0.024635617701766227 -0.0051492886073639639 0 0.024744777486713766 -0.0053232440262140851 0 0.024548939134535631 -0.0051130038611558225 0 0.024522897144353233 -0.0052054592650620192 0 0.024635617701766227 -0.0051492886073639639 0 0.022829127278266172 -0.00257392055764534 0 0.02265791635566029 -0.0038682121415641755 0 0.016399835798738712 -0.0086834610909433847 0 0.015044423442313081 -0.0074651600105555653 0 0.015951149227305637 -0.0073755945245579197 0 0.032120960779683988 0.00061811436057978718 0 0.032076252084654443 0.00061381644658157716 0 0.032062895809036186 0.00065747976941174578 0 0.017288880297604704 -0.0080196957176604262 0 0.016399835798738712 -0.0086834610909433847 0 0.015951149227305637 -0.0073755945245579197 0 0.032139205195993455 0.00060249992100780739 0 0.032120960779683988 0.00061811436057978718 0 0.032076252084654443 0.00061381644658157716 0 0.021361824879661241 -0.003870962523106149 0 0.022829127278266172 -0.00257392055764534 0 0.031950004760399268 0.00096231529721547125 0 0.03203397058318308 0.0010941039208324308 0 0.031949821453514715 0.0011495183475513011 0 0.024813087239220061 -0.0032464383992470143 0 0.023539950075576157 -0.003387844545259317 0 0.032076252084654443 0.00061381644658157716 0 0.03205568640387773 0.00064823819125918816 0 0.032062895809036186 0.00065747976941174578 0 0.014543621862231404 -0.0083681849946360201 0 0.01493469034784421 -0.0078866411935860723 0 0.01465196585984333 -0.0071811348374992128 0 0.024813087239220061 -0.0032464383992470143 0 0.022897744335168717 -0.0036630386923432092 0 0.02387081106136937 -0.0030141546952929155 0 0.023570697797523951 -0.0028086228922892726 0 0.023717313771776639 -0.0026283692558134635 0 0.023539950075576157 -0.003387844545259317 0 0.022897744335168717 -0.0036630386923432092 0 0.022897744335168717 -0.0036630386923432092 0 0.02265791635566029 -0.0038682121415641755 0 0.021350767080860759 -0.0036187169126912239 0 0.018010725902769802 -0.0032976776029914191 0 0.01504296491792554 -0.0074664549046961287 0 0.01457290064516953 -0.0070455189212333697 0 0.015321070468933464 -0.0071241575010317273 0 0.01457290064516953 -0.0070455189212333697 0 0.015065730389752695 -0.0062399548980523961 0 0.015321070468933464 -0.0071241575010317273 0 0.02265791635566029 -0.0038682121415641755 0 0.022511942436696866 -0.0040075234146353649 0 0.011895185516075893 -0.0065667865309541442 0 0.014543621862231404 -0.0083681849946360201 0 0.01465196585984333 -0.0071811348374992128 0 0.01457290064516953 -0.0070455189212333697 0 0.015065730389752695 -0.0062399548980523961 0 0.014616631870123133 -0.0053594666359759588 0 0.022096731126442955 -0.004305728426694082 0 0.022026915260535702 -0.0043912934400495611 0 0.022187008454061363 -0.0045363577324023865 0 0.022897744335168717 -0.0036630386923432092 0 0.021350767080860759 -0.0036187169126912239 0 0.02265791635566029 -0.0038682121415641755 0 0.021350767080860759 -0.0036187169126912239 0 0.021361824879661241 -0.003870962523106149 0 0.018000137504940197 -0.0044193604111028928 0 0.015951149227305637 -0.0073755945245579197 0 0.015321070468933464 -0.0071241575010317273 0 0.015702880613630652 -0.0055849577257562691 0 0.017288880297604704 -0.0080196957176604262 0 0.015951149227305637 -0.0073755945245579197 0 0.015702880613630652 -0.0055849577257562691 0 0.018192204800508677 -0.0073773755510555261 0 0.018261277617096356 -0.0096843596658901937 0 0.016317922219264713 -0.0066308465135060356 0 0.015065730389752695 -0.0062399548980523961 0 0.015321070468933464 -0.0071241575010317273 0 0.015702880613630652 -0.0055849577257562691 0 0.015044423442313081 -0.0074651600105555653 0 0.015951149227305637 -0.0073755945245579197 0 0.015321070468933464 -0.0071241575010317273 0 0.017561084112519932 -0.0056253931041671187 0 0.016317922219264713 -0.0066308465135060356 0 0.01655687541235578 -0.0043193641970868694 0 0.018192204800508677 -0.0073773755510555261 0 0.017561084112519932 -0.0056253931041671187 0 0.016317922219264713 -0.0066308465135060356 0 0.014616631870123133 -0.0053594666359759588 0 0.013648767621230897 -0.0047779180607364557 0 0.014093356537718954 -0.0031411346003381909 0 0.015065730389752695 -0.0062399548980523961 0 0.015702880613630652 -0.0055849577257562691 0 0.014616631870123133 -0.0053594666359759588 0 0.015702880613630652 -0.0055849577257562691 0 0.014616631870123133 -0.0053594666359759588 0 0.014093356537718954 -0.0031411346003381909 0 0.01457290064516953 -0.0070455189212333697 0 0.014616631870123133 -0.0053594666359759588 0 0.013648767621230897 -0.0047779180607364557 0 0.018000137504940197 -0.0044193604111028928 0 0.015297399233148389 -0.0027870336475782527 0 0.014485052549855394 -0.0036447821696653279 0 0.01655687541235578 -0.0043193641970868694 0 0.015788922080425882 -0.0028321693862039072 0 0.016317922219264713 -0.0066308465135060356 0 0.014485052549855394 -0.0036447821696653279 0 0.01655687541235578 -0.0043193641970868694 0 0.01655687541235578 -0.0043193641970868694 0 0.017181906116137902 -0.0027610322679054531 0 0.015788922080425882 -0.0028321693862039072 0 0.01655687541235578 -0.0043193641970868694 0 0.017181906116137902 -0.0027610322679054531 0 0.018428679152171112 -0.0040664500662471979 0 0.017561084112519932 -0.0056253931041671187 0 0.01655687541235578 -0.0043193641970868694 0 0.018428679152171112 -0.0040664500662471979 0 0.012353755182376915 -0.0051482167852471162 0 0.011081225575990127 -0.0035477964160654262 0 0.0093085657861267136 -0.0047830986371983795 0 0.019625393108822619 -0.004224182845857875 0 0.017503734993087914 -0.0043427345791939714 0 0.011895185516075893 -0.0065667865309541442 0 0.012353755182376915 -0.0051482167852471162 0 0.0093085657861267136 -0.0047830986371983795 0 0.014582825469432879 -0.0071409692224297426 0 0.013648802132995167 -0.0048199155938513545 0 0.012353755182376915 -0.0051482167852471162 0 0.013648802132995167 -0.0048199155938513545 0 0.012353755182376915 -0.0051482167852471162 0 0.012414106527675245 -0.0039439677207223868 0 0.018010725902769802 -0.0032976776029914191 0 0.016830654858926184 -0.0026694794776501406 0 0.013648767621230897 -0.0047779180607364557 0 0.014093356537718954 -0.0031411346003381909 0 0.012699592276275174 -0.0024991280091211723 0 0.013648802132995167 -0.0048199155938513545 0 0.012414106527675245 -0.0039439677207223868 0 0.012699592276275174 -0.0024991280091211723 0 0.012414106527675245 -0.0039439677207223868 0 0.011081225575990127 -0.0035477964160654262 0 0.012699592276275174 -0.0024991280091211723 0 0.012353755182376915 -0.0051482167852471162 0 0.012414106527675245 -0.0039439677207223868 0 0.011081225575990127 -0.0035477964160654262 0 0.011081225575990127 -0.0035477964160654262 0 0.01135324138269073 -0.0017382918050230995 0 0.010043232824427357 -0.0023729572496884494 0 0.011081225575990127 -0.0035477964160654262 0 0.01135324138269073 -0.0017382918050230995 0 0.012699592276275174 -0.0024991280091211723 0 0.01135324138269073 -0.0017382918050230995 0 0.010232898840175452 -0.00024013586279907266 0 0.010043232824427357 -0.0023729572496884494 0 0.01135324138269073 -0.0017382918050230995 0 0.012445197149794739 -0.00068447738816566244 0 0.010232898840175452 -0.00024013586279907266 0 0.015297399233148389 -0.0027870336475782527 0 0.013266401855997874 -0.00072789025107824026 0 0.01135324138269073 -0.0017382918050230995 0 0.012699592276275174 -0.0024991280091211723 0 0.012445197149794739 -0.00068447738816566244 0 0.014093356537718954 -0.0031411346003381909 0 0.012699592276275174 -0.0024991280091211723 0 0.012445197149794739 -0.00068447738816566244 0 0.012870244482876984 0.0013008174471248759 0 0.012718423403875617 -0.00091528328085016693 0 0.014858046386170115 0.00019414691325628705 0 0.01226398612567697 0.00051161775643629719 0 0.013266401855997874 -0.00072789025107824026 0 0.010847072295361556 0.0017120712660286964 0 0.012445197149794739 -0.00068447738816566244 0 0.010232898840175452 -0.00024013586279907266 0 0.015992523954629446 -0.0012900220034361128 0 0.017703181127358837 -0.0012229562258206773 0 0.017181906116137902 -0.0027610322679054531 0 0.015992523954629446 -0.0012900220034361128 0 0.017181906116137902 -0.0027610322679054531 0 0.015788922080425882 -0.0028321693862039072 0 0.014485052549855394 -0.0036447821696653279 0 0.012718423403875617 -0.00091528328085016693 0 0.01476435201153741 -0.0016881580677984504 0 0.014485052549855394 -0.0036447821696653279 0 0.015788922080425882 -0.0028321693862039072 0 0.01476435201153741 -0.0016881580677984504 0 0.015992523954629446 -0.0012900220034361128 0 0.015788922080425882 -0.0028321693862039072 0 0.01476435201153741 -0.0016881580677984504 0 0.015992523954629446 -0.0012900220034361128 0 0.01476435201153741 -0.0016881580677984504 0 0.014858046386170115 0.00019414691325628705 0 0.012718423403875617 -0.00091528328085016693 0 0.01476435201153741 -0.0016881580677984504 0 0.014858046386170115 0.00019414691325628705 0 0.016740313438546633 0.001892436668504269 0 0.014858046386170115 0.00019414691325628705 0 0.016760880836071558 -5.8229687435461617e-05 0 0.016740313438546633 0.001892436668504269 0 0.016760880836071558 -5.8229687435461617e-05 0 0.018527670904741569 7.593734551962207e-05 0 0.015992523954629446 -0.0012900220034361128 0 0.014858046386170115 0.00019414691325628705 0 0.016760880836071558 -5.8229687435461617e-05 0 0.015992523954629446 -0.0012900220034361128 0 0.017703181127358837 -0.0012229562258206773 0 0.016760880836071558 -5.8229687435461617e-05 0 0.017703181127358837 -0.0012229562258206773 0 0.016760880836071558 -5.8229687435461617e-05 0 0.018527670904741569 7.593734551962207e-05 0 0.019164087385682736 0.0014775531962481915 0 0.018527670904741569 7.593734551962207e-05 0 0.019681171840683281 -0.00021886266506862049 0 0.018527670904741569 7.593734551962207e-05 0 0.019681171840683281 -0.00021886266506862049 0 0.019111014084959584 -0.0011674157851104365 0 0.017703181127358837 -0.0012229562258206773 0 0.018527670904741569 7.593734551962207e-05 0 0.019111014084959584 -0.0011674157851104365 0 0.017703181127358837 -0.0012229562258206773 0 0.019111014084959584 -0.0011674157851104365 0 0.01862687493759899 -0.0024021030828808984 0 0.019111014084959584 -0.0011674157851104365 0 0.019590512416920291 -0.0019854240575596753 0 0.020464183095643004 -0.0013913161359480283 0 0.019681171840683281 -0.00021886266506862049 0 0.019111014084959584 -0.0011674157851104365 0 0.020464183095643004 -0.0013913161359480283 0 0.019111014084959584 -0.0011674157851104365 0 0.019590512416920291 -0.0019854240575596753 0 0.01862687493759899 -0.0024021030828808984 0 0.019590512416920291 -0.0019854240575596753 0 0.01862687493759899 -0.0024021030828808984 0 0.020090551093603675 -0.0029012959143457904 0 0.017703181127358837 -0.0012229562258206773 0 0.017181906116137902 -0.0027610322679054531 0 0.01862687493759899 -0.0024021030828808984 0 0.021187715990415995 -0.0020174798464524641 0 0.022232749834270125 -0.0016409753740678802 0 0.021765020763395797 -0.0030140009570229697 0 0.021187715990415995 -0.0020174798464524641 0 0.020090551093603675 -0.0029012959143457904 0 0.021765020763395797 -0.0030140009570229697 0 0.019590512416920291 -0.0019854240575596753 0 0.020464183095643004 -0.0013913161359480283 0 0.020090551093603675 -0.0029012959143457904 0 0.021187715990415995 -0.0020174798464524641 0 0.020464183095643004 -0.0013913161359480283 0 0.020090551093603675 -0.0029012959143457904 0 0.020464183095643004 -0.0013913161359480283 0 0.021452710545265312 -0.0011334717216058827 0 0.021157204237167462 -0.00046538350097350789 0 0.021187715990415995 -0.0020174798464524641 0 0.020464183095643004 -0.0013913161359480283 0 0.021452710545265312 -0.0011334717216058827 0 0.021452710545265312 -0.0011334717216058827 0 0.022093214817725203 -0.00070460779313874771 0 0.022232749834270125 -0.0016409753740678802 0 0.021187715990415995 -0.0020174798464524641 0 0.021452710545265312 -0.0011334717216058827 0 0.022232749834270125 -0.0016409753740678802 0 0.021452710545265312 -0.0011334717216058827 0 0.021157204237167462 -0.00046538350097350789 0 0.022093214817725203 -0.00070460779313874771 0 0.021157204237167462 -0.00046538350097350789 0 0.022619888894524803 -5.2155563174482287e-05 0 0.022093214817725203 -0.00070460779313874771 0 0.021157204237167462 -0.00046538350097350789 0 0.020510419076280314 0.00052338418879416964 0 0.022619888894524803 -5.2155563174482287e-05 0 0.020476684124692699 0.0025938729949609596 0 0.020510419076280314 0.00052338418879416964 0 0.022619888894524803 -5.2155563174482287e-05 0 0.019681171840683281 -0.00021886266506862049 0 0.021157204237167462 -0.00046538350097350789 0 0.020510419076280314 0.00052338418879416964 0 0.019681171840683281 -0.00021886266506862049 0 0.020464183095643004 -0.0013913161359480283 0 0.021157204237167462 -0.00046538350097350789 0 0.019164087385682736 0.0014775531962481915 0 0.019681171840683281 -0.00021886266506862049 0 0.020510419076280314 0.00052338418879416964 0 0.022761677337521748 0.00037796495235634358 0 0.023071323037815627 0.00018544397135389484 0 0.022619888894524803 -5.2155563174482287e-05 0 0.023071323037815627 0.00018544397135389484 0 0.023076504606051065 -8.2714971103669884e-05 0 0.022619888894524803 -5.2155563174482287e-05 0 0.023071323037815627 0.00018544397135389484 0 0.023228399602527438 3.1330308103461038e-05 0 0.023076504606051065 -8.2714971103669884e-05 0 0.023228399602527438 3.1330308103461038e-05 0 0.023076504606051065 -8.2714971103669884e-05 0 0.02331404864225272 -0.00014379427347902831 0 0.023076504606051065 -8.2714971103669884e-05 0 0.022619888894524803 -5.2155563174482287e-05 0 0.022991100313514482 -0.00041141550128059537 0 0.022619888894524803 -5.2155563174482287e-05 0 0.022093214817725203 -0.00070460779313874771 0 0.022991100313514482 -0.00041141550128059537 0 0.023467028502832787 0.00028572255329450372 0 0.023333048249054363 0.00016801304731704883 0 0.023568172109423451 0.0001501022955708038 0 0.023476943775015194 0.00038572060755342243 0 0.023634407289139271 0.00031638148400004725 0 0.023467028502832787 0.00028572255329450372 0 0.023008070276399284 0.00042699242826781027 0 0.023071323037815627 0.00018544397135389484 0 0.023259733386685286 0.00029918762704390076 0 0.023467028502832787 0.00028572255329450372 0 0.023259733386685286 0.00029918762704390076 0 0.023333048249054363 0.00016801304731704883 0 0.023071323037815627 0.00018544397135389484 0 0.023259733386685286 0.00029918762704390076 0 0.023333048249054363 0.00016801304731704883 0 0.023420365198091497 4.010223409316675e-05 0 0.023568172109423451 0.0001501022955708038 0 0.023638024265212765 5.9403528605642589e-05 0 0.023228399602527438 3.1330308103461038e-05 0 0.023333048249054363 0.00016801304731704883 0 0.023420365198091497 4.010223409316675e-05 0 0.023071323037815627 0.00018544397135389484 0 0.023228399602527438 3.1330308103461038e-05 0 0.023333048249054363 0.00016801304731704883 0 0.023228399602527438 3.1330308103461038e-05 0 0.023420365198091497 4.010223409316675e-05 0 0.02331404864225272 -0.00014379427347902831 0 0.023333048249054363 0.00016801304731704883 0 0.023420365198091497 4.010223409316675e-05 0 0.023568172109423451 0.0001501022955708038 0 0.023671957922163176 0.00024100043724937454 0 0.023870231695290043 0.00021969460403597764 0 0.023568172109423451 0.0001501022955708038 0 0.023671957922163176 0.00024100043724937454 0 0.023467028502832787 0.00028572255329450372 0 0.023568172109423451 0.0001501022955708038 0 0.023638024265212765 5.9403528605642589e-05 0 0.024057569114166736 0.00022074435468053864 0 0.023600309158436195 7.6407268507697971e-05 0 0.023870231695290043 0.00021969460403597764 0 0.023568172109423451 0.0001501022955708038 0 0.023638024265212765 5.9403528605642589e-05 0 0.023870231695290043 0.00021969460403597764 0 0.023638024265212765 5.9403528605642589e-05 0 0.024057569114166736 0.00022074435468053864 0 0.023420365198091497 4.010223409316675e-05 0 0.023638024265212765 5.9403528605642589e-05 0 0.02331404864225272 -0.00014379427347902831 0 0.023638024265212765 5.9403528605642589e-05 0 0.02331404864225272 -0.00014379427347902831 0 0.023600309158436195 7.6407268507697971e-05 0 0.023659430122700786 -0.00090991816923371375 0 0.023804295302858144 -0.0012151468493244784 0 0.022991100313514482 -0.00041141550128059537 0 0.02331404864225272 -0.00014379427347902831 0 0.023600309158436195 7.6407268507697971e-05 0 0.022991100313514482 -0.00041141550128059537 0 0.022232749834270125 -0.0016409753740678802 0 0.023620808240726151 -0.0031084677499672313 0 0.022093214817725203 -0.00070460779313874771 0 0.022991100313514482 -0.00041141550128059537 0 0.022232749834270125 -0.0016409753740678802 0 0.023076504606051065 -8.2714971103669884e-05 0 0.022991100313514482 -0.00041141550128059537 0 0.02331404864225272 -0.00014379427347902831 0 0.022232749834270125 -0.0016409753740678802 0 0.023620808240726151 -0.0031084677499672313 0 0.021765020763395797 -0.0030140009570229697 0 0.023804295302858144 -0.0012151468493244784 0 0.024003399661484213 -0.0014267938008782556 0 0.023620808240726151 -0.0031084677499672313 0 0.022249252484721187 -0.0047490443388594093 0 0.021765020763395797 -0.0030140009570229697 0 0.023620808240726151 -0.0031084677499672313 0 0.022249252484721187 -0.0047490443388594093 0 0.024227749494171402 -0.0053535479021498099 0 0.024459901038177689 0.00031359972829239006 0 0.023600309158436195 7.6407268507697971e-05 0 0.023848113174364857 -0.00033224691664193257 0 0.024459901038177689 0.00031359972829239006 0 0.024057569114166736 0.00022074435468053864 0 0.023600309158436195 7.6407268507697971e-05 0 0.02439932681093859 -0.0009710263016338268 0 0.024003399661484213 -0.0014267938008782556 0 0.024930832217885193 0.0012115979730989443 0 0.024459901038177689 0.00031359972829239006 0 0.025684039649061598 0.00095042257195780417 0 0.024930832217885193 0.0012115979730989443 0 0.025631259413670913 0.0021007201326223189 0 0.025684039649061598 0.00095042257195780417 0 0.021197998001283778 -0.0075347752198521483 0 0.022249252484721187 -0.0047490443388594093 0 0.024227749494171402 -0.0053535479021498099 0 0.022431918650250997 -0.0033270020822186498 0 0.024003399661484213 -0.0014267938008782556 0 0.021197998001283778 -0.0075347752198521483 0 0.018950877694393832 -0.0058972272295868145 0 0.020459626834412104 -0.0046520857769275174 0 0.021197998001283778 -0.0075347752198521483 0 0.022249252484721187 -0.0047490443388594093 0 0.020459626834412104 -0.0046520857769275174 0 0.018192204800508677 -0.0073773755510555261 0 0.021197998001283778 -0.0075347752198521483 0 0.018950877694393832 -0.0058972272295868145 0 0.018192204800508677 -0.0073773755510555261 0 0.017561084112519932 -0.0056253931041671187 0 0.018950877694393832 -0.0058972272295868145 0 0.017561084112519932 -0.0056253931041671187 0 0.018950877694393832 -0.0058972272295868145 0 0.018428679152171112 -0.0040664500662471979 0 0.018950877694393832 -0.0058972272295868145 0 0.018428679152171112 -0.0040664500662471979 0 0.020459626834412104 -0.0046520857769275174 0 0.017181906116137902 -0.0027610322679054531 0 0.01862687493759899 -0.0024021030828808984 0 0.018428679152171112 -0.0040664500662471979 0 0.01862687493759899 -0.0024021030828808984 0 0.018428679152171112 -0.0040664500662471979 0 0.020090551093603675 -0.0029012959143457904 0 0.018428679152171112 -0.0040664500662471979 0 0.020090551093603675 -0.0029012959143457904 0 0.020459626834412104 -0.0046520857769275174 0 0.020090551093603675 -0.0029012959143457904 0 0.021765020763395797 -0.0030140009570229697 0 0.020459626834412104 -0.0046520857769275174 0 0.022249252484721187 -0.0047490443388594093 0 0.021765020763395797 -0.0030140009570229697 0 0.020459626834412104 -0.0046520857769275174 0 0.0082395097213475658 0.00018086926760340437 0 0.0086318994023019558 0.00037293679721311489 0 0.0095920590007963699 0.00053956001652243871 0 0.0082395097213475658 0.00018086926760340437 0 0.0095920590007963699 0.00053956001652243871 0 0.0093958011082299307 4.837879771892102e-05 0 0.0082395097213475658 0.00018086926760340437 0 0.0075472067259585102 2.1146188857880433e-06 0 0.0054835722123342178 -3.6754072104909218e-06 0 0.0082395097213475658 0.00018086926760340437 0 0.0075472067259585102 2.1146188857880433e-06 0 0.0086318994023019558 0.00037293679721311489 0 0.0075472067259585102 2.1146188857880433e-06 0 0.0085999510122432947 0.00026651767826469465 0 0.0086318994023019558 0.00037293679721311489 0 0.0085999510122432947 0.00026651767826469465 0 0.0086318994023019558 0.00037293679721311489 0 0.0093722720818245168 0.00079756220305324667 0 0.0075472067259585102 2.1146188857880433e-06 0 0.0085999510122432947 0.00026651767826469465 0 0.0096169713529189408 2.4171944841116258e-07 0 0.0086318994023019558 0.00037293679721311489 0 0.0095920590007963699 0.00053956001652243871 0 0.0093722720818245168 0.00079756220305324667 0 0.0095920590007963699 0.00053956001652243871 0 0.010151138890352442 0.0010030423037429897 0 0.0093722720818245168 0.00079756220305324667 0 0.0095920590007963699 0.00053956001652243871 0 0.010837500280945545 0.00094877159486615314 0 0.010562767152468237 0.00016941225328443924 0 0.0095920590007963699 0.00053956001652243871 0 0.010837500280945545 0.00094877159486615314 0 0.010151138890352442 0.0010030423037429897 0 0.010837500280945545 0.00094877159486615314 0 0.010562767152468237 0.00016941225328443924 0 0.011927632954821537 0.001068998673448879 0 0.010562767152468237 0.00016941225328443924 0 0.0093958011082299307 4.837879771892102e-05 0 0.00982587564940713 -0.00046158803153150232 0 0.0095920590007963699 0.00053956001652243871 0 0.010562767152468237 0.00016941225328443924 0 0.0093958011082299307 4.837879771892102e-05 0 0.00982587564940713 -0.00046158803153150232 0 0.0090241924996756276 -0.001272410350343925 0 0.008459276508613469 -0.00040843114898445179 0 0.0093958011082299307 4.837879771892102e-05 0 0.00982587564940713 -0.00046158803153150232 0 0.008459276508613469 -0.00040843114898445179 0 0.00982587564940713 -0.00046158803153150232 0 0.010904213248050482 -0.00045623002714244033 0 0.010181229741177612 -0.0011409955693723567 0 0.010562767152468237 0.00016941225328443924 0 0.00982587564940713 -0.00046158803153150232 0 0.010904213248050482 -0.00045623002714244033 0 0.010562767152468237 0.00016941225328443924 0 0.010904213248050482 -0.00045623002714244033 0 0.011614574326148258 7.8483358079443335e-05 0 0.010181229741177612 -0.0011409955693723567 0 0.010546466345787859 -0.0018181331600680441 0 0.011100252897024395 -0.0011079263580142046 0 0.010904213248050482 -0.00045623002714244033 0 0.010181229741177612 -0.0011409955693723567 0 0.011100252897024395 -0.0011079263580142046 0 0.010181229741177612 -0.0011409955693723567 0 0.0090241924996756276 -0.001272410350343925 0 0.0096203501173641268 -0.0019215198657081063 0 0.00982587564940713 -0.00046158803153150232 0 0.010181229741177612 -0.0011409955693723567 0 0.0090241924996756276 -0.001272410350343925 0 0.0090241924996756276 -0.001272410350343925 0 0.008459276508613469 -0.00040843114898445179 0 0.0078458185374483021 -0.0019965378502113142 0 0.0090241924996756276 -0.001272410350343925 0 0.0078458185374483021 -0.0019965378502113142 0 0.0096203501173641268 -0.0019215198657081063 0 0.0082395097213475658 0.00018086926760340437 0 0.0093958011082299307 4.837879771892102e-05 0 0.008459276508613469 -0.00040843114898445179 0 0.0082395097213475658 0.00018086926760340437 0 0.008459276508613469 -0.00040843114898445179 0 0.0054835722123342178 -3.6754072104909218e-06 0 0.0054764244720077425 -1.5105049100277251e-06 0 0.0034413412618509373 5.2592910160408952e-07 0 0.0030165829066813024 -0.00025454292394932933 0 0.008459276508613469 -0.00040843114898445179 0 0.0054835722123342178 -3.6754072104909218e-06 0 0.0078458185374483021 -0.0019965378502113142 0 0.005478326457405658 -2.5306208035435575e-07 0 0.0055362812533577607 -0.00030002508683892124 0 0.0034413412618509373 5.2592910160408952e-07 0 0.0030165829066813024 -0.00025454292394932933 0 0.0021581865347378372 0.0001880248313359646 0 0.0078458185374483021 -0.0019965378502113142 0 0.0091848077619305496 -0.0027480905848713574 0 0.0096203501173641268 -0.0019215198657081063 0 0.0055362812533577607 -0.00030002508683892124 0 0.0058080081057658465 -0.00043739008906839785 0 0.0030165829066813024 -0.00025454292394932933 0 0.0021581865347378372 0.0001880248313359646 0 0.0017501848921035875 5.7198477944792972e-05 0 0.0021581865347378372 0.0001880248313359646 0 0.0016547440109668 0.00025033553098487073 0 0.0017501848921035875 5.7198477944792972e-05 0 0.0034413412618509373 5.2592910160408952e-07 0 0.0021581865347378372 0.0001880248313359646 0 0.0014043942318901293 3.3771437500270083e-07 0 0.0021581865347378372 0.0001880248313359646 0 0.0014043942318901293 3.3771437500270083e-07 0 0.0013099677904901369 0.00019318600314650314 0 0.0021581865347378372 0.0001880248313359646 0 0.0016547440109668 0.00025033553098487073 0 0.0013099677904901369 0.00019318600314650314 0 0.0016547440109668 0.00025033553098487073 0 0.0013099677904901369 0.00019318600314650314 0 0.0015435874474712618 0.00016945472240466564 0 0.0013099677904901369 0.00019318600314650314 0 0.00024284998072852945 0.00019027489110124942 0 0.0015435874474712618 0.00016945472240466564 0 0.0026161512489451238 -0.00040071233924412271 0 0.0034014262555905612 -0.00022232913799253469 0 0.00090240448427695034 0.00029503838816537811 0 0.00024284998072852945 0.00019027489110124942 0 0.0016035468933200858 0.0013247730418736014 0 -0.00029143578656146948 8.9408280480159411e-05 0 0.00090240448427695034 0.00029503838816537811 0 0.00024284998072852945 0.00019027489110124942 0 0.0014043942318901293 3.3771437500270083e-07 0 0.0013099677904901369 0.00019318600314650314 0 0.00024284998072852945 0.00019027489110124942 0 -0.00063240799695050769 5.6139404126825694e-07 0 -0.00029143578656146948 8.9408280480159411e-05 0 0.0014043942318901293 3.3771437500270083e-07 0 -0.00029143578656146948 8.9408280480159411e-05 0 0.0014043942318901293 3.3771437500270083e-07 0 0.00024284998072852945 0.00019027489110124942 0 0.0043086668635114967 -0.00036210638899823391 0 0.0020542336652806218 -0.00031408417028293761 0 0.0029779932316093983 0.0008492403248404973 0 0.0043086668635114967 -0.00036210638899823391 0 0.0029779932316093983 0.0008492403248404973 0 0.0040834756989745098 0.001514806921845617 0 0.0020542336652806218 -0.00031408417028293761 0 0.0029779932316093983 0.0008492403248404973 0 0.0016035468933200858 0.0013247730418736014 0 0.0020542336652806218 -0.00031408417028293761 0 0.00090240448427695034 0.00029503838816537811 0 0.0016035468933200858 0.0013247730418736014 0 0.0029779932316093983 0.0008492403248404973 0 0.0016035468933200858 0.0013247730418736014 0 0.0031431965767224437 0.0024585061589272061 0 0.0016547440109668 0.00025033553098487073 0 0.0015435874474712618 0.00016945472240466564 0 0.0015746620946410135 0.00023791385490685321 0 0.0034014262555905612 -0.00022232913799253469 0 0.0058088572725664136 0.0002806253256608704 0 0.0029779932316093983 0.0008492403248404973 0 0.0031431965767224437 0.0024585061589272061 0 0.0040834756989745098 0.001514806921845617 0 0.0031803595522859225 0.0024121642217049834 0 0.0040834756989745098 0.001514806921845617 0 0.0043364747568250843 0.0032793029499562226 0 0.0058088572725664136 0.0002806253256608704 0 0.0052915918886160089 0.00075443616309016966 0 0.010233658904831022 -0.0036507622705278728 0 0.010268443470952095 -0.0025668384131844022 0 0.011048612745085276 -0.0030169570320056696 0 0.0058088572725664136 0.0002806253256608704 0 0.0071380879508236433 0.00022708553959321188 0 0.010268443470952095 -0.0025668384131844022 0 0.011044478035203319 -0.0022200089319644204 0 0.011048612745085276 -0.0030169570320056696 0 0.0016547440109668 0.00025033553098487073 0 0.0015746620946410135 0.00023791385490685321 0 0.0017501848921035875 5.7198477944792972e-05 0 0.010233658904831022 -0.0036507622705278728 0 0.010268443470952095 -0.0025668384131844022 0 0.0091848077619305496 -0.0027480905848713574 0 0.0058088572725664136 0.0002806253256608704 0 0.0058080081057658465 -0.00043739008906839785 0 0.010268443470952095 -0.0025668384131844022 0 0.0091848077619305496 -0.0027480905848713574 0 0.0096203501173641268 -0.0019215198657081063 0 0.010268443470952095 -0.0025668384131844022 0 0.010546466345787859 -0.0018181331600680441 0 0.011044478035203319 -0.0022200089319644204 0 0.010268443470952095 -0.0025668384131844022 0 0.0096203501173641268 -0.0019215198657081063 0 0.010546466345787859 -0.0018181331600680441 0 0.010181229741177612 -0.0011409955693723567 0 0.0096203501173641268 -0.0019215198657081063 0 0.010546466345787859 -0.0018181331600680441 0 0.010546466345787859 -0.0018181331600680441 0 0.011137321725419525 -0.0016340761147901062 0 0.011100252897024395 -0.0011079263580142046 0 0.010546466345787859 -0.0018181331600680441 0 0.011137321725419525 -0.0016340761147901062 0 0.011044478035203319 -0.0022200089319644204 0 0.011137321725419525 -0.0016340761147901062 0 0.01161106305406546 -0.0017382741766365137 0 0.011787416072994439 -0.0011556893456671625 0 0.01161106305406546 -0.0017382741766365137 0 0.011946000518725504 -0.002259720803445121 0 0.011044478035203319 -0.0022200089319644204 0 0.0083179966334488761 -0.00021459712250281843 0 0.0081048978987981572 1.514727064991018e-05 0 0.011137321725419525 -0.0016340761147901062 0 0.01161106305406546 -0.0017382741766365137 0 0.011044478035203319 -0.0022200089319644204 0 0.012579365528219234 -0.0010890223166983705 0 0.01234649378775088 -0.0012371696871786323 0 0.012497830601824718 -0.0010181975085681561 0 0.01234649378775088 -0.0012371696871786323 0 0.012486819963916552 -0.0009751504733890667 0 0.012332557170708228 -0.00079298676738122006 0 0.01161106305406546 -0.0017382741766365137 0 0.01234649378775088 -0.0012371696871786323 0 0.011787416072994439 -0.0011556893456671625 0 0.0081048978987981572 1.514727064991018e-05 0 0.0086520009354170563 0.0001546249546868926 0 0.01161106305406546 -0.0017382741766365137 0 0.01183485534012612 -0.0019593257899113959 0 0.01234649378775088 -0.0012371696871786323 0 0.01234649378775088 -0.0012371696871786323 0 0.012497830601824718 -0.0010181975085681561 0 0.012486819963916552 -0.0009751504733890667 0 0.012579365528219234 -0.0010890223166983705 0 0.012649783444940461 -0.00085818690792980202 0 0.012497830601824718 -0.0010181975085681561 0 0.0054969705457954838 0.0041479166759349284 0 0.0053881117404831298 0.0030762196196059237 0 0.0065757651877050528 0.0026103616404493934 0 0.0081048978987981572 1.514727064991018e-05 0 0.0087211119783076364 0.00028188932922438545 0 0.011946000518725504 -0.002259720803445121 0 0.011044478035203319 -0.0022200089319644204 0 0.011048612745085276 -0.0030169570320056696 0 0.0081048978987981572 1.514727064991018e-05 0 0.0071380879508236433 0.00022708553959321188 0 0.0054969705457954838 0.0041479166759349284 0 0.0053881117404831298 0.0030762196196059237 0 0.0043364747568250843 0.0032793029499562226 0 0.0053881117404831298 0.0030762196196059237 0 0.0043364747568250843 0.0032793029499562226 0 0.0051451277756168982 0.00226705403294302 0 0.0040834756989745098 0.001514806921845617 0 0.0051451277756168982 0.00226705403294302 0 0.0057442729730502748 0.0011138976362948289 0 0.0040834756989745098 0.001514806921845617 0 0.0043364747568250843 0.0032793029499562226 0 0.0051451277756168982 0.00226705403294302 0 0.0065757651877050528 0.0026103616404493934 0 0.0057442729730502748 0.0011138976362948289 0 0.0076574183778227002 0.0010665687964821805 0 0.0051451277756168982 0.00226705403294302 0 0.0065757651877050528 0.0026103616404493934 0 0.0057442729730502748 0.0011138976362948289 0 0.0053881117404831298 0.0030762196196059237 0 0.0051451277756168982 0.00226705403294302 0 0.0065757651877050528 0.0026103616404493934 0 0.006527222609008689 -0.00041509386721270253 0 0.0057442729730502748 0.0011138976362948289 0 0.0076574183778227002 0.0010665687964821805 0 0.0043086668635114967 -0.00036210638899823391 0 0.0040834756989745098 0.001514806921845617 0 0.0057442729730502748 0.0011138976362948289 0 0.0043086668635114967 -0.00036210638899823391 0 0.006527222609008689 -0.00041509386721270253 0 0.0057442729730502748 0.0011138976362948289 0 0.012652303598034561 0.00031242254554094691 0 0.012814609922747626 -0.00049364758422665051 0 0.01211911791860869 -0.0002608120585616865 0 0.012814609922747626 -0.00049364758422665051 0 0.012443861007488238 -0.00075308678827889846 0 0.01211911791860869 -0.0002608120585616865 0 0.0085535206348204933 0.00067722318337672463 0 0.0090572076113691977 0.00021771722708234319 0 0.0087362564160239874 -0.00047536227259635571 0 0.006527222609008689 -0.00041509386721270253 0 0.0076574183778227002 0.0010665687964821805 0 0.0087211119783076364 0.00028188932922438545 0 0.0090572076113691977 0.00021771722708234319 0 0.012649783444940461 -0.00085818690792980202 0 0.012814609922747626 -0.00049364758422665051 0 0.012606202393369195 -0.00082590280031038241 0 0.012814609922747626 -0.00049364758422665051 0 0.012606202393369195 -0.00082590280031038241 0 0.012443861007488238 -0.00075308678827889846 0 0.012443861007488238 -0.00075308678827889846 0 0.012556363566743318 -0.00096415763303064601 0 0.012657063737211122 -0.00089010518907241677 0 0.012606202393369195 -0.00082590280031038241 0 0.012443861007488238 -0.00075308678827889846 0 0.012556363566743318 -0.00096415763303064601 0 0.012649783444940461 -0.00085818690792980202 0 0.012606202393369195 -0.00082590280031038241 0 0.012497830601824718 -0.0010181975085681561 0 0.012606202393369195 -0.00082590280031038241 0 0.012556363566743318 -0.00096415763303064601 0 0.012497830601824718 -0.0010181975085681561 0 0.012556363566743318 -0.00096415763303064601 0 0.012486819963916552 -0.0009751504733890667 0 0.012643554476414862 -0.00073111252491216735 0 0.012556363566743318 -0.00096415763303064601 0 0.012497830601824718 -0.0010181975085681561 0 0.012486819963916552 -0.0009751504733890667 0 0.012556363566743318 -0.00096415763303064601 0 0.012643554476414862 -0.00073111252491216735 0 0.012657063737211122 -0.00089010518907241677 0 0.012643554476414862 -0.00073111252491216735 0 0.013082042497572364 -0.00053154978501871017 0 0.012657063737211122 -0.00089010518907241677 0 0.012643554476414862 -0.00073111252491216735 0 0.01307842805469398 -2.6563571532444458e-05 0 0.013082042497572364 -0.00053154978501871017 0 0.012738504268622585 0.00013219304725263828 0 0.013028945003147666 0.00045353924806595199 0 0.01307842805469398 -2.6563571532444458e-05 0 0.012643554476414862 -0.00073111252491216735 0 0.012485094786308833 -9.0334195221306995e-05 0 0.01307842805469398 -2.6563571532444458e-05 0 0.012446069759813508 7.7042525325370344e-06 0 0.012771701899156437 -3.694303987909751e-05 0 0.012643554476414862 -0.00073111252491216735 0 0.012485094786308833 -9.0334195221306995e-05 0 0.012332557170708228 -0.00079298676738122006 0 0.012486819963916552 -0.0009751504733890667 0 0.012643554476414862 -0.00073111252491216735 0 0.012332557170708228 -0.00079298676738122006 0 0.01234649378775088 -0.0012371696871786323 0 0.012332557170708228 -0.00079298676738122006 0 0.011787416072994439 -0.0011556893456671625 0 0.012332557170708228 -0.00079298676738122006 0 0.011790874016457868 -0.00059604300501817412 0 0.011787416072994439 -0.0011556893456671625 0 0.010904213248050482 -0.00045623002714244033 0 0.011790874016457868 -0.00059604300501817412 0 0.011100252897024395 -0.0011079263580142046 0 0.011137321725419525 -0.0016340761147901062 0 0.011100252897024395 -0.0011079263580142046 0 0.011787416072994439 -0.0011556893456671625 0 0.011790874016457868 -0.00059604300501817412 0 0.011100252897024395 -0.0011079263580142046 0 0.011787416072994439 -0.0011556893456671625 0 0.010904213248050482 -0.00045623002714244033 0 0.011790874016457868 -0.00059604300501817412 0 0.011614574326148258 7.8483358079443335e-05 0 0.012485094786308833 -9.0334195221306995e-05 0 0.012332557170708228 -0.00079298676738122006 0 0.011790874016457868 -0.00059604300501817412 0 0.012446069759813508 7.7042525325370344e-06 0 0.011767248840142686 9.7716700873050905e-05 0 0.012485094786308833 -9.0334195221306995e-05 0 0.011790874016457868 -0.00059604300501817412 0 0.011614574326148258 7.8483358079443335e-05 0 0.012738504268622585 0.00013219304725263828 0 0.012001452804302131 7.4596669566448078e-05 0 0.012737946546284035 0.00083118929662142314 0 0.010562767152468237 0.00016941225328443924 0 0.012001452804302131 7.4596669566448078e-05 0 0.011927632954821537 0.001068998673448879 0 0.011282482293475215 0.00016388869449713965 0 0.011767248840142686 9.7716700873050905e-05 0 0.012001452804302131 7.4596669566448078e-05 0 0.011927632954821537 0.001068998673448879 0 0.012737946546284035 0.00083118929662142314 0 0.012737946546284035 0.00083118929662142314 0 0.013189473463571967 0.00097778500289919489 0 0.013148626152891184 0.0015034457533289027 0 0.013189473463571967 0.00097778500289919489 0 0.013028945003147666 0.00045353924806595199 0 0.013484294895360628 0.00068615227672297492 0 0.012737946546284035 0.00083118929662142314 0 0.013189473463571967 0.00097778500289919489 0 0.013028945003147666 0.00045353924806595199 0 0.013028945003147666 0.00045353924806595199 0 0.013484294895360628 0.00068615227672297492 0 0.01307842805469398 -2.6563571532444458e-05 0 0.012738504268622585 0.00013219304725263828 0 0.012737946546284035 0.00083118929662142314 0 0.013028945003147666 0.00045353924806595199 0 0.013484294895360628 0.00068615227672297492 0 0.01421795257044337 0.0011075853542228426 0 0.013796642873758659 0.00021192238930945037 0 0.013484294895360628 0.00068615227672297492 0 0.013796642873758659 0.00021192238930945037 0 0.01307842805469398 -2.6563571532444458e-05 0 0.013189473463571967 0.00097778500289919489 0 0.013484294895360628 0.00068615227672297492 0 0.013676285975987775 0.00139765597893437 0 0.013484294895360628 0.00068615227672297492 0 0.01421795257044337 0.0011075853542228426 0 0.013676285975987775 0.00139765597893437 0 0.01421795257044337 0.0011075853542228426 0 0.015247917468380834 0.000869944974446784 0 0.014858555207814414 0.0018130132084445967 0 0.01421795257044337 0.0011075853542228426 0 0.014476862759452282 0.000548036344341432 0 0.015247917468380834 0.000869944974446784 0 0.014476862759452282 0.000548036344341432 0 0.014641690391088594 -8.30723845604245e-05 0 0.015247917468380834 0.000869944974446784 0 0.01421795257044337 0.0011075853542228426 0 0.014476862759452282 0.000548036344341432 0 0.013796642873758659 0.00021192238930945037 0 0.014641690391088594 -8.30723845604245e-05 0 0.013797332524689338 -0.00031237391198487131 0 0.013796642873758659 0.00021192238930945037 0 0.014476862759452282 0.000548036344341432 0 0.014641690391088594 -8.30723845604245e-05 0 0.013796642873758659 0.00021192238930945037 0 0.014641690391088594 -8.30723845604245e-05 0 0.014338889268044473 -0.00053435200836113956 0 0.015449766612481177 -0.00042617064602641549 0 0.014641690391088594 -8.30723845604245e-05 0 0.014338889268044473 -0.00053435200836113956 0 0.013797332524689338 -0.00031237391198487131 0 0.014338889268044473 -0.00053435200836113956 0 0.013797332524689338 -0.00031237391198487131 0 0.013344655439514181 -0.00069606695038485064 0 0.013797332524689338 -0.00031237391198487131 0 0.013082042497572364 -0.00053154978501871017 0 0.013344655439514181 -0.00069606695038485064 0 0.013797332524689338 -0.00031237391198487131 0 0.013796642873758659 0.00021192238930945037 0 0.013082042497572364 -0.00053154978501871017 0 0.013796642873758659 0.00021192238930945037 0 0.01307842805469398 -2.6563571532444458e-05 0 0.013082042497572364 -0.00053154978501871017 0 0.013082042497572364 -0.00053154978501871017 0 0.012801083414383643 -0.00086790977694932859 0 0.012657063737211122 -0.00089010518907241677 0 0.013082042497572364 -0.00053154978501871017 0 0.012801083414383643 -0.00086790977694932859 0 0.013344655439514181 -0.00069606695038485064 0 0.012801083414383643 -0.00086790977694932859 0 0.012230504442291162 -0.00071756235729474916 0 0.012812921474358002 -0.0010214238321984512 0 0.012801083414383643 -0.00086790977694932859 0 0.012812921474358002 -0.0010214238321984512 0 0.013344655439514181 -0.00069606695038485064 0 0.012801083414383643 -0.00086790977694932859 0 0.012657063737211122 -0.00089010518907241677 0 0.012230504442291162 -0.00071756235729474916 0 0.012443861007488238 -0.00075308678827889846 0 0.012230504442291162 -0.00071756235729474916 0 0.01211911791860869 -0.0002608120585616865 0 0.012443861007488238 -0.00075308678827889846 0 0.012657063737211122 -0.00089010518907241677 0 0.012230504442291162 -0.00071756235729474916 0 0.012230504442291162 -0.00071756235729474916 0 0.01224667897442186 -0.00080650299232612411 0 0.012812921474358002 -0.0010214238321984512 0 0.012230504442291162 -0.00071756235729474916 0 0.011893276218281429 -0.00028804508135445823 0 0.01224667897442186 -0.00080650299232612411 0 0.012230504442291162 -0.00071756235729474916 0 0.011893276218281429 -0.00028804508135445823 0 0.011626540892831739 -5.5307905005948611e-05 0 0.011427240834037823 0.00033966434839233537 0 0.011893276218281429 -0.00028804508135445823 0 0.011626540892831739 -5.5307905005948611e-05 0 0.012230504442291162 -0.00071756235729474916 0 0.011626540892831739 -5.5307905005948611e-05 0 0.01211911791860869 -0.0002608120585616865 0 0.011012294122355413 0.00067268518275159469 0 0.011626540892831739 -5.5307905005948611e-05 0 0.01211911791860869 -0.0002608120585616865 0 0.012932207900207739 -0.0014006981901635727 0 0.014084770279121202 -0.0013930546030202419 0 0.013511805554464025 -0.0021451255734355398 0 0.012792200111710934 -0.0020254203641644694 0 0.013812882043707566 -0.0014543700750623491 0 0.013178576822575614 -0.0025258584387152162 0 0.013511805554464025 -0.0021451255734355398 0 0.012792200111710934 -0.0020254203641644694 0 0.012913833039164709 -0.0013925758114845636 0 0.012932207900207739 -0.0014006981901635727 0 0.011427240834037823 0.00033966434839233537 0 0.011893276218281429 -0.00028804508135445823 0 0.011678069471552203 -0.00011494708439794586 0 0.011893276218281429 -0.00028804508135445823 0 0.011678069471552203 -0.00011494708439794586 0 0.01224667897442186 -0.00080650299232612411 0 0.011678069471552203 -0.00011494708439794586 0 0.011625275402582109 -0.00032812929262831148 0 0.01224667897442186 -0.00080650299232612411 0 0.011625275402582109 -0.00032812929262831148 0 0.012866914391149085 -0.0013309861323139653 0 0.01224667897442186 -0.00080650299232612411 0 0.012932207900207739 -0.0014006981901635727 0 0.012905929513331664 -0.0012483849998798258 0 0.012866914391149085 -0.0013309861323139653 0 0.01224667897442186 -0.00080650299232612411 0 0.012812921474358002 -0.0010214238321984512 0 0.012832606122407345 -0.0028685977545276796 0 0.012866914391149085 -0.0013309861323139653 0 0.014749090325772523 -0.0021225605715777113 0 0.012866914391149085 -0.0013309861323139653 0 0.014923804288969902 -0.0012859126112831868 0 0.014749090325772523 -0.0021225605715777113 0 0.012866914391149085 -0.0013309861323139653 0 0.013911060112221671 -0.0009128296554056412 0 0.014923804288969902 -0.0012859126112831868 0 0.012866914391149085 -0.0013309861323139653 0 0.013911060112221671 -0.0009128296554056412 0 0.012812921474358002 -0.0010214238321984512 0 0.013911060112221671 -0.0009128296554056412 0 0.012812921474358002 -0.0010214238321984512 0 0.013344655439514181 -0.00069606695038485064 0 0.014338889268044473 -0.00053435200836113956 0 0.013911060112221671 -0.0009128296554056412 0 0.013344655439514181 -0.00069606695038485064 0 0.014338889268044473 -0.00053435200836113956 0 0.013911060112221671 -0.0009128296554056412 0 0.015144374872025624 -0.00080944313289176191 0 0.015144374872025624 -0.00080944313289176191 0 0.015934519306895972 -0.0011169344596749105 0 0.014923804288969902 -0.0012859126112831868 0 0.015144374872025624 -0.00080944313289176191 0 0.015934519306895972 -0.0011169344596749105 0 0.016347701724270639 -0.00065895326879474774 0 0.015934519306895972 -0.0011169344596749105 0 0.016607515092138665 -0.0011190738519747201 0 0.016347701724270639 -0.00065895326879474774 0 0.015934519306895972 -0.0011169344596749105 0 0.016124442934916505 -0.0016340956068184654 0 0.014923804288969902 -0.0012859126112831868 0 0.015934519306895972 -0.0011169344596749105 0 0.016124442934916505 -0.0016340956068184654 0 0.016607515092138665 -0.0011190738519747201 0 0.013911060112221671 -0.0009128296554056412 0 0.015144374872025624 -0.00080944313289176191 0 0.014923804288969902 -0.0012859126112831868 0 0.016124442934916505 -0.0016340956068184654 0 0.014923804288969902 -0.0012859126112831868 0 0.014749090325772523 -0.0021225605715777113 0 0.015133988024008463 -0.0011567394627463863 0 0.014084770279121202 -0.0013930546030202419 0 0.015134696389787533 -0.00096099639182801457 0 0.013812882043707566 -0.0014543700750623491 0 0.01454295232668721 -0.0020338249418886539 0 0.015134696389787533 -0.00096099639182801457 0 0.01454295232668721 -0.0020338249418886539 0 0.016040800048684589 -0.0014814597972618527 0 0.013579793803181226 -0.0027684142579995361 0 0.013511805554464025 -0.0021451255734355398 0 0.01454295232668721 -0.0020338249418886539 0 0.013511805554464025 -0.0021451255734355398 0 0.013812882043707566 -0.0014543700750623491 0 0.01454295232668721 -0.0020338249418886539 0 0.016554120235300295 -0.0020259955487796719 0 0.015619946987830547 -0.0023753467252003949 0 0.016040800048684589 -0.0014814597972618527 0 0.01454295232668721 -0.0020338249418886539 0 0.015619946987830547 -0.0023753467252003949 0 0.016040800048684589 -0.0014814597972618527 0 0.016917096730270208 -0.0013164561154138917 0 0.016554120235300295 -0.0020259955487796719 0 0.016040800048684589 -0.0014814597972618527 0 0.016917096730270208 -0.0013164561154138917 0 0.016040800048684589 -0.0014814597972618527 0 0.0166095575711547 -0.00090725118077815056 0 0.017606258531992509 -0.001937017770963521 0 0.017638550244800773 -0.00094117383726506707 0 0.016804609364606281 -0.0007536742501346945 0 0.017406615481802265 -0.0017134467289500088 0 0.017108093263406159 -0.0011915123069044984 0 0.016917096730270208 -0.0013164561154138917 0 0.0166095575711547 -0.00090725118077815056 0 0.016804609364606281 -0.0007536742501346945 0 0.015133988024008463 -0.0011567394627463863 0 0.015607640453261514 -0.0010117750226744523 0 0.015134696389787533 -0.00096099639182801457 0 0.016040800048684589 -0.0014814597972618527 0 0.0166095575711547 -0.00090725118077815056 0 0.016124442934916505 -0.0016340956068184654 0 0.0166095575711547 -0.00090725118077815056 0 0.016607515092138665 -0.0011190738519747201 0 0.016607515092138665 -0.0011190738519747201 0 0.01729369111446457 -0.00085256225972375906 0 0.016347701724270639 -0.00065895326879474774 0 0.0166095575711547 -0.00090725118077815056 0 0.016607515092138665 -0.0011190738519747201 0 0.016804609364606281 -0.0007536742501346945 0 0.016607515092138665 -0.0011190738519747201 0 0.018253086267923258 -0.001419868351110192 0 0.01729369111446457 -0.00085256225972375906 0 0.016607515092138665 -0.0011190738519747201 0 0.016804609364606281 -0.0007536742501346945 0 0.017064000079484269 -0.00041454172269938725 0 0.017638550244800773 -0.00094117383726506707 0 0.016804609364606281 -0.0007536742501346945 0 0.017064000079484269 -0.00041454172269938725 0 0.017699964641210954 -0.00091849343571943323 0 0.018141323426412254 -0.00081975890744525389 0 0.018738612350635345 -0.00047414143910475801 0 0.018255750377045729 -0.0008405937151507452 0 0.017463873943817893 -0.00033963953185174616 0 0.018255750377045729 -0.0008405937151507452 0 0.017463873943817893 -0.00033963953185174616 0 0.01729369111446457 -0.00085256225972375906 0 0.018253086267923258 -0.001419868351110192 0 0.018255750377045729 -0.0008405937151507452 0 0.01729369111446457 -0.00085256225972375906 0 0.018738612350635345 -0.00047414143910475801 0 0.017463873943817893 -0.00033963953185174616 0 0.018364701655116594 6.534239012994888e-05 0 0.017463873943817893 -0.00033963953185174616 0 0.01729369111446457 -0.00085256225972375906 0 0.016347701724270639 -0.00065895326879474774 0 0.017463873943817893 -0.00033963953185174616 0 0.016347701724270639 -0.00065895326879474774 0 0.015919951356699175 2.7359229628595199e-07 0 0.016347701724270639 -0.00065895326879474774 0 0.015449766612481177 -0.00042617064602641549 0 0.015919951356699175 2.7359229628595199e-07 0 0.015144374872025624 -0.00080944313289176191 0 0.016347701724270639 -0.00065895326879474774 0 0.015449766612481177 -0.00042617064602641549 0 0.014338889268044473 -0.00053435200836113956 0 0.015144374872025624 -0.00080944313289176191 0 0.015449766612481177 -0.00042617064602641549 0 0.014641690391088594 -8.30723845604245e-05 0 0.015919951356699175 2.7359229628595199e-07 0 0.015247917468380834 0.000869944974446784 0 0.014641690391088594 -8.30723845604245e-05 0 0.015449766612481177 -0.00042617064602641549 0 0.015919951356699175 2.7359229628595199e-07 0 0.017463873943817893 -0.00033963953185174616 0 0.015919951356699175 2.7359229628595199e-07 0 0.017633039771341456 0.00065647918332477318 0 0.015919951356699175 2.7359229628595199e-07 0 0.015247917468380834 0.000869944974446784 0 0.017633039771341456 0.00065647918332477318 0 0.015247917468380834 0.000869944974446784 0 0.017633039771341456 0.00065647918332477318 0 0.016178285953050021 0.0018081348560779228 0 0.017708129811629107 0.00071008755085180219 0 0.017534711071940108 0.0010435313869268741 0 0.01882106385456362 0.00046374817454770972 0 0.017633039771341456 0.00065647918332477318 0 0.018816649518524173 0.00086196080322423424 0 0.019458208123309693 0.0006531838573176445 0 0.01882106385456362 0.00046374817454770972 0 0.018816649518524173 0.00086196080322423424 0 0.019110998021605326 -5.2423403649630155e-05 0 0.01882106385456362 0.00046374817454770972 0 0.018364701655116594 6.534239012994888e-05 0 0.01882106385456362 0.00046374817454770972 0 0.018364701655116594 6.534239012994888e-05 0 0.017633039771341456 0.00065647918332477318 0 0.017463873943817893 -0.00033963953185174616 0 0.018364701655116594 6.534239012994888e-05 0 0.017633039771341456 0.00065647918332477318 0 0.018816649518524173 0.00086196080322423424 0 0.018995626846443903 0.0010602167004173965 0 0.01932317758509737 0.0010545803133037446 0 0.019661326896882041 0.00086799859216576893 0 0.018816649518524173 0.00086196080322423424 0 0.01932317758509737 0.0010545803133037446 0 0.019661326896882041 0.00086799859216576893 0 0.019458208123309693 0.0006531838573176445 0 0.018816649518524173 0.00086196080322423424 0 0.017633039771341456 0.00065647918332477318 0 0.018816649518524173 0.00086196080322423424 0 0.018690494164286565 0.00091428324748064243 0 0.015247917468380834 0.000869944974446784 0 0.016178285953050021 0.0018081348560779228 0 0.014858555207814414 0.0018130132084445967 0 0.016178285953050021 0.0018081348560779228 0 0.015285466120788923 0.0022803426849172066 0 0.014858555207814414 0.0018130132084445967 0 0.017534711071940108 0.0010435313869268741 0 0.017308675828098079 0.0014103830054480635 0 0.018690494164286565 0.00091428324748064243 0 0.018995626846443903 0.0010602167004173965 0 0.01910668183096835 0.0011777635203106076 0 0.018816649518524173 0.00086196080322423424 0 0.018690494164286565 0.00091428324748064243 0 0.018995626846443903 0.0010602167004173965 0 0.018995626846443903 0.0010602167004173965 0 0.019114038325540837 0.0011178031694244804 0 0.01910668183096835 0.0011777635203106076 0 0.018995626846443903 0.0010602167004173965 0 0.019114038325540837 0.0011178031694244804 0 0.019245591233172318 0.0011853891736319181 0 0.019114038325540837 0.0011178031694244804 0 0.01910668183096835 0.0011777635203106076 0 0.01917809543910387 0.0010613456902819117 0 0.01910668183096835 0.0011777635203106076 0 0.01917809543910387 0.0010613456902819117 0 0.019427186888164725 0.00081476848274936414 0 0.01917809543910387 0.0010613456902819117 0 0.019281479676406671 0.00099751759085060288 0 0.019272326517854679 0.0011403779810899885 0 0.01917809543910387 0.0010613456902819117 0 0.019281479676406671 0.00099751759085060288 0 0.019427186888164725 0.00081476848274936414 0 0.019114038325540837 0.0011178031694244804 0 0.01920618636706007 0.001163031769141516 0 0.019245591233172318 0.0011853891736319181 0 0.019114038325540837 0.0011178031694244804 0 0.01917809543910387 0.0010613456902819117 0 0.01920618636706007 0.001163031769141516 0 0.01917809543910387 0.0010613456902819117 0 0.01920618636706007 0.001163031769141516 0 0.019272326517854679 0.0011403779810899885 0 0.01920618636706007 0.001163031769141516 0 0.019325205511107831 0.0013085203937872362 0 0.019272326517854679 0.0011403779810899885 0 0.019384006646234495 0.0013200621013343273 0 0.019245591233172318 0.0011853891736319181 0 0.019325205511107831 0.0013085203937872362 0 0.01920618636706007 0.001163031769141516 0 0.019245591233172318 0.0011853891736319181 0 0.019325205511107831 0.0013085203937872362 0 0.019384006646234495 0.0013200621013343273 0 0.019245591233172318 0.0011853891736319181 0 0.019575253656567117 0.0012792795331747983 0 0.019245591233172318 0.0011853891736319181 0 0.01932317758509737 0.0010545803133037446 0 0.019575253656567117 0.0012792795331747983 0 0.018995626846443903 0.0010602167004173965 0 0.019245591233172318 0.0011853891736319181 0 0.01932317758509737 0.0010545803133037446 0 0.019998005382342011 0.0011380940772730149 0 0.01932317758509737 0.0010545803133037446 0 0.019575253656567117 0.0012792795331747983 0 0.019661326896882041 0.00086799859216576893 0 0.019998005382342011 0.0011380940772730149 0 0.01932317758509737 0.0010545803133037446 0 0.020220302063089328 0.0016096882314306643 0 0.019998005382342011 0.0011380940772730149 0 0.019575253656567117 0.0012792795331747983 0 0.020220302063089328 0.0016096882314306643 0 0.019575253656567117 0.0012792795331747983 0 0.019432123302845272 0.0015079726093796039 0 0.019384006646234495 0.0013200621013343273 0 0.019575253656567117 0.0012792795331747983 0 0.019432123302845272 0.0015079726093796039 0 0.020220302063089328 0.0016096882314306643 0 0.019432123302845272 0.0015079726093796039 0 0.019718406442734822 0.0019041758553325688 0 0.021360171905271657 0.0018420193328609121 0 0.021730475709332262 0.0016115415667315065 0 0.019432123302845272 0.0015079726093796039 0 0.019330971346330394 0.0013694870389212742 0 0.019392962269750694 0.0013530427535247893 0 0.021507005442681644 0.0014661429233005661 0 0.021730475709332262 0.0016115415667315065 0 0.019432123302845272 0.0015079726093796039 0 0.019325205511107831 0.0013085203937872362 0 0.019392962269750694 0.0013530427535247893 0 0.019384006646234495 0.0013200621013343273 0 0.019432123302845272 0.0015079726093796039 0 0.019325205511107831 0.0013085203937872362 0 0.019325205511107831 0.0013085203937872362 0 0.019392962269750694 0.0013530427535247893 0 0.019358796516693425 0.0012677712941998839 0 0.019392962269750694 0.0013530427535247893 0 0.019385561091441423 0.0012807036906908357 0 0.019358796516693425 0.0012677712941998839 0 0.019385561091441423 0.0012807036906908357 0 0.019358796516693425 0.0012677712941998839 0 0.019341480527209718 0.0012598180789887691 0 0.023668523937420666 0.0014054135090332529 0 0.02365607340167793 0.0013923218654843833 0 0.023644898645757299 0.0014073100803232198 0 0.021730475709332262 0.0016115415667315065 0 0.021539532249447626 0.0013250598644772113 0 0.019330971346330394 0.0013694870389212742 0 0.019392962269750694 0.0013530427535247893 0 0.019385561091441423 0.0012807036906908357 0 0.022495854913599317 0.002012994692452575 0 0.021730475709332262 0.0016115415667315065 0 0.023668523937420666 0.0014054135090332529 0 0.023644898645757299 0.0014073100803232198 0 0.023659769053074271 0.0014241313613960176 0 0.023644898645757299 0.0014073100803232198 0 0.023659769053074271 0.0014241313613960176 0 0.023633571765384311 0.0014216225089818428 0 0.019385561091441423 0.0012807036906908357 0 0.01935715982589566 0.0013251793487758013 0 0.019341480527209718 0.0012598180789887691 0 0.021539532249447626 0.0013250598644772113 0 0.021401018771431763 0.00097663044013998092 0 0.023659769053074271 0.0014241313613960176 0 0.023633571765384311 0.0014216225089818428 0 0.023648768788111528 0.0014364722455946937 0 0.023633571765384311 0.0014216225089818428 0 0.023635855803270576 0.0014425512550000502 0 0.023648768788111528 0.0014364722455946937 0 0.023659769053074271 0.0014241313613960176 0 0.023648768788111528 0.0014364722455946937 0 0.02367004059465521 0.0014487428811427803 0 0.020613248887870226 0.0002297621716721952 0 0.021473217171444504 0.0001643038747407294 0 0.020346255316530913 -0.00091483122461963513 0 0.020037746908785004 -0.00083780200256405445 0 0.020229253815640405 -0.00084585843675705305 0 0.020346255316530913 -0.00091483122461963513 0 0.020037746908785004 -0.00083780200256405445 0 0.020261142301647172 -0.00093297519839095943 0 0.01935715982589566 0.0013251793487758013 0 0.01927935352107513 0.0013116828942263505 0 0.019305714917682945 0.0013911508615999158 0 0.021401018771431763 0.00097663044013998092 0 0.021473217171444504 0.0001643038747407294 0 0.023633571765384311 0.0014216225089818428 0 0.023635855803270576 0.0014425512550000502 0 0.023622618169599419 0.0014348915062180401 0 0.01935715982589566 0.0013251793487758013 0 0.01927935352107513 0.0013116828942263505 0 0.019341480527209718 0.0012598180789887691 0 0.020613248887870226 0.0002297621716721952 0 0.020200389420500755 0.00042249032864056802 0 0.020037746908785004 -0.00083780200256405445 0 0.01955845884604138 -0.0004667763303425849 0 0.019987861541187132 -0.00079712309818400699 0 0.019237874655886292 0.0011805750465970948 0 0.019341480527209718 0.0012598180789887691 0 0.019315766681020627 0.0011707152628411266 0 0.01927935352107513 0.0013116828942263505 0 0.019237874655886292 0.0011805750465970948 0 0.019341480527209718 0.0012598180789887691 0 0.019358796516693425 0.0012677712941998839 0 0.019341480527209718 0.0012598180789887691 0 0.019315766681020627 0.0011707152628411266 0 0.019358796516693425 0.0012677712941998839 0 0.019315766681020627 0.0011707152628411266 0 0.019272326517854679 0.0011403779810899885 0 0.019315766681020627 0.0011707152628411266 0 0.019272326517854679 0.0011403779810899885 0 0.019303956795629403 0.001040023955546547 0 0.019325205511107831 0.0013085203937872362 0 0.019358796516693425 0.0012677712941998839 0 0.019272326517854679 0.0011403779810899885 0 0.020200389420500755 0.00042249032864056802 0 0.020093920070900346 0.00057768790680163163 0 0.019237874655886292 0.0011805750465970948 0 0.019303956795629403 0.001040023955546547 0 0.019427186888164725 0.00081476848274936414 0 0.019237874655886292 0.0011805750465970948 0 0.019315766681020627 0.0011707152628411266 0 0.019303956795629403 0.001040023955546547 0 0.019281479676406671 0.00099751759085060288 0 0.019272326517854679 0.0011403779810899885 0 0.019303956795629403 0.001040023955546547 0 0.019281479676406671 0.00099751759085060288 0 0.019303956795629403 0.001040023955546547 0 0.019427186888164725 0.00081476848274936414 0 0.019793793620863233 -0.00011262961398972851 0 0.019427186888164725 0.00081476848274936414 0 0.019780004315656959 0.00080797329038346524 0 0.01955845884604138 -0.0004667763303425849 0 0.019793793620863233 -0.00011262961398972851 0 0.019427186888164725 0.00081476848274936414 0 0.019793793620863233 -0.00011262961398972851 0 0.020345328410370372 -0.00084786761383491289 0 0.019780004315656959 0.00080797329038346524 0 0.017096011984163377 0.0013074526274895731 0 0.017205456611353968 0.0014485869996731134 0 0.01437066905924317 0.0025872767156658138 0 0.0144470083943179 0.0028141479265139419 0 0.014715930123649008 0.0025733960532768846 0 0.01955845884604138 -0.0004667763303425849 0 0.019793793620863233 -0.00011262961398972851 0 0.019987861541187132 -0.00079712309818400699 0 0.019793793620863233 -0.00011262961398972851 0 0.020345328410370372 -0.00084786761383491289 0 0.019987861541187132 -0.00079712309818400699 0 0.019987861541187132 -0.00079712309818400699 0 0.020094146516325337 -0.00088738294202183026 0 0.020229253815640405 -0.00084585843675705305 0 0.020037746908785004 -0.00083780200256405445 0 0.019987861541187132 -0.00079712309818400699 0 0.020229253815640405 -0.00084585843675705305 0 0.020345328410370372 -0.00084786761383491289 0 0.019987861541187132 -0.00079712309818400699 0 0.020094146516325337 -0.00088738294202183026 0 0.020345328410370372 -0.00084786761383491289 0 0.019839605144732608 -0.00089640200227442633 0 0.020094146516325337 -0.00088738294202183026 0 0.020345328410370372 -0.00084786761383491289 0 0.019839605144732608 -0.00089640200227442633 0 0.018768323411967051 -0.00091403784019270027 0 0.019839605144732608 -0.00089640200227442633 0 0.020094146516325337 -0.00088738294202183026 0 0.02023256134128578 -0.00069957508115874967 0 0.019839605144732608 -0.00089640200227442633 0 0.02023256134128578 -0.00069957508115874967 0 0.018768323411967051 -0.00091403784019270027 0 0.020346255316530913 -0.00091483122461963513 0 0.020229253815640405 -0.00084585843675705305 0 0.020457685559466858 -0.00095015353622715688 0 0.02023256134128578 -0.00069957508115874967 0 0.020229253815640405 -0.00084585843675705305 0 0.020457685559466858 -0.00095015353622715688 0 0.020094146516325337 -0.00088738294202183026 0 0.02023256134128578 -0.00069957508115874967 0 0.020229253815640405 -0.00084585843675705305 0 0.014624803866447093 0.0024884980416069674 0 0.014641076775606577 0.0023755650319439766 0 0.015300571384067716 0.0025687380785817614 0 0.014682681420441516 0.0029902593034032781 0 0.016257826283572734 0.0025316061844696852 0 0.015856864623848065 0.002256636096586708 0 0.015300571384067716 0.0025687380785817614 0 0.016257826283572734 0.0025316061844696852 0 0.015856864623848065 0.002256636096586708 0 0.016257826283572734 0.0025316061844696852 0 0.016233264211108621 0.0020925495330620871 0 0.015300571384067716 0.0025687380785817614 0 0.014578009252821216 0.0028813032942782341 0 0.016582592199765659 0.0017204668089993247 0 0.02023256134128578 -0.00069957508115874967 0 0.018768323411967051 -0.00091403784019270027 0 0.017418286772351108 0.0015595815178811002 0 0.015300571384067716 0.0025687380785817614 0 0.014578009252821216 0.0028813032942782341 0 0.014682681420441516 0.0029902593034032781 0 0.0144470083943179 0.0028141479265139419 0 0.014578009252821216 0.0028813032942782341 0 0.014385589352417459 0.0028449102462043572 0 0.014578009252821216 0.0028813032942782341 0 0.014682681420441516 0.0029902593034032781 0 0.014385589352417459 0.0028449102462043572 0 0.017096011984163377 0.0013074526274895731 0 0.016768246275872107 0.0014968284743990202 0 0.014682681420441516 0.0029902593034032781 0 0.014075521130058766 0.002905322545978627 0 0.013759561255731443 0.0033989032270281003 0 0.014682681420441516 0.0029902593034032781 0 0.014075521130058766 0.002905322545978627 0 0.014385589352417459 0.0028449102462043572 0 0.014075521130058766 0.002905322545978627 0 0.013921434501489303 0.0026567175376517702 0 0.013594141468601039 0.0027633787970293955 0 0.014075521130058766 0.002905322545978627 0 0.013921434501489303 0.0026567175376517702 0 0.014385589352417459 0.0028449102462043572 0 0.013921434501489303 0.0026567175376517702 0 0.014385589352417459 0.0028449102462043572 0 0.014210484809485925 0.0026505317082927298 0 0.0144470083943179 0.0028141479265139419 0 0.014385589352417459 0.0028449102462043572 0 0.014210484809485925 0.0026505317082927298 0 0.01437066905924317 0.0025872767156658138 0 0.014210484809485925 0.0026505317082927298 0 0.014038947749738065 0.0024092895523214952 0 0.01437066905924317 0.0025872767156658138 0 0.0144470083943179 0.0028141479265139419 0 0.014210484809485925 0.0026505317082927298 0 0.013921434501489303 0.0026567175376517702 0 0.014210484809485925 0.0026505317082927298 0 0.013772667638415299 0.0024626992826370284 0 0.013921434501489303 0.0026567175376517702 0 0.013772667638415299 0.0024626992826370284 0 0.013445730884913661 0.0024837626509069421 0 0.014210484809485925 0.0026505317082927298 0 0.013772667638415299 0.0024626992826370284 0 0.014038947749738065 0.0024092895523214952 0 0.013772667638415299 0.0024626992826370284 0 0.013695002935372231 0.0022288243679381061 0 0.014038947749738065 0.0024092895523214952 0 0.013695002935372231 0.0022288243679381061 0 0.014095670640161402 0.0022138307611774301 0 0.014038947749738065 0.0024092895523214952 0 0.013695002935372231 0.0022288243679381061 0 0.014095670640161402 0.0022138307611774301 0 0.013948559184691614 0.0018854418832812013 0 0.013695002935372231 0.0022288243679381061 0 0.013948559184691614 0.0018854418832812013 0 0.013473376941808975 0.0018629089045810812 0 0.014095670640161402 0.0022138307611774301 0 0.014383833560887746 0.0020735098802251266 0 0.013948559184691614 0.0018854418832812013 0 0.014095670640161402 0.0022138307611774301 0 0.014038947749738065 0.0024092895523214952 0 0.01440676343326823 0.002416561589291715 0 0.01437066905924317 0.0025872767156658138 0 0.014038947749738065 0.0024092895523214952 0 0.01440676343326823 0.002416561589291715 0 0.01440676343326823 0.002416561589291715 0 0.014715930123649008 0.0025733960532768846 0 0.014723125371846441 0.0022904490993793901 0 0.01437066905924317 0.0025872767156658138 0 0.01440676343326823 0.002416561589291715 0 0.014715930123649008 0.0025733960532768846 0 0.017308675828098079 0.0014103830054480635 0 0.017205456611353968 0.0014485869996731134 0 0.01910668183096835 0.0011777635203106076 0 0.019427186888164725 0.00081476848274936414 0 0.019780004315656959 0.00080797329038346524 0 0.015285466120788923 0.0022803426849172066 0 0.014715930123649008 0.0025733960532768846 0 0.014723125371846441 0.0022904490993793901 0 0.01440676343326823 0.002416561589291715 0 0.014723125371846441 0.0022904490993793901 0 0.014383833560887746 0.0020735098802251266 0 0.014095670640161402 0.0022138307611774301 0 0.01440676343326823 0.002416561589291715 0 0.014383833560887746 0.0020735098802251266 0 0.014723125371846441 0.0022904490993793901 0 0.014383833560887746 0.0020735098802251266 0 0.014858555207814414 0.0018130132084445967 0 0.014383833560887746 0.0020735098802251266 0 0.014858555207814414 0.0018130132084445967 0 0.014224740861451562 0.0016601617337364033 0 0.015285466120788923 0.0022803426849172066 0 0.014723125371846441 0.0022904490993793901 0 0.014858555207814414 0.0018130132084445967 0 0.01421795257044337 0.0011075853542228426 0 0.014858555207814414 0.0018130132084445967 0 0.014224740861451562 0.0016601617337364033 0 0.01421795257044337 0.0011075853542228426 0 0.014224740861451562 0.0016601617337364033 0 0.013676285975987775 0.00139765597893437 0 0.013676285975987775 0.00139765597893437 0 0.013948559184691614 0.0018854418832812013 0 0.013473376941808975 0.0018629089045810812 0 0.014224740861451562 0.0016601617337364033 0 0.013676285975987775 0.00139765597893437 0 0.013948559184691614 0.0018854418832812013 0 0.014383833560887746 0.0020735098802251266 0 0.014224740861451562 0.0016601617337364033 0 0.013948559184691614 0.0018854418832812013 0 0.01300103637070384 0.0019731231656032909 0 0.013148626152891184 0.0015034457533289027 0 0.012742752705949453 0.0016362264878748631 0 0.01300103637070384 0.0019731231656032909 0 0.013473376941808975 0.0018629089045810812 0 0.013148626152891184 0.0015034457533289027 0 0.013676285975987775 0.00139765597893437 0 0.013473376941808975 0.0018629089045810812 0 0.013148626152891184 0.0015034457533289027 0 0.013189473463571967 0.00097778500289919489 0 0.013676285975987775 0.00139765597893437 0 0.013148626152891184 0.0015034457533289027 0 0.012737946546284035 0.00083118929662142314 0 0.013148626152891184 0.0015034457533289027 0 0.012742752705949453 0.0016362264878748631 0 0.011927632954821537 0.001068998673448879 0 0.012742752705949453 0.0016362264878748631 0 0.012284311741928801 0.0018052448480592972 0 0.011927632954821537 0.001068998673448879 0 0.012737946546284035 0.00083118929662142314 0 0.012742752705949453 0.0016362264878748631 0 0.011927632954821537 0.001068998673448879 0 0.012284311741928801 0.0018052448480592972 0 0.011611303731954658 0.0014908506438933071 0 0.012284311741928801 0.0018052448480592972 0 0.012635021468910138 0.0025120225567758841 0 0.011932621832446125 0.0021103158328139447 0 0.012284311741928801 0.0018052448480592972 0 0.012729349138221633 0.0021145933950094675 0 0.012635021468910138 0.0025120225567758841 0 0.012284311741928801 0.0018052448480592972 0 0.011932621832446125 0.0021103158328139447 0 0.011611303731954658 0.0014908506438933071 0 0.012742752705949453 0.0016362264878748631 0 0.012284311741928801 0.0018052448480592972 0 0.012729349138221633 0.0021145933950094675 0 0.01300103637070384 0.0019731231656032909 0 0.012742752705949453 0.0016362264878748631 0 0.012729349138221633 0.0021145933950094675 0 0.012729349138221633 0.0021145933950094675 0 0.012915923711435155 0.0023732741466327835 0 0.012635021468910138 0.0025120225567758841 0 0.01300103637070384 0.0019731231656032909 0 0.012729349138221633 0.0021145933950094675 0 0.012915923711435155 0.0023732741466327835 0 0.012635021468910138 0.0025120225567758841 0 0.012858654495070962 0.0027714977264825052 0 0.012439252722774361 0.0027193503500840708 0 0.012635021468910138 0.0025120225567758841 0 0.012930041188894967 0.002548473443446509 0 0.012858654495070962 0.0027714977264825052 0 0.012915923711435155 0.0023732741466327835 0 0.012635021468910138 0.0025120225567758841 0 0.012930041188894967 0.002548473443446509 0 0.012915923711435155 0.0023732741466327835 0 0.012930041188894967 0.002548473443446509 0 0.01307804659014087 0.0024128063519143913 0 0.012915923711435155 0.0023732741466327835 0 0.01307804659014087 0.0024128063519143913 0 0.013229255589805642 0.0022223932591173704 0 0.01307804659014087 0.0024128063519143913 0 0.013229255589805642 0.0022223932591173704 0 0.0133628970385731 0.0023777689518558001 0 0.01300103637070384 0.0019731231656032909 0 0.012915923711435155 0.0023732741466327835 0 0.013229255589805642 0.0022223932591173704 0 0.01300103637070384 0.0019731231656032909 0 0.013473376941808975 0.0018629089045810812 0 0.013229255589805642 0.0022223932591173704 0 0.013695002935372231 0.0022288243679381061 0 0.013473376941808975 0.0018629089045810812 0 0.013229255589805642 0.0022223932591173704 0 0.013695002935372231 0.0022288243679381061 0 0.013229255589805642 0.0022223932591173704 0 0.0133628970385731 0.0023777689518558001 0 0.013772667638415299 0.0024626992826370284 0 0.013695002935372231 0.0022288243679381061 0 0.0133628970385731 0.0023777689518558001 0 0.0133628970385731 0.0023777689518558001 0 0.013445730884913661 0.0024837626509069421 0 0.013155307059843283 0.002422034897223862 0 0.013772667638415299 0.0024626992826370284 0 0.0133628970385731 0.0023777689518558001 0 0.013445730884913661 0.0024837626509069421 0 0.013155307059843283 0.002422034897223862 0 0.013022019256393432 0.0024246254866271489 0 0.013029547544195412 0.0023962641198824342 0 0.01307804659014087 0.0024128063519143913 0 0.013155307059843283 0.002422034897223862 0 0.013029547544195412 0.0023962641198824342 0 0.01307804659014087 0.0024128063519143913 0 0.0133628970385731 0.0023777689518558001 0 0.013155307059843283 0.002422034897223862 0 0.013445730884913661 0.0024837626509069421 0 0.013155307059843283 0.002422034897223862 0 0.013022019256393432 0.0024246254866271489 0 0.013921434501489303 0.0026567175376517702 0 0.013445730884913661 0.0024837626509069421 0 0.013594141468601039 0.0027633787970293955 0 0.013445730884913661 0.0024837626509069421 0 0.013022019256393432 0.0024246254866271489 0 0.013594141468601039 0.0027633787970293955 0 0.014075521130058766 0.002905322545978627 0 0.013594141468601039 0.0027633787970293955 0 0.013759561255731443 0.0033989032270281003 0 0.013594141468601039 0.0027633787970293955 0 0.01317710589753664 0.0030453780322693179 0 0.013759561255731443 0.0033989032270281003 0 0.013022019256393432 0.0024246254866271489 0 0.013594141468601039 0.0027633787970293955 0 0.01317710589753664 0.0030453780322693179 0 0.013022019256393432 0.0024246254866271489 0 0.01317710589753664 0.0030453780322693179 0 0.012570487282402346 0.0030886054747201589 0 0.013489099913562648 0.002249989736254952 0 0.013681087618308014 0.0020985936506955618 0 0.01317710589753664 0.0030453780322693179 0 0.012962870361464056 0.0035747155776929339 0 0.012570487282402346 0.0030886054747201589 0 0.014535444750235434 0.0020232535895474517 0 0.014641076775606577 0.0023755650319439766 0 0.01317710589753664 0.0030453780322693179 0 0.012962870361464056 0.0035747155776929339 0 0.013759561255731443 0.0033989032270281003 0 0.016282569520487442 0.0022240062388001209 0 0.016257826283572734 0.0025316061844696852 0 0.016250878834777046 0.0021425996093992106 0 0.016257826283572734 0.0025316061844696852 0 0.016233264211108621 0.0020925495330620871 0 0.016250878834777046 0.0021425996093992106 0 0.014660700112329469 0.0012232117136364237 0 0.014386722158088998 0.0010669827383497426 0 0.014226723924423436 0.0003818773238969947 0 0.013932859421405272 0.00046015265092961432 0 0.014215491785513065 0.0011657639863446841 0 0.013301325533041383 0.00079864407698257195 0 0.013406283579254582 0.0015018081872259924 0 0.014215491785513065 0.0011657639863446841 0 0.014599854497453831 0.0011975684059646816 0 0.014660700112329469 0.0012232117136364237 0 0.014535444750235434 0.0020232535895474517 0 0.014660700112329469 0.0012232117136364237 0 0.013301325533041383 0.00079864407698257195 0 0.012964004418250337 0.0015706635830652228 0 0.013406283579254582 0.0015018081872259924 0 0.014660700112329469 0.0012232117136364237 0 0.013681087618308014 0.0020985936506955618 0 0.012962870361464056 0.0035747155776929339 0 0.012123924506293109 0.0037026973239268667 0 0.012570487282402346 0.0030886054747201589 0 0.013022019256393432 0.0024246254866271489 0 0.012964004418250337 0.0015706635830652228 0 0.01316295735966877 0.0020789036343350159 0 0.012964004418250337 0.0015706635830652228 0 0.013406283579254582 0.0015018081872259924 0 0.01316295735966877 0.0020789036343350159 0 0.013406283579254582 0.0015018081872259924 0 0.013566539332581186 0.0017922413620680606 0 0.014215491785513065 0.0011657639863446841 0 0.013406283579254582 0.0015018081872259924 0 0.013566539332581186 0.0017922413620680606 0 0.01316295735966877 0.0020789036343350159 0 0.013566539332581186 0.0017922413620680606 0 0.013217049508138377 0.0023143082504506782 0 0.013852093137623069 0.0018696328433858353 0 0.013566539332581186 0.0017922413620680606 0 0.01316295735966877 0.0020789036343350159 0 0.013217049508138377 0.0023143082504506782 0 0.01316295735966877 0.0020789036343350159 0 0.013029547544195412 0.0023962641198824342 0 0.013217049508138377 0.0023143082504506782 0 0.013022019256393432 0.0024246254866271489 0 0.01316295735966877 0.0020789036343350159 0 0.013029547544195412 0.0023962641198824342 0 0.012930041188894967 0.002548473443446509 0 0.013029547544195412 0.0023962641198824342 0 0.013217049508138377 0.0023143082504506782 0 0.012930041188894967 0.002548473443446509 0 0.01307804659014087 0.0024128063519143913 0 0.013029547544195412 0.0023962641198824342 0 0.012930041188894967 0.002548473443446509 0 0.013217049508138377 0.0023143082504506782 0 0.012858654495070962 0.0027714977264825052 0 0.013217049508138377 0.0023143082504506782 0 0.013730835984455391 0.0023644058391729026 0 0.013852093137623069 0.0018696328433858353 0 0.013217049508138377 0.0023143082504506782 0 0.013730835984455391 0.0023644058391729026 0 0.012858654495070962 0.0027714977264825052 0 0.013730835984455391 0.0023644058391729026 0 0.014643294449112393 0.001582506776626329 0 0.015215330382557651 0.0024170741822861284 0 0.013730835984455391 0.0023644058391729026 0 0.015215330382557651 0.0024170741822861284 0 0.013941133053140563 0.0028167726595741773 0 0.014643294449112393 0.001582506776626329 0 0.013852093137623069 0.0018696328433858353 0 0.014215491785513065 0.0011657639863446841 0 0.013730835984455391 0.0023644058391729026 0 0.014643294449112393 0.001582506776626329 0 0.013852093137623069 0.0018696328433858353 0 0.013566539332581186 0.0017922413620680606 0 0.013852093137623069 0.0018696328433858353 0 0.014215491785513065 0.0011657639863446841 0 0.014215491785513065 0.0011657639863446841 0 0.015182895492501278 0.00098219634228340308 0 0.015109956063645824 0.00059087416852259 0 0.014643294449112393 0.001582506776626329 0 0.015182895492501278 0.00098219634228340308 0 0.015640445350467779 0.0010734260675869453 0 0.014643294449112393 0.001582506776626329 0 0.014215491785513065 0.0011657639863446841 0 0.015182895492501278 0.00098219634228340308 0 0.015109956063645824 0.00059087416852259 0 0.015975899764946788 0.000588851988914452 0 0.015961923943169077 0.00024361916621623708 0 0.015182895492501278 0.00098219634228340308 0 0.015109956063645824 0.00059087416852259 0 0.015975899764946788 0.000588851988914452 0 0.015109956063645824 0.00059087416852259 0 0.015961923943169077 0.00024361916621623708 0 0.01543425038176967 9.9168730761363134e-05 0 0.015109956063645824 0.00059087416852259 0 0.014973248636398812 0.00020052184038825671 0 0.01543425038176967 9.9168730761363134e-05 0 0.014215491785513065 0.0011657639863446841 0 0.015109956063645824 0.00059087416852259 0 0.014631700031744778 0.00048607476417873355 0 0.014226723924423436 0.0003818773238969947 0 0.014215491785513065 0.0011657639863446841 0 0.014631700031744778 0.00048607476417873355 0 0.015109956063645824 0.00059087416852259 0 0.014631700031744778 0.00048607476417873355 0 0.014973248636398812 0.00020052184038825671 0 0.016772102322669818 0.00025743716271791169 0 0.015975899764946788 0.000588851988914452 0 0.016349746749053172 2.0075357029552913e-06 0 0.016772102322669818 0.00025743716271791169 0 0.016349746749053172 2.0075357029552913e-06 0 0.017626271615723173 4.9993545738776369e-07 0 0.016772102322669818 0.00025743716271791169 0 0.015975899764946788 0.000588851988914452 0 0.015961923943169077 0.00024361916621623708 0 0.015975899764946788 0.000588851988914452 0 0.015640445350467779 0.0010734260675869453 0 0.016349746749053172 2.0075357029552913e-06 0 0.015182895492501278 0.00098219634228340308 0 0.015975899764946788 0.000588851988914452 0 0.015640445350467779 0.0010734260675869453 0 0.016346129668251174 -4.1604524667629766e-07 0 0.014676680828359712 9.1136316396371033e-05 0 0.015191546034425322 4.0001786853093804e-07 0 0.01634497007647167 7.5736036907447438e-07 0 0.015245085324083241 0.00061917341328869525 0 0.015640445350467779 0.0010734260675869453 0 0.016349746749053172 2.0075357029552913e-06 0 0.016087716141790505 0.0014076667376555811 0 0.014676680828359712 9.1136316396371033e-05 0 0.015191546034425322 4.0001786853093804e-07 0 0.014038908503829675 -3.7362431070487143e-07 0 0.014643294449112393 0.001582506776626329 0 0.015640445350467779 0.0010734260675869453 0 0.015215330382557651 0.0024170741822861284 0 0.015640445350467779 0.0010734260675869453 0 0.016087716141790505 0.0014076667376555811 0 0.015215330382557651 0.0024170741822861284 0 0.015245085324083241 0.00061917341328869525 0 0.014250183551914574 0.0008100129741895496 0 0.014676680828359712 9.1136316396371033e-05 0 0.014038908503829675 -3.7362431070487143e-07 0 0.014423451344376961 -0.00027846323988265731 0 0.014676680828359712 9.1136316396371033e-05 0 0.014716007912740126 -0.00030603339664838226 0 0.014423451344376961 -0.00027846323988265731 0 0.014033765716989279 3.4573538244872959e-06 0 0.013075707111776495 0.00011488506813779983 0 0.014038908503829675 -3.7362431070487143e-07 0 0.014423451344376961 -0.00027846323988265731 0 0.014167396849649877 -0.00054522279960036969 0 0.014716007912740126 -0.00030603339664838226 0 0.014423451344376961 -0.00027846323988265731 0 0.014522535080885735 -0.00060624441667510417 0 0.014167396849649877 -0.00054522279960036969 0 0.014522535080885735 -0.00060624441667510417 0 0.014208683843058035 -0.00097490633768482974 0 0.013075707111776495 0.00011488506813779983 0 0.012013490594250524 0.00012805895517397958 0 0.012874024294513422 4.6078167561673828e-08 0 0.011686559301334373 -4.5575475195660143e-08 0 0.011743639721263825 -1.2623468659362027e-06 0 0.014423451344376961 -0.00027846323988265731 0 0.014167396849649877 -0.00054522279960036969 0 0.014522535080885735 -0.00060624441667510417 0 0.014522535080885735 -0.00060624441667510417 0 0.014208683843058035 -0.00097490633768482974 0 0.014616808213146803 -0.00091373032987292365 0 0.0083714685961492046 0.0031769986719428858 0 0.0091444017262647306 0.0025210221313825597 0 0.0084752297701119993 0.0017703952179954983 0 0.012013490594250524 0.00012805895517397958 0 0.010955828610702401 0.00099261381265347559 0 0.0116850994182127 -3.2059047856667629e-07 0 0.011631366127975135 -8.8175973103933619e-06 0 0.010159848368079509 -2.9868018857520786e-05 0 0.011688787780788036 1.8503646981576233e-06 0 0.012013490594250524 0.00012805895517397958 0 0.012013490594250524 0.00012805895517397958 0 0.012288283795323355 0.0007095319888881941 0 0.0083714685961492046 0.0031769986719428858 0 0.0091444017262647306 0.0025210221313825597 0 0.0094223153940100578 0.0033363855785663731 0 0.010090337489470727 0.0028956666582452234 0 0.010613359533723136 0.0024648123096780634 0 0.0098897254424629918 0.002195338507255621 0 0.0091444017262647306 0.0025210221313825597 0 0.010090337489470727 0.0028956666582452234 0 0.0098897254424629918 0.002195338507255621 0 0.0091444017262647306 0.0025210221313825597 0 0.010090337489470727 0.0028956666582452234 0 0.0094223153940100578 0.0033363855785663731 0 0.012288283795323355 0.0007095319888881941 0 0.012731646771358794 0.0012098260695558791 0 0.010090337489470727 0.0028956666582452234 0 0.0094223153940100578 0.0033363855785663731 0 0.010686126231411013 0.0035021188098810132 0 0.014522535080885735 -0.00060624441667510417 0 0.014616808213146803 -0.00091373032987292365 0 0.015014170215514239 -0.00085615720936378171 0 0.014716007912740126 -0.00030603339664838226 0 0.014522535080885735 -0.00060624441667510417 0 0.015014170215514239 -0.00085615720936378171 0 0.014250183551914574 0.0008100129741895496 0 0.012731646771358794 0.0012098260695558791 0 0.013730835984455391 0.0023644058391729026 0 0.013941133053140563 0.0028167726595741773 0 0.012675757779202971 0.0032149019438751404 0 0.015215330382557651 0.0024170741822861284 0 0.013941133053140563 0.0028167726595741773 0 0.014281147957750522 0.0036650335665541363 0 0.013941133053140563 0.0028167726595741773 0 0.012675757779202971 0.0032149019438751404 0 0.014281147957750522 0.0036650335665541363 0 0.012716449662472703 0.0013918906377592057 0 0.012731646771358794 0.0012098260695558791 0 0.013730835984455391 0.0023644058391729026 0 0.012858654495070962 0.0027714977264825052 0 0.012675757779202971 0.0032149019438751404 0 0.012858654495070962 0.0027714977264825052 0 0.012675757779202971 0.0032149019438751404 0 0.012439252722774361 0.0027193503500840708 0 0.012675757779202971 0.0032149019438751404 0 0.012439252722774361 0.0027193503500840708 0 0.011894005951799765 0.0024904237145049819 0 0.012439252722774361 0.0027193503500840708 0 0.011894005951799765 0.0024904237145049819 0 0.011932621832446125 0.0021103158328139447 0 0.012635021468910138 0.0025120225567758841 0 0.012439252722774361 0.0027193503500840708 0 0.011932621832446125 0.0021103158328139447 0 0.010090337489470727 0.0028956666582452234 0 0.011032127602838475 0.0028792532527804411 0 0.010686126231411013 0.0035021188098810132 0 0.012630385791569231 0.0013698082328115135 0 0.012731646771358794 0.0012098260695558791 0 0.012675757779202971 0.0032149019438751404 0 0.011032127602838475 0.0028792532527804411 0 0.010699800368672609 0.0035142628374858179 0 0.012675757779202971 0.0032149019438751404 0 0.011894005951799765 0.0024904237145049819 0 0.011032127602838475 0.0028792532527804411 0 0.011894005951799765 0.0024904237145049819 0 0.011032127602838475 0.0028792532527804411 0 0.011175938225376289 0.0024591418177202528 0 0.010090337489470727 0.0028956666582452234 0 0.011032127602838475 0.0028792532527804411 0 0.010613359533723136 0.0024648123096780634 0 0.011032127602838475 0.0028792532527804411 0 0.011175938225376289 0.0024591418177202528 0 0.010613359533723136 0.0024648123096780634 0 0.010823236206933548 0.0020063889725296228 0 0.011932621832446125 0.0021103158328139447 0 0.010917272198105593 0.0014563979355764135 0 0.011175938225376289 0.0024591418177202528 0 0.010613359533723136 0.0024648123096780634 0 0.010823236206933548 0.0020063889725296228 0 0.010613359533723136 0.0024648123096780634 0 0.010823236206933548 0.0020063889725296228 0 0.0098897254424629918 0.002195338507255621 0 0.011894005951799765 0.0024904237145049819 0 0.011175938225376289 0.0024591418177202528 0 0.010823236206933548 0.0020063889725296228 0 0.010823236206933548 0.0020063889725296228 0 0.010917272198105593 0.0014563979355764135 0 0.010045264789788545 0.001351436126509389 0 0.011894005951799765 0.0024904237145049819 0 0.010823236206933548 0.0020063889725296228 0 0.011932621832446125 0.0021103158328139447 0 0.011932621832446125 0.0021103158328139447 0 0.011611303731954658 0.0014908506438933071 0 0.010917272198105593 0.0014563979355764135 0 0.010837500280945545 0.00094877159486615314 0 0.011927632954821537 0.001068998673448879 0 0.011611303731954658 0.0014908506438933071 0 0.010837500280945545 0.00094877159486615314 0 0.011611303731954658 0.0014908506438933071 0 0.010917272198105593 0.0014563979355764135 0 0.010917272198105593 0.0014563979355764135 0 0.010151138890352442 0.0010030423037429897 0 0.010045264789788545 0.001351436126509389 0 0.010837500280945545 0.00094877159486615314 0 0.010917272198105593 0.0014563979355764135 0 0.010151138890352442 0.0010030423037429897 0 0.010151138890352442 0.0010030423037429897 0 0.0093722720818245168 0.00079756220305324667 0 0.010045264789788545 0.001351436126509389 0 0.0093722720818245168 0.00079756220305324667 0 0.010045264789788545 0.001351436126509389 0 0.0091890903371532745 0.0011623075075521069 0 0.010045264789788545 0.001351436126509389 0 0.0091890903371532745 0.0011623075075521069 0 0.0097580192302511443 0.0016430567610260858 0 0.0085999510122432947 0.00026651767826469465 0 0.0091890903371532745 0.0011623075075521069 0 0.0084752297701119993 0.0017703952179954983 0 0.01060516323090595 0.0010134400195779356 0 0.010955828610702401 0.00099261381265347559 0 0.0085999510122432947 0.00026651767826469465 0 0.0093722720818245168 0.00079756220305324667 0 0.0091890903371532745 0.0011623075075521069 0 0.0085999510122432947 0.00026651767826469465 0 0.0096169713529189408 2.4171944841116258e-07 0 0.010159848368079509 -2.9868018857520786e-05 0 0.0091890903371532745 0.0011623075075521069 0 0.0084752297701119993 0.0017703952179954983 0 0.0092755250507529502 0.0018388637931885583 0 0.0116850994182127 -3.2059047856667629e-07 0 0.0096169713529189408 2.4171944841116258e-07 0 0.010159848368079509 -2.9868018857520786e-05 0 0.0091444017262647306 0.0025210221313825597 0 0.0084752297701119993 0.0017703952179954983 0 0.0092755250507529502 0.0018388637931885583 0 0.0091444017262647306 0.0025210221313825597 0 0.0098897254424629918 0.002195338507255621 0 0.0092755250507529502 0.0018388637931885583 0 0.010823236206933548 0.0020063889725296228 0 0.0098897254424629918 0.002195338507255621 0 0.0097580192302511443 0.0016430567610260858 0 0.010823236206933548 0.0020063889725296228 0 0.010045264789788545 0.001351436126509389 0 0.0097580192302511443 0.0016430567610260858 0 0.0091890903371532745 0.0011623075075521069 0 0.0097580192302511443 0.0016430567610260858 0 0.0092755250507529502 0.0018388637931885583 0 0.0098897254424629918 0.002195338507255621 0 0.0097580192302511443 0.0016430567610260858 0 0.0092755250507529502 0.0018388637931885583 0 0.025323912919808005 0.00016133542380392996 0 0.025006011202500282 0.00011133637397124041 0 0.024076815063621207 0.0001059314856594694 0 0.025323912919808005 0.00016133542380392996 0 0.025095490309513181 3.420317600638228e-07 0 0.024076815063621207 0.0001059314856594694 0 0.025095490309513181 3.420317600638228e-07 0 0.026342882472335641 0.00026807805705477404 0 0.027157630409983577 5.0748542872535961e-07 0 0.025323912919808005 0.00016133542380392996 0 0.025095490309513181 3.420317600638228e-07 0 0.026342882472335641 0.00026807805705477404 0 0.025323912919808005 0.00016133542380392996 0 0.026236902192878921 0.00035476875917503121 0 0.026342882472335641 0.00026807805705477404 0 0.026236902192878921 0.00035476875917503121 0 0.02615615325277848 0.00061050976216625575 0 0.026151569666266365 0.00038854834881754479 0 0.025323912919808005 0.00016133542380392996 0 0.026236902192878921 0.00035476875917503121 0 0.025006011202500282 0.00011133637397124041 0 0.026236902192878921 0.00035476875917503121 0 0.02615615325277848 0.00061050976216625575 0 0.026330884894422521 0.00060041352769949158 0 0.024965314169437366 0.00084608514517213256 0 0.024653683324706115 0.00082302256585097347 0 0.026330884894422521 0.00060041352769949158 0 0.026242477498933298 0.00074149631824140243 0 0.026379935552077103 0.00082965245638402753 0 0.02615615325277848 0.00061050976216625575 0 0.026330884894422521 0.00060041352769949158 0 0.026242477498933298 0.00074149631824140243 0 0.024653683324706115 0.00082302256585097347 0 0.023741207911890713 0.0006512496515231345 0 0.02615615325277848 0.00061050976216625575 0 0.026242477498933298 0.00074149631824140243 0 0.026111588970651037 0.00081725256156619597 0 0.02615615325277848 0.00061050976216625575 0 0.026111588970651037 0.00081725256156619597 0 0.026022681528811185 0.00072896625618960084 0 0.021124492685344977 0.00027985563223214237 0 0.020011031388280753 0.00097136690835863872 0 0.026242477498933298 0.00074149631824140243 0 0.026111588970651037 0.00081725256156619597 0 0.02619697328873459 0.00094059603181918209 0 0.026111588970651037 0.00081725256156619597 0 0.02619697328873459 0.00094059603181918209 0 0.025956073312634064 0.00083940317599151678 0 0.026242477498933298 0.00074149631824140243 0 0.026379935552077103 0.00082965245638402753 0 0.02619697328873459 0.00094059603181918209 0 0.023661359903595518 6.2728544997450272e-05 0 0.024076815063621207 0.0001059314856594694 0 0.02249820566725921 2.885094468037137e-05 0 0.025006011202500282 0.00011133637397124041 0 0.023661359903595518 6.2728544997450272e-05 0 0.024076815063621207 0.0001059314856594694 0 0.025095490309513181 3.420317600638228e-07 0 0.024076815063621207 0.0001059314856594694 0 0.023033536940501313 5.3823666714077117e-07 0 0.023033536940501313 5.3823666714077117e-07 0 0.02249820566725921 2.885094468037137e-05 0 0.020969735581774184 -1.2944903468781292e-06 0 0.024076815063621207 0.0001059314856594694 0 0.023033536940501313 5.3823666714077117e-07 0 0.02249820566725921 2.885094468037137e-05 0 0.02249820566725921 2.885094468037137e-05 0 0.021698289799993428 -0.00013302542580079092 0 0.020969735581774184 -1.2944903468781292e-06 0 0.02249820566725921 2.885094468037137e-05 0 0.021698289799993428 -0.00013302542580079092 0 0.022636092492060118 -0.00041250816323682132 0 0.021698289799993428 -0.00013302542580079092 0 0.020969735581774184 -1.2944903468781292e-06 0 0.02026479859323917 -0.00018148922551660919 0 0.023741207911890713 0.0006512496515231345 0 0.021958871530616174 -0.00027200676072382165 0 0.023661359903595518 6.2728544997450272e-05 0 0.02249820566725921 2.885094468037137e-05 0 0.022636092492060118 -0.00041250816323682132 0 0.018557885406839204 -0.0011486952101251067 0 0.01883817566879047 0.00010798970284448076 0 0.02026479859323917 -0.00018148922551660919 0 0.017938658688421566 -0.0014117741768432668 0 0.017545942066229916 -0.00052686138178595354 0 0.016516741950849744 -0.00099947629635192456 0 0.017938658688421566 -0.0014117741768432668 0 0.017545942066229916 -0.00052686138178595354 0 0.01883817566879047 0.00010798970284448076 0 0.021958871530616174 -0.00027200676072382165 0 0.021649390409063357 -0.00038082772640566173 0 0.017545942066229916 -0.00052686138178595354 0 0.01883817566879047 0.00010798970284448076 0 0.018666436563694839 0.00037514030518329827 0 0.01883817566879047 0.00010798970284448076 0 0.02026479859323917 -0.00018148922551660919 0 0.018909888885089831 9.6887570080717824e-07 0 0.020969735581774184 -1.2944903468781292e-06 0 0.02026479859323917 -0.00018148922551660919 0 0.018909888885089831 9.6887570080717824e-07 0 0.021698289799993428 -0.00013302542580079092 0 0.022636092492060118 -0.00041250816323682132 0 0.02026479859323917 -0.00018148922551660919 0 0.021958871530616174 -0.00027200676072382165 0 0.021427887940679295 -0.0004245867408218731 0 0.01883817566879047 0.00010798970284448076 0 0.018909888885089831 9.6887570080717824e-07 0 0.018666436563694839 0.00037514030518329827 0 0.018905045420563774 -1.984219959536864e-06 0 0.017027889294627344 -0.00029557676367885212 0 0.017594548509341269 4.8592832265102021e-05 0 0.018905045420563774 -1.984219959536864e-06 0 0.016397313763131284 -0.0010675452358187495 0 0.017027889294627344 -0.00029557676367885212 0 0.018905980389407273 -2.996708126308421e-07 0 0.017734112049294259 -0.00034928785477524699 0 0.016397313763131284 -0.0010675452358187495 0 0.016402591112855535 -0.00064159643656960417 0 0.017027889294627344 -0.00029557676367885212 0 0.016397313763131284 -0.0010675452358187495 0 0.016402591112855535 -0.00064159643656960417 0 0.016034495592346105 -0.00072052228072305615 0 0.016260714156963896 -0.00038911780085608682 0 0.016402591112855535 -0.00064159643656960417 0 0.016034495592346105 -0.00072052228072305615 0 0.016260714156963896 -0.00038911780085608682 0 0.017027889294627344 -0.00029557676367885212 0 0.016593910922326031 -1.383783607459643e-06 0 0.016260714156963896 -0.00038911780085608682 0 0.016402591112855535 -0.00064159643656960417 0 0.017027889294627344 -0.00029557676367885212 0 0.016772102322669818 0.00025743716271791169 0 0.016593910922326031 -1.383783607459643e-06 0 0.015961923943169077 0.00024361916621623708 0 0.016260714156963896 -0.00038911780085608682 0 0.016593910922326031 -1.383783607459643e-06 0 0.01585341718121789 -0.00014718588753444308 0 0.016593910922326031 -1.383783607459643e-06 0 0.015961923943169077 0.00024361916621623708 0 0.01585341718121789 -0.00014718588753444308 0 0.018905045420563774 -1.984219959536864e-06 0 0.017626271615723173 4.9993545738776369e-07 0 0.017594548509341269 4.8592832265102021e-05 0 0.016772102322669818 0.00025743716271791169 0 0.016593910922326031 -1.383783607459643e-06 0 0.017594548509341269 4.8592832265102021e-05 0 0.016772102322669818 0.00025743716271791169 0 0.017626271615723173 4.9993545738776369e-07 0 0.017594548509341269 4.8592832265102021e-05 0 0.017027889294627344 -0.00029557676367885212 0 0.016593910922326031 -1.383783607459643e-06 0 0.017594548509341269 4.8592832265102021e-05 0 0.015311811952460784 -0.00026486188298908899 0 0.014650352017108813 0.00012097645752558803 0 0.014444783788764784 -0.00021420278118392346 0 0.014226723924423436 0.0003818773238969947 0 0.014631700031744778 0.00048607476417873355 0 0.014650352017108813 0.00012097645752558803 0 0.014631700031744778 0.00048607476417873355 0 0.014650352017108813 0.00012097645752558803 0 0.014973248636398812 0.00020052184038825671 0 0.015311811952460784 -0.00026486188298908899 0 0.014650352017108813 0.00012097645752558803 0 0.014973248636398812 0.00020052184038825671 0 0.015311811952460784 -0.00026486188298908899 0 0.014973248636398812 0.00020052184038825671 0 0.01543425038176967 9.9168730761363134e-05 0 0.015961923943169077 0.00024361916621623708 0 0.01543425038176967 9.9168730761363134e-05 0 0.01585341718121789 -0.00014718588753444308 0 0.015311811952460784 -0.00026486188298908899 0 0.01543425038176967 9.9168730761363134e-05 0 0.01585341718121789 -0.00014718588753444308 0 0.015311811952460784 -0.00026486188298908899 0 0.015826841429410366 -0.00050842998537459856 0 0.015705249006162905 -0.00060853036542318632 0 0.015311811952460784 -0.00026486188298908899 0 0.01585341718121789 -0.00014718588753444308 0 0.015826841429410366 -0.00050842998537459856 0 0.016260714156963896 -0.00038911780085608682 0 0.015826841429410366 -0.00050842998537459856 0 0.016034495592346105 -0.00072052228072305615 0 0.016260714156963896 -0.00038911780085608682 0 0.01585341718121789 -0.00014718588753444308 0 0.015826841429410366 -0.00050842998537459856 0 0.015826841429410366 -0.00050842998537459856 0 0.016034495592346105 -0.00072052228072305615 0 0.015705249006162905 -0.00060853036542318632 0 0.016034495592346105 -0.00072052228072305615 0 0.015705249006162905 -0.00060853036542318632 0 0.015876775479894741 -0.00058181516936058151 0 0.015235427002852096 -4.6869038308632411e-05 0 0.015110920370192982 0.00020715133877953555 0 0.015311811952460784 -0.00026486188298908899 0 0.01543966051891184 -0.00069312092311165784 0 0.014444783788764784 -0.00021420278118392346 0 0.015311811952460784 -0.00026486188298908899 0 0.015705249006162905 -0.00060853036542318632 0 0.01543966051891184 -0.00069312092311165784 0 0.01543966051891184 -0.00069312092311165784 0 0.015561632160918049 -0.00073075747673060644 0 0.015583262847551804 -0.00073893079237486294 0 0.015705249006162905 -0.00060853036542318632 0 0.01543966051891184 -0.00069312092311165784 0 0.015876775479894741 -0.00058181516936058151 0 0.01543966051891184 -0.00069312092311165784 0 0.015561632160918049 -0.00073075747673060644 0 0.015876775479894741 -0.00058181516936058151 0 0.015561632160918049 -0.00073075747673060644 0 0.015876775479894741 -0.00058181516936058151 0 0.015805680502619105 -0.00090026219515362816 0 0.016397313763131284 -0.0010675452358187495 0 0.016034495592346105 -0.00072052228072305615 0 0.015876775479894741 -0.00058181516936058151 0 0.017545942066229916 -0.00052686138178595354 0 0.018666436563694839 0.00037514030518329827 0 0.015876775479894741 -0.00058181516936058151 0 0.017734112049294259 -0.00034928785477524699 0 0.017112206923280159 -0.00053111441181184142 0 0.015876775479894741 -0.00058181516936058151 0 0.016516741950849744 -0.00099947629635192456 0 0.015805680502619105 -0.00090026219515362816 0 0.017545942066229916 -0.00052686138178595354 0 0.015876775479894741 -0.00058181516936058151 0 0.016516741950849744 -0.00099947629635192456 0 0.017938658688421566 -0.0014117741768432668 0 0.016516741950849744 -0.00099947629635192456 0 0.015718563945696803 -0.001269030868834992 0 0.021958871530616174 -0.00027200676072382165 0 0.021124492685344977 0.00027985563223214237 0 0.026379935552077103 0.00082965245638402753 0 0.026421239745619215 0.0010418546986873205 0 0.02619697328873459 0.00094059603181918209 0 0.016516741950849744 -0.00099947629635192456 0 0.015805680502619105 -0.00090026219515362816 0 0.015718563945696803 -0.001269030868834992 0 0.015604672331795166 -0.00088159159616858773 0 0.015718563945696803 -0.001269030868834992 0 0.015576522599054704 -0.00078345776046306697 0 0.015561632160918049 -0.00073075747673060644 0 0.015604672331795166 -0.00088159159616858773 0 0.015570303006229679 -0.00073979415333440496 0 0.015561632160918049 -0.00073075747673060644 0 0.015604672331795166 -0.00088159159616858773 0 0.015805680502619105 -0.00090026219515362816 0 0.015604672331795166 -0.00088159159616858773 0 0.015805680502619105 -0.00090026219515362816 0 0.015718563945696803 -0.001269030868834992 0 0.015576522599054704 -0.00078345776046306697 0 0.015570303006229679 -0.00073979415333440496 0 0.015640851094294091 -0.00056920017259913785 0 0.015570303006229679 -0.00073979415333440496 0 0.015640851094294091 -0.00056920017259913785 0 0.015671971052967873 -0.0006826800348036777 0 0.015604672331795166 -0.00088159159616858773 0 0.015576522599054704 -0.00078345776046306697 0 0.015570303006229679 -0.00073979415333440496 0 0.015640851094294091 -0.00056920017259913785 0 0.015841090456933268 -0.00053722629719580998 0 0.015987550323221709 -4.3451531060973557e-06 0 0.015640851094294091 -0.00056920017259913785 0 0.015841090456933268 -0.00053722629719580998 0 0.015671971052967873 -0.0006826800348036777 0 0.015841090456933268 -0.00053722629719580998 0 0.015804962727285449 -0.00069312840262667982 0 0.015671971052967873 -0.0006826800348036777 0 0.015804962727285449 -0.00069312840262667982 0 0.015671971052967873 -0.0006826800348036777 0 0.015720428534274952 -0.00075325689043109843 0 0.015671971052967873 -0.0006826800348036777 0 0.015720428534274952 -0.00075325689043109843 0 0.015583262847551804 -0.00073893079237486294 0 0.015804962727285449 -0.00069312840262667982 0 0.015720428534274952 -0.00075325689043109843 0 0.015846065706549423 -0.0007783632491572581 0 0.015570303006229679 -0.00073979415333440496 0 0.015671971052967873 -0.0006826800348036777 0 0.015583262847551804 -0.00073893079237486294 0 0.015561632160918049 -0.00073075747673060644 0 0.015570303006229679 -0.00073979415333440496 0 0.015583262847551804 -0.00073893079237486294 0 0.015583262847551804 -0.00073893079237486294 0 0.015701767846562732 -0.00085326265084949098 0 0.015544576402308581 -0.00090571220717003539 0 0.01543966051891184 -0.00069312092311165784 0 0.015583262847551804 -0.00073893079237486294 0 0.015544576402308581 -0.00090571220717003539 0 0.015701767846562732 -0.00085326265084949098 0 0.015856918708665714 -0.0009159466074915144 0 0.015846065706549423 -0.0007783632491572581 0 0.015720428534274952 -0.00075325689043109843 0 0.015583262847551804 -0.00073893079237486294 0 0.015701767846562732 -0.00085326265084949098 0 0.015720428534274952 -0.00075325689043109843 0 0.015701767846562732 -0.00085326265084949098 0 0.015846065706549423 -0.0007783632491572581 0 0.015657882506773149 -0.0010664112287165413 0 0.015672737176151964 -0.00098968759470819084 0 0.015856918708665714 -0.0009159466074915144 0 0.015701767846562732 -0.00085326265084949098 0 0.015672737176151964 -0.00098968759470819084 0 0.015856918708665714 -0.0009159466074915144 0 0.014660700112329469 0.0012232117136364237 0 0.015988112876096805 0.00065313223366690251 0 0.016282569520487442 0.0022240062388001209 0 0.016404948745319909 0.002197340824400062 0 0.016206016308641699 0.0020814027622330553 0 0.014226723924423436 0.0003818773238969947 0 0.013730814736045021 0.00050836801211367186 0 0.014444783788764784 -0.00021420278118392346 0 0.015657882506773149 -0.0010664112287165413 0 0.015672737176151964 -0.00098968759470819084 0 0.015544576402308581 -0.00090571220717003539 0 0.014660700112329469 0.0012232117136364237 0 0.015110920370192982 0.00020715133877953555 0 0.015701767846562732 -0.00085326265084949098 0 0.015672737176151964 -0.00098968759470819084 0 0.015544576402308581 -0.00090571220717003539 0 0.014226723924423436 0.0003818773238969947 0 0.014650352017108813 0.00012097645752558803 0 0.014444783788764784 -0.00021420278118392346 0 0.016151810736700887 0.0020377997573146293 0 0.016250878834777046 0.0021425996093992106 0 0.016206016308641699 0.0020814027622330553 0 0.016151810736700887 0.0020377997573146293 0 0.016233264211108621 0.0020925495330620871 0 0.016255460581722267 0.0019655941566202322 0 0.016151810736700887 0.0020377997573146293 0 0.016233264211108621 0.0020925495330620871 0 0.016250878834777046 0.0021425996093992106 0 0.016282569520487442 0.0022240062388001209 0 0.016250878834777046 0.0021425996093992106 0 0.016206016308641699 0.0020814027622330553 0 0.015856918708665714 -0.0009159466074915144 0 0.015846065706549423 -0.0007783632491572581 0 0.016043201039102329 -0.00077539776411285702 0 0.016151810736700887 0.0020377997573146293 0 0.015887916168377852 0.0025108912768553302 0 0.016582592199765659 0.0017204668089993247 0 0.015988112876096805 0.00065313223366690251 0 0.016996702386341329 -5.7360125796789042e-05 0 0.016151810736700887 0.0020377997573146293 0 0.016206016308641699 0.0020814027622330553 0 0.015887916168377852 0.0025108912768553302 0 0.017132055728750858 -0.0016744892274698222 0 0.016362639953187232 -0.00095606996479406423 0 0.017137285716788402 -0.0005372911748881444 0 0.016996702386341329 -5.7360125796789042e-05 0 0.016694900833048174 -0.00021098894873916704 0 0.015846065706549423 -0.0007783632491572581 0 0.016043201039102329 -0.00077539776411285702 0 0.015927756314179947 -0.00067806415246650039 0 0.015804962727285449 -0.00069312840262667982 0 0.015846065706549423 -0.0007783632491572581 0 0.015927756314179947 -0.00067806415246650039 0 0.015841090456933268 -0.00053722629719580998 0 0.015804962727285449 -0.00069312840262667982 0 0.015927756314179947 -0.00067806415246650039 0 0.015841090456933268 -0.00053722629719580998 0 0.016439023188127195 -0.00026940639409671363 0 0.015987550323221709 -4.3451531060973557e-06 0 0.016537301962899972 -0.00020248873318114458 0 0.016694900833048174 -0.00021098894873916704 0 0.015841090456933268 -0.00053722629719580998 0 0.016362639953187232 -0.00095606996479406423 0 0.016439023188127195 -0.00026940639409671363 0 0.016439023188127195 -0.00026940639409671363 0 0.017137285716788402 -0.0005372911748881444 0 0.017111845994898268 0.00050853465465946568 0 0.016362639953187232 -0.00095606996479406423 0 0.016439023188127195 -0.00026940639409671363 0 0.017137285716788402 -0.0005372911748881444 0 0.016125093119561826 0.0014768374467624341 0 0.015143647818575254 0.0028350385098460489 0 0.013629325769861514 0.0018483301947136105 0 0.016125093119561826 0.0014768374467624341 0 0.015143647818575254 0.0028350385098460489 0 0.017583915377629409 0.003383953285809641 0 0.015143647818575254 0.0028350385098460489 0 0.015582584252783565 0.0043171574309027981 0 0.017583915377629409 0.003383953285809641 0 0.015143647818575254 0.0028350385098460489 0 0.015582584252783565 0.0043171574309027981 0 0.013357963028158922 0.0032112047730984026 0 0.020833333506542418 0.0019291174080732652 0 0.020067658609493715 0.0014676265347520713 0 0.025382584852583465 0.00070667786370051146 0 0.025699696765356418 0.00080584907951227478 0 0.025738375898400778 0.00062976069699681751 0 0.017017418400405344 0.0010622389982230772 0 0.016573455287093759 0.0011571665964390399 0 0.015143647818575254 0.0028350385098460489 0 0.013357963028158922 0.0032112047730984026 0 0.013629325769861514 0.0018483301947136105 0 0.016439023188127195 -0.00026940639409671363 0 0.017111845994898268 0.00050853465465946568 0 0.015987550323221709 -4.3451531060973557e-06 0 0.016573455287093759 0.0011571665964390399 0 0.020011031388280753 0.00097136690835863872 0 0.015640851094294091 -0.00056920017259913785 0 0.015987550323221709 -4.3451531060973557e-06 0 0.015555207764775118 -0.00045935992620813054 0 0.013357963028158922 0.0032112047730984026 0 0.013629325769861514 0.0018483301947136105 0 0.011207220896023494 0.0021689923259401722 0 0.020067658609493715 0.0014676265347520713 0 0.020011031388280753 0.00097136690835863872 0 0.021949250376227615 0.00078200467964675239 0 0.020011031388280753 0.00097136690835863872 0 0.015718563945696803 -0.001269030868834992 0 0.015576522599054704 -0.00078345776046306697 0 0.015555207764775118 -0.00045935992620813054 0 0.026111588970651037 0.00081725256156619597 0 0.025957863671993795 0.00086844755001187735 0 0.026022681528811185 0.00072896625618960084 0 0.015576522599054704 -0.00078345776046306697 0 0.015640851094294091 -0.00056920017259913785 0 0.015555207764775118 -0.00045935992620813054 0 0.02615615325277848 0.00061050976216625575 0 0.026022681528811185 0.00072896625618960084 0 0.025972907581352421 0.00060576377336555676 0 0.025957863671993795 0.00086844755001187735 0 0.026022681528811185 0.00072896625618960084 0 0.025890256236578535 0.0007346208309221919 0 0.026022681528811185 0.00072896625618960084 0 0.025890256236578535 0.0007346208309221919 0 0.025972907581352421 0.00060576377336555676 0 0.025699696765356418 0.00080584907951227478 0 0.025957863671993795 0.00086844755001187735 0 0.025890256236578535 0.0007346208309221919 0 0.025699696765356418 0.00080584907951227478 0 0.025890256236578535 0.0007346208309221919 0 0.025738375898400778 0.00062976069699681751 0 0.025890256236578535 0.0007346208309221919 0 0.025738375898400778 0.00062976069699681751 0 0.025972907581352421 0.00060576377336555676 0 0.025738375898400778 0.00062976069699681751 0 0.025972907581352421 0.00060576377336555676 0 0.025831830705273524 0.00042486188156162536 0 0.025738375898400778 0.00062976069699681751 0 0.025831830705273524 0.00042486188156162536 0 0.025601047003064675 0.00050048510907838148 0 0.02615615325277848 0.00061050976216625575 0 0.025972907581352421 0.00060576377336555676 0 0.026151569666266365 0.00038854834881754479 0 0.025972907581352421 0.00060576377336555676 0 0.026151569666266365 0.00038854834881754479 0 0.025831830705273524 0.00042486188156162536 0 0.026151569666266365 0.00038854834881754479 0 0.025831830705273524 0.00042486188156162536 0 0.025774468463047932 8.6024621047432558e-05 0 0.025831830705273524 0.00042486188156162536 0 0.025516980766779655 0.00025641545605204592 0 0.025774468463047932 8.6024621047432558e-05 0 0.025516980766779655 0.00025641545605204592 0 0.025327854427861451 0.00045418075492464362 0 0.025601047003064675 0.00050048510907838148 0 0.025831830705273524 0.00042486188156162536 0 0.025516980766779655 0.00025641545605204592 0 0.025601047003064675 0.00050048510907838148 0 0.025516980766779655 0.00025641545605204592 0 0.025327854427861451 0.00045418075492464362 0 0.025129259186997606 0.00024228088207150922 0 0.025382584852583465 0.00070667786370051146 0 0.025327854427861451 0.00045418075492464362 0 0.025601047003064675 0.00050048510907838148 0 0.025382584852583465 0.00070667786370051146 0 0.025327854427861451 0.00045418075492464362 0 0.025044983429754652 0.00056972334817434315 0 0.025382584852583465 0.00070667786370051146 0 0.025738375898400778 0.00062976069699681751 0 0.025601047003064675 0.00050048510907838148 0 0.021880484774115076 0.0021771231858595361 0 0.023203236102133967 0.0020758107716108642 0 0.019076270125437507 0.0051905053598312895 0 0.017832883054732674 0.0054195493066805352 0 0.019983139898489554 0.0065464840210358996 0 0.019076270125437507 0.0051905053598312895 0 0.019805068703183409 0.0053359780451469937 0 0.019983139898489554 0.0065464840210358996 0 0.019076270125437507 0.0051905053598312895 0 0.019805068703183409 0.0053359780451469937 0 0.01974782482100871 0.0043712085179373047 0 0.019076270125437507 0.0051905053598312895 0 0.017832883054732674 0.0054195493066805352 0 0.017583915377629409 0.003383953285809641 0 0.020833333506542418 0.0019291174080732652 0 0.021880484774115076 0.0021771231858595361 0 0.025327854427861451 0.00045418075492464362 0 0.025044983429754652 0.00056972334817434315 0 0.025129259186997606 0.00024228088207150922 0 0.025044983429754652 0.00056972334817434315 0 0.025129259186997606 0.00024228088207150922 0 0.024930574252286446 0.00041086416218337127 0 0.025129259186997606 0.00024228088207150922 0 0.024907952275232969 0.00026864180262814084 0 0.024930574252286446 0.00041086416218337127 0 0.025044983429754652 0.00056972334817434315 0 0.024930574252286446 0.00041086416218337127 0 0.024716452424342873 0.00041497631430103372 0 0.024907952275232969 0.00026864180262814084 0 0.024930574252286446 0.00041086416218337127 0 0.024784860086985189 0.00032683227795733065 0 0.024930574252286446 0.00041086416218337127 0 0.024784860086985189 0.00032683227795733065 0 0.024716452424342873 0.00041497631430103372 0 0.024784860086985189 0.00032683227795733065 0 0.024716452424342873 0.00041497631430103372 0 0.024724815477934824 0.00036562098393211773 0 0.024907952275232969 0.00026864180262814084 0 0.024784860086985189 0.00032683227795733065 0 0.024788359368348781 0.00022810323566071686 0 0.024788359368348781 0.00022810323566071686 0 0.024729333263779994 0.00026292597133572085 0 0.024709985959053701 0.00019967214684212491 0 0.024784860086985189 0.00032683227795733065 0 0.024788359368348781 0.00022810323566071686 0 0.024729333263779994 0.00026292597133572085 0 0.020721559660854851 0.0064403587572807426 0 0.019983139898489554 0.0065464840210358996 0 0.021664194870561124 0.0068212710841606778 0 0.024729333263779994 0.00026292597133572085 0 0.024705155570082807 0.00031493857692163336 0 0.024658974928683391 0.00024538493639237387 0 0.024729333263779994 0.00026292597133572085 0 0.024658974928683391 0.00024538493639237387 0 0.024709985959053701 0.00019967214684212491 0 0.023203236102133967 0.0020758107716108642 0 0.024513158070649941 0.0022933303128127832 0 0.02462912986910341 0.00033694994048024789 0 0.024716452424342873 0.00041497631430103372 0 0.024373588478007482 0.00024273144972402337 0 0.02462912986910341 0.00033694994048024789 0 0.024580938086363573 0.00030355821841454101 0 0.024373588478007482 0.00024273144972402337 0 0.023203236102133967 0.0020758107716108642 0 0.023628617912186834 0.001743287805467226 0 0.019983139898489554 0.0065464840210358996 0 0.022717811323357835 0.0075667034476340688 0 0.021664194870561124 0.0068212710841606778 0 0.024784860086985189 0.00032683227795733065 0 0.024705155570082807 0.00031493857692163336 0 0.024724815477934824 0.00036562098393211773 0 0.024784860086985189 0.00032683227795733065 0 0.024729333263779994 0.00026292597133572085 0 0.024705155570082807 0.00031493857692163336 0 0.024705155570082807 0.00031493857692163336 0 0.024724815477934824 0.00036562098393211773 0 0.024682278632435339 0.00034681423702454651 0 0.024705155570082807 0.00031493857692163336 0 0.024644461508755346 0.00030029527344683788 0 0.024682278632435339 0.00034681423702454651 0 0.024705155570082807 0.00031493857692163336 0 0.024644461508755346 0.00030029527344683788 0 0.024658974928683391 0.00024538493639237387 0 0.02462912986910341 0.00033694994048024789 0 0.024644461508755346 0.00030029527344683788 0 0.024682278632435339 0.00034681423702454651 0 0.024644461508755346 0.00030029527344683788 0 0.024658974928683391 0.00024538493639237387 0 0.024597783854357257 0.00026672079683940747 0 0.024597783854357257 0.00026672079683940747 0 0.024523599254944226 0.00026326426706167733 0 0.024581257819861063 0.00022099580177404609 0 0.024658974928683391 0.00024538493639237387 0 0.024597783854357257 0.00026672079683940747 0 0.024581257819861063 0.00022099580177404609 0 0.024597783854357257 0.00026672079683940747 0 0.024523599254944226 0.00026326426706167733 0 0.024580938086363573 0.00030355821841454101 0 0.024523599254944226 0.00026326426706167733 0 0.024503568566050939 0.00021266228800796084 0 0.024581257819861063 0.00022099580177404609 0 0.024644461508755346 0.00030029527344683788 0 0.024597783854357257 0.00026672079683940747 0 0.024580938086363573 0.00030355821841454101 0 0.02462912986910341 0.00033694994048024789 0 0.024644461508755346 0.00030029527344683788 0 0.024580938086363573 0.00030355821841454101 0 0.021150990568436803 0.0064719274635952539 0 0.020721559660854851 0.0064403587572807426 0 0.021664194870561124 0.0068212710841606778 0 0.021377707080742433 0.0065111752756636804 0 0.021150990568436803 0.0064719274635952539 0 0.021664194870561124 0.0068212710841606778 0 0.021377707080742433 0.0065111752756636804 0 0.021658316436824879 0.0063533498568116367 0 0.021233804815049794 0.0061524187162881978 0 0.021150990568436803 0.0064719274635952539 0 0.020828206275732602 0.0061990106543844837 0 0.021233804815049794 0.0061524187162881978 0 0.021377707080742433 0.0065111752756636804 0 0.021150990568436803 0.0064719274635952539 0 0.021233804815049794 0.0061524187162881978 0 0.021150990568436803 0.0064719274635952539 0 0.020721559660854851 0.0064403587572807426 0 0.020828206275732602 0.0061990106543844837 0 0.020721559660854851 0.0064403587572807426 0 0.020460645155513473 0.0062884334837322014 0 0.020828206275732602 0.0061990106543844837 0 0.020721559660854851 0.0064403587572807426 0 0.020460645155513473 0.0062884334837322014 0 0.019983139898489554 0.0065464840210358996 0 0.020460645155513473 0.0062884334837322014 0 0.019983139898489554 0.0065464840210358996 0 0.020351679086775671 0.0060876550973935281 0 0.024716452424342873 0.00041497631430103372 0 0.024724815477934824 0.00036562098393211773 0 0.024682278632435339 0.00034681423702454651 0 0.02462912986910341 0.00033694994048024789 0 0.024716452424342873 0.00041497631430103372 0 0.024682278632435339 0.00034681423702454651 0 0.024680474351457649 0.00040551094378488687 0 0.024373588478007482 0.00024273144972402337 0 0.024338753814177137 0.00029135641599405338 0 0.022717811323357835 0.0075667034476340688 0 0.02290187315158038 0.0071076854946181571 0 0.023365378678940778 0.0071583642894325504 0 0.024329397021632452 0.00022228700487177431 0 0.024338753814177137 0.00029135641599405338 0 0.024262132621144773 0.00019285288103118722 0 0.024329397021632452 0.00022228700487177431 0 0.024373588478007482 0.00024273144972402337 0 0.024338753814177137 0.00029135641599405338 0 0.022717811323357835 0.0075667034476340688 0 0.022340880178373199 0.0071264346043140693 0 0.022600499471346618 0.0070792494193226609 0 0.022717811323357835 0.0075667034476340688 0 0.022600499471346618 0.0070792494193226609 0 0.02290187315158038 0.0071076854946181571 0 0.024523599254944226 0.00026326426706167733 0 0.024580938086363573 0.00030355821841454101 0 0.024373588478007482 0.00024273144972402337 0 0.024523599254944226 0.00026326426706167733 0 0.024373588478007482 0.00024273144972402337 0 0.024456837214673628 0.00022298546075820639 0 0.024523599254944226 0.00026326426706167733 0 0.024503568566050939 0.00021266228800796084 0 0.024456837214673628 0.00022298546075820639 0 0.022717811323357835 0.0075667034476340688 0 0.021664194870561124 0.0068212710841606778 0 0.022340880178373199 0.0071264346043140693 0 0.021664194870561124 0.0068212710841606778 0 0.021658316436824879 0.0063533498568116367 0 0.022025447274154723 0.0065291020907307633 0 0.021377707080742433 0.0065111752756636804 0 0.021664194870561124 0.0068212710841606778 0 0.021658316436824879 0.0063533498568116367 0 0.022025447274154723 0.0065291020907307633 0 0.022299783406075368 0.006787527366981138 0 0.02246546488335964 0.0063627892717570429 0 0.021664194870561124 0.0068212710841606778 0 0.022025447274154723 0.0065291020907307633 0 0.022299783406075368 0.006787527366981138 0 0.021664194870561124 0.0068212710841606778 0 0.022299783406075368 0.006787527366981138 0 0.022340880178373199 0.0071264346043140693 0 0.022299783406075368 0.006787527366981138 0 0.022340880178373199 0.0071264346043140693 0 0.022600499471346618 0.0070792494193226609 0 0.022600499471346618 0.0070792494193226609 0 0.022714947181959766 0.0068047173835914477 0 0.02290187315158038 0.0071076854946181571 0 0.022299783406075368 0.006787527366981138 0 0.022600499471346618 0.0070792494193226609 0 0.022714947181959766 0.0068047173835914477 0 0.022299783406075368 0.006787527366981138 0 0.022714947181959766 0.0068047173835914477 0 0.02246546488335964 0.0063627892717570429 0 0.022714947181959766 0.0068047173835914477 0 0.02246546488335964 0.0063627892717570429 0 0.023111298551778986 0.0063015309939117503 0 0.022714947181959766 0.0068047173835914477 0 0.02314188273505469 0.0068108355934952394 0 0.023111298551778986 0.0063015309939117503 0 0.02314188273505469 0.0068108355934952394 0 0.02290187315158038 0.0071076854946181571 0 0.023365378678940778 0.0071583642894325504 0 0.022714947181959766 0.0068047173835914477 0 0.02314188273505469 0.0068108355934952394 0 0.02290187315158038 0.0071076854946181571 0 0.023111298551778986 0.0063015309939117503 0 0.022649603690579875 0.0058688104468808833 0 0.02325827407696248 0.0054296988843461494 0 0.022649603690579875 0.0058688104468808833 0 0.022391686589790228 0.0052653209478030899 0 0.02325827407696248 0.0054296988843461494 0 0.02246546488335964 0.0063627892717570429 0 0.023111298551778986 0.0063015309939117503 0 0.022649603690579875 0.0058688104468808833 0 0.02246546488335964 0.0063627892717570429 0 0.022649603690579875 0.0058688104468808833 0 0.022099074049969653 0.0060192409362676193 0 0.022649603690579875 0.0058688104468808833 0 0.022099074049969653 0.0060192409362676193 0 0.022391686589790228 0.0052653209478030899 0 0.022099074049969653 0.0060192409362676193 0 0.021708489024315786 0.0053161626008178904 0 0.022391686589790228 0.0052653209478030899 0 0.021658316436824879 0.0063533498568116367 0 0.022025447274154723 0.0065291020907307633 0 0.022099074049969653 0.0060192409362676193 0 0.022025447274154723 0.0065291020907307633 0 0.02246546488335964 0.0063627892717570429 0 0.022099074049969653 0.0060192409362676193 0 0.021658316436824879 0.0063533498568116367 0 0.022099074049969653 0.0060192409362676193 0 0.021591131195969233 0.0059405373023701117 0 0.021658316436824879 0.0063533498568116367 0 0.021591131195969233 0.0059405373023701117 0 0.021233804815049794 0.0061524187162881978 0 0.021591131195969233 0.0059405373023701117 0 0.021708489024315786 0.0053161626008178904 0 0.021178336570710065 0.0056652341458364132 0 0.022099074049969653 0.0060192409362676193 0 0.021591131195969233 0.0059405373023701117 0 0.021708489024315786 0.0053161626008178904 0 0.021708489024315786 0.0053161626008178904 0 0.02135386570936558 0.0046941248705315132 0 0.02192246337577319 0.004465613126475981 0 0.021708489024315786 0.0053161626008178904 0 0.022391686589790228 0.0052653209478030899 0 0.02192246337577319 0.004465613126475981 0 0.022391686589790228 0.0052653209478030899 0 0.02273704531090134 0.0047243128471556664 0 0.02325827407696248 0.0054296988843461494 0 0.022391686589790228 0.0052653209478030899 0 0.02273704531090134 0.0047243128471556664 0 0.02192246337577319 0.004465613126475981 0 0.019805068703183409 0.0053359780451469937 0 0.019983139898489554 0.0065464840210358996 0 0.020199819400897032 0.0057988829464692294 0 0.02064848147684702 0.0055347287591668726 0 0.020199819400897032 0.0057988829464692294 0 0.020560759602885396 0.0059351558526838689 0 0.020272355875664772 0.0054105822373241488 0 0.02064848147684702 0.0055347287591668726 0 0.020199819400897032 0.0057988829464692294 0 0.019805068703183409 0.0053359780451469937 0 0.020272355875664772 0.0054105822373241488 0 0.020199819400897032 0.0057988829464692294 0 0.019983139898489554 0.0065464840210358996 0 0.020199819400897032 0.0057988829464692294 0 0.020351679086775671 0.0060876550973935281 0 0.020199819400897032 0.0057988829464692294 0 0.020351679086775671 0.0060876550973935281 0 0.020560759602885396 0.0059351558526838689 0 0.020460645155513473 0.0062884334837322014 0 0.020351679086775671 0.0060876550973935281 0 0.020560759602885396 0.0059351558526838689 0 0.020460645155513473 0.0062884334837322014 0 0.020560759602885396 0.0059351558526838689 0 0.020828206275732602 0.0061990106543844837 0 0.020828206275732602 0.0061990106543844837 0 0.020878579753432908 0.005917479145852474 0 0.021233804815049794 0.0061524187162881978 0 0.020560759602885396 0.0059351558526838689 0 0.020828206275732602 0.0061990106543844837 0 0.020878579753432908 0.005917479145852474 0 0.021591131195969233 0.0059405373023701117 0 0.021233804815049794 0.0061524187162881978 0 0.021178336570710065 0.0056652341458364132 0 0.020878579753432908 0.005917479145852474 0 0.021233804815049794 0.0061524187162881978 0 0.021178336570710065 0.0056652341458364132 0 0.02064848147684702 0.0055347287591668726 0 0.020878579753432908 0.005917479145852474 0 0.021178336570710065 0.0056652341458364132 0 0.02064848147684702 0.0055347287591668726 0 0.021178336570710065 0.0056652341458364132 0 0.021014272537494365 0.0051334883623241848 0 0.02064848147684702 0.0055347287591668726 0 0.020560759602885396 0.0059351558526838689 0 0.020878579753432908 0.005917479145852474 0 0.02064848147684702 0.0055347287591668726 0 0.021014272537494365 0.0051334883623241848 0 0.020362502572842812 0.0049586207221002428 0 0.021708489024315786 0.0053161626008178904 0 0.021014272537494365 0.0051334883623241848 0 0.02135386570936558 0.0046941248705315132 0 0.021708489024315786 0.0053161626008178904 0 0.021178336570710065 0.0056652341458364132 0 0.021014272537494365 0.0051334883623241848 0 0.021014272537494365 0.0051334883623241848 0 0.02135386570936558 0.0046941248705315132 0 0.020824351676897394 0.0046276564296453297 0 0.021014272537494365 0.0051334883623241848 0 0.020824351676897394 0.0046276564296453297 0 0.020362502572842812 0.0049586207221002428 0 0.020824351676897394 0.0046276564296453297 0 0.020362502572842812 0.0049586207221002428 0 0.020444083074394003 0.0041541764000973596 0 0.019805068703183409 0.0053359780451469937 0 0.020362502572842812 0.0049586207221002428 0 0.01974782482100871 0.0043712085179373047 0 0.020272355875664772 0.0054105822373241488 0 0.02064848147684702 0.0055347287591668726 0 0.020362502572842812 0.0049586207221002428 0 0.019805068703183409 0.0053359780451469937 0 0.020272355875664772 0.0054105822373241488 0 0.020362502572842812 0.0049586207221002428 0 0.020444083074394003 0.0041541764000973596 0 0.019911588923697619 0.0033237188657012961 0 0.01974782482100871 0.0043712085179373047 0 0.020362502572842812 0.0049586207221002428 0 0.020444083074394003 0.0041541764000973596 0 0.01974782482100871 0.0043712085179373047 0 0.020824351676897394 0.0046276564296453297 0 0.020444083074394003 0.0041541764000973596 0 0.021163383412211734 0.0040582040440301477 0 0.02135386570936558 0.0046941248705315132 0 0.020824351676897394 0.0046276564296453297 0 0.021163383412211734 0.0040582040440301477 0 0.020444083074394003 0.0041541764000973596 0 0.021163383412211734 0.0040582040440301477 0 0.020783896660726518 0.0033120978890628593 0 0.021163383412211734 0.0040582040440301477 0 0.020783896660726518 0.0033120978890628593 0 0.021620165661982958 0.003549084865650616 0 0.020783896660726518 0.0033120978890628593 0 0.021620165661982958 0.003549084865650616 0 0.021234104133120196 0.0024932431043894697 0 0.020444083074394003 0.0041541764000973596 0 0.020783896660726518 0.0033120978890628593 0 0.019911588923697619 0.0033237188657012961 0 0.020783896660726518 0.0033120978890628593 0 0.019911588923697619 0.0033237188657012961 0 0.020301740338413563 0.0025579175102708493 0 0.02273704531090134 0.0047243128471556664 0 0.02247585041790123 0.0039235822948245824 0 0.023659976994864763 0.0044499950188530207 0 0.02273704531090134 0.0047243128471556664 0 0.02247585041790123 0.0039235822948245824 0 0.02192246337577319 0.004465613126475981 0 0.021163383412211734 0.0040582040440301477 0 0.02192246337577319 0.004465613126475981 0 0.021620165661982958 0.003549084865650616 0 0.02247585041790123 0.0039235822948245824 0 0.02192246337577319 0.004465613126475981 0 0.021620165661982958 0.003549084865650616 0 0.02135386570936558 0.0046941248705315132 0 0.021163383412211734 0.0040582040440301477 0 0.02192246337577319 0.004465613126475981 0 0.02247585041790123 0.0039235822948245824 0 0.021620165661982958 0.003549084865650616 0 0.022173482324075344 0.0030660554104038726 0 0.021620165661982958 0.003549084865650616 0 0.022173482324075344 0.0030660554104038726 0 0.021234104133120196 0.0024932431043894697 0 0.02247585041790123 0.0039235822948245824 0 0.022173482324075344 0.0030660554104038726 0 0.02324549652605366 0.0029739429963093326 0 0.022156866874953624 0.0022015950035261531 0 0.022831115260441116 0.0014836329286041074 0 0.02324549652605366 0.0029739429963093326 0 0.022173482324075344 0.0030660554104038726 0 0.022156866874953624 0.0022015950035261531 0 0.02324549652605366 0.0029739429963093326 0 0.022156866874953624 0.0022015950035261531 0 0.021337032670364249 0.0014523740978057567 0 0.021234104133120196 0.0024932431043894697 0 0.022173482324075344 0.0030660554104038726 0 0.022156866874953624 0.0022015950035261531 0 0.021234104133120196 0.0024932431043894697 0 0.022156866874953624 0.0022015950035261531 0 0.021337032670364249 0.0014523740978057567 0 0.022831115260441116 0.0014836329286041074 0 0.020301740338413563 0.0025579175102708493 0 0.021234104133120196 0.0024932431043894697 0 0.020418236669344728 0.0016520445450998171 0 0.020301740338413563 0.0025579175102708493 0 0.020418236669344728 0.0016520445450998171 0 0.019480355209037761 0.0022190449966917793 0 0.020783896660726518 0.0033120978890628593 0 0.020301740338413563 0.0025579175102708493 0 0.021234104133120196 0.0024932431043894697 0 0.021337032670364249 0.0014523740978057567 0 0.020418236669344728 0.0016520445450998171 0 0.020263033664487087 0.00055732717475380587 0 0.021337032670364249 0.0014523740978057567 0 0.021234104133120196 0.0024932431043894697 0 0.020418236669344728 0.0016520445450998171 0 0.020418236669344728 0.0016520445450998171 0 0.019746124673485552 0.0011066767654703464 0 0.019480355209037761 0.0022190449966917793 0 0.019746124673485552 0.0011066767654703464 0 0.018867861464398412 0.0010341297744963682 0 0.019480355209037761 0.0022190449966917793 0 0.019480355209037761 0.0022190449966917793 0 0.019032734320735597 0.0034503996998306329 0 0.018241101366934465 0.0023228043212528133 0 0.018867861464398412 0.0010341297744963682 0 0.019480355209037761 0.0022190449966917793 0 0.018241101366934465 0.0023228043212528133 0 0.019911588923697619 0.0033237188657012961 0 0.020301740338413563 0.0025579175102708493 0 0.019480355209037761 0.0022190449966917793 0 0.019076270125437507 0.0051905053598312895 0 0.019032734320735597 0.0034503996998306329 0 0.017583915377629409 0.003383953285809641 0 0.019911588923697619 0.0033237188657012961 0 0.019480355209037761 0.0022190449966917793 0 0.019032734320735597 0.0034503996998306329 0 0.019076270125437507 0.0051905053598312895 0 0.019032734320735597 0.0034503996998306329 0 0.01974782482100871 0.0043712085179373047 0 0.019911588923697619 0.0033237188657012961 0 0.019032734320735597 0.0034503996998306329 0 0.01974782482100871 0.0043712085179373047 0 0.015582584252783565 0.0043171574309027981 0 0.017832883054732674 0.0054195493066805352 0 0.017583915377629409 0.003383953285809641 0 0.019032734320735597 0.0034503996998306329 0 0.017583915377629409 0.003383953285809641 0 0.018241101366934465 0.0023228043212528133 0 0.016125093119561826 0.0014768374467624341 0 0.017583915377629409 0.003383953285809641 0 0.018241101366934465 0.0023228043212528133 0 0.016125093119561826 0.0014768374467624341 0 0.018867861464398412 0.0010341297744963682 0 0.018241101366934465 0.0023228043212528133 0 0.017017418400405344 0.0010622389982230772 0 0.017756805910019775 0.00098613021681893021 0 0.017111845994898268 0.00050853465465946568 0 0.018867861464398412 0.0010341297744963682 0 0.018061107981143788 9.9672610158739618e-05 0 0.017137285716788402 -0.0005372911748881444 0 0.017111845994898268 0.00050853465465946568 0 0.018061107981143788 9.9672610158739618e-05 0 0.018061107981143788 9.9672610158739618e-05 0 0.019501595557472808 0.00015268817699443565 0 0.018094459440451321 -0.00098388686017318139 0 0.017137285716788402 -0.0005372911748881444 0 0.018061107981143788 9.9672610158739618e-05 0 0.018094459440451321 -0.00098388686017318139 0 0.019746124673485552 0.0011066767654703464 0 0.019501595557472808 0.00015268817699443565 0 0.020263033664487087 0.00055732717475380587 0 0.019746124673485552 0.0011066767654703464 0 0.018867861464398412 0.0010341297744963682 0 0.019501595557472808 0.00015268817699443565 0 0.018867861464398412 0.0010341297744963682 0 0.018061107981143788 9.9672610158739618e-05 0 0.019501595557472808 0.00015268817699443565 0 0.018340528050407132 0.00027347210105501746 0 0.017933166633148655 0.00011059270031178739 0 0.019501595557472808 0.00015268817699443565 0 0.020026925446861875 -0.00014652412384167019 0 0.019819466054991977 -0.00044269997787447325 0 0.019501595557472808 0.00015268817699443565 0 0.020026925446861875 -0.00014652412384167019 0 0.020263033664487087 0.00055732717475380587 0 0.020026925446861875 -0.00014652412384167019 0 0.019819466054991977 -0.00044269997787447325 0 0.020255432133896557 -0.00049901217188568663 0 0.019501595557472808 0.00015268817699443565 0 0.019819466054991977 -0.00044269997787447325 0 0.019510737987540903 -0.00039066636400396658 0 0.019819466054991977 -0.00044269997787447325 0 0.019510737987540903 -0.00039066636400396658 0 0.019821518021356125 -0.0007642641325964391 0 0.019819466054991977 -0.00044269997787447325 0 0.019821518021356125 -0.0007642641325964391 0 0.020272596924866822 -0.00082613174594780669 0 0.019819466054991977 -0.00044269997787447325 0 0.020272596924866822 -0.00082613174594780669 0 0.020255432133896557 -0.00049901217188568663 0 0.019160702599358485 -0.00073378805288146416 0 0.019510737987540903 -0.00039066636400396658 0 0.019821518021356125 -0.0007642641325964391 0 0.017132055728750858 -0.0016744892274698222 0 0.017137285716788402 -0.0005372911748881444 0 0.018094459440451321 -0.00098388686017318139 0 0.016996702386341329 -5.7360125796789042e-05 0 0.017933166633148655 0.00011059270031178739 0 0.019160702599358485 -0.00073378805288146416 0 0.019821518021356125 -0.0007642641325964391 0 0.020019726810152221 -0.0011661854426912497 0 0.016996702386341329 -5.7360125796789042e-05 0 0.018299668088333172 -0.00023820035500849031 0 0.015887916168377852 0.0025108912768553302 0 0.017418286772351108 0.0015595815178811002 0 0.016582592199765659 0.0017204668089993247 0 0.019821518021356125 -0.0007642641325964391 0 0.020177553778943032 -0.0010114775212332751 0 0.020019726810152221 -0.0011661854426912497 0 0.019821518021356125 -0.0007642641325964391 0 0.020177553778943032 -0.0010114775212332751 0 0.020272596924866822 -0.00082613174594780669 0 0.019051645933214078 -0.00057571171564632434 0 0.018299668088333172 -0.00023820035500849031 0 0.020177553778943032 -0.0010114775212332751 0 0.020019726810152221 -0.0011661854426912497 0 0.020355992290874387 -0.0010353779984550019 0 0.018768323411967051 -0.00091403784019270027 0 0.017418286772351108 0.0015595815178811002 0 0.016582592199765659 0.0017204668089993247 0 0.016768246275872107 0.0014968284743990202 0 0.016576830594499121 0.0017487328728103245 0 0.015856864623848065 0.002256636096586708 0 0.015300571384067716 0.0025687380785817614 0 0.016582592199765659 0.0017204668089993247 0 0.015856864623848065 0.002256636096586708 0 0.016255460581722267 0.0019655941566202322 0 0.016582592199765659 0.0017204668089993247 0 0.015856864623848065 0.002256636096586708 0 0.016233264211108621 0.0020925495330620871 0 0.016255460581722267 0.0019655941566202322 0 0.016151810736700887 0.0020377997573146293 0 0.016255460581722267 0.0019655941566202322 0 0.016582592199765659 0.0017204668089993247 0 0.020346255316530913 -0.00091483122461963513 0 0.020457685559466858 -0.00095015353622715688 0 0.020778869985983817 -0.0010036887096714164 0 0.020457685559466858 -0.00095015353622715688 0 0.020355992290874387 -0.0010353779984550019 0 0.020732154331841845 -0.0010517768303942539 0 0.020457685559466858 -0.00095015353622715688 0 0.020732154331841845 -0.0010517768303942539 0 0.020778869985983817 -0.0010036887096714164 0 0.02023256134128578 -0.00069957508115874967 0 0.020457685559466858 -0.00095015353622715688 0 0.020355992290874387 -0.0010353779984550019 0 0.02023256134128578 -0.00069957508115874967 0 0.020019726810152221 -0.0011661854426912497 0 0.020355992290874387 -0.0010353779984550019 0 0.020355992290874387 -0.0010353779984550019 0 0.020380180026279164 -0.0010209047480811005 0 0.020709050559899387 -0.0010964732036620882 0 0.020355992290874387 -0.0010353779984550019 0 0.020709050559899387 -0.0010964732036620882 0 0.020732154331841845 -0.0010517768303942539 0 0.020177553778943032 -0.0010114775212332751 0 0.020355992290874387 -0.0010353779984550019 0 0.020380180026279164 -0.0010209047480811005 0 0.020177553778943032 -0.0010114775212332751 0 0.020380180026279164 -0.0010209047480811005 0 0.020272596924866822 -0.00082613174594780669 0 0.020380180026279164 -0.0010209047480811005 0 0.020272596924866822 -0.00082613174594780669 0 0.020709050559899387 -0.0010964732036620882 0 0.020272596924866822 -0.00082613174594780669 0 0.020709050559899387 -0.0010964732036620882 0 0.020708415776936849 -0.00078543792051576685 0 0.020709050559899387 -0.0010964732036620882 0 0.020732154331841845 -0.0010517768303942539 0 0.021428029768533446 -0.0013897845983143978 0 0.020709050559899387 -0.0010964732036620882 0 0.021428029768533446 -0.0013897845983143978 0 0.020708415776936849 -0.00078543792051576685 0 0.020732154331841845 -0.0010517768303942539 0 0.021428029768533446 -0.0013897845983143978 0 0.020778869985983817 -0.0010036887096714164 0 0.021428029768533446 -0.0013897845983143978 0 0.021230618865708286 -0.00045732825071900167 0 0.022940611180459699 -0.00011608946959876903 0 0.021428029768533446 -0.0013897845983143978 0 0.021230618865708286 -0.00045732825071900167 0 0.020708415776936849 -0.00078543792051576685 0 0.020272596924866822 -0.00082613174594780669 0 0.020708415776936849 -0.00078543792051576685 0 0.020255432133896557 -0.00049901217188568663 0 0.021230618865708286 -0.00045732825071900167 0 0.020708415776936849 -0.00078543792051576685 0 0.020562914388138454 -0.00019318135168266715 0 0.020026925446861875 -0.00014652412384167019 0 0.020562914388138454 -0.00019318135168266715 0 0.020255432133896557 -0.00049901217188568663 0 0.020708415776936849 -0.00078543792051576685 0 0.020562914388138454 -0.00019318135168266715 0 0.020255432133896557 -0.00049901217188568663 0 0.020026925446861875 -0.00014652412384167019 0 0.020562914388138454 -0.00019318135168266715 0 0.020263033664487087 0.00055732717475380587 0 0.020562914388138454 -0.00019318135168266715 0 0.020263033664487087 0.00055732717475380587 0 0.021389243998367342 0.00051333750375479178 0 0.021230618865708286 -0.00045732825071900167 0 0.020562914388138454 -0.00019318135168266715 0 0.021389243998367342 0.00051333750375479178 0 0.021337032670364249 0.0014523740978057567 0 0.020263033664487087 0.00055732717475380587 0 0.021389243998367342 0.00051333750375479178 0 0.020418236669344728 0.0016520445450998171 0 0.019746124673485552 0.0011066767654703464 0 0.020263033664487087 0.00055732717475380587 0 0.021389243998367342 0.00051333750375479178 0 0.022940611180459699 -0.00011608946959876903 0 0.022831115260441116 0.0014836329286041074 0 0.021230618865708286 -0.00045732825071900167 0 0.021389243998367342 0.00051333750375479178 0 0.022940611180459699 -0.00011608946959876903 0 0.021337032670364249 0.0014523740978057567 0 0.021389243998367342 0.00051333750375479178 0 0.022831115260441116 0.0014836329286041074 0 0.02410084026728742 0.00092320234187858385 0 0.022940611180459699 -0.00011608946959876903 0 0.022831115260441116 0.0014836329286041074 0 0.02410084026728742 0.00092320234187858385 0 0.025878925229245588 9.1293817471594629e-05 0 0.022940611180459699 -0.00011608946959876903 0 0.02410084026728742 0.00092320234187858385 0 0.025878925229245588 9.1293817471594629e-05 0 0.024856602774400546 0.0021826499735874182 0 0.025878925229245588 9.1293817471594629e-05 0 0.022940611180459699 -0.00011608946959876903 0 0.024862500828369008 -0.002677644485171193 0 0.027469516045138868 0.00010583027042522114 0 0.027152060029950416 -0.0017728595276425654 0 0.028578570668298862 -0.0010219712515142914 0 0.025413501653069395 0.00075136907207451822 0 0.023905389907965192 1.0758614908226494e-05 0 0.021428029768533446 -0.0013897845983143978 0 0.022940611180459699 -0.00011608946959876903 0 0.024862500828369008 -0.002677644485171193 0 0.021428029768533446 -0.0013897845983143978 0 0.020778869985983817 -0.0010036887096714164 0 0.019884984713239812 -0.0012766635960967652 0 0.022730718220460449 -0.00018849701698899859 0 0.023905389907965192 1.0758614908226494e-05 0 0.023905389907965192 1.0758614908226494e-05 0 0.021473217171444504 0.0001643038747407294 0 0.023629177843912136 0.0014538628880579848 0 0.023635855803270576 0.0014425512550000502 0 0.023622618169599419 0.0014348915062180401 0 0.020778869985983817 -0.0010036887096714164 0 0.019884984713239812 -0.0012766635960967652 0 0.020158123513510668 -0.00022630489183477623 0 0.021341820401102277 -3.6258273707846661e-05 0 0.021473217171444504 0.0001643038747407294 0 0.020346255316530913 -0.00091483122461963513 0 0.020778869985983817 -0.0010036887096714164 0 0.020261142301647172 -0.00093297519839095943 0 0.023648768788111528 0.0014364722455946937 0 0.023649595841227354 0.0014506562160655652 0 0.02367004059465521 0.0014487428811427803 0 0.025948615924682773 0.00061583042957533227 0 0.026879173704375519 0.0018276702461300762 0 0.023635855803270576 0.0014425512550000502 0 0.023648768788111528 0.0014364722455946937 0 0.023649595841227354 0.0014506562160655652 0 0.027152060029950416 -0.0017728595276425654 0 0.028815742906425908 -0.0021818350478266359 0 0.028578570668298862 -0.0010219712515142914 0 0.023629177843912136 0.0014538628880579848 0 0.023635855803270576 0.0014425512550000502 0 0.023649595841227354 0.0014506562160655652 0 0.023905389907965192 1.0758614908226494e-05 0 0.025948615924682773 0.00061583042957533227 0 0.028815742906425908 -0.0021818350478266359 0 0.029955140489142336 -0.0011249352869346647 0 0.030384845403891501 -0.0025147934315434928 0 0.028815742906425908 -0.0021818350478266359 0 0.029955140489142336 -0.0011249352869346647 0 0.028578570668298862 -0.0010219712515142914 0 0.029955140489142336 -0.0011249352869346647 0 0.028578570668298862 -0.0010219712515142914 0 0.029487575459790631 2.8989261565511197e-05 0 0.029955140489142336 -0.0011249352869346647 0 0.029487575459790631 2.8989261565511197e-05 0 0.030723781694211413 0.00047877086074663553 0 0.027469516045138868 0.00010583027042522114 0 0.028578570668298862 -0.0010219712515142914 0 0.029487575459790631 2.8989261565511197e-05 0 0.027469516045138868 0.00010583027042522114 0 0.029487575459790631 2.8989261565511197e-05 0 0.030074884735715981 0.0015475660762176472 0 0.029487575459790631 2.8989261565511197e-05 0 0.030074884735715981 0.0015475660762176472 0 0.030723781694211413 0.00047877086074663553 0 0.030074884735715981 0.0015475660762176472 0 0.030934848128186837 0.0014655256410133898 0 0.030802489143330607 0.0012755107280192374 0 0.030074884735715981 0.0015475660762176472 0 0.030999945944497852 0.0014305010979998088 0 0.03149579264322689 0.0013742878843926508 0 0.029860527219546917 0.0019201475973695341 0 0.029629313589003524 0.0023614616099270095 0 0.030074884735715981 0.0015475660762176472 0 0.030999945944497852 0.0014305010979998088 0 0.030934848128186837 0.0014655256410133898 0 0.030999945944497852 0.0014305010979998088 0 0.03149579264322689 0.0013742878843926508 0 0.031361338693103258 0.0012258815168845276 0 0.030999945944497852 0.0014305010979998088 0 0.031207598801356606 0.0012988574783896476 0 0.030934848128186837 0.0014655256410133898 0 0.030999945944497852 0.0014305010979998088 0 0.031207598801356606 0.0012988574783896476 0 0.031361338693103258 0.0012258815168845276 0 0.030074884735715981 0.0015475660762176472 0 0.028666297360936874 0.0043481121284934185 0 0.027486912825246349 0.0027050299087722439 0 0.028666297360936874 0.0043481121284934185 0 0.027486912825246349 0.0027050299087722439 0 0.026753859854763636 0.0044149037235023478 0 0.025413501653069395 0.00075136907207451822 0 0.026072508007522754 0.001845931501836284 0 0.027469516045138868 0.00010583027042522114 0 0.030074884735715981 0.0015475660762176472 0 0.027486912825246349 0.0027050299087722439 0 0.027486912825246349 0.0027050299087722439 0 0.024856602774400546 0.0021826499735874182 0 0.025860786834155339 0.0034534244725675598 0 0.025878925229245588 9.1293817471594629e-05 0 0.027486912825246349 0.0027050299087722439 0 0.024856602774400546 0.0021826499735874182 0 0.024856602774400546 0.0021826499735874182 0 0.022831115260441116 0.0014836329286041074 0 0.02324549652605366 0.0029739429963093326 0 0.02410084026728742 0.00092320234187858385 0 0.024856602774400546 0.0021826499735874182 0 0.022831115260441116 0.0014836329286041074 0 0.02324549652605366 0.0029739429963093326 0 0.024721739833384351 0.0036851298739669545 0 0.023659976994864763 0.0044499950188530207 0 0.024856602774400546 0.0021826499735874182 0 0.02324549652605366 0.0029739429963093326 0 0.024721739833384351 0.0036851298739669545 0 0.024721739833384351 0.0036851298739669545 0 0.024571805152573553 0.0045917133105326966 0 0.023659976994864763 0.0044499950188530207 0 0.02247585041790123 0.0039235822948245824 0 0.02324549652605366 0.0029739429963093326 0 0.023659976994864763 0.0044499950188530207 0 0.027486912825246349 0.0027050299087722439 0 0.025860786834155339 0.0034534244725675598 0 0.026753859854763636 0.0044149037235023478 0 0.024856602774400546 0.0021826499735874182 0 0.024721739833384351 0.0036851298739669545 0 0.025860786834155339 0.0034534244725675598 0 0.024721739833384351 0.0036851298739669545 0 0.025860786834155339 0.0034534244725675598 0 0.025401201488224417 0.0047876945927112398 0 0.024721739833384351 0.0036851298739669545 0 0.024571805152573553 0.0045917133105326966 0 0.025401201488224417 0.0047876945927112398 0 0.025860786834155339 0.0034534244725675598 0 0.026753859854763636 0.0044149037235023478 0 0.025401201488224417 0.0047876945927112398 0 0.026753859854763636 0.0044149037235023478 0 0.026085104115338913 0.0054601824536006822 0 0.025401201488224417 0.0047876945927112398 0 0.026753859854763636 0.0044149037235023478 0 0.026085104115338913 0.0054601824536006822 0 0.027006421492831889 0.0057430252139705207 0 0.025401201488224417 0.0047876945927112398 0 0.025271900216380601 0.0058095185908803191 0 0.024363501804974298 0.0053584887037219997 0 0.026085104115338913 0.0054601824536006822 0 0.025401201488224417 0.0047876945927112398 0 0.025271900216380601 0.0058095185908803191 0 0.026085104115338913 0.0054601824536006822 0 0.025271900216380601 0.0058095185908803191 0 0.025961272788558476 0.0062697182551292013 0 0.025271900216380601 0.0058095185908803191 0 0.024555764546769426 0.006318322263721963 0 0.025256503539858706 0.0066442906372855106 0 0.025271900216380601 0.0058095185908803191 0 0.025961272788558476 0.0062697182551292013 0 0.025256503539858706 0.0066442906372855106 0 0.026085104115338913 0.0054601824536006822 0 0.025961272788558476 0.0062697182551292013 0 0.027006421492831889 0.0057430252139705207 0 0.025961272788558476 0.0062697182551292013 0 0.026501220677399139 0.0067457040373871775 0 0.027006421492831889 0.0057430252139705207 0 0.02273704531090134 0.0047243128471556664 0 0.023659976994864763 0.0044499950188530207 0 0.02325827407696248 0.0054296988843461494 0 0.023659976994864763 0.0044499950188530207 0 0.02325827407696248 0.0054296988843461494 0 0.024363501804974298 0.0053584887037219997 0 0.024571805152573553 0.0045917133105326966 0 0.025401201488224417 0.0047876945927112398 0 0.024363501804974298 0.0053584887037219997 0 0.024571805152573553 0.0045917133105326966 0 0.023659976994864763 0.0044499950188530207 0 0.024363501804974298 0.0053584887037219997 0 0.024363501804974298 0.0053584887037219997 0 0.024555764546769426 0.006318322263721963 0 0.023838089019597365 0.006164179903772566 0 0.025271900216380601 0.0058095185908803191 0 0.024363501804974298 0.0053584887037219997 0 0.024555764546769426 0.006318322263721963 0 0.02325827407696248 0.0054296988843461494 0 0.024363501804974298 0.0053584887037219997 0 0.023838089019597365 0.006164179903772566 0 0.023111298551778986 0.0063015309939117503 0 0.02325827407696248 0.0054296988843461494 0 0.023838089019597365 0.006164179903772566 0 0.024513158070649941 0.0022933303128127832 0 0.027711542595763722 0.0018420481486977069 0 0.022717811323357835 0.0075667034476340688 0 0.024594624459256791 0.007750499539731638 0 0.023926735538148072 0.0074263055918643928 0 0.024338753814177137 0.00029135641599405338 0 0.023968739137125005 0.00018393722841290806 0 0.024262132621144773 0.00019285288103118722 0 0.022717811323357835 0.0075667034476340688 0 0.024594624459256791 0.007750499539731638 0 0.025667317685256968 0.0085365459184233577 0 0.023365378678940778 0.0071583642894325504 0 0.023577189863479432 0.0067172438771177867 0 0.023864511744848663 0.0070836152068740194 0 0.02314188273505469 0.0068108355934952394 0 0.023365378678940778 0.0071583642894325504 0 0.023577189863479432 0.0067172438771177867 0 0.02314188273505469 0.0068108355934952394 0 0.023111298551778986 0.0063015309939117503 0 0.023577189863479432 0.0067172438771177867 0 0.023111298551778986 0.0063015309939117503 0 0.023838089019597365 0.006164179903772566 0 0.023577189863479432 0.0067172438771177867 0 0.023838089019597365 0.006164179903772566 0 0.023577189863479432 0.0067172438771177867 0 0.024144726971051432 0.006789672504016569 0 0.023365378678940778 0.0071583642894325504 0 0.023864511744848663 0.0070836152068740194 0 0.023926735538148072 0.0074263055918643928 0 0.023577189863479432 0.0067172438771177867 0 0.023864511744848663 0.0070836152068740194 0 0.024144726971051432 0.006789672504016569 0 0.023864511744848663 0.0070836152068740194 0 0.024206099494900796 0.0071721158489684118 0 0.023926735538148072 0.0074263055918643928 0 0.024206099494900796 0.0071721158489684118 0 0.024144726971051432 0.006789672504016569 0 0.024640707100334516 0.0071364566037191209 0 0.024206099494900796 0.0071721158489684118 0 0.024640707100334516 0.0071364566037191209 0 0.024455087041992327 0.0074248361927093656 0 0.023864511744848663 0.0070836152068740194 0 0.024206099494900796 0.0071721158489684118 0 0.024144726971051432 0.006789672504016569 0 0.024555764546769426 0.006318322263721963 0 0.023838089019597365 0.006164179903772566 0 0.024144726971051432 0.006789672504016569 0 0.024555764546769426 0.006318322263721963 0 0.024144726971051432 0.006789672504016569 0 0.024640707100334516 0.0071364566037191209 0 0.024555764546769426 0.006318322263721963 0 0.024640707100334516 0.0071364566037191209 0 0.025256503539858706 0.0066442906372855106 0 0.024818380831980402 0.0074924741591604442 0 0.024594624459256791 0.007750499539731638 0 0.025097185732878828 0.0076637263135789415 0 0.024640707100334516 0.0071364566037191209 0 0.024818380831980402 0.0074924741591604442 0 0.025285305781319743 0.0073563478174499888 0 0.024640707100334516 0.0071364566037191209 0 0.024818380831980402 0.0074924741591604442 0 0.024455087041992327 0.0074248361927093656 0 0.024818380831980402 0.0074924741591604442 0 0.024594624459256791 0.007750499539731638 0 0.024455087041992327 0.0074248361927093656 0 0.024594624459256791 0.007750499539731638 0 0.024455087041992327 0.0074248361927093656 0 0.023926735538148072 0.0074263055918643928 0 0.024206099494900796 0.0071721158489684118 0 0.024455087041992327 0.0074248361927093656 0 0.023926735538148072 0.0074263055918643928 0 0.022717811323357835 0.0075667034476340688 0 0.023365378678940778 0.0071583642894325504 0 0.023926735538148072 0.0074263055918643928 0 0.026421223272280154 0.0074692523789096112 0 0.02732324921761782 0.0066713448769145324 0 0.026471361535476173 0.0087521358987519768 0 0.026501220677399139 0.0067457040373871775 0 0.026421223272280154 0.0074692523789096112 0 0.02732324921761782 0.0066713448769145324 0 0.025829132602939196 0.0070183802405226351 0 0.02577472737995708 0.0075669861683013203 0 0.026421223272280154 0.0074692523789096112 0 0.026501220677399139 0.0067457040373871775 0 0.025829132602939196 0.0070183802405226351 0 0.026421223272280154 0.0074692523789096112 0 0.025961272788558476 0.0062697182551292013 0 0.026501220677399139 0.0067457040373871775 0 0.025829132602939196 0.0070183802405226351 0 0.025961272788558476 0.0062697182551292013 0 0.025256503539858706 0.0066442906372855106 0 0.025829132602939196 0.0070183802405226351 0 0.024640707100334516 0.0071364566037191209 0 0.025256503539858706 0.0066442906372855106 0 0.025285305781319743 0.0073563478174499888 0 0.025256503539858706 0.0066442906372855106 0 0.025829132602939196 0.0070183802405226351 0 0.025285305781319743 0.0073563478174499888 0 0.025829132602939196 0.0070183802405226351 0 0.02577472737995708 0.0075669861683013203 0 0.025285305781319743 0.0073563478174499888 0 0.02577472737995708 0.0075669861683013203 0 0.025438202624747386 0.0076871046531607791 0 0.025285305781319743 0.0073563478174499888 0 0.024594624459256791 0.007750499539731638 0 0.025365873940143155 0.0080030190227792109 0 0.025667317685256968 0.0085365459184233577 0 0.02577472737995708 0.0075669861683013203 0 0.025438202624747386 0.0076871046531607791 0 0.025694735317397771 0.0079313504920979841 0 0.024818380831980402 0.0074924741591604442 0 0.025285305781319743 0.0073563478174499888 0 0.025097185732878828 0.0076637263135789415 0 0.025438202624747386 0.0076871046531607791 0 0.025285305781319743 0.0073563478174499888 0 0.025097185732878828 0.0076637263135789415 0 0.024594624459256791 0.007750499539731638 0 0.025097185732878828 0.0076637263135789415 0 0.025365873940143155 0.0080030190227792109 0 0.025438202624747386 0.0076871046531607791 0 0.025097185732878828 0.0076637263135789415 0 0.025365873940143155 0.0080030190227792109 0 0.02577472737995708 0.0075669861683013203 0 0.025694735317397771 0.0079313504920979841 0 0.026004305690078864 0.0080441642157644284 0 0.025365873940143155 0.0080030190227792109 0 0.025694735317397771 0.0079313504920979841 0 0.025667317685256968 0.0085365459184233577 0 0.025694735317397771 0.0079313504920979841 0 0.026004305690078864 0.0080441642157644284 0 0.025667317685256968 0.0085365459184233577 0 0.025438202624747386 0.0076871046531607791 0 0.025365873940143155 0.0080030190227792109 0 0.025694735317397771 0.0079313504920979841 0 0.026004305690078864 0.0080441642157644284 0 0.026421223272280154 0.0074692523789096112 0 0.026471361535476173 0.0087521358987519768 0 0.02577472737995708 0.0075669861683013203 0 0.026004305690078864 0.0080441642157644284 0 0.026421223272280154 0.0074692523789096112 0 0.029168758662671535 0.0027454521254677336 0 0.028471207561200917 0.0020439472717873131 0 0.032042265355253945 0.00083484997591231106 0 0.032001943298852226 0.00066332072717743883 0 0.031669910154110727 0.0010101472475915398 0 0.029168758662671535 0.0027454521254677336 0 0.030223673053772208 0.0017574249218522662 0 0.032042265355253945 0.00083484997591231106 0 0.032001943298852226 0.00066332072717743883 0 0.032140759542598513 0.00044642881561340501 0 0.031669910154110727 0.0010101472475915398 0 0.031898473284119815 0.00052525782146696509 0 0.031716531582561512 0.00069951636431602978 0 0.032001943298852226 0.00066332072717743883 0 0.031669910154110727 0.0010101472475915398 0 0.032166019480327809 0.00043472840220586481 0 0.031669910154110727 0.0010101472475915398 0 0.031716531582561512 0.00069951636431602978 0 0.03156193447445222 0.00089649085247079253 0 0.032191230183633117 0.00067891698476657666 0 0.03228586741591994 0.0004582989111731049 0 0.031669910154110727 0.0010101472475915398 0 0.031423155545958523 0.0011087548315299317 0 0.03156193447445222 0.00089649085247079253 0 0.031207598801356606 0.0012988574783896476 0 0.031423155545958523 0.0011087548315299317 0 0.031361338693103258 0.0012258815168845276 0 0.03149579264322689 0.0013742878843926508 0 0.031669910154110727 0.0010101472475915398 0 0.031361338693103258 0.0012258815168845276 0 0.031669910154110727 0.0010101472475915398 0 0.031423155545958523 0.0011087548315299317 0 0.031361338693103258 0.0012258815168845276 0 0.029629313589003524 0.0023614616099270095 0 0.029168758662671535 0.0027454521254677336 0 0.03149579264322689 0.0013742878843926508 0 0.032042265355253945 0.00083484997591231106 0 0.031669910154110727 0.0010101472475915398 0 0.028666297360936874 0.0043481121284934185 0 0.027426043265591307 0.0068567330809093351 0 0.027006421492831889 0.0057430252139705207 0 0.028666297360936874 0.0043481121284934185 0 0.026753859854763636 0.0044149037235023478 0 0.027006421492831889 0.0057430252139705207 0 0.026501220677399139 0.0067457040373871775 0 0.02732324921761782 0.0066713448769145324 0 0.027006421492831889 0.0057430252139705207 0 0.029168758662671535 0.0027454521254677336 0 0.029179347445927137 0.0030850026362243348 0 0.030047902865342688 0.0015310611835418503 0 0.030008883466076549 0.0016175165029079413 0 0.029958040058910847 0.0014826289979983946 0 0.030047902865342688 0.0015310611835418503 0 0.030017692098287033 0.0014733354030771481 0 0.029958040058910847 0.0014826289979983946 0 0.030047902865342688 0.0015310611835418503 0 0.030008883466076549 0.0016175165029079413 0 0.030057929185817529 0.0015834820521471624 0 0.030047902865342688 0.0015310611835418503 0 0.030057929185817529 0.0015834820521471624 0 0.03009494404396465 0.0015581801055598408 0 0.030047902865342688 0.0015310611835418503 0 0.030101882374216085 0.0015069040502648783 0 0.030080045875359115 0.0014730473132049744 0 0.030047902865342688 0.0015310611835418503 0 0.030017692098287033 0.0014733354030771481 0 0.030080045875359115 0.0014730473132049744 0 0.030047902865342688 0.0015310611835418503 0 0.03009494404396465 0.0015581801055598408 0 0.030101882374216085 0.0015069040502648783 0 0.032297106939823343 0.00035201190753668187 0 0.032166019480327809 0.00043472840220586481 0 0.032678899000455237 5.990291665286552e-05 0 0.030223673053772208 0.0017574249218522662 0 0.031700037680542206 0.0011449595441922252 0 0.032297106939823343 0.00035201190753668187 0 0.032600960308001144 9.1653203657224289e-05 0 0.032678899000455237 5.990291665286552e-05 0 0.032297106939823343 0.00035201190753668187 0 0.032428668068169055 0.00039669164515403898 0 0.032600960308001144 9.1653203657224289e-05 0 0.03228586741591994 0.0004582989111731049 0 0.032552025816686911 0.00015661179913967465 0 0.032297106939823343 0.00035201190753668187 0 0.032166019480327809 0.00043472840220586481 0 0.032140759542598513 0.00044642881561340501 0 0.030527234333961342 0.0017429763492387994 0 0.030223673053772208 0.0017574249218522662 0 0.031898473284119815 0.00052525782146696509 0 0.031716531582561512 0.00069951636431602978 0 0.031807572892907497 0.0005122196657324883 0 0.032001943298852226 0.00066332072717743883 0 0.032166019480327809 0.00043472840220586481 0 0.032140759542598513 0.00044642881561340501 0 0.029531005985336818 0.0021984207865175798 0 0.02928448687623883 0.0015668379256515053 0 0.029732457072706414 0.0016975409783241218 0 0.030008883466076549 0.0016175165029079413 0 0.030057929185817529 0.0015834820521471624 0 0.030105340532411637 0.001645748701367117 0 0.030223673053772208 0.0017574249218522662 0 0.028471207561200917 0.0020439472717873131 0 0.030057929185817529 0.0015834820521471624 0 0.030105340532411637 0.001645748701367117 0 0.03009494404396465 0.0015581801055598408 0 0.030088015577612363 0.001677387750746751 0 0.030138828815788429 0.0016917730478403609 0 0.030159233431971737 0.0015144893120859716 0 0.027711542595763722 0.0018420481486977069 0 0.02882010003652186 0.0012471179342317354 0 0.028471207561200917 0.0020439472717873131 0 0.027711542595763722 0.0018420481486977069 0 0.026004305690078864 0.0080441642157644284 0 0.026471361535476173 0.0087521358987519768 0 0.025667317685256968 0.0085365459184233577 0 0.023968739137125005 0.00018393722841290806 0 0.024262132621144773 0.00019285288103118722 0 0.024160931027481777 5.9775982441679444e-05 0 0.023968739137125005 0.00018393722841290806 0 0.024160931027481777 5.9775982441679444e-05 0 0.024123045749344672 -0.00018735741809610849 0 0.024262132621144773 0.00019285288103118722 0 0.024160931027481777 5.9775982441679444e-05 0 0.024285865454511838 3.6427979148768029e-05 0 0.024160931027481777 5.9775982441679444e-05 0 0.024123045749344672 -0.00018735741809610849 0 0.024285865454511838 3.6427979148768029e-05 0 0.024123045749344672 -0.00018735741809610849 0 0.024426539653210653 -8.4959092648853607e-05 0 0.024285865454511838 3.6427979148768029e-05 0 0.028471207561200917 0.0020439472717873131 0 0.028972645261031375 0.0015659953925428673 0 0.030105340532411637 0.001645748701367117 0 0.03009494404396465 0.0015581801055598408 0 0.030159233431971737 0.0015144893120859716 0 0.030138828815788429 0.0016917730478403609 0 0.030216124783293885 0.0015135335736573203 0 0.030159233431971737 0.0015144893120859716 0 0.030216124783293885 0.0015135335736573203 0 0.030159233431971737 0.0015144893120859716 0 0.030155942931660372 0.0014600728511160997 0 0.030159233431971737 0.0015144893120859716 0 0.030101882374216085 0.0015069040502648783 0 0.030155942931660372 0.0014600728511160997 0 0.03009494404396465 0.0015581801055598408 0 0.030159233431971737 0.0015144893120859716 0 0.030101882374216085 0.0015069040502648783 0 0.030101882374216085 0.0015069040502648783 0 0.030155942931660372 0.0014600728511160997 0 0.030080045875359115 0.0014730473132049744 0 0.030155942931660372 0.0014600728511160997 0 0.030281710659394553 0.0013570827515957079 0 0.030105251762301565 0.001395174177876728 0 0.030155942931660372 0.0014600728511160997 0 0.030105251762301565 0.001395174177876728 0 0.030080045875359115 0.0014730473132049744 0 0.030216124783293885 0.0015135335736573203 0 0.030155942931660372 0.0014600728511160997 0 0.030281710659394553 0.0013570827515957079 0 0.024123045749344672 -0.00018735741809610849 0 0.024283184436530492 -0.00055644028532223649 0 0.024433242129684583 -0.00035034359811238013 0 0.02882010003652186 0.0012471179342317354 0 0.031161525426898432 0.00070147813750858976 0 0.031161525426898432 0.00070147813750858976 0 0.032337290552377794 0.00080395943544354291 0 0.034989708193265703 2.8154884995042784e-06 0 0.034990347714881645 3.1092442934375822e-06 0 0.034992306514106071 1.9844325445405441e-06 0 0.034990347714881645 3.1092442934375822e-06 0 0.034991160016632571 2.5925672796675322e-06 0 0.034992306514106071 1.9844325445405441e-06 0 0.034990347714881645 3.1092442934375822e-06 0 0.034991160016632571 2.5925672796675322e-06 0 0.03498921352700491 3.8552668453104419e-06 0 0.034991160016632571 2.5925672796675322e-06 0 0.034991944703990238 2.1888021127314881e-06 0 0.034992812039911253 1.8389675877896767e-06 0 0.030105251762301565 0.001395174177876728 0 0.030017692098287033 0.0014733354030771481 0 0.029938527140393505 0.0014310660398423618 0 0.032337290552377794 0.00080395943544354291 0 0.032374356322180775 0.001178950086818847 0 0.030105251762301565 0.001395174177876728 0 0.030017692098287033 0.0014733354030771481 0 0.030080045875359115 0.0014730473132049744 0 0.032600960308001144 9.1653203657224289e-05 0 0.032726441526528559 8.8390341311099838e-05 0 0.032678899000455237 5.990291665286552e-05 0 0.031700037680542206 0.0011449595441922252 0 0.032374356322180775 0.001178950086818847 0 0.030017692098287033 0.0014733354030771481 0 0.029958040058910847 0.0014826289979983946 0 0.029938527140393505 0.0014310660398423618 0 0.034990504546058676 2.7708475313417807e-06 0 0.034992892449875655 6.3446423086998645e-07 0 0.034990290653953988 2.4166175133636662e-06 0 0.03498921352700491 3.8552668453104419e-06 0 0.034990504546058676 2.7708475313417807e-06 0 0.034990290653953988 2.4166175133636662e-06 0 0.034991160016632571 2.5925672796675322e-06 0 0.03498921352700491 3.8552668453104419e-06 0 0.034990504546058676 2.7708475313417807e-06 0 0.032374356322180775 0.001178950086818847 0 0.033013765394526488 0.0006026233830881653 0 0.034990504546058676 2.7708475313417807e-06 0 0.034991944703990238 2.1888021127314881e-06 0 0.034993005797168991 1.7520134245005894e-06 0 0.034991160016632571 2.5925672796675322e-06 0 0.034990504546058676 2.7708475313417807e-06 0 0.034991944703990238 2.1888021127314881e-06 0 0.034994793694045873 1.4161784234674939e-06 0 0.034995601113860665 8.8735612521803237e-07 0 0.034990504546058676 2.7708475313417807e-06 0 0.034993005797168991 1.7520134245005894e-06 0 0.034994141372591658 1.329085191828674e-06 0 0.034991944703990238 2.1888021127314881e-06 0 0.034993005797168991 1.7520134245005894e-06 0 0.034992812039911253 1.8389675877896767e-06 0 0.034993005797168991 1.7520134245005894e-06 0 0.034992812039911253 1.8389675877896767e-06 0 0.034994335281386159 1.3162550706319722e-06 0 0.034993005797168991 1.7520134245005894e-06 0 0.034994141372591658 1.329085191828674e-06 0 0.034994335281386159 1.3162550706319722e-06 0 0.034992812039911253 1.8389675877896767e-06 0 0.034994139807583591 1.3531030689027134e-06 0 0.034992306514106071 1.9844325445405441e-06 0 0.034991160016632571 2.5925672796675322e-06 0 0.034992812039911253 1.8389675877896767e-06 0 0.034992306514106071 1.9844325445405441e-06 0 0.034992812039911253 1.8389675877896767e-06 0 0.034994139807583591 1.3531030689027134e-06 0 0.034994335281386159 1.3162550706319722e-06 0 0.034994139807583591 1.3531030689027134e-06 0 0.034995743277792278 9.4631999108644833e-07 0 0.034994892357284785 1.0102954772350803e-06 0 0.034994139807583591 1.3531030689027134e-06 0 0.034995743277792278 9.4631999108644833e-07 0 0.034994335281386159 1.3162550706319722e-06 0 0.034994141372591658 1.329085191828674e-06 0 0.034995902580312065 9.3339641514715371e-07 0 0.034997357228940804 6.3270334821796018e-07 0 0.034994141372591658 1.329085191828674e-06 0 0.034994335281386159 1.3162550706319722e-06 0 0.034995902580312065 9.3339641514715371e-07 0 0.034995743277792278 9.4631999108644833e-07 0 0.034994335281386159 1.3162550706319722e-06 0 0.034995902580312065 9.3339641514715371e-07 0 0.034995743277792278 9.4631999108644833e-07 0 0.034995902580312065 9.3339641514715371e-07 0 0.034997989390485942 4.9220409256817408e-07 0 0.034995902580312065 9.3339641514715371e-07 0 0.034997989390485942 4.9220409256817408e-07 0 0.034997357228940804 6.3270334821796018e-07 0 0.034995743277792278 9.4631999108644833e-07 0 0.034997989390485942 4.9220409256817408e-07 0 0.034997566285810813 5.080044347263904e-07 0 0.034995743277792278 9.4631999108644833e-07 0 0.034997566285810813 5.080044347263904e-07 0 0.034994892357284785 1.0102954772350803e-06 0 0.034999996150522905 5.8436687373411159e-10 0 0.034999997193325395 -4.9247735826561958e-12 0 0.034997566285810813 5.080044347263904e-07 0 0.034997989390485942 4.9220409256817408e-07 0 0.034999996150522905 5.8436687373411159e-10 0 0.034997566285810813 5.080044347263904e-07 0 0.034997989390485942 4.9220409256817408e-07 0 0.034999996150522905 5.8436687373411159e-10 0 0.034999997755591483 3.0953459873668053e-10 0 0.034999997193325395 -4.9247735826561958e-12 0 0.034996349861845341 4.2025251131083332e-07 0 0.03499999235702736 1.9905431789745191e-09 0 0.034999997193325395 -4.9247735826561958e-12 0 0.034997566285810813 5.080044347263904e-07 0 0.034996349861845341 4.2025251131083332e-07 0 0.034997566285810813 5.080044347263904e-07 0 0.034996349861845341 4.2025251131083332e-07 0 0.034994892357284785 1.0102954772350803e-06 0 0.034996349861845341 4.2025251131083332e-07 0 0.034993202407259484 1.1546166422331369e-06 0 0.034992877722858196 4.2140713430268896e-07 0 0.034996349861845341 4.2025251131083332e-07 0 0.034994892357284785 1.0102954772350803e-06 0 0.034993202407259484 1.1546166422331369e-06 0 0.034994892357284785 1.0102954772350803e-06 0 0.034992306514106071 1.9844325445405441e-06 0 0.034993202407259484 1.1546166422331369e-06 0 0.034994139807583591 1.3531030689027134e-06 0 0.034994892357284785 1.0102954772350803e-06 0 0.034992306514106071 1.9844325445405441e-06 0 0.034989708193265703 2.8154884995042784e-06 0 0.034992306514106071 1.9844325445405441e-06 0 0.034993202407259484 1.1546166422331369e-06 0 0.034954505001257845 2.8320451557792338e-05 0 0.034971386826981025 8.0617201860127949e-06 0 0.034977441332816113 2.0616934434116256e-05 0 0.034989708193265703 2.8154884995042784e-06 0 0.034993202407259484 1.1546166422331369e-06 0 0.034992877722858196 4.2140713430268896e-07 0 0.031161525426898432 0.00070147813750858976 0 0.033367071454249282 -0.00031759168776256201 0 0.034971386826981025 8.0617201860127949e-06 0 0.034987542100916889 5.5389512958587786e-06 0 0.034977441332816113 2.0616934434116256e-05 0 0.033367071454249282 -0.00031759168776256201 0 0.033861950828023457 -0.00036475971038457862 0 0.034971386826981025 8.0617201860127949e-06 0 0.034992954753981405 -4.026406017392759e-08 0 0.034987542100916889 5.5389512958587786e-06 0 0.034996349861845341 4.2025251131083332e-07 0 0.034992877722858196 4.2140713430268896e-07 0 0.034992954753981405 -4.026406017392759e-08 0 0.034992954753981405 -4.026406017392759e-08 0 0.03499999235702736 1.9905431789745191e-09 0 0.03499999054255979 -5.8851907872530298e-10 0 0.034996349861845341 4.2025251131083332e-07 0 0.034992954753981405 -4.026406017392759e-08 0 0.03499999235702736 1.9905431789745191e-09 0 0.03499999054255979 -5.8851907872530298e-10 0 0.034995169533686886 7.472111472595398e-07 0 0.034999994662744789 6.0889528178657767e-10 0 0.034992954753981405 -4.026406017392759e-08 0 0.03499999054255979 -5.8851907872530298e-10 0 0.034995169533686886 7.472111472595398e-07 0 0.034995169533686886 7.472111472595398e-07 0 0.034993444528535436 2.7515095548415899e-06 0 0.034987542100916889 5.5389512958587786e-06 0 0.034992954753981405 -4.026406017392759e-08 0 0.034995169533686886 7.472111472595398e-07 0 0.034987542100916889 5.5389512958587786e-06 0 0.034995169533686886 7.472111472595398e-07 0 0.034993444528535436 2.7515095548415899e-06 0 0.034999994662744789 6.0889528178657767e-10 0 0.034993444528535436 2.7515095548415899e-06 0 0.034987900479476003 1.1447677893120866e-05 0 0.034992635436439268 4.4928123645346429e-06 0 0.034993444528535436 2.7515095548415899e-06 0 0.034987542100916889 5.5389512958587786e-06 0 0.034987900479476003 1.1447677893120866e-05 0 0.034987542100916889 5.5389512958587786e-06 0 0.034987900479476003 1.1447677893120866e-05 0 0.034977441332816113 2.0616934434116256e-05 0 0.025033304730923828 -0.00072556766131131906 0 0.024953391066677627 -0.00040693675246230871 0 0.025272360762407658 -0.00050885524298995401 0 0.025169482909683863 -0.00024693062365206377 0 0.025383963006042402 -0.00010763696700631995 0 0.024953391066677627 -0.00040693675246230871 0 0.0249645663542695 -0.0001812774240588716 0 0.025376293509256017 -0.00016892923720984799 0 0.024953391066677627 -0.00040693675246230871 0 0.024662596734852212 -0.00028261344876768981 0 0.0249645663542695 -0.0001812774240588716 0 0.024953391066677627 -0.00040693675246230871 0 0.024666567641926193 -0.00063493667963208456 0 0.024662596734852212 -0.00028261344876768981 0 0.025033304730923828 -0.00072556766131131906 0 0.024953391066677627 -0.00040693675246230871 0 0.024666567641926193 -0.00063493667963208456 0 0.030051828807470395 -0.00020996298326038444 0 0.030137708406975078 0.0001596943278406504 0 0.031161525426898432 0.00070147813750858976 0 0.030137708406975078 0.0001596943278406504 0 0.024283184436530492 -0.00055644028532223649 0 0.024666567641926193 -0.00063493667963208456 0 0.024433242129684583 -0.00035034359811238013 0 0.024666567641926193 -0.00063493667963208456 0 0.024433242129684583 -0.00035034359811238013 0 0.024662596734852212 -0.00028261344876768981 0 0.024662596734852212 -0.00028261344876768981 0 0.024617811461883729 -5.7345138155948244e-05 0 0.024802004468783837 -3.4342821967337121e-05 0 0.024662596734852212 -0.00028261344876768981 0 0.024617811461883729 -5.7345138155948244e-05 0 0.024426539653210653 -8.4959092648853607e-05 0 0.024617811461883729 -5.7345138155948244e-05 0 0.024426539653210653 -8.4959092648853607e-05 0 0.024524299695690061 9.41946761989729e-05 0 0.024617811461883729 -5.7345138155948244e-05 0 0.024665333830321174 5.2989069163204715e-05 0 0.024802004468783837 -3.4342821967337121e-05 0 0.024433242129684583 -0.00035034359811238013 0 0.024662596734852212 -0.00028261344876768981 0 0.024426539653210653 -8.4959092648853607e-05 0 0.024123045749344672 -0.00018735741809610849 0 0.024433242129684583 -0.00035034359811238013 0 0.024426539653210653 -8.4959092648853607e-05 0 0.024426539653210653 -8.4959092648853607e-05 0 0.024285865454511838 3.6427979148768029e-05 0 0.024400138669428164 7.6928239465047651e-05 0 0.024285865454511838 3.6427979148768029e-05 0 0.024400138669428164 7.6928239465047651e-05 0 0.024343248136708767 0.00016058908980804914 0 0.024426539653210653 -8.4959092648853607e-05 0 0.024400138669428164 7.6928239465047651e-05 0 0.024524299695690061 9.41946761989729e-05 0 0.024400138669428164 7.6928239465047651e-05 0 0.024426678598357052 0.00017357051055051829 0 0.024524299695690061 9.41946761989729e-05 0 0.024503568566050939 0.00021266228800796084 0 0.024426678598357052 0.00017357051055051829 0 0.024524299695690061 9.41946761989729e-05 0 0.024503568566050939 0.00021266228800796084 0 0.024456837214673628 0.00022298546075820639 0 0.024426678598357052 0.00017357051055051829 0 0.024373588478007482 0.00024273144972402337 0 0.024456837214673628 0.00022298546075820639 0 0.024426678598357052 0.00017357051055051829 0 0.024262132621144773 0.00019285288103118722 0 0.024285865454511838 3.6427979148768029e-05 0 0.024343248136708767 0.00016058908980804914 0 0.024400138669428164 7.6928239465047651e-05 0 0.024426678598357052 0.00017357051055051829 0 0.024343248136708767 0.00016058908980804914 0 0.024373588478007482 0.00024273144972402337 0 0.024426678598357052 0.00017357051055051829 0 0.024343248136708767 0.00016058908980804914 0 0.024329397021632452 0.00022228700487177431 0 0.024373588478007482 0.00024273144972402337 0 0.024343248136708767 0.00016058908980804914 0 0.024329397021632452 0.00022228700487177431 0 0.024262132621144773 0.00019285288103118722 0 0.024343248136708767 0.00016058908980804914 0 0.024665333830321174 5.2989069163204715e-05 0 0.024629319687748931 0.00015554214515386118 0 0.024753533314005972 0.00010728654286796545 0 0.024617811461883729 -5.7345138155948244e-05 0 0.024665333830321174 5.2989069163204715e-05 0 0.024524299695690061 9.41946761989729e-05 0 0.024665333830321174 5.2989069163204715e-05 0 0.024524299695690061 9.41946761989729e-05 0 0.024629319687748931 0.00015554214515386118 0 0.024503568566050939 0.00021266228800796084 0 0.024524299695690061 9.41946761989729e-05 0 0.024558319620156862 0.00016892790898462797 0 0.024524299695690061 9.41946761989729e-05 0 0.024558319620156862 0.00016892790898462797 0 0.024629319687748931 0.00015554214515386118 0 0.024503568566050939 0.00021266228800796084 0 0.024558319620156862 0.00016892790898462797 0 0.024581257819861063 0.00022099580177404609 0 0.024558319620156862 0.00016892790898462797 0 0.024581257819861063 0.00022099580177404609 0 0.024629319687748931 0.00015554214515386118 0 0.024658974928683391 0.00024538493639237387 0 0.024629319687748931 0.00015554214515386118 0 0.024709985959053701 0.00019967214684212491 0 0.024629319687748931 0.00015554214515386118 0 0.024709985959053701 0.00019967214684212491 0 0.024753533314005972 0.00010728654286796545 0 0.024658974928683391 0.00024538493639237387 0 0.024581257819861063 0.00022099580177404609 0 0.024629319687748931 0.00015554214515386118 0 0.02490844526503587 0.0001354977717999921 0 0.025066679593032253 -9.2378528045856398e-06 0 0.024802004468783837 -3.4342821967337121e-05 0 0.024788359368348781 0.00022810323566071686 0 0.024709985959053701 0.00019967214684212491 0 0.024753533314005972 0.00010728654286796545 0 0.024788359368348781 0.00022810323566071686 0 0.024753533314005972 0.00010728654286796545 0 0.02490844526503587 0.0001354977717999921 0 0.024753533314005972 0.00010728654286796545 0 0.02490844526503587 0.0001354977717999921 0 0.024802004468783837 -3.4342821967337121e-05 0 0.024665333830321174 5.2989069163204715e-05 0 0.024753533314005972 0.00010728654286796545 0 0.024802004468783837 -3.4342821967337121e-05 0 0.024907952275232969 0.00026864180262814084 0 0.024788359368348781 0.00022810323566071686 0 0.02490844526503587 0.0001354977717999921 0 0.025129259186997606 0.00024228088207150922 0 0.02490844526503587 0.0001354977717999921 0 0.025066679593032253 -9.2378528045856398e-06 0 0.025129259186997606 0.00024228088207150922 0 0.025066679593032253 -9.2378528045856398e-06 0 0.025376293509256017 -0.00016892923720984799 0 0.025129259186997606 0.00024228088207150922 0 0.024907952275232969 0.00026864180262814084 0 0.02490844526503587 0.0001354977717999921 0 0.025066679593032253 -9.2378528045856398e-06 0 0.0249645663542695 -0.0001812774240588716 0 0.025376293509256017 -0.00016892923720984799 0 0.025066679593032253 -9.2378528045856398e-06 0 0.0249645663542695 -0.0001812774240588716 0 0.024802004468783837 -3.4342821967337121e-05 0 0.024662596734852212 -0.00028261344876768981 0 0.0249645663542695 -0.0001812774240588716 0 0.024802004468783837 -3.4342821967337121e-05 0 0.025383963006042402 -0.00010763696700631995 0 0.025738644679632761 0.00012198854130970314 0 0.025302497254241454 -0.00011107608567891313 0 0.02579446994846657 0.00024276811754376002 0 0.025625694201774518 -0.00035190713864840384 0 0.025516980766779655 0.00025641545605204592 0 0.025129259186997606 0.00024228088207150922 0 0.025376293509256017 -0.00016892923720984799 0 0.025516980766779655 0.00025641545605204592 0 0.025376293509256017 -0.00016892923720984799 0 0.025774468463047932 8.6024621047432558e-05 0 0.025937991626921796 0.00024862648710294733 0 0.025738644679632761 0.00012198854130970314 0 0.026151569666266365 0.00038854834881754479 0 0.02579446994846657 0.00024276811754376002 0 0.026129466449627402 0.00019901625751734712 0 0.026129466449627402 0.00019901625751734712 0 0.025995070629484793 -7.5608913584461769e-05 0 0.026284115686855843 5.8821649337048742e-05 0 0.025995070629484793 -7.5608913584461769e-05 0 0.026196123789616974 -0.00023677360566654073 0 0.026284115686855843 5.8821649337048742e-05 0 0.02579446994846657 0.00024276811754376002 0 0.026129466449627402 0.00019901625751734712 0 0.025995070629484793 -7.5608913584461769e-05 0 0.02579446994846657 0.00024276811754376002 0 0.025995070629484793 -7.5608913584461769e-05 0 0.025625694201774518 -0.00035190713864840384 0 0.025995070629484793 -7.5608913584461769e-05 0 0.025982751489010789 -0.00048425442490933009 0 0.025625694201774518 -0.00035190713864840384 0 0.025995070629484793 -7.5608913584461769e-05 0 0.026196123789616974 -0.00023677360566654073 0 0.025982751489010789 -0.00048425442490933009 0 0.026196123789616974 -0.00023677360566654073 0 0.025982751489010789 -0.00048425442490933009 0 0.026355793820557628 -0.00050242366543393571 0 0.025982751489010789 -0.00048425442490933009 0 0.026264739558754205 -0.00089129381633316841 0 0.026355793820557628 -0.00050242366543393571 0 0.025982751489010789 -0.00048425442490933009 0 0.026264739558754205 -0.00089129381633316841 0 0.02591987547373845 -0.00084197979462360929 0 0.025982751489010789 -0.00048425442490933009 0 0.025725632462375424 -0.0006219188536003633 0 0.025625694201774518 -0.00035190713864840384 0 0.025982751489010789 -0.00048425442490933009 0 0.025725632462375424 -0.0006219188536003633 0 0.02591987547373845 -0.00084197979462360929 0 0.025725632462375424 -0.0006219188536003633 0 0.02591987547373845 -0.00084197979462360929 0 0.025646584416060533 -0.00084402402862165905 0 0.025533529934592195 -0.00063872753029015712 0 0.025272360762407658 -0.00050885524298995401 0 0.025434286824044489 -0.00086639909670525178 0 0.025533529934592195 -0.00063872753029015712 0 0.025625694201774518 -0.00035190713864840384 0 0.025272360762407658 -0.00050885524298995401 0 0.025725632462375424 -0.0006219188536003633 0 0.025533529934592195 -0.00063872753029015712 0 0.025646584416060533 -0.00084402402862165905 0 0.025725632462375424 -0.0006219188536003633 0 0.025533529934592195 -0.00063872753029015712 0 0.025625694201774518 -0.00035190713864840384 0 0.024953391066677627 -0.00040693675246230871 0 0.025302497254241454 -0.00011107608567891313 0 0.025272360762407658 -0.00050885524298995401 0 0.025302497254241454 -0.00011107608567891313 0 0.025625694201774518 -0.00035190713864840384 0 0.025272360762407658 -0.00050885524298995401 0 0.025033304730923828 -0.00072556766131131906 0 0.025272360762407658 -0.00050885524298995401 0 0.025434286824044489 -0.00086639909670525178 0 0.030051828807470395 -0.00020996298326038444 0 0.029992925950887456 -0.00047921080146202006 0 0.034987900479476003 1.1447677893120866e-05 0 0.034989965006307668 5.4497943902127282e-06 0 0.034992635436439268 4.4928123645346429e-06 0 0.034989965006307668 5.4497943902127282e-06 0 0.034992360543054102 3.0615851809769433e-06 0 0.034989303220511643 2.1123130279364822e-06 0 0.029992925950887456 -0.00047921080146202006 0 0.02906004773754271 -0.00064147596683488913 0 0.025533529934592195 -0.00063872753029015712 0 0.025434286824044489 -0.00086639909670525178 0 0.025646584416060533 -0.00084402402862165905 0 0.034989965006307668 5.4497943902127282e-06 0 0.034992360543054102 3.0615851809769433e-06 0 0.034992635436439268 4.4928123645346429e-06 0 0.034992360543054102 3.0615851809769433e-06 0 0.034992635436439268 4.4928123645346429e-06 0 0.034995926780502715 1.8673469661481118e-06 0 0.034993444528535436 2.7515095548415899e-06 0 0.034992635436439268 4.4928123645346429e-06 0 0.034995926780502715 1.8673469661481118e-06 0 0.034993444528535436 2.7515095548415899e-06 0 0.034995926780502715 1.8673469661481118e-06 0 0.034999994662744789 6.0889528178657767e-10 0 0.034995926780502715 1.8673469661481118e-06 0 0.034999996677644238 8.4534092433277067e-10 0 0.034994693650499377 1.5696882943064966e-06 0 0.034992360543054102 3.0615851809769433e-06 0 0.034995926780502715 1.8673469661481118e-06 0 0.034994693650499377 1.5696882943064966e-06 0 0.034995926780502715 1.8673469661481118e-06 0 0.034999996677644238 8.4534092433277067e-10 0 0.034999994662744789 6.0889528178657767e-10 0 0.034996570122122886 9.3259434373198427e-07 0 0.034999987324322648 3.4388698703723981e-09 0 0.03499325751961916 1.0859703367408674e-06 0 0.034997014720872098 1.0993745737177846e-06 0 0.033657738264159694 0.00010440846495082238 0 0.034999996677644238 8.4534092433277067e-10 0 0.034996570122122886 9.3259434373198427e-07 0 0.034994693650499377 1.5696882943064966e-06 0 0.034999996677644238 8.4534092433277067e-10 0 0.034996570122122886 9.3259434373198427e-07 0 0.034999987324322648 3.4388698703723981e-09 0 0.034996570122122886 9.3259434373198427e-07 0 0.034993066441889695 6.2740307418965211e-07 0 0.03499325751961916 1.0859703367408674e-06 0 0.034994693650499377 1.5696882943064966e-06 0 0.034993066441889695 6.2740307418965211e-07 0 0.034990212560530774 2.9328560584453605e-07 0 0.034996570122122886 9.3259434373198427e-07 0 0.034994693650499377 1.5696882943064966e-06 0 0.034993066441889695 6.2740307418965211e-07 0 0.030476959303995722 -0.00059593236830316257 0 0.02906004773754271 -0.00064147596683488913 0 0.034994693650499377 1.5696882943064966e-06 0 0.034990212560530774 2.9328560584453605e-07 0 0.034989303220511643 2.1123130279364822e-06 0 0.026293367867305989 -0.0016516938999712944 0 0.02572228375826147 -0.00125823016150862 0 0.026301600278119078 -0.0013743873255247592 0 0.034992360543054102 3.0615851809769433e-06 0 0.034994693650499377 1.5696882943064966e-06 0 0.034989303220511643 2.1123130279364822e-06 0 0.025434286824044489 -0.00086639909670525178 0 0.025856166795601144 -0.0010038759937668746 0 0.025646584416060533 -0.00084402402862165905 0 0.02591987547373845 -0.00084197979462360929 0 0.025892192036280397 -0.0011516486793843523 0 0.025646584416060533 -0.00084402402862165905 0 0.02906004773754271 -0.00064147596683488913 0 0.028262944919193678 -0.00034802393974163118 0 0.025892192036280397 -0.0011516486793843523 0 0.026301600278119078 -0.0013743873255247592 0 0.026131454014884696 -0.0010819897149040821 0 0.02906004773754271 -0.00064147596683488913 0 0.028124430638070397 -0.00059061469798632547 0 0.026301600278119078 -0.0013743873255247592 0 0.026131454014884696 -0.0010819897149040821 0 0.026354100058224771 -0.0011670943927320641 0 0.02591987547373845 -0.00084197979462360929 0 0.025892192036280397 -0.0011516486793843523 0 0.026131454014884696 -0.0010819897149040821 0 0.026264739558754205 -0.00089129381633316841 0 0.02591987547373845 -0.00084197979462360929 0 0.026131454014884696 -0.0010819897149040821 0 0.026264739558754205 -0.00089129381633316841 0 0.026131454014884696 -0.0010819897149040821 0 0.026354100058224771 -0.0011670943927320641 0 0.026264739558754205 -0.00089129381633316841 0 0.026354100058224771 -0.0011670943927320641 0 0.026583321146432286 -0.001151267927908524 0 0.026264739558754205 -0.00089129381633316841 0 0.026583321146432286 -0.001151267927908524 0 0.02664487196887716 -0.00082016060584654492 0 0.026583321146432286 -0.001151267927908524 0 0.026901061148927197 -0.001115917022523048 0 0.02664487196887716 -0.00082016060584654492 0 0.026583321146432286 -0.001151267927908524 0 0.026808399571363085 -0.0014847632604590671 0 0.026527946321787364 -0.0014269163703638638 0 0.026583321146432286 -0.001151267927908524 0 0.026808399571363085 -0.0014847632604590671 0 0.026901061148927197 -0.001115917022523048 0 0.026354100058224771 -0.0011670943927320641 0 0.026583321146432286 -0.001151267927908524 0 0.026527946321787364 -0.0014269163703638638 0 0.026301600278119078 -0.0013743873255247592 0 0.026354100058224771 -0.0011670943927320641 0 0.026527946321787364 -0.0014269163703638638 0 0.026808399571363085 -0.0014847632604590671 0 0.027391788404752686 -0.0013620341742545733 0 0.026901061148927197 -0.001115917022523048 0 0.027391788404752686 -0.0013620341742545733 0 0.026901061148927197 -0.001115917022523048 0 0.027138585211871898 -0.00073714003518654298 0 0.03199472530688513 -0.00028188309726632853 0 0.031986283704076676 -0.00018048700821335888 0 0.026808399571363085 -0.0014847632604590671 0 0.027391788404752686 -0.0013620341742545733 0 0.026791035889559247 -0.0019960217225179259 0 0.0303619636449401 0.0010790197463318486 0 0.030227554268921868 0.0011690453447228226 0 0.029692077341822453 0.00085464681621851034 0 0.029804743766626441 0.00027996386084189765 0 0.0303619636449401 0.0010790197463318486 0 0.029692077341822453 0.00085464681621851034 0 0.029746741371216592 -0.00076668896306674957 0 0.031586087131716678 -0.00030673093598093107 0 0.030476959303995722 -0.00059593236830316257 0 0.031586087131716678 -0.00030673093598093107 0 0.026293367867305989 -0.0016516938999712944 0 0.026618275775513449 -0.0016674448643504017 0 0.026791035889559247 -0.0019960217225179259 0 0.034993066441889695 6.2740307418965211e-07 0 0.034990212560530774 2.9328560584453605e-07 0 0.034988512396482721 -3.7126057542234013e-07 0 0.026808399571363085 -0.0014847632604590671 0 0.026618275775513449 -0.0016674448643504017 0 0.026791035889559247 -0.0019960217225179259 0 0.026293367867305989 -0.0016516938999712944 0 0.026527946321787364 -0.0014269163703638638 0 0.026618275775513449 -0.0016674448643504017 0 0.026293367867305989 -0.0016516938999712944 0 0.026301600278119078 -0.0013743873255247592 0 0.026527946321787364 -0.0014269163703638638 0 0.026808399571363085 -0.0014847632604590671 0 0.026527946321787364 -0.0014269163703638638 0 0.026618275775513449 -0.0016674448643504017 0 0.034993066441889695 6.2740307418965211e-07 0 0.034988512396482721 -3.7126057542234013e-07 0 0.03499325751961916 1.0859703367408674e-06 0 0.034996755388659963 -2.1078439286744069e-06 0 0.034994891348498945 -3.4607855804675187e-06 0 0.034998246960407535 -1.313603203533723e-06 0 0.031586087131716678 -0.00030673093598093107 0 0.033657738264159694 0.00010440846495082238 0 0.034994456316736824 -4.5120417326829359e-06 0 0.034994891348498945 -3.4607855804675187e-06 0 0.034998246960407535 -1.313603203533723e-06 0 0.032874085759627247 -2.838358269082279e-05 0 0.032537812913230268 0.00019659940282500067 0 0.032386013867945457 -0.00031709879535056219 0 0.031586087131716678 -0.00030673093598093107 0 0.03199472530688513 -0.00028188309726632853 0 0.034994456316736824 -4.5120417326829359e-06 0 0.034994891348498945 -3.4607855804675187e-06 0 0.034992997947967903 -4.1018707396347939e-06 0 0.034994891348498945 -3.4607855804675187e-06 0 0.034994744723193486 -3.6801471204561641e-06 0 0.034995772247911033 -2.6540618198054019e-06 0 0.032036708666156759 -0.00026337195848309913 0 0.03199472530688513 -0.00028188309726632853 0 0.03199472530688513 -0.00028188309726632853 0 0.033212786664154302 -0.00031288428442235067 0 0.034994744723193486 -3.6801471204561641e-06 0 0.034994292760182316 -2.6270657378081985e-06 0 0.034995772247911033 -2.6540618198054019e-06 0 0.034996755388659963 -2.1078439286744069e-06 0 0.034995772247911033 -2.6540618198054019e-06 0 0.034997785204420429 -1.1933020613555087e-06 0 0.034994292760182316 -2.6270657378081985e-06 0 0.034995772247911033 -2.6540618198054019e-06 0 0.034997785204420429 -1.1933020613555087e-06 0 0.034996755388659963 -2.1078439286744069e-06 0 0.034994891348498945 -3.4607855804675187e-06 0 0.034995772247911033 -2.6540618198054019e-06 0 0.034994292760182316 -2.6270657378081985e-06 0 0.034997785204420429 -1.1933020613555087e-06 0 0.034999986370486277 -1.6650083079144632e-09 0 0.033212786664154302 -0.00031288428442235067 0 0.034996162700558033 3.1488889340552633e-07 0 0.035000003532419596 1.9793359637822023e-10 0 0.034997785204420429 -1.1933020613555087e-06 0 0.034999986370486277 -1.6650083079144632e-09 0 0.035000003532419596 1.9793359637822023e-10 0 0.034997785204420429 -1.1933020613555087e-06 0 0.034998246960407535 -1.313603203533723e-06 0 0.034996755388659963 -2.1078439286744069e-06 0 0.034997785204420429 -1.1933020613555087e-06 0 0.034998246960407535 -1.313603203533723e-06 0 0.035000688925519753 -1.8679454096302969e-07 0 0.034997676536323678 3.4748637268202486e-07 0 0.034886127247343038 -6.7835727308630839e-06 0 0.034997676536323678 3.4748637268202486e-07 0 0.033447283920096021 0.00014143817409459529 0 0.031287299683490949 -5.0913321447663276e-07 0 0.034997676536323678 3.4748637268202486e-07 0 0.034886127247343038 -6.7835727308630839e-06 0 0.033447283920096021 0.00014143817409459529 0 0.034886127247343038 -6.7835727308630839e-06 0 0.033709927970515842 3.1715231598815561e-07 0 0.033447283920096021 0.00014143817409459529 0 0.03379472066245319 -0.00035559359367894901 0 0.033646883791686816 -0.0003486258649108422 0 0.034977749495328857 -7.0505550544496957e-05 0 0.035000688925519753 -1.8679454096302969e-07 0 0.034932317538003646 -3.9283635693628328e-05 0 0.035000688925519753 -1.8679454096302969e-07 0 0.034886127247343038 -6.7835727308630839e-06 0 0.034932317538003646 -3.9283635693628328e-05 0 0.033212786664154302 -0.00031288428442235067 0 0.033646883791686816 -0.0003486258649108422 0 0.033212786664154302 -0.00031288428442235067 0 0.031986283704076676 -0.00018048700821335888 0 0.033709927970515842 3.1715231598815561e-07 0 0.033504104268676602 9.861063110365407e-05 0 0.033447283920096021 0.00014143817409459529 0 0.033478277659639427 8.7338342301226897e-05 0 0.033504104268676602 9.861063110365407e-05 0 0.033412778011409815 1.8420275679787754e-05 0 0.033478277659639427 8.7338342301226897e-05 0 0.033709927970515842 3.1715231598815561e-07 0 0.033504104268676602 9.861063110365407e-05 0 0.033504104268676602 9.861063110365407e-05 0 0.033447283920096021 0.00014143817409459529 0 0.033412778011409815 1.8420275679787754e-05 0 0.033447283920096021 0.00014143817409459529 0 0.032772999011771289 -0.0001448333530686362 0 0.031287299683490949 -5.0913321447663276e-07 0 0.033447283920096021 0.00014143817409459529 0 0.032772999011771289 -0.0001448333530686362 0 0.033412778011409815 1.8420275679787754e-05 0 0.031553938986850306 -0.00016047452484573425 0 0.031986283704076676 -0.00018048700821335888 0 0.031986283704076676 -0.00018048700821335888 0 0.031220237364766989 -0.00039772176633973301 0 0.029804743766626441 0.00027996386084189765 0 0.029692077341822453 0.00085464681621851034 0 0.029278867578533128 8.6369767749822903e-05 0 0.029872325394780946 -0.0010376157549013723 0 0.029052821820466153 -0.0015351216677646959 0 0.029278867578533128 8.6369767749822903e-05 0 0.029872325394780946 -0.0010376157549013723 0 0.031279991128981124 -1.8384557415655954e-06 0 0.029278867578533128 8.6369767749822903e-05 0 0.031553938986850306 -0.00016047452484573425 0 0.031284086566564381 -6.0359185557460822e-07 0 0.028647491978728162 -0.00013065609028614438 0 0.029220610641730042 4.0416488715263415e-07 0 0.029278867578533128 8.6369767749822903e-05 0 0.031279991128981124 -1.8384557415655954e-06 0 0.029220610641730042 4.0416488715263415e-07 0 0.029278867578533128 8.6369767749822903e-05 0 0.028647491978728162 -0.00013065609028614438 0 0.029220610641730042 4.0416488715263415e-07 0 0.027622544016094413 0.00014778139401946112 0 0.028647491978728162 -0.00013065609028614438 0 0.027592449652646456 5.3049814659480554e-05 0 0.027622544016094413 0.00014778139401946112 0 0.028647491978728162 -0.00013065609028614438 0 0.027592449652646456 5.3049814659480554e-05 0 0.02728931475903159 -0.00020885292938477862 0 0.027391788404752686 -0.0013620341742545733 0 0.028647491978728162 -0.00013065609028614438 0 0.027138585211871898 -0.00073714003518654298 0 0.029804743766626441 0.00027996386084189765 0 0.028647491978728162 -0.00013065609028614438 0 0.029278867578533128 8.6369767749822903e-05 0 0.029746741371216592 -0.00076668896306674957 0 0.029462827828631841 -0.00056230906763199277 0 0.028647491978728162 -0.00013065609028614438 0 0.027138585211871898 -0.00073714003518654298 0 0.02728931475903159 -0.00020885292938477862 0 0.026901061148927197 -0.001115917022523048 0 0.027138585211871898 -0.00073714003518654298 0 0.02664487196887716 -0.00082016060584654492 0 0.027138585211871898 -0.00073714003518654298 0 0.02664487196887716 -0.00082016060584654492 0 0.026753449063565356 -0.0003841672468114055 0 0.027138585211871898 -0.00073714003518654298 0 0.02728931475903159 -0.00020885292938477862 0 0.026753449063565356 -0.0003841672468114055 0 0.026264739558754205 -0.00089129381633316841 0 0.02664487196887716 -0.00082016060584654492 0 0.026355793820557628 -0.00050242366543393571 0 0.02664487196887716 -0.00082016060584654492 0 0.026355793820557628 -0.00050242366543393571 0 0.026753449063565356 -0.0003841672468114055 0 0.026196123789616974 -0.00023677360566654073 0 0.026355793820557628 -0.00050242366543393571 0 0.026463643652444382 -0.00018998801304959589 0 0.026355793820557628 -0.00050242366543393571 0 0.026463643652444382 -0.00018998801304959589 0 0.026753449063565356 -0.0003841672468114055 0 0.026463643652444382 -0.00018998801304959589 0 0.026753449063565356 -0.0003841672468114055 0 0.026795427974290759 4.8153048668092117e-05 0 0.026196123789616974 -0.00023677360566654073 0 0.026463643652444382 -0.00018998801304959589 0 0.026284115686855843 5.8821649337048742e-05 0 0.027592449652646456 5.3049814659480554e-05 0 0.02728931475903159 -0.00020885292938477862 0 0.026795427974290759 4.8153048668092117e-05 0 0.02728931475903159 -0.00020885292938477862 0 0.026753449063565356 -0.0003841672468114055 0 0.026795427974290759 4.8153048668092117e-05 0 0.027592449652646456 5.3049814659480554e-05 0 0.026795427974290759 4.8153048668092117e-05 0 0.026881370050790384 0.00026368199223564292 0 0.026795427974290759 4.8153048668092117e-05 0 0.026394113290543 0.00027568144685679392 0 0.026881370050790384 0.00026368199223564292 0 0.026795427974290759 4.8153048668092117e-05 0 0.026284115686855843 5.8821649337048742e-05 0 0.026394113290543 0.00027568144685679392 0 0.026129466449627402 0.00019901625751734712 0 0.026284115686855843 5.8821649337048742e-05 0 0.026394113290543 0.00027568144685679392 0 0.026463643652444382 -0.00018998801304959589 0 0.026795427974290759 4.8153048668092117e-05 0 0.026284115686855843 5.8821649337048742e-05 0 0.026236902192878921 0.00035476875917503121 0 0.026151569666266365 0.00038854834881754479 0 0.026394113290543 0.00027568144685679392 0 0.026151569666266365 0.00038854834881754479 0 0.026129466449627402 0.00019901625751734712 0 0.026394113290543 0.00027568144685679392 0 0.026236902192878921 0.00035476875917503121 0 0.026394113290543 0.00027568144685679392 0 0.026881370050790384 0.00026368199223564292 0 0.026236902192878921 0.00035476875917503121 0 0.026342882472335641 0.00026807805705477404 0 0.026881370050790384 0.00026368199223564292 0 0.026342882472335641 0.00026807805705477404 0 0.027157630409983577 5.0748542872535961e-07 0 0.027622544016094413 0.00014778139401946112 0 0.029220610641730042 4.0416488715263415e-07 0 0.027157630409983577 5.0748542872535961e-07 0 0.027622544016094413 0.00014778139401946112 0 0.027592449652646456 5.3049814659480554e-05 0 0.027622544016094413 0.00014778139401946112 0 0.026881370050790384 0.00026368199223564292 0 0.026342882472335641 0.00026807805705477404 0 0.027622544016094413 0.00014778139401946112 0 0.026881370050790384 0.00026368199223564292 0 0.033061957626110014 -0.00080247119770890266 0 0.032980386686587773 -0.00037885537375984663 0 0.033503312460015276 -0.0010106479954448079 0 0.031181426006698137 0.00077550969537457418 0 0.030756354657351489 0.00072242556387058863 0 0.033061957626110014 -0.00080247119770890266 0 0.033503312460015276 -0.0010106479954448079 0 0.033153126881161704 -0.0012448467626976049 0 0.033061957626110014 -0.00080247119770890266 0 0.032596564768729096 -0.0009946918164141505 0 0.032884849863882876 -0.0011840857807428995 0 0.033061957626110014 -0.00080247119770890266 0 0.032596564768729096 -0.0009946918164141505 0 0.032658576788748166 -0.00058837308623255549 0 0.033061957626110014 -0.00080247119770890266 0 0.032658576788748166 -0.00058837308623255549 0 0.032951837510414868 -0.00039789018197278734 0 0.032513454595437946 -0.00029226379014090086 0 0.032658576788748166 -0.00058837308623255549 0 0.032951837510414868 -0.00039789018197278734 0 0.027258641119629102 0.003123125910376159 0 0.027392172088081767 0.003160195344851395 0 0.027339376457795817 0.0026634307847602161 0 0.027258641119629102 0.003123125910376159 0 0.027392172088081767 0.003160195344851395 0 0.02740808982483085 0.0032835399650837614 0 0.031410013854305273 0.00029352805194008557 0 0.031181426006698137 0.00077550969537457418 0 0.027392172088081767 0.003160195344851395 0 0.027537637804591245 0.003116159111212513 0 0.027339376457795817 0.0026634307847602161 0 0.027392172088081767 0.003160195344851395 0 0.027537637804591245 0.003116159111212513 0 0.027509694670826337 0.0032788151471707739 0 0.027537637804591245 0.003116159111212513 0 0.027699131543740263 0.0032787743035826568 0 0.027509694670826337 0.0032788151471707739 0 0.027761570913582067 0.0030298457501815989 0 0.027699131543740263 0.0032787743035826568 0 0.028056085848359252 0.0032072288108424768 0 0.027537637804591245 0.003116159111212513 0 0.027761570913582067 0.0030298457501815989 0 0.027699131543740263 0.0032787743035826568 0 0.027892488735805757 0.002717055553743822 0 0.027339376457795817 0.0026634307847602161 0 0.028102953020583066 0.0022764900760038269 0 0.027761570913582067 0.0030298457501815989 0 0.027892488735805757 0.002717055553743822 0 0.027339376457795817 0.0026634307847602161 0 0.027761570913582067 0.0030298457501815989 0 0.027892488735805757 0.002717055553743822 0 0.028258361833835913 0.0028540678062112862 0 0.027892488735805757 0.002717055553743822 0 0.028102953020583066 0.0022764900760038269 0 0.028258361833835913 0.0028540678062112862 0 0.027537637804591245 0.003116159111212513 0 0.027761570913582067 0.0030298457501815989 0 0.027339376457795817 0.0026634307847602161 0 0.033503312460015276 -0.0010106479954448079 0 0.033462288510196482 -0.0014452783735751985 0 0.033905627388543275 -0.0016550787890344438 0 0.030756354657351489 0.00072242556387058863 0 0.031038861351980446 7.8539732146221445e-05 0 0.033503312460015276 -0.0010106479954448079 0 0.033462288510196482 -0.0014452783735751985 0 0.033153126881161704 -0.0012448467626976049 0 0.027339376457795817 0.0026634307847602161 0 0.028102953020583066 0.0022764900760038269 0 0.027862663973174467 0.0015841791562630815 0 0.033905627388543275 -0.0016550787890344438 0 0.03344906986214824 -0.0017584301153532409 0 0.03389095425559234 -0.0018420495366959179 0 0.033462288510196482 -0.0014452783735751985 0 0.033905627388543275 -0.0016550787890344438 0 0.03344906986214824 -0.0017584301153532409 0 0.033462288510196482 -0.0014452783735751985 0 0.03344906986214824 -0.0017584301153532409 0 0.033196856346962102 -0.0014786847879289431 0 0.03429529915970219 -0.0018342940105029769 0 0.034110907987152266 -0.0018080635719706745 0 0.034172458486656301 -0.0018005978030055099 0 0.03344906986214824 -0.0017584301153532409 0 0.033196856346962102 -0.0014786847879289431 0 0.03276892675251545 -0.0014871166679947222 0 0.03429529915970219 -0.0018342940105029769 0 0.034096477263842254 -0.0016807064807166947 0 0.034110907987152266 -0.0018080635719706745 0 0.033689596472696828 -0.0017295172804792569 0 0.033318287474427152 -0.0015826291048034677 0 0.033462288510196482 -0.0014452783735751985 0 0.033196856346962102 -0.0014786847879289431 0 0.033153126881161704 -0.0012448467626976049 0 0.033196856346962102 -0.0014786847879289431 0 0.033016306860098515 -0.0013606360699425783 0 0.03276892675251545 -0.0014871166679947222 0 0.033061957626110014 -0.00080247119770890266 0 0.033153126881161704 -0.0012448467626976049 0 0.032884849863882876 -0.0011840857807428995 0 0.033196856346962102 -0.0014786847879289431 0 0.033016306860098515 -0.0013606360699425783 0 0.033153126881161704 -0.0012448467626976049 0 0.033016306860098515 -0.0013606360699425783 0 0.033153126881161704 -0.0012448467626976049 0 0.032884849863882876 -0.0011840857807428995 0 0.032596564768729096 -0.0009946918164141505 0 0.032884849863882876 -0.0011840857807428995 0 0.03276892675251545 -0.0014871166679947222 0 0.033886553942434186 -0.0018825451064022358 0 0.034096477263842254 -0.0016807064807166947 0 0.032220817271178065 -0.0012293004422849127 0 0.033016306860098515 -0.0013606360699425783 0 0.032884849863882876 -0.0011840857807428995 0 0.03276892675251545 -0.0014871166679947222 0 0.033886553942434186 -0.0018825451064022358 0 0.034096477263842254 -0.0016807064807166947 0 0.034110907987152266 -0.0018080635719706745 0 0.034110907987152266 -0.0018080635719706745 0 0.034054303211821145 -0.0018243890178241539 0 0.034172458486656301 -0.0018005978030055099 0 0.033886553942434186 -0.0018825451064022358 0 0.034110907987152266 -0.0018080635719706745 0 0.033995985198632186 -0.001840822003795529 0 0.034110907987152266 -0.0018080635719706745 0 0.033995985198632186 -0.001840822003795529 0 0.034054303211821145 -0.0018243890178241539 0 0.033886553942434186 -0.0018825451064022358 0 0.033995985198632186 -0.001840822003795529 0 0.034033909871611978 -0.0018350526369382775 0 0.033995985198632186 -0.001840822003795529 0 0.034033909871611978 -0.0018350526369382775 0 0.034054303211821145 -0.0018243890178241539 0 0.033886553942434186 -0.0018825451064022358 0 0.034033909871611978 -0.0018350526369382775 0 0.034239051628572 -0.0018661167851100396 0 0.033886553942434186 -0.0018825451064022358 0 0.031876375196278409 -0.0023080784628473701 0 0.032220817271178065 -0.0012293004422849127 0 0.033452642530329334 -0.0018594114739323841 0 0.033067956888010626 -0.0019069244587625106 0 0.031876375196278409 -0.0023080784628473701 0 0.031542253079673552 -0.0015135562121594759 0 0.031131595035118663 -0.0018405671650394912 0 0.031876375196278409 -0.0023080784628473701 0 0.031542253079673552 -0.0015135562121594759 0 0.032220817271178065 -0.0012293004422849127 0 0.031542253079673552 -0.0015135562121594759 0 0.032220817271178065 -0.0012293004422849127 0 0.03134712349471433 -0.00070095340443824563 0 0.033318287474427152 -0.0015826291048034677 0 0.032921798732370104 -0.001436275749476443 0 0.032596564768729096 -0.0009946918164141505 0 0.03276892675251545 -0.0014871166679947222 0 0.032220817271178065 -0.0012293004422849127 0 0.031131595035118663 -0.0018405671650394912 0 0.030596043257005788 -0.0016637688437510316 0 0.030717031732293652 -0.0024052597399601924 0 0.030596043257005788 -0.0016637688437510316 0 0.030717031732293652 -0.0024052597399601924 0 0.03017798023456101 -0.0019042271582905964 0 0.030596043257005788 -0.0016637688437510316 0 0.03017798023456101 -0.0019042271582905964 0 0.030130086489024915 -0.0014991206440980696 0 0.031876375196278409 -0.0023080784628473701 0 0.031131595035118663 -0.0018405671650394912 0 0.030717031732293652 -0.0024052597399601924 0 0.033067956888010626 -0.0019069244587625106 0 0.032460501769569244 -0.0018900065854580371 0 0.031542253079673552 -0.0015135562121594759 0 0.031018533584447342 -0.0013514841440266324 0 0.03134712349471433 -0.00070095340443824563 0 0.031542253079673552 -0.0015135562121594759 0 0.031131595035118663 -0.0018405671650394912 0 0.031018533584447342 -0.0013514841440266324 0 0.031131595035118663 -0.0018405671650394912 0 0.031018533584447342 -0.0013514841440266324 0 0.030596043257005788 -0.0016637688437510316 0 0.030596043257005788 -0.0016637688437510316 0 0.030414528141474231 -0.00088313619410631541 0 0.030130086489024915 -0.0014991206440980696 0 0.031018533584447342 -0.0013514841440266324 0 0.030596043257005788 -0.0016637688437510316 0 0.030414528141474231 -0.00088313619410631541 0 0.030414528141474231 -0.00088313619410631541 0 0.03134712349471433 -0.00070095340443824563 0 0.030424780456552017 0.00018118868099097811 0 0.031018533584447342 -0.0013514841440266324 0 0.030414528141474231 -0.00088313619410631541 0 0.03134712349471433 -0.00070095340443824563 0 0.03134712349471433 -0.00070095340443824563 0 0.032191430192684486 -0.00046298022538697323 0 0.031567137498651691 0.00031856416322457982 0 0.032596564768729096 -0.0009946918164141505 0 0.032658576788748166 -0.00058837308623255549 0 0.032191430192684486 -0.00046298022538697323 0 0.032596564768729096 -0.0009946918164141505 0 0.032220817271178065 -0.0012293004422849127 0 0.032191430192684486 -0.00046298022538697323 0 0.032220817271178065 -0.0012293004422849127 0 0.03134712349471433 -0.00070095340443824563 0 0.032191430192684486 -0.00046298022538697323 0 0.032513454595437946 -0.00029226379014090086 0 0.032658576788748166 -0.00058837308623255549 0 0.032191430192684486 -0.00046298022538697323 0 0.032513454595437946 -0.00029226379014090086 0 0.032191430192684486 -0.00046298022538697323 0 0.032389583803537597 5.8793208408071384e-05 0 0.032191430192684486 -0.00046298022538697323 0 0.032389583803537597 5.8793208408071384e-05 0 0.031901741120574721 6.2376476440510039e-06 0 0.031488563870715705 -0.00044001046664520968 0 0.031095143048072225 -0.00022115586623311061 0 0.031901741120574721 6.2376476440510039e-06 0 0.032046153518051942 0.00027663144769530357 0 0.031702226981497189 0.00035241335574830445 0 0.032389583803537597 5.8793208408071384e-05 0 0.031901741120574721 6.2376476440510039e-06 0 0.032046153518051942 0.00027663144769530357 0 0.032389583803537597 5.8793208408071384e-05 0 0.032046153518051942 0.00027663144769530357 0 0.032320037897869636 0.00027916370391395975 0 0.03134712349471433 -0.00070095340443824563 0 0.031567137498651691 0.00031856416322457982 0 0.030424780456552017 0.00018118868099097811 0 0.031095143048072225 -0.00022115586623311061 0 0.030064380316438967 -1.8631631542050977e-05 0 0.031567137498651691 0.00031856416322457982 0 0.030424780456552017 0.00018118868099097811 0 0.030991266674578175 0.001117199956110882 0 0.030424780456552017 0.00018118868099097811 0 0.030991266674578175 0.001117199956110882 0 0.030198174189951566 0.001121879260948257 0 0.030064380316438967 -1.8631631542050977e-05 0 0.02788373241113087 -1.4791488031365242e-05 0 0.030991266674578175 0.001117199956110882 0 0.030223169811990573 0.0017931905244731238 0 0.030198174189951566 0.001121879260948257 0 0.031702226981497189 0.00035241335574830445 0 0.031718114150524786 0.00057083202680727673 0 0.031958746785691196 0.00052048036909716725 0 0.031718114150524786 0.00057083202680727673 0 0.031958746785691196 0.00052048036909716725 0 0.031885571818582426 0.00068577244046734258 0 0.031702226981497189 0.00035241335574830445 0 0.031718114150524786 0.00057083202680727673 0 0.031515343732617371 0.00063797371347608281 0 0.030991266674578175 0.001117199956110882 0 0.030406423454410036 0.0020185190406084002 0 0.030223169811990573 0.0017931905244731238 0 0.02788373241113087 -1.4791488031365242e-05 0 0.028064879934504336 0.00018267049208625861 0 0.032320037897869636 0.00027916370391395975 0 0.032185223839475988 0.00045814451030690964 0 0.03236748545593119 0.00051751113383629124 0 0.032046153518051942 0.00027663144769530357 0 0.032320037897869636 0.00027916370391395975 0 0.032185223839475988 0.00045814451030690964 0 0.032046153518051942 0.00027663144769530357 0 0.031702226981497189 0.00035241335574830445 0 0.031958746785691196 0.00052048036909716725 0 0.032046153518051942 0.00027663144769530357 0 0.032185223839475988 0.00045814451030690964 0 0.031958746785691196 0.00052048036909716725 0 0.031958746785691196 0.00052048036909716725 0 0.032030416796143248 0.00067179794689938618 0 0.032133534806744149 0.00059842893212763227 0 0.031958746785691196 0.00052048036909716725 0 0.031885571818582426 0.00068577244046734258 0 0.032030416796143248 0.00067179794689938618 0 0.032030416796143248 0.00067179794689938618 0 0.032135202934363179 0.00068085104266145488 0 0.032133534806744149 0.00059842893212763227 0 0.032185223839475988 0.00045814451030690964 0 0.031958746785691196 0.00052048036909716725 0 0.032133534806744149 0.00059842893212763227 0 0.032185223839475988 0.00045814451030690964 0 0.032133534806744149 0.00059842893212763227 0 0.032241677951580158 0.00058229359817874905 0 0.032185223839475988 0.00045814451030690964 0 0.032241677951580158 0.00058229359817874905 0 0.03236748545593119 0.00051751113383629124 0 0.032133534806744149 0.00059842893212763227 0 0.032241677951580158 0.00058229359817874905 0 0.032206733571815985 0.00067708321642078188 0 0.032135202934363179 0.00068085104266145488 0 0.032133534806744149 0.00059842893212763227 0 0.032206733571815985 0.00067708321642078188 0 0.032190266870750966 0.00069771662314372827 0 0.032135202934363179 0.00068085104266145488 0 0.032206733571815985 0.00067708321642078188 0 0.032178189387026032 0.00068758450537838019 0 0.032206733571815985 0.00067708321642078188 0 0.032159339108888699 0.00070512377750208354 0 0.030075072232892713 0.00096702759082661297 0 0.029887384831573504 0.00096798785406936743 0 0.032241677951580158 0.00058229359817874905 0 0.032206733571815985 0.00067708321642078188 0 0.032323091590944639 0.00068165852029929792 0 0.029887384831573504 0.00096798785406936743 0 0.028829968149959223 0.0010413234928956792 0 0.032148867194690789 0.00068738719783668152 0 0.032159339108888699 0.00070512377750208354 0 0.032116300608150405 0.00070445026099944712 0 0.029261731263523896 0.0018908177962454436 0 0.030091714926888311 0.001921588328330226 0 0.029505955424723406 0.00067477496386883766 0 0.02741700481184418 0.0034334393959293014 0 0.027401352137456987 0.0034005489275019955 0 0.027443433569786544 0.0033993569814418051 0 0.028829968149959223 0.0010413234928956792 0 0.02989891287790325 0.0013821221870344614 0 0.032241677951580158 0.00058229359817874905 0 0.032323091590944639 0.00068165852029929792 0 0.03236748545593119 0.00051751113383629124 0 0.029887384831573504 0.00096798785406936743 0 0.02989891287790325 0.0013821221870344614 0 0.02741700481184418 0.0034334393959293014 0 0.027443433569786544 0.0033993569814418051 0 0.027492495216095321 0.0034295961265239146 0 0.028829968149959223 0.0010413234928956792 0 0.026552379499952341 0.0010447210893291647 0 0.027443433569786544 0.0033993569814418051 0 0.027462395403629981 0.003376531842310009 0 0.027496968371821091 0.0033808344501403452 0 0.027443433569786544 0.0033993569814418051 0 0.027419019270775117 0.0033766462415689299 0 0.027462395403629981 0.003376531842310009 0 0.027401352137456987 0.0034005489275019955 0 0.027443433569786544 0.0033993569814418051 0 0.027419019270775117 0.0033766462415689299 0 0.027419019270775117 0.0033766462415689299 0 0.027462395403629981 0.003376531842310009 0 0.027428436793229208 0.0033541732942352219 0 0.032320037897869636 0.00027916370391395975 0 0.032451655301266612 0.00056766461746617482 0 0.032544157210005586 0.00013814447751474117 0 0.027401352137456987 0.0034005489275019955 0 0.027419019270775117 0.0033766462415689299 0 0.027365430615103287 0.0033385436887080422 0 0.030271312994586064 0.0012607391121575271 0 0.02989891287790325 0.0013821221870344614 0 0.02989891287790325 0.0013821221870344614 0 0.030325821360609181 0.0015496072704585541 0 0.032389583803537597 5.8793208408071384e-05 0 0.032320037897869636 0.00027916370391395975 0 0.032544157210005586 0.00013814447751474117 0 0.027419019270775117 0.0033766462415689299 0 0.027365430615103287 0.0033385436887080422 0 0.027428436793229208 0.0033541732942352219 0 0.027462395403629981 0.003376531842310009 0 0.027428436793229208 0.0033541732942352219 0 0.027494718900606147 0.0033586637220366857 0 0.027428436793229208 0.0033541732942352219 0 0.02740808982483085 0.0032835399650837614 0 0.027494718900606147 0.0033586637220366857 0 0.027365430615103287 0.0033385436887080422 0 0.027428436793229208 0.0033541732942352219 0 0.02740808982483085 0.0032835399650837614 0 0.027258641119629102 0.003123125910376159 0 0.027365430615103287 0.0033385436887080422 0 0.02740808982483085 0.0032835399650837614 0 0.031181426006698137 0.00077550969537457418 0 0.030325821360609181 0.0015496072704585541 0 0.032603559182772385 -0.00018717530370028601 0 0.032389583803537597 5.8793208408071384e-05 0 0.032544157210005586 0.00013814447751474117 0 0.031181426006698137 0.00077550969537457418 0 0.031963352198630182 6.0184256815283867e-05 0 0.032513454595437946 -0.00029226379014090086 0 0.032951837510414868 -0.00039789018197278734 0 0.032389583803537597 5.8793208408071384e-05 0 0.027575994105088677 0.0033498813096455803 0 0.027699131543740263 0.0032787743035826568 0 0.027618329070287315 0.0033983837004321286 0 0.027699131543740263 0.0032787743035826568 0 0.027618329070287315 0.0033983837004321286 0 0.027758176236371144 0.0033835111532487944 0 0.027575994105088677 0.0033498813096455803 0 0.027699131543740263 0.0032787743035826568 0 0.027509694670826337 0.0032788151471707739 0 0.02740808982483085 0.0032835399650837614 0 0.027509694670826337 0.0032788151471707739 0 0.027494718900606147 0.0033586637220366857 0 0.027575994105088677 0.0033498813096455803 0 0.027509694670826337 0.0032788151471707739 0 0.027494718900606147 0.0033586637220366857 0 0.027392172088081767 0.003160195344851395 0 0.02740808982483085 0.0032835399650837614 0 0.027509694670826337 0.0032788151471707739 0 0.027575994105088677 0.0033498813096455803 0 0.027494718900606147 0.0033586637220366857 0 0.027561992345872078 0.0033787986785021895 0 0.027494718900606147 0.0033586637220366857 0 0.027561992345872078 0.0033787986785021895 0 0.027532987127082464 0.0033717843841124394 0 0.027575994105088677 0.0033498813096455803 0 0.027561992345872078 0.0033787986785021895 0 0.027618329070287315 0.0033983837004321286 0 0.027561992345872078 0.0033787986785021895 0 0.027618329070287315 0.0033983837004321286 0 0.027549316914877067 0.0033762716481018262 0 0.027549316914877067 0.0033762716481018262 0 0.027525923411012114 0.0033410014129150304 0 0.027532987127082464 0.0033717843841124394 0 0.027561992345872078 0.0033787986785021895 0 0.027549316914877067 0.0033762716481018262 0 0.027532987127082464 0.0033717843841124394 0 0.027525923411012114 0.0033410014129150304 0 0.027532987127082464 0.0033717843841124394 0 0.027538541784592512 0.0033496509125871526 0 0.027462395403629981 0.003376531842310009 0 0.027532987127082464 0.0033717843841124394 0 0.027496968371821091 0.0033808344501403452 0 0.027462395403629981 0.003376531842310009 0 0.027494718900606147 0.0033586637220366857 0 0.027532987127082464 0.0033717843841124394 0 0.027532987127082464 0.0033717843841124394 0 0.027496968371821091 0.0033808344501403452 0 0.027538541784592512 0.0033496509125871526 0 0.026552379499952341 0.0010447210893291647 0 0.02603008099212804 0.0012184015693117384 0 0.027624881124255016 0.0032702480557777994 0 0.027538541784592512 0.0033496509125871526 0 0.027514227433891616 0.0032652255356700739 0 0.027443433569786544 0.0033993569814418051 0 0.027496968371821091 0.0033808344501403452 0 0.027492495216095321 0.0034295961265239146 0 0.027496968371821091 0.0033808344501403452 0 0.027492495216095321 0.0034295961265239146 0 0.027538541784592512 0.0033496509125871526 0 0.026552379499952341 0.0010447210893291647 0 0.026508695071288953 0.0014127633529028487 0 0.02603008099212804 0.0012184015693117384 0 0.025522674741412555 0.0014205734495354901 0 0.027491027605022738 0.0032941260167621725 0 0.027514227433891616 0.0032652255356700739 0 0.027448841964622862 0.0032490113844256402 0 0.027525923411012114 0.0033410014129150304 0 0.027491027605022738 0.0032941260167621725 0 0.027538541784592512 0.0033496509125871526 0 0.027491027605022738 0.0032941260167621725 0 0.027538541784592512 0.0033496509125871526 0 0.027514227433891616 0.0032652255356700739 0 0.027525923411012114 0.0033410014129150304 0 0.027491027605022738 0.0032941260167621725 0 0.027409455704053062 0.0032732282378331078 0 0.027491027605022738 0.0032941260167621725 0 0.027448841964622862 0.0032490113844256402 0 0.027409455704053062 0.0032732282378331078 0 0.025522674741412555 0.0014205734495354901 0 0.025728817500616792 0.0025421566816225074 0 0.026144285500044866 0.0034907214921672844 0 0.026449588974343397 0.0035022372187923905 0 0.026217266968936531 0.0035138705630558204 0 0.026081826445696829 0.0034753885449274216 0 0.026144285500044866 0.0034907214921672844 0 0.026217266968936531 0.0035138705630558204 0 0.025570530263627246 0.0014627233245489272 0 0.025522674741412555 0.0014205734495354901 0 0.025728817500616792 0.0025421566816225074 0 0.025818176812914397 0.0028429441219700049 0 0.027409455704053062 0.0032732282378331078 0 0.027501214222285457 0.0034104046169940016 0 0.027206812181307022 0.0034016308564173902 0 0.027549316914877067 0.0033762716481018262 0 0.027525923411012114 0.0033410014129150304 0 0.027409455704053062 0.0032732282378331078 0 0.027549316914877067 0.0033762716481018262 0 0.027409455704053062 0.0032732282378331078 0 0.027501214222285457 0.0034104046169940016 0 0.026449588974343397 0.0035022372187923905 0 0.026777299674264187 0.0034575968472390873 0 0.026309414511327588 0.0035396972815947485 0 0.026449588974343397 0.0035022372187923905 0 0.026777299674264187 0.0034575968472390873 0 0.027206812181307022 0.0034016308564173902 0 0.026449588974343397 0.0035022372187923905 0 0.026309414511327588 0.0035396972815947485 0 0.026217266968936531 0.0035138705630558204 0 0.026017303682072453 0.0035139543506486123 0 0.026081826445696829 0.0034753885449274216 0 0.026217266968936531 0.0035138705630558204 0 0.025809319200402716 0.0035868531085354381 0 0.026017303682072453 0.0035139543506486123 0 0.026309414511327588 0.0035396972815947485 0 0.026017303682072453 0.0035139543506486123 0 0.026309414511327588 0.0035396972815947485 0 0.026217266968936531 0.0035138705630558204 0 0.025809319200402716 0.0035868531085354381 0 0.0258369617433611 0.0037788696897288047 0 0.026399073996134365 0.0035766508048326079 0 0.025809319200402716 0.0035868531085354381 0 0.026309414511327588 0.0035396972815947485 0 0.026399073996134365 0.0035766508048326079 0 0.025309675590085425 0.0041878225756469762 0 0.0258369617433611 0.0037788696897288047 0 0.026394145827069861 0.0035890013257750706 0 0.0258369617433611 0.0037788696897288047 0 0.026394145827069861 0.0035890013257750706 0 0.026399073996134365 0.0035766508048326079 0 0.026811414719901828 0.0034426753341674542 0 0.026399073996134365 0.0035766508048326079 0 0.027024711647698464 0.0033968818658501607 0 0.026394145827069861 0.0035890013257750706 0 0.026811414719901828 0.0034426753341674542 0 0.026399073996134365 0.0035766508048326079 0 0.026777299674264187 0.0034575968472390873 0 0.026309414511327588 0.0035396972815947485 0 0.026399073996134365 0.0035766508048326079 0 0.026777299674264187 0.0034575968472390873 0 0.026399073996134365 0.0035766508048326079 0 0.027024711647698464 0.0033968818658501607 0 0.026777299674264187 0.0034575968472390873 0 0.027024711647698464 0.0033968818658501607 0 0.027319981179175522 0.0033943398137646283 0 0.027024711647698464 0.0033968818658501607 0 0.027366563790192085 0.0033379590709419122 0 0.027319981179175522 0.0033943398137646283 0 0.027366563790192085 0.0033379590709419122 0 0.027319981179175522 0.0033943398137646283 0 0.027654732641594189 0.0033485930746529231 0 0.027024711647698464 0.0033968818658501607 0 0.027247528570819895 0.0032937943642176544 0 0.027485692236881611 0.0032376808242706541 0 0.026811414719901828 0.0034426753341674542 0 0.027024711647698464 0.0033968818658501607 0 0.027247528570819895 0.0032937943642176544 0 0.027024711647698464 0.0033968818658501607 0 0.027366563790192085 0.0033379590709419122 0 0.027485692236881611 0.0032376808242706541 0 0.027247528570819895 0.0032937943642176544 0 0.027485692236881611 0.0032376808242706541 0 0.027714887977809473 0.0031302932404833352 0 0.027485692236881611 0.0032376808242706541 0 0.027905291695379815 0.0030211074585020769 0 0.027714887977809473 0.0031302932404833352 0 0.027485692236881611 0.0032376808242706541 0 0.027796450495226312 0.003072750611203115 0 0.027654732641594189 0.0033485930746529231 0 0.027485692236881611 0.0032376808242706541 0 0.027796450495226312 0.003072750611203115 0 0.027905291695379815 0.0030211074585020769 0 0.027654732641594189 0.0033485930746529231 0 0.027746066518333778 0.0033631281225130175 0 0.029354519894839746 0.0025366009055564289 0 0.027319981179175522 0.0033943398137646283 0 0.027654732641594189 0.0033485930746529231 0 0.027746066518333778 0.0033631281225130175 0 0.027366563790192085 0.0033379590709419122 0 0.027485692236881611 0.0032376808242706541 0 0.027654732641594189 0.0033485930746529231 0 0.027319981179175522 0.0033943398137646283 0 0.027746066518333778 0.0033631281225130175 0 0.027566119953323722 0.0034079931853410058 0 0.027746066518333778 0.0033631281225130175 0 0.027923701632602813 0.0033463008355416727 0 0.027566119953323722 0.0034079931853410058 0 0.027746066518333778 0.0033631281225130175 0 0.027923701632602813 0.0033463008355416727 0 0.028344748362310431 0.0032044073622937699 0 0.027923701632602813 0.0033463008355416727 0 0.027758176236371144 0.0033835111532487944 0 0.028056085848359252 0.0032072288108424768 0 0.027699131543740263 0.0032787743035826568 0 0.027758176236371144 0.0033835111532487944 0 0.028056085848359252 0.0032072288108424768 0 0.027923701632602813 0.0033463008355416727 0 0.027758176236371144 0.0033835111532487944 0 0.027566119953323722 0.0034079931853410058 0 0.027618329070287315 0.0033983837004321286 0 0.027758176236371144 0.0033835111532487944 0 0.027501214222285457 0.0034104046169940016 0 0.027758176236371144 0.0033835111532487944 0 0.027501214222285457 0.0034104046169940016 0 0.027566119953323722 0.0034079931853410058 0 0.027618329070287315 0.0033983837004321286 0 0.027549316914877067 0.0033762716481018262 0 0.027501214222285457 0.0034104046169940016 0 0.027501214222285457 0.0034104046169940016 0 0.027206812181307022 0.0034016308564173902 0 0.027566119953323722 0.0034079931853410058 0 0.026777299674264187 0.0034575968472390873 0 0.027319981179175522 0.0033943398137646283 0 0.027206812181307022 0.0034016308564173902 0 0.027319981179175522 0.0033943398137646283 0 0.027206812181307022 0.0034016308564173902 0 0.027566119953323722 0.0034079931853410058 0 0.029955140489142336 -0.0011249352869346647 0 0.030384845403891501 -0.0025147934315434928 0 0.031271044177572413 -0.00075016511059866956 0 0.028805330442722352 0.0037781802203522672 0 0.028564872030430989 0.0036699544237552653 0 0.02857708297097061 0.0033919703905152588 0 0.026879173704375519 0.0018276702461300762 0 0.028562928474583006 0.0018318813495910807 0 0.02367646198354733 0.0014340798917451159 0 0.02367004059465521 0.0014487428811427803 0 0.023693624841703967 0.0014447343273341509 0 0.028805330442722352 0.0037781802203522672 0 0.028401495671887614 0.003901698015381011 0 0.028564872030430989 0.0036699544237552653 0 0.026879173704375519 0.0018276702461300762 0 0.025707131896790393 0.0029705040713587428 0 0.025707131896790393 0.0029705040713587428 0 0.025182585553566429 0.0032818225294648415 0 0.025707131896790393 0.0029705040713587428 0 0.026794899182701708 0.0034209116647788353 0 0.028401495671887614 0.003901698015381011 0 0.028564872030430989 0.0036699544237552653 0 0.028251336815603632 0.0034851429917793272 0 0.028564872030430989 0.0036699544237552653 0 0.028251336815603632 0.0034851429917793272 0 0.02857708297097061 0.0033919703905152588 0 0.027527336515550581 0.0038328269467643398 0 0.027389963359767299 0.00326957947183681 0 0.026939517742897025 0.0034991967419060886 0 0.027389963359767299 0.00326957947183681 0 0.026939517742897025 0.0034991967419060886 0 0.027069892596494765 0.0033599343394467339 0 0.025309675590085425 0.0041878225756469762 0 0.026939517742897025 0.0034991967419060886 0 0.027395706693457221 0.0041859706760897361 0 0.027527336515550581 0.0038328269467643398 0 0.026939517742897025 0.0034991967419060886 0 0.027261165296395762 0.0039076391954043681 0 0.025652233266863691 0.0036321979013090398 0 0.025182585553566429 0.0032818225294648415 0 0.025309675590085425 0.0041878225756469762 0 0.026394145827069861 0.0035890013257750706 0 0.026939517742897025 0.0034991967419060886 0 0.026394145827069861 0.0035890013257750706 0 0.026939517742897025 0.0034991967419060886 0 0.027069892596494765 0.0033599343394467339 0 0.026811414719901828 0.0034426753341674542 0 0.027247528570819895 0.0032937943642176544 0 0.027069892596494765 0.0033599343394467339 0 0.026394145827069861 0.0035890013257750706 0 0.026811414719901828 0.0034426753341674542 0 0.027069892596494765 0.0033599343394467339 0 0.027247528570819895 0.0032937943642176544 0 0.027069892596494765 0.0033599343394467339 0 0.027506066630331796 0.003222873245299661 0 0.027247528570819895 0.0032937943642176544 0 0.027506066630331796 0.003222873245299661 0 0.027714887977809473 0.0031302932404833352 0 0.027905291695379815 0.0030211074585020769 0 0.027714887977809473 0.0031302932404833352 0 0.02814960578023366 0.0029037106596808368 0 0.027714887977809473 0.0031302932404833352 0 0.02814960578023366 0.0029037106596808368 0 0.028076743241013124 0.0030389783760708098 0 0.027506066630331796 0.003222873245299661 0 0.027714887977809473 0.0031302932404833352 0 0.028076743241013124 0.0030389783760708098 0 0.026794899182701708 0.0034209116647788353 0 0.027046032941557861 0.0033075612456146286 0 0.028251336815603632 0.0034851429917793272 0 0.028076743241013124 0.0030389783760708098 0 0.028348503630796665 0.0029836615546544216 0 0.027389963359767299 0.00326957947183681 0 0.027069892596494765 0.0033599343394467339 0 0.027506066630331796 0.003222873245299661 0 0.027389963359767299 0.00326957947183681 0 0.027506066630331796 0.003222873245299661 0 0.028076743241013124 0.0030389783760708098 0 0.029269600699878509 0.0018365231975431744 0 0.028562928474583006 0.0018318813495910807 0 0.028251336815603632 0.0034851429917793272 0 0.028348503630796665 0.0029836615546544216 0 0.02857708297097061 0.0033919703905152588 0 0.031614078855198811 0.00082358540568554901 0 0.030723781694211413 0.00047877086074663553 0 0.031271044177572413 -0.00075016511059866956 0 0.031614078855198811 0.00082358540568554901 0 0.030723781694211413 0.00047877086074663553 0 0.031141021525059143 0.001148029745912211 0 0.029955140489142336 -0.0011249352869346647 0 0.030723781694211413 0.00047877086074663553 0 0.031271044177572413 -0.00075016511059866956 0 0.031207598801356606 0.0012988574783896476 0 0.031216515577853546 0.0013344299163993521 0 0.030934848128186837 0.0014655256410133898 0 0.031216515577853546 0.0013344299163993521 0 0.03112550406293316 0.0014037881269075791 0 0.030934848128186837 0.0014655256410133898 0 0.03112550406293316 0.0014037881269075791 0 0.030934848128186837 0.0014655256410133898 0 0.030802489143330607 0.0012755107280192374 0 0.030074884735715981 0.0015475660762176472 0 0.030723781694211413 0.00047877086074663553 0 0.030802489143330607 0.0012755107280192374 0 0.030723781694211413 0.00047877086074663553 0 0.030802489143330607 0.0012755107280192374 0 0.031141021525059143 0.001148029745912211 0 0.03112550406293316 0.0014037881269075791 0 0.030802489143330607 0.0012755107280192374 0 0.031141021525059143 0.001148029745912211 0 0.03112550406293316 0.0014037881269075791 0 0.031141021525059143 0.001148029745912211 0 0.031260862813281783 0.0013575793695211635 0 0.031614078855198811 0.00082358540568554901 0 0.031141021525059143 0.001148029745912211 0 0.031260862813281783 0.0013575793695211635 0 0.03112550406293316 0.0014037881269075791 0 0.031260862813281783 0.0013575793695211635 0 0.031210897125946407 0.0014018238672890667 0 0.031216515577853546 0.0013344299163993521 0 0.03112550406293316 0.0014037881269075791 0 0.031210897125946407 0.0014018238672890667 0 0.031260862813281783 0.0013575793695211635 0 0.031210897125946407 0.0014018238672890667 0 0.031120941507169875 0.001605345226756334 0 0.031210897125946407 0.0014018238672890667 0 0.031120941507169875 0.001605345226756334 0 0.031033253249749555 0.0012465781617521114 0 0.031120941507169875 0.001605345226756334 0 0.029927476386482701 0.0014473708631093285 0 0.031033253249749555 0.0012465781617521114 0 0.031614078855198811 0.00082358540568554901 0 0.031260862813281783 0.0013575793695211635 0 0.031120941507169875 0.001605345226756334 0 0.02814960578023366 0.0029037106596808368 0 0.028076743241013124 0.0030389783760708098 0 0.028726131624122256 0.0025590488119102877 0 0.028076743241013124 0.0030389783760708098 0 0.028348503630796665 0.0029836615546544216 0 0.028726131624122256 0.0025590488119102877 0 0.029269600699878509 0.0018365231975431744 0 0.029443611801288933 0.0016456771739989328 0 0.028726131624122256 0.0025590488119102877 0 0.028324322018335724 0.0027554381283201633 0 0.028822195867167878 0.0023311830222050647 0 0.02814960578023366 0.0029037106596808368 0 0.028726131624122256 0.0025590488119102877 0 0.028324322018335724 0.0027554381283201633 0 0.027905291695379815 0.0030211074585020769 0 0.02814960578023366 0.0029037106596808368 0 0.028324322018335724 0.0027554381283201633 0 0.028726131624122256 0.0025590488119102877 0 0.028822195867167878 0.0023311830222050647 0 0.029927476386482701 0.0014473708631093285 0 0.029443611801288933 0.0016456771739989328 0 0.029408833736722539 0.0014113792580125514 0 0.028822195867167878 0.0023311830222050647 0 0.029927476386482701 0.0014473708631093285 0 0.029272841437761859 0.001156289979530632 0 0.029927476386482701 0.0014473708631093285 0 0.030714214913577939 0.0010000853162406536 0 0.031033253249749555 0.0012465781617521114 0 0.029927476386482701 0.0014473708631093285 0 0.030452805190078439 0.0008412711417119165 0 0.030714214913577939 0.0010000853162406536 0 0.029927476386482701 0.0014473708631093285 0 0.030452805190078439 0.0008412711417119165 0 0.029272841437761859 0.001156289979530632 0 0.030452805190078439 0.0008412711417119165 0 0.029272841437761859 0.001156289979530632 0 0.031076354587550984 0.00023104315598578327 0 0.030452805190078439 0.0008412711417119165 0 0.03110159648016577 0.00067420643122719903 0 0.031076354587550984 0.00023104315598578327 0 0.030452805190078439 0.0008412711417119165 0 0.03110159648016577 0.00067420643122719903 0 0.030714214913577939 0.0010000853162406536 0 0.03110159648016577 0.00067420643122719903 0 0.031228866972250177 0.00093336025560637368 0 0.030714214913577939 0.0010000853162406536 0 0.03110159648016577 0.00067420643122719903 0 0.031228866972250177 0.00093336025560637368 0 0.031521884928053676 0.00064166589113935483 0 0.031228866972250177 0.00093336025560637368 0 0.030714214913577939 0.0010000853162406536 0 0.031033253249749555 0.0012465781617521114 0 0.031216515577853546 0.0013344299163993521 0 0.031210897125946407 0.0014018238672890667 0 0.03133243824845424 0.0010912868688184828 0 0.031228866972250177 0.00093336025560637368 0 0.031033253249749555 0.0012465781617521114 0 0.03133243824845424 0.0010912868688184828 0 0.031210897125946407 0.0014018238672890667 0 0.031033253249749555 0.0012465781617521114 0 0.03133243824845424 0.0010912868688184828 0 0.031228866972250177 0.00093336025560637368 0 0.03133243824845424 0.0010912868688184828 0 0.031521884928053676 0.00064166589113935483 0 0.03133243824845424 0.0010912868688184828 0 0.031521884928053676 0.00064166589113935483 0 0.031537779604518056 0.00082856949566899145 0 0.031521884928053676 0.00064166589113935483 0 0.031537779604518056 0.00082856949566899145 0 0.031691976396968739 0.00061015442513860066 0 0.031537779604518056 0.00082856949566899145 0 0.031716531582561512 0.00069951636431602978 0 0.031691976396968739 0.00061015442513860066 0 0.031537779604518056 0.00082856949566899145 0 0.031716531582561512 0.00069951636431602978 0 0.03156193447445222 0.00089649085247079253 0 0.031537779604518056 0.00082856949566899145 0 0.03156193447445222 0.00089649085247079253 0 0.031382676081750917 0.0011032071057260717 0 0.031423155545958523 0.0011087548315299317 0 0.03156193447445222 0.00089649085247079253 0 0.031382676081750917 0.0011032071057260717 0 0.03133243824845424 0.0010912868688184828 0 0.031537779604518056 0.00082856949566899145 0 0.031382676081750917 0.0011032071057260717 0 0.031216515577853546 0.0013344299163993521 0 0.03133243824845424 0.0010912868688184828 0 0.031382676081750917 0.0011032071057260717 0 0.031207598801356606 0.0012988574783896476 0 0.031216515577853546 0.0013344299163993521 0 0.031382676081750917 0.0011032071057260717 0 0.031207598801356606 0.0012988574783896476 0 0.031423155545958523 0.0011087548315299317 0 0.031382676081750917 0.0011032071057260717 0 0.028689461497615254 0.0029038392733357014 0 0.028344748362310431 0.0032044073622937699 0 0.029232477208143936 0.0029718835323059157 0 0.028689461497615254 0.0029038392733357014 0 0.029232477208143936 0.0029718835323059157 0 0.029343168231855031 0.0023481628792009169 0 0.028689461497615254 0.0029038392733357014 0 0.029343168231855031 0.0023481628792009169 0 0.028678376420749288 0.002427426063417195 0 0.028689461497615254 0.0029038392733357014 0 0.028258361833835913 0.0028540678062112862 0 0.028678376420749288 0.002427426063417195 0 0.028102953020583066 0.0022764900760038269 0 0.028258361833835913 0.0028540678062112862 0 0.028678376420749288 0.002427426063417195 0 0.028689461497615254 0.0029038392733357014 0 0.028258361833835913 0.0028540678062112862 0 0.028056085848359252 0.0032072288108424768 0 0.027761570913582067 0.0030298457501815989 0 0.028258361833835913 0.0028540678062112862 0 0.028056085848359252 0.0032072288108424768 0 0.027923701632602813 0.0033463008355416727 0 0.028056085848359252 0.0032072288108424768 0 0.028344748362310431 0.0032044073622937699 0 0.027746066518333778 0.0033631281225130175 0 0.028344748362310431 0.0032044073622937699 0 0.029232477208143936 0.0029718835323059157 0 0.028689461497615254 0.0029038392733357014 0 0.028056085848359252 0.0032072288108424768 0 0.028344748362310431 0.0032044073622937699 0 0.029093750498497124 0.0028653419547314588 0 0.029500154727369977 0.0023277184278848026 0 0.027746066518333778 0.0033631281225130175 0 0.029354519894839746 0.0025366009055564289 0 0.028754261978286486 0.002270752454035423 0 0.028634133139078713 0.0027296710954793201 0 0.028970084115733232 0.0022843764981333101 0 0.027796450495226312 0.003072750611203115 0 0.027654732641594189 0.0033485930746529231 0 0.027881279779604078 0.0025638717138220138 0 0.027796450495226312 0.003072750611203115 0 0.028093437050380234 0.0028133210673557253 0 0.027881279779604078 0.0025638717138220138 0 0.028822195867167878 0.0023311830222050647 0 0.028093437050380234 0.0028133210673557253 0 0.027881279779604078 0.0025638717138220138 0 0.027796450495226312 0.003072750611203115 0 0.027905291695379815 0.0030211074585020769 0 0.028093437050380234 0.0028133210673557253 0 0.027905291695379815 0.0030211074585020769 0 0.028324322018335724 0.0027554381283201633 0 0.028093437050380234 0.0028133210673557253 0 0.028324322018335724 0.0027554381283201633 0 0.028822195867167878 0.0023311830222050647 0 0.028093437050380234 0.0028133210673557253 0 0.029354519894839746 0.0025366009055564289 0 0.029627551048511315 0.0017095502697099668 0 0.030564121841720096 0.0011266856916681994 0 0.028822195867167878 0.0023311830222050647 0 0.027881279779604078 0.0025638717138220138 0 0.029272841437761859 0.001156289979530632 0 0.028970084115733232 0.0022843764981333101 0 0.029618596661486807 0.0013958772970687683 0 0.029354519894839746 0.0025366009055564289 0 0.028754261978286486 0.002270752454035423 0 0.029627551048511315 0.0017095502697099668 0 0.028754261978286486 0.002270752454035423 0 0.029627551048511315 0.0017095502697099668 0 0.029776135368772078 0.00086290514335911588 0 0.029627551048511315 0.0017095502697099668 0 0.030564121841720096 0.0011266856916681994 0 0.029776135368772078 0.00086290514335911588 0 0.029500154727369977 0.0023277184278848026 0 0.030350317978212964 0.0011652598659896011 0 0.030564121841720096 0.0011266856916681994 0 0.030588393731133132 0.00053819644638796035 0 0.031076354587550984 0.00023104315598578327 0 0.029618596661486807 0.0013958772970687683 0 0.029992355489552199 0.00087290583533250693 0 0.030564121841720096 0.0011266856916681994 0 0.030588393731133132 0.00053819644638796035 0 0.029776135368772078 0.00086290514335911588 0 0.030682152504890241 0.0015906289444921676 0 0.029177224263489839 0.0013996929072580021 0 0.030451199587849583 0.000575493287130034 0 0.030682152504890241 0.0015906289444921676 0 0.029343168231855031 0.0023481628792009169 0 0.029177224263489839 0.0013996929072580021 0 0.029343168231855031 0.0023481628792009169 0 0.028678376420749288 0.002427426063417195 0 0.029177224263489839 0.0013996929072580021 0 0.029232477208143936 0.0029718835323059157 0 0.030682152504890241 0.0015906289444921676 0 0.029343168231855031 0.0023481628792009169 0 0.028102953020583066 0.0022764900760038269 0 0.028678376420749288 0.002427426063417195 0 0.029177224263489839 0.0013996929072580021 0 0.028102953020583066 0.0022764900760038269 0 0.027862663973174467 0.0015841791562630815 0 0.029177224263489839 0.0013996929072580021 0 0.027862663973174467 0.0015841791562630815 0 0.029177224263489839 0.0013996929072580021 0 0.029435711535955977 -6.816926165724225e-05 0 0.031038861351980446 7.8539732146221445e-05 0 0.031455975221821732 -0.00052000384508652908 0 0.033905627388543275 -0.0016550787890344438 0 0.033654209374505556 -0.0019446477719972598 0 0.03389095425559234 -0.0018420495366959179 0 0.033654209374505556 -0.0019446477719972598 0 0.03387246533655533 -0.0016324816366093022 0 0.03389095425559234 -0.0018420495366959179 0 0.033654209374505556 -0.0019446477719972598 0 0.03387246533655533 -0.0016324816366093022 0 0.033534529679762122 -0.0013382691703386117 0 0.03387246533655533 -0.0016324816366093022 0 0.033534529679762122 -0.0013382691703386117 0 0.033948328429532548 -0.0012913117426176892 0 0.031455975221821732 -0.00052000384508652908 0 0.031694086516831511 -0.0007539745136518574 0 0.033654209374505556 -0.0019446477719972598 0 0.033534529679762122 -0.0013382691703386117 0 0.032409605922936235 -0.0012022591086697412 0 0.029435711535955977 -6.816926165724225e-05 0 0.032189570718734593 -0.00063938378365571745 0 0.032409605922936235 -0.0012022591086697412 0 0.029177224263489839 0.0013996929072580021 0 0.029435711535955977 -6.816926165724225e-05 0 0.030451199587849583 0.000575493287130034 0 0.029435711535955977 -6.816926165724225e-05 0 0.030451199587849583 0.000575493287130034 0 0.032189570718734593 -0.00063938378365571745 0 0.030350317978212964 0.0011652598659896011 0 0.031272621179914299 7.0432943630010318e-05 0 0.030682152504890241 0.0015906289444921676 0 0.030451199587849583 0.000575493287130034 0 0.032189570718734593 -0.00063938378365571745 0 0.030588393731133132 0.00053819644638796035 0 0.029776135368772078 0.00086290514335911588 0 0.030910201553306933 0.00012209657715191342 0 0.030588393731133132 0.00053819644638796035 0 0.030910201553306933 0.00012209657715191342 0 0.031076354587550984 0.00023104315598578327 0 0.031653574528077752 -2.9527949515698527e-05 0 0.030910201553306933 0.00012209657715191342 0 0.031076354587550984 0.00023104315598578327 0 0.032189570718734593 -0.00063938378365571745 0 0.032840796224023451 -0.0011219916834239946 0 0.032409605922936235 -0.0012022591086697412 0 0.031653574528077752 -2.9527949515698527e-05 0 0.030910201553306933 0.00012209657715191342 0 0.032034434739835395 -0.00017736928300327934 0 0.032840796224023451 -0.0011219916834239946 0 0.032409605922936235 -0.0012022591086697412 0 0.033113203475652601 -0.0010081448734489417 0 0.031272621179914299 7.0432943630010318e-05 0 0.031977589503820777 -0.00034546096743370304 0 0.031653574528077752 -2.9527949515698527e-05 0 0.032034434739835395 -0.00017736928300327934 0 0.032438817890942231 -0.00020933678235008859 0 0.031653574528077752 -2.9527949515698527e-05 0 0.032438817890942231 -0.00020933678235008859 0 0.032258992412815365 -0.00014728208256710475 0 0.032034434739835395 -0.00017736928300327934 0 0.032438817890942231 -0.00020933678235008859 0 0.033412481818138981 -0.00026190906254087076 0 0.032438817890942231 -0.00020933678235008859 0 0.032258992412815365 -0.00014728208256710475 0 0.032843382351038217 -0.00022567704218038313 0 0.031977589503820777 -0.00034546096743370304 0 0.032283461355332645 -0.00032050153363919138 0 0.032840796224023451 -0.0011219916834239946 0 0.033407598069674575 -0.00063569138004215841 0 0.033512985690762442 -0.00077126118307212189 0 0.032840796224023451 -0.0011219916834239946 0 0.033407598069674575 -0.00063569138004215841 0 0.033412481818138981 -0.00026190906254087076 0 0.033407598069674575 -0.00063569138004215841 0 0.033512985690762442 -0.00077126118307212189 0 0.033883016868956242 -0.00047769538966489588 0 0.033512985690762442 -0.00077126118307212189 0 0.034094143498371095 -0.00067143336403504368 0 0.033718011027538922 -0.00096533695446928661 0 0.033512985690762442 -0.00077126118307212189 0 0.034094143498371095 -0.00067143336403504368 0 0.033883016868956242 -0.00047769538966489588 0 0.034094143498371095 -0.00067143336403504368 0 0.033718011027538922 -0.00096533695446928661 0 0.034083260673075988 -0.00098756017830685535 0 0.033718011027538922 -0.00096533695446928661 0 0.034083260673075988 -0.00098756017830685535 0 0.033948328429532548 -0.0012913117426176892 0 0.033534529679762122 -0.0013382691703386117 0 0.033718011027538922 -0.00096533695446928661 0 0.033948328429532548 -0.0012913117426176892 0 0.033534529679762122 -0.0013382691703386117 0 0.033718011027538922 -0.00096533695446928661 0 0.033113203475652601 -0.0010081448734489417 0 0.032840796224023451 -0.0011219916834239946 0 0.033512985690762442 -0.00077126118307212189 0 0.033113203475652601 -0.0010081448734489417 0 0.033534529679762122 -0.0013382691703386117 0 0.032409605922936235 -0.0012022591086697412 0 0.033113203475652601 -0.0010081448734489417 0 0.033512985690762442 -0.00077126118307212189 0 0.033718011027538922 -0.00096533695446928661 0 0.033113203475652601 -0.0010081448734489417 0 0.031926747379478065 0.00030406468621356622 0 0.032019505097685044 8.4953783732640592e-05 0 0.032154766288443791 3.3818691668982736e-05 0 0.031898473284119815 0.00052525782146696509 0 0.031926747379478065 0.00030406468621356622 0 0.032154766288443791 3.3818691668982736e-05 0 0.031898473284119815 0.00052525782146696509 0 0.031926747379478065 0.00030406468621356622 0 0.031807572892907497 0.0005122196657324883 0 0.031716531582561512 0.00069951636431602978 0 0.031807572892907497 0.0005122196657324883 0 0.031691976396968739 0.00061015442513860066 0 0.031521884928053676 0.00064166589113935483 0 0.031691976396968739 0.00061015442513860066 0 0.031800832994627749 0.00042843917198754332 0 0.031807572892907497 0.0005122196657324883 0 0.031691976396968739 0.00061015442513860066 0 0.031800832994627749 0.00042843917198754332 0 0.031926747379478065 0.00030406468621356622 0 0.031807572892907497 0.0005122196657324883 0 0.031800832994627749 0.00042843917198754332 0 0.031926747379478065 0.00030406468621356622 0 0.031800832994627749 0.00042843917198754332 0 0.031770426506557307 0.0003244790951024793 0 0.031521884928053676 0.00064166589113935483 0 0.031800832994627749 0.00042843917198754332 0 0.031770426506557307 0.0003244790951024793 0 0.031521884928053676 0.00064166589113935483 0 0.031770426506557307 0.0003244790951024793 0 0.031483015568235732 0.00036196515570513575 0 0.031770426506557307 0.0003244790951024793 0 0.031824892599161207 0.00015274112827752523 0 0.031483015568235732 0.00036196515570513575 0 0.031770426506557307 0.0003244790951024793 0 0.031824892599161207 0.00015274112827752523 0 0.032019505097685044 8.4953783732640592e-05 0 0.031926747379478065 0.00030406468621356622 0 0.031770426506557307 0.0003244790951024793 0 0.032019505097685044 8.4953783732640592e-05 0 0.031824892599161207 0.00015274112827752523 0 0.032019505097685044 8.4953783732640592e-05 0 0.032101722459169424 -3.4397764786380278e-05 0 0.031667821112934515 0.00012512635314387496 0 0.031801449411390764 -7.4496939844861683e-06 0 0.032101722459169424 -3.4397764786380278e-05 0 0.031824892599161207 0.00015274112827752523 0 0.031667821112934515 0.00012512635314387496 0 0.032101722459169424 -3.4397764786380278e-05 0 0.031824892599161207 0.00015274112827752523 0 0.031667821112934515 0.00012512635314387496 0 0.031483015568235732 0.00036196515570513575 0 0.03110159648016577 0.00067420643122719903 0 0.031521884928053676 0.00064166589113935483 0 0.031483015568235732 0.00036196515570513575 0 0.03110159648016577 0.00067420643122719903 0 0.031483015568235732 0.00036196515570513575 0 0.031076354587550984 0.00023104315598578327 0 0.031667821112934515 0.00012512635314387496 0 0.031483015568235732 0.00036196515570513575 0 0.031076354587550984 0.00023104315598578327 0 0.031667821112934515 0.00012512635314387496 0 0.031076354587550984 0.00023104315598578327 0 0.031801449411390764 -7.4496939844861683e-06 0 0.031653574528077752 -2.9527949515698527e-05 0 0.031076354587550984 0.00023104315598578327 0 0.031801449411390764 -7.4496939844861683e-06 0 0.031801449411390764 -7.4496939844861683e-06 0 0.032258992412815365 -0.00014728208256710475 0 0.032422482716038196 -0.00016015448568692297 0 0.031653574528077752 -2.9527949515698527e-05 0 0.031801449411390764 -7.4496939844861683e-06 0 0.032258992412815365 -0.00014728208256710475 0 0.032258992412815365 -0.00014728208256710475 0 0.032422482716038196 -0.00016015448568692297 0 0.032843382351038217 -0.00022567704218038313 0 0.032422482716038196 -0.00016015448568692297 0 0.032924692744624916 -0.00019101721629767669 0 0.032843382351038217 -0.00022567704218038313 0 0.032422482716038196 -0.00016015448568692297 0 0.032547045317266904 -0.00016979237223450441 0 0.032924692744624916 -0.00019101721629767669 0 0.032422482716038196 -0.00016015448568692297 0 0.032101722459169424 -3.4397764786380278e-05 0 0.032547045317266904 -0.00016979237223450441 0 0.031801449411390764 -7.4496939844861683e-06 0 0.032422482716038196 -0.00016015448568692297 0 0.032101722459169424 -3.4397764786380278e-05 0 0.032101722459169424 -3.4397764786380278e-05 0 0.032271713997603597 -7.2829078899021895e-05 0 0.032547045317266904 -0.00016979237223450441 0 0.032019505097685044 8.4953783732640592e-05 0 0.032101722459169424 -3.4397764786380278e-05 0 0.032271713997603597 -7.2829078899021895e-05 0 0.032547045317266904 -0.00016979237223450441 0 0.03252673182835334 -0.00017258925910458385 0 0.032927710332427994 -0.00016343724935733548 0 0.032271713997603597 -7.2829078899021895e-05 0 0.032547045317266904 -0.00016979237223450441 0 0.03252673182835334 -0.00017258925910458385 0 0.033323835855839347 0.00011801103479575957 0 0.033030271263435766 0.00012404343786633589 0 0.032678899000455237 5.990291665286552e-05 0 0.032958879510473153 4.2887877013138298e-05 0 0.032552025816686911 0.00015661179913967465 0 0.032271713997603597 -7.2829078899021895e-05 0 0.03252673182835334 -0.00017258925910458385 0 0.032154766288443791 3.3818691668982736e-05 0 0.032726441526528559 8.8390341311099838e-05 0 0.033030271263435766 0.00012404343786633589 0 0.032678899000455237 5.990291665286552e-05 0 0.032019505097685044 8.4953783732640592e-05 0 0.032271713997603597 -7.2829078899021895e-05 0 0.032154766288443791 3.3818691668982736e-05 0 0.034992892449875655 6.3446423086998645e-07 0 0.034993277235962759 4.2173370979266504e-07 0 0.034996129857900293 1.9362967231248668e-07 0 0.034995601113860665 8.8735612521803237e-07 0 0.034997532833507011 2.7189419235562895e-07 0 0.033810492041277687 0.00019492527615983673 0 0.034418272723078985 1.8354766722413235e-05 0 0.034992892449875655 6.3446423086998645e-07 0 0.034990290653953988 2.4166175133636662e-06 0 0.034993277235962759 4.2173370979266504e-07 0 0.033323835855839347 0.00011801103479575957 0 0.033030271263435766 0.00012404343786633589 0 0.033583989598174178 0.0002009267756952347 0 0.033013765394526488 0.0006026233830881653 0 0.033810492041277687 0.00019492527615983673 0 0.032958879510473153 4.2887877013138298e-05 0 0.033405103337629444 6.2306684368305674e-05 0 0.03252673182835334 -0.00017258925910458385 0 0.032927710332427994 -0.00016343724935733548 0 0.03324525237411799 -5.7991277601000991e-05 0 0.033323835855839347 0.00011801103479575957 0 0.033583989598174178 0.0002009267756952347 0 0.033974779442779462 0.00019538637662229528 0 0.032927710332427994 -0.00016343724935733548 0 0.03324525237411799 -5.7991277601000991e-05 0 0.033387274628568789 -0.00012814960849642947 0 0.033583989598174178 0.0002009267756952347 0 0.033974779442779462 0.00019538637662229528 0 0.034186922600812852 0.00019030224068273372 0 0.03324525237411799 -5.7991277601000991e-05 0 0.033387274628568789 -0.00012814960849642947 0 0.033929868400239906 -9.7979723368088433e-06 0 0.033387274628568789 -0.00012814960849642947 0 0.033859808718439001 -6.042613257065694e-05 0 0.033929868400239906 -9.7979723368088433e-06 0 0.032927710332427994 -0.00016343724935733548 0 0.033387274628568789 -0.00012814960849642947 0 0.032924692744624916 -0.00019101721629767669 0 0.032547045317266904 -0.00016979237223450441 0 0.032927710332427994 -0.00016343724935733548 0 0.032924692744624916 -0.00019101721629767669 0 0.033387274628568789 -0.00012814960849642947 0 0.032924692744624916 -0.00019101721629767669 0 0.033280326439114417 -0.00018222639971465806 0 0.032924692744624916 -0.00019101721629767669 0 0.032843382351038217 -0.00022567704218038313 0 0.033280326439114417 -0.00018222639971465806 0 0.033387274628568789 -0.00012814960849642947 0 0.033280326439114417 -0.00018222639971465806 0 0.033859808718439001 -6.042613257065694e-05 0 0.033280326439114417 -0.00018222639971465806 0 0.033859808718439001 -6.042613257065694e-05 0 0.033412481818138981 -0.00026190906254087076 0 0.033859808718439001 -6.042613257065694e-05 0 0.034396606635118815 1.3321887586474194e-05 0 0.034308086376165177 -2.0965483839972756e-05 0 0.033859808718439001 -6.042613257065694e-05 0 0.034396606635118815 1.3321887586474194e-05 0 0.033929868400239906 -9.7979723368088433e-06 0 0.034396606635118815 1.3321887586474194e-05 0 0.034999115108170879 3.9978871162655775e-08 0 0.034308086376165177 -2.0965483839972756e-05 0 0.034396606635118815 1.3321887586474194e-05 0 0.034999115108170879 3.9978871162655775e-08 0 0.034616550747478964 7.635311248947568e-05 0 0.034999115108170879 3.9978871162655775e-08 0 0.034616550747478964 7.635311248947568e-05 0 0.034998349055159785 1.3397821100571939e-07 0 0.034396606635118815 1.3321887586474194e-05 0 0.034616550747478964 7.635311248947568e-05 0 0.033929868400239906 -9.7979723368088433e-06 0 0.03324525237411799 -5.7991277601000991e-05 0 0.034616550747478964 7.635311248947568e-05 0 0.033929868400239906 -9.7979723368088433e-06 0 0.033405103337629444 6.2306684368305674e-05 0 0.033660236110974524 0.00010389753863313996 0 0.033974779442779462 0.00019538637662229528 0 0.034616550747478964 7.635311248947568e-05 0 0.034186922600812852 0.00019030224068273372 0 0.034997117239093399 1.4335259115542099e-07 0 0.035000000442030915 -4.1457638100959739e-10 0 0.034999995057555855 9.4469738237448416e-10 0 0.034616550747478964 7.635311248947568e-05 0 0.034186922600812852 0.00019030224068273372 0 0.034998349055159785 1.3397821100571939e-07 0 0.034418272723078985 1.8354766722413235e-05 0 0.034998862585316738 6.1484785530813603e-08 0 0.034999994932825698 6.1083953138719182e-10 0 0.034997532833507011 2.7189419235562895e-07 0 0.034997989390485942 4.9220409256817408e-07 0 0.034999997755591483 3.0953459873668053e-10 0 0.034997357228940804 6.3270334821796018e-07 0 0.034997117239093399 1.4335259115542099e-07 0 0.034999995057555855 9.4469738237448416e-10 0 0.034996129857900293 1.9362967231248668e-07 0 0.034993277235962759 4.2173370979266504e-07 0 0.034997117239093399 1.4335259115542099e-07 0 0.034996129857900293 1.9362967231248668e-07 0 0.034237138676858153 -0.00019046593348309916 0 0.033412481818138981 -0.00026190906254087076 0 0.034452993806710026 -2.286201244283027e-05 0 0.034237138676858153 -0.00019046593348309916 0 0.034671669948747617 -5.4630603870775531e-05 0 0.034377036335433993 -0.00034367278716039313 0 0.034237138676858153 -0.00019046593348309916 0 0.033883016868956242 -0.00047769538966489588 0 0.034377036335433993 -0.00034367278716039313 0 0.034094143498371095 -0.00067143336403504368 0 0.033883016868956242 -0.00047769538966489588 0 0.034377036335433993 -0.00034367278716039313 0 0.034237138676858153 -0.00019046593348309916 0 0.033883016868956242 -0.00047769538966489588 0 0.033412481818138981 -0.00026190906254087076 0 0.033407598069674575 -0.00063569138004215841 0 0.033883016868956242 -0.00047769538966489588 0 0.033412481818138981 -0.00026190906254087076 0 0.032438817890942231 -0.00020933678235008859 0 0.032843382351038217 -0.00022567704218038313 0 0.033412481818138981 -0.00026190906254087076 0 0.032843382351038217 -0.00022567704218038313 0 0.033280326439114417 -0.00018222639971465806 0 0.033412481818138981 -0.00026190906254087076 0 0.033859808718439001 -6.042613257065694e-05 0 0.033412481818138981 -0.00026190906254087076 0 0.034308086376165177 -2.0965483839972756e-05 0 0.033412481818138981 -0.00026190906254087076 0 0.034308086376165177 -2.0965483839972756e-05 0 0.034452993806710026 -2.286201244283027e-05 0 0.034999115108170879 3.9978871162655775e-08 0 0.034308086376165177 -2.0965483839972756e-05 0 0.034999173858352439 2.3726640081614161e-08 0 0.034308086376165177 -2.0965483839972756e-05 0 0.034999173858352439 2.3726640081614161e-08 0 0.034452993806710026 -2.286201244283027e-05 0 0.034999173858352439 2.3726640081614161e-08 0 0.034452993806710026 -2.286201244283027e-05 0 0.034999461759006874 5.8238680327923757e-08 0 0.034237138676858153 -0.00019046593348309916 0 0.034452993806710026 -2.286201244283027e-05 0 0.034671669948747617 -5.4630603870775531e-05 0 0.034999461759006874 5.8238680327923757e-08 0 0.034999729668970546 -4.7682263182075665e-09 0 0.034671669948747617 -5.4630603870775531e-05 0 0.034452993806710026 -2.286201244283027e-05 0 0.034999461759006874 5.8238680327923757e-08 0 0.034671669948747617 -5.4630603870775531e-05 0 0.034999729668970546 -4.7682263182075665e-09 0 0.034883566269737917 -4.745718476996743e-05 0 0.034671669948747617 -5.4630603870775531e-05 0 0.034999729668970546 -4.7682263182075665e-09 0 0.034883566269737917 -4.745718476996743e-05 0 0.034999899438291654 -9.7389184257563851e-09 0 0.034883566269737917 -4.745718476996743e-05 0 0.034888230797125282 -0.00014641099642373695 0 0.034699308403683703 -0.00020988767459697089 0 0.034883566269737917 -4.745718476996743e-05 0 0.034671669948747617 -5.4630603870775531e-05 0 0.034699308403683703 -0.00020988767459697089 0 0.034999899438291654 -9.7389184257563851e-09 0 0.034981755699134129 -4.3567567208897009e-05 0 0.035000030810266418 -2.5941120913551562e-08 0 0.034883566269737917 -4.745718476996743e-05 0 0.034999899438291654 -9.7389184257563851e-09 0 0.034981755699134129 -4.3567567208897009e-05 0 0.034883566269737917 -4.745718476996743e-05 0 0.034981755699134129 -4.3567567208897009e-05 0 0.034888230797125282 -0.00014641099642373695 0 0.034981755699134129 -4.3567567208897009e-05 0 0.035018973072567003 -0.00015299985138007008 0 0.034888230797125282 -0.00014641099642373695 0 0.034882110763781497 -0.00021070635088081273 0 0.034862453001258037 -0.00025289175334525482 0 0.035018973072567003 -0.00015299985138007008 0 0.034888230797125282 -0.00014641099642373695 0 0.034860400943539552 -0.00035655532461988392 0 0.034888230797125282 -0.00014641099642373695 0 0.034860400943539552 -0.00035655532461988392 0 0.034699308403683703 -0.00020988767459697089 0 0.034860400943539552 -0.00035655532461988392 0 0.034699308403683703 -0.00020988767459697089 0 0.034821815658087112 -0.00038616669796559945 0 0.034860400943539552 -0.00035655532461988392 0 0.034821815658087112 -0.00038616669796559945 0 0.034818451915384692 -0.00037241631821327011 0 0.034860400943539552 -0.00035655532461988392 0 0.034818451915384692 -0.00037241631821327011 0 0.034771218831816102 -0.00040761471409435775 0 0.034740718640549888 -0.00037296933676296415 0 0.034860400943539552 -0.00035655532461988392 0 0.034771218831816102 -0.00040761471409435775 0 0.034671669948747617 -5.4630603870775531e-05 0 0.034699308403683703 -0.00020988767459697089 0 0.034377036335433993 -0.00034367278716039313 0 0.034571693526306804 -0.0004545600063221853 0 0.03460177701164336 -0.00064608111709887645 0 0.034699308403683703 -0.00020988767459697089 0 0.034452761799905342 -0.00057555639411465526 0 0.034590297543053046 -0.00068149244995800468 0 0.034699308403683703 -0.00020988767459697089 0 0.034590297543053046 -0.00068149244995800468 0 0.034770325974215519 -0.000625780529182811 0 0.034094143498371095 -0.00067143336403504368 0 0.034377036335433993 -0.00034367278716039313 0 0.034452761799905342 -0.00057555639411465526 0 0.034699308403683703 -0.00020988767459697089 0 0.034377036335433993 -0.00034367278716039313 0 0.034452761799905342 -0.00057555639411465526 0 0.034094143498371095 -0.00067143336403504368 0 0.034452761799905342 -0.00057555639411465526 0 0.034345392695449291 -0.00084504272116985707 0 0.034094143498371095 -0.00067143336403504368 0 0.034345392695449291 -0.00084504272116985707 0 0.034083260673075988 -0.00098756017830685535 0 0.034345392695449291 -0.00084504272116985707 0 0.034083260673075988 -0.00098756017830685535 0 0.034268625375808076 -0.0011674418037060611 0 0.034083260673075988 -0.00098756017830685535 0 0.034268625375808076 -0.0011674418037060611 0 0.033948328429532548 -0.0012913117426176892 0 0.034268625375808076 -0.0011674418037060611 0 0.034532105823844111 -0.0010126732267907502 0 0.034419887359055427 -0.0013995264903015397 0 0.034532105823844111 -0.0010126732267907502 0 0.034727568569562328 -0.0011605999897098501 0 0.034419887359055427 -0.0013995264903015397 0 0.034345392695449291 -0.00084504272116985707 0 0.034268625375808076 -0.0011674418037060611 0 0.034532105823844111 -0.0010126732267907502 0 0.034532105823844111 -0.0010126732267907502 0 0.034590297543053046 -0.00068149244995800468 0 0.034744424840490111 -0.00092309025756633718 0 0.034345392695449291 -0.00084504272116985707 0 0.034532105823844111 -0.0010126732267907502 0 0.034590297543053046 -0.00068149244995800468 0 0.034452761799905342 -0.00057555639411465526 0 0.034345392695449291 -0.00084504272116985707 0 0.034590297543053046 -0.00068149244995800468 0 0.034770325974215519 -0.000625780529182811 0 0.034744424840490111 -0.00092309025756633718 0 0.035118277227766198 -0.0011347967788180504 0 0.03460177701164336 -0.00064608111709887645 0 0.034539730813815374 -0.0010666605640359031 0 0.034590297543053046 -0.00068149244995800468 0 0.034770325974215519 -0.000625780529182811 0 0.034744424840490111 -0.00092309025756633718 0 0.034818451915384692 -0.00037241631821327011 0 0.034816358350513221 -0.00034289667575001912 0 0.034770719650282007 -0.0003721693300984335 0 0.034821815658087112 -0.00038616669796559945 0 0.034818451915384692 -0.00037241631821327011 0 0.034816358350513221 -0.00034289667575001912 0 0.034744424840490111 -0.00092309025756633718 0 0.035118277227766198 -0.0011347967788180504 0 0.034727568569562328 -0.0011605999897098501 0 0.035118277227766198 -0.0011347967788180504 0 0.034727568569562328 -0.0011605999897098501 0 0.034821695945616259 -0.0014364759387457389 0 0.034532105823844111 -0.0010126732267907502 0 0.034744424840490111 -0.00092309025756633718 0 0.034727568569562328 -0.0011605999897098501 0 0.034727568569562328 -0.0011605999897098501 0 0.034821695945616259 -0.0014364759387457389 0 0.034419887359055427 -0.0013995264903015397 0 0.034821695945616259 -0.0014364759387457389 0 0.034339893344251193 -0.0017447020932563643 0 0.034419887359055427 -0.0013995264903015397 0 0.034434015600723261 -0.0013030483275314718 0 0.034392043501458129 -0.0013848326762092877 0 0.034124759448343603 -0.0017573666787593359 0 0.034123998771669994 -0.0017361783292336951 0 0.034143509620511082 -0.0016574345699676002 0 0.034539730813815374 -0.0010666605640359031 0 0.034516450608743601 -0.0011874220862604791 0 0.034539730813815374 -0.0010666605640359031 0 0.034434015600723261 -0.0013030483275314718 0 0.034124759448343603 -0.0017573666787593359 0 0.034161349879193052 -0.0017843834734923155 0 0.034123998771669994 -0.0017361783292336951 0 0.034161349879193052 -0.0017843834734923155 0 0.034123998771669994 -0.0017361783292336951 0 0.034120479265341404 -0.0017850092379627807 0 0.034123998771669994 -0.0017361783292336951 0 0.034087933874832457 -0.0017969618689696284 0 0.034143509620511082 -0.0016574345699676002 0 0.034123998771669994 -0.0017361783292336951 0 0.034120479265341404 -0.0017850092379627807 0 0.034087933874832457 -0.0017969618689696284 0 0.034120479265341404 -0.0017850092379627807 0 0.034054303211821145 -0.0018243890178241539 0 0.034172458486656301 -0.0018005978030055099 0 0.034033909871611978 -0.0018350526369382775 0 0.034054303211821145 -0.0018243890178241539 0 0.034087933874832457 -0.0017969618689696284 0 0.034120479265341404 -0.0017850092379627807 0 0.034054303211821145 -0.0018243890178241539 0 0.034087933874832457 -0.0017969618689696284 0 0.034161349879193052 -0.0017843834734923155 0 0.034227752038336001 -0.0017696478395040124 0 0.034339893344251193 -0.0017447020932563643 0 0.034161349879193052 -0.0017843834734923155 0 0.034120479265341404 -0.0017850092379627807 0 0.034227752038336001 -0.0017696478395040124 0 0.03429529915970219 -0.0018342940105029769 0 0.034227752038336001 -0.0017696478395040124 0 0.034339893344251193 -0.0017447020932563643 0 0.034120479265341404 -0.0017850092379627807 0 0.034227752038336001 -0.0017696478395040124 0 0.034172458486656301 -0.0018005978030055099 0 0.03429529915970219 -0.0018342940105029769 0 0.034227752038336001 -0.0017696478395040124 0 0.034172458486656301 -0.0018005978030055099 0 0.033689596472696828 -0.0017295172804792569 0 0.033783977938360486 -0.001771328733506543 0 0.03429529915970219 -0.0018342940105029769 0 0.034339893344251193 -0.0017447020932563643 0 0.034167004845624627 -0.0016894963599041338 0 0.03429529915970219 -0.0018342940105029769 0 0.034167004845624627 -0.0016894963599041338 0 0.03389095425559234 -0.0018420495366959179 0 0.03387246533655533 -0.0016324816366093022 0 0.034167004845624627 -0.0016894963599041338 0 0.03389095425559234 -0.0018420495366959179 0 0.03387246533655533 -0.0016324816366093022 0 0.034167004845624627 -0.0016894963599041338 0 0.034138881958208078 -0.0014646292255981429 0 0.03387246533655533 -0.0016324816366093022 0 0.033948328429532548 -0.0012913117426176892 0 0.034138881958208078 -0.0014646292255981429 0 0.034268625375808076 -0.0011674418037060611 0 0.033948328429532548 -0.0012913117426176892 0 0.034138881958208078 -0.0014646292255981429 0 0.034268625375808076 -0.0011674418037060611 0 0.034138881958208078 -0.0014646292255981429 0 0.034419887359055427 -0.0013995264903015397 0 0.034339893344251193 -0.0017447020932563643 0 0.034167004845624627 -0.0016894963599041338 0 0.034419887359055427 -0.0013995264903015397 0 0.034167004845624627 -0.0016894963599041338 0 0.034138881958208078 -0.0014646292255981429 0 0.034419887359055427 -0.0013995264903015397 0 0.034851140004039619 -0.0016496105197379449 0 0.034895052183704992 -0.0013949204247547609 0 0.035098322552212631 -0.0015469463639272911 0 0.034851140004039619 -0.0016496105197379449 0 0.034895052183704992 -0.0013949204247547609 0 0.034713308778508735 -0.0015182614641971004 0 0.034895052183704992 -0.0013949204247547609 0 0.034713308778508735 -0.0015182614641971004 0 0.034667693628489323 -0.0013387470517565881 0 0.034895052183704992 -0.0013949204247547609 0 0.035098322552212631 -0.0015469463639272911 0 0.035105383585410307 -0.0013017468625006164 0 0.035280825679000954 -0.0014321301604870577 0 0.035098322552212631 -0.0015469463639272911 0 0.035105383585410307 -0.0013017468625006164 0 0.035280825679000954 -0.0014321301604870577 0 0.035290010606511407 -0.0012262835669845174 0 0.035452102579863601 -0.0013490657830750249 0 0.035280825679000954 -0.0014321301604870577 0 0.035290010606511407 -0.0012262835669845174 0 0.035105383585410307 -0.0013017468625006164 0 0.035280825679000954 -0.0014321301604870577 0 0.035291995064104568 -0.0016385428559085916 0 0.035438667825867763 -0.0015313665319472657 0 0.035280825679000954 -0.0014321301604870577 0 0.035098322552212631 -0.0015469463639272911 0 0.035291995064104568 -0.0016385428559085916 0 0.032460501769569244 -0.0018900065854580371 0 0.032445219433572925 -0.001759637339012621 0 0.035120951457768182 -0.0018899824135218759 0 0.035291995064104568 -0.0016385428559085916 0 0.035506443752898083 -0.0017526135938266227 0 0.035098322552212631 -0.0015469463639272911 0 0.035120951457768182 -0.0018899824135218759 0 0.035291995064104568 -0.0016385428559085916 0 0.034851140004039619 -0.0016496105197379449 0 0.035120951457768182 -0.0018899824135218759 0 0.034616202163593741 -0.0018961652845983794 0 0.032460501769569244 -0.0018900065854580371 0 0.033935122702993759 -0.0019299336838180363 0 0.034239051628572 -0.0018661167851100396 0 0.034402134829163149 -0.0018171700828140055 0 0.034262880664533792 -0.0018067293510130868 0 0.034851140004039619 -0.0016496105197379449 0 0.035098322552212631 -0.0015469463639272911 0 0.035120951457768182 -0.0018899824135218759 0 0.034239051628572 -0.0018661167851100396 0 0.034262880664533792 -0.0018067293510130868 0 0.034087933874832457 -0.0017969618689696284 0 0.034851140004039619 -0.0016496105197379449 0 0.034616202163593741 -0.0018961652845983794 0 0.03463359224034572 -0.001674772651883461 0 0.034616202163593741 -0.0018961652845983794 0 0.034438079750778713 -0.001744925924774453 0 0.03463359224034572 -0.001674772651883461 0 0.034438079750778713 -0.001744925924774453 0 0.034087933874832457 -0.0017969618689696284 0 0.034292711388885518 -0.0017025867363293194 0 0.034033909871611978 -0.0018350526369382775 0 0.034239051628572 -0.0018661167851100396 0 0.034087933874832457 -0.0017969618689696284 0 0.034616202163593741 -0.0018961652845983794 0 0.034438079750778713 -0.001744925924774453 0 0.034087933874832457 -0.0017969618689696284 0 0.033935122702993759 -0.0019299336838180363 0 0.034093547429695802 -0.0019164047607245411 0 0.034087933874832457 -0.0017969618689696284 0 0.034143509620511082 -0.0016574345699676002 0 0.034292711388885518 -0.0017025867363293194 0 0.033854194995871098 -0.0012378308343087274 0 0.034143509620511082 -0.0016574345699676002 0 0.034345475890188451 -0.0013024201951968974 0 0.034143509620511082 -0.0016574345699676002 0 0.034292711388885518 -0.0017025867363293194 0 0.034476018152610567 -0.0015716096041186172 0 0.034143509620511082 -0.0016574345699676002 0 0.034476018152610567 -0.0015716096041186172 0 0.034345475890188451 -0.0013024201951968974 0 0.03463359224034572 -0.001674772651883461 0 0.034713308778508735 -0.0015182614641971004 0 0.034476018152610567 -0.0015716096041186172 0 0.034851140004039619 -0.0016496105197379449 0 0.03463359224034572 -0.001674772651883461 0 0.034713308778508735 -0.0015182614641971004 0 0.034438079750778713 -0.001744925924774453 0 0.03463359224034572 -0.001674772651883461 0 0.034476018152610567 -0.0015716096041186172 0 0.034438079750778713 -0.001744925924774453 0 0.034292711388885518 -0.0017025867363293194 0 0.034476018152610567 -0.0015716096041186172 0 0.034476018152610567 -0.0015716096041186172 0 0.034667693628489323 -0.0013387470517565881 0 0.034345475890188451 -0.0013024201951968974 0 0.034713308778508735 -0.0015182614641971004 0 0.034476018152610567 -0.0015716096041186172 0 0.034667693628489323 -0.0013387470517565881 0 0.034667693628489323 -0.0013387470517565881 0 0.034576724937220873 -0.0011099434819796103 0 0.034921118478500858 -0.0011275937474504577 0 0.034576724937220873 -0.0011099434819796103 0 0.034784900861092552 -0.00086234967753451091 0 0.034921118478500858 -0.0011275937474504577 0 0.034667693628489323 -0.0013387470517565881 0 0.034576724937220873 -0.0011099434819796103 0 0.034345475890188451 -0.0013024201951968974 0 0.033854194995871098 -0.0012378308343087274 0 0.034345475890188451 -0.0013024201951968974 0 0.034260977084496588 -0.000861705693666269 0 0.034576724937220873 -0.0011099434819796103 0 0.034345475890188451 -0.0013024201951968974 0 0.034260977084496588 -0.000861705693666269 0 0.034539730813815374 -0.0010666605640359031 0 0.034624340211631563 -0.0008229577417048523 0 0.034818451915384692 -0.00037241631821327011 0 0.034770719650282007 -0.0003721693300984335 0 0.034771218831816102 -0.00040761471409435775 0 0.034576724937220873 -0.0011099434819796103 0 0.034260977084496588 -0.000861705693666269 0 0.034784900861092552 -0.00086234967753451091 0 0.034260977084496588 -0.000861705693666269 0 0.034784900861092552 -0.00086234967753451091 0 0.0347310860650452 -0.00049627105334373053 0 0.034624340211631563 -0.0008229577417048523 0 0.034683157832849532 -0.00072342516744597666 0 0.034784900861092552 -0.00086234967753451091 0 0.034944262294780822 -0.00070082445394167273 0 0.0347310860650452 -0.00049627105334373053 0 0.034784900861092552 -0.00086234967753451091 0 0.034921118478500858 -0.0011275937474504577 0 0.035097535156375849 -0.00089866866629661612 0 0.034944262294780822 -0.00070082445394167273 0 0.035097535156375849 -0.00089866866629661612 0 0.035062134004140481 -0.00055620419136757264 0 0.034784900861092552 -0.00086234967753451091 0 0.034944262294780822 -0.00070082445394167273 0 0.035097535156375849 -0.00089866866629661612 0 0.034921118478500858 -0.0011275937474504577 0 0.035148975570998331 -0.0011083112255306788 0 0.035097535156375849 -0.00089866866629661612 0 0.034921118478500858 -0.0011275937474504577 0 0.035105383585410307 -0.0013017468625006164 0 0.035148975570998331 -0.0011083112255306788 0 0.034895052183704992 -0.0013949204247547609 0 0.034921118478500858 -0.0011275937474504577 0 0.035105383585410307 -0.0013017468625006164 0 0.034895052183704992 -0.0013949204247547609 0 0.034667693628489323 -0.0013387470517565881 0 0.034921118478500858 -0.0011275937474504577 0 0.035290010606511407 -0.0012262835669845174 0 0.035105383585410307 -0.0013017468625006164 0 0.035148975570998331 -0.0011083112255306788 0 0.035148975570998331 -0.0011083112255306788 0 0.035321406019884698 -0.00099294005167985385 0 0.035097535156375849 -0.00089866866629661612 0 0.035290010606511407 -0.0012262835669845174 0 0.035148975570998331 -0.0011083112255306788 0 0.035321406019884698 -0.00099294005167985385 0 0.035321406019884698 -0.00099294005167985385 0 0.035097535156375849 -0.00089866866629661612 0 0.035354937170877974 -0.00070289240408683289 0 0.035097535156375849 -0.00089866866629661612 0 0.035062134004140481 -0.00055620419136757264 0 0.035354937170877974 -0.00070289240408683289 0 0.03523552693595812 -0.00048759379079630721 0 0.035062134004140481 -0.00055620419136757264 0 0.035354937170877974 -0.00070289240408683289 0 0.03523552693595812 -0.00048759379079630721 0 0.035062134004140481 -0.00055620419136757264 0 0.035023296027937675 -0.00038030444614751876 0 0.034944262294780822 -0.00070082445394167273 0 0.034892733239700421 -0.00044316861562689768 0 0.035062134004140481 -0.00055620419136757264 0 0.034944262294780822 -0.00070082445394167273 0 0.034892733239700421 -0.00044316861562689768 0 0.0347310860650452 -0.00049627105334373053 0 0.034892733239700421 -0.00044316861562689768 0 0.035062134004140481 -0.00055620419136757264 0 0.035023296027937675 -0.00038030444614751876 0 0.034892733239700421 -0.00044316861562689768 0 0.035023296027937675 -0.00038030444614751876 0 0.034934727650212015 -0.00030482465664262329 0 0.035023296027937675 -0.00038030444614751876 0 0.034934727650212015 -0.00030482465664262329 0 0.035046524290549864 -0.00023471677265210136 0 0.035023296027937675 -0.00038030444614751876 0 0.035166232466457253 -0.00033763323664655803 0 0.035046524290549864 -0.00023471677265210136 0 0.035166232466457253 -0.00033763323664655803 0 0.03515014989947312 -0.00021890318865360164 0 0.035427551233068427 -0.00041696852840545241 0 0.035166232466457253 -0.00033763323664655803 0 0.03515014989947312 -0.00021890318865360164 0 0.035046524290549864 -0.00023471677265210136 0 0.03523552693595812 -0.00048759379079630721 0 0.035166232466457253 -0.00033763323664655803 0 0.035427551233068427 -0.00041696852840545241 0 0.03523552693595812 -0.00048759379079630721 0 0.035023296027937675 -0.00038030444614751876 0 0.035166232466457253 -0.00033763323664655803 0 0.034770719650282007 -0.0003721693300984335 0 0.034771218831816102 -0.00040761471409435775 0 0.0347310860650452 -0.00049627105334373053 0 0.034771218831816102 -0.00040761471409435775 0 0.0347310860650452 -0.00049627105334373053 0 0.034785420234786514 -0.00036833159327453248 0 0.034892733239700421 -0.00044316861562689768 0 0.0347310860650452 -0.00049627105334373053 0 0.034785420234786514 -0.00036833159327453248 0 0.034892733239700421 -0.00044316861562689768 0 0.034934727650212015 -0.00030482465664262329 0 0.034785420234786514 -0.00036833159327453248 0 0.034934727650212015 -0.00030482465664262329 0 0.034785420234786514 -0.00036833159327453248 0 0.034885454482806555 -0.0002103792961725721 0 0.034740718640549888 -0.00037296933676296415 0 0.034771218831816102 -0.00040761471409435775 0 0.034785420234786514 -0.00036833159327453248 0 0.034981755699134129 -4.3567567208897009e-05 0 0.035018973072567003 -0.00015299985138007008 0 0.035030064355010826 -3.8867289885858887e-05 0 0.034740718640549888 -0.00037296933676296415 0 0.034785420234786514 -0.00036833159327453248 0 0.03478040155003214 -0.00018343030772707432 0 0.034882110763781497 -0.00021070635088081273 0 0.034926864055713228 -0.00011885922414458972 0 0.034785420234786514 -0.00036833159327453248 0 0.03478040155003214 -0.00018343030772707432 0 0.034885454482806555 -0.0002103792961725721 0 0.034926864055713228 -0.00011885922414458972 0 0.03499992066481631 -1.5696296229518076e-07 0 0.035030064355010826 -3.8867289885858887e-05 0 0.035000042354039924 -5.6198309351064699e-09 0 0.035000030810266418 -2.5941120913551562e-08 0 0.03478040155003214 -0.00018343030772707432 0 0.034885454482806555 -0.0002103792961725721 0 0.034999558845614953 -8.1076109859230697e-10 0 0.034981755699134129 -4.3567567208897009e-05 0 0.035030064355010826 -3.8867289885858887e-05 0 0.035000030810266418 -2.5941120913551562e-08 0 0.035198711769288203 -0.0001021328202228651 0 0.03515014989947312 -0.00021890318865360164 0 0.035427551233068427 -0.00041696852840545241 0 0.035056716159729287 -0.00013304998576467301 0 0.035135725916400372 -0.00011905482774057697 0 0.03515014989947312 -0.00021890318865360164 0 0.035135725916400372 -0.00011905482774057697 0 0.035164485804253819 -0.00011063136678288796 0 0.035031801887189358 -5.9202060495853979e-05 0 0.035056716159729287 -0.00013304998576467301 0 0.035135725916400372 -0.00011905482774057697 0 0.035031801887189358 -5.9202060495853979e-05 0 0.035135725916400372 -0.00011905482774057697 0 0.035198711769288203 -0.0001021328202228651 0 0.03515014989947312 -0.00021890318865360164 0 0.035070440819970163 -7.0880987395507668e-05 0 0.035068245676823817 -7.0881357860465017e-05 0 0.035056716159729287 -0.00013304998576467301 0 0.03515014989947312 -0.00021890318865360164 0 0.035046524290549864 -0.00023471677265210136 0 0.034934727650212015 -0.00030482465664262329 0 0.035046524290549864 -0.00023471677265210136 0 0.034990097453068567 -0.0001416073624100452 0 0.034934727650212015 -0.00030482465664262329 0 0.034885454482806555 -0.0002103792961725721 0 0.034990097453068567 -0.0001416073624100452 0 0.035056716159729287 -0.00013304998576467301 0 0.035046524290549864 -0.00023471677265210136 0 0.034990097453068567 -0.0001416073624100452 0 0.035056716159729287 -0.00013304998576467301 0 0.034990097453068567 -0.0001416073624100452 0 0.035031801887189358 -5.9202060495853979e-05 0 0.034999558845614953 -8.1076109859230697e-10 0 0.035000449591990314 -5.5658461672435355e-08 0 0.035031801887189358 -5.9202060495853979e-05 0 0.034885454482806555 -0.0002103792961725721 0 0.034999558845614953 -8.1076109859230697e-10 0 0.034990097453068567 -0.0001416073624100452 0 0.034999558845614953 -8.1076109859230697e-10 0 0.034990097453068567 -0.0001416073624100452 0 0.035031801887189358 -5.9202060495853979e-05 0 0.035164485804253819 -0.00011063136678288796 0 0.035000449591990314 -5.5658461672435355e-08 0 0.035031801887189358 -5.9202060495853979e-05 0 0.035068245676823817 -7.0881357860465017e-05 0 0.035000143146210479 -9.5895287572072852e-08 0 0.035000060339370732 -5.9410411576121419e-08 0 0.034999999926440366 -7.4092224871509626e-11 0 0.03500000040326666 4.9806440635151797e-11 0 0.035000060339370732 -5.9410411576121419e-08 0 0.03500000040326666 4.9806440635151797e-11 0 0.035000030102643818 -1.7142804522977078e-08 0 0.035068245676823817 -7.0881357860465017e-05 0 0.035028725074184149 -3.4233230648851034e-05 0 0.035045178673191631 5.1004757913877154e-06 0 0.035034623811708653 1.0585027505563422e-05 0 0.035040484610864911 1.5919685960361075e-05 0 0.035045178673191631 5.1004757913877154e-06 0 0.035034623811708653 1.0585027505563422e-05 0 0.035033693907369087 2.614903786444706e-06 0 0.035034623811708653 1.0585027505563422e-05 0 0.035033693907369087 2.614903786444706e-06 0 0.035026356852010471 9.8665466507757898e-06 0 0.03500000040326666 4.9806440635151797e-11 0 0.035000030102643818 -1.7142804522977078e-08 0 0.034999998906663839 -2.8617055244125579e-10 0 0.035033693907369087 2.614903786444706e-06 0 0.035018167405099242 -7.2185482956869672e-07 0 0.035019675882374313 6.3567339695723143e-06 0 0.035028725074184149 -3.4233230648851034e-05 0 0.035014625056716923 -1.8438212548583455e-05 0 0.035000030102643818 -1.7142804522977078e-08 0 0.034999998906663839 -2.8617055244125579e-10 0 0.034999914442846253 -2.7350729306024283e-08 0 0.034999998906663839 -2.8617055244125579e-10 0 0.034999914442846253 -2.7350729306024283e-08 0 0.035000003153450553 6.847338781033587e-10 0 0.035018167405099242 -7.2185482956869672e-07 0 0.035011429138561111 4.8469866485023221e-06 0 0.035019675882374313 6.3567339695723143e-06 0 0.035019675882374313 6.3567339695723143e-06 0 0.035012950637124306 1.3135470265123419e-05 0 0.035026356852010471 9.8665466507757898e-06 0 0.035374590607277247 -5.998530134488555e-05 0 0.035207647495310995 -3.3932160750477734e-05 0 0.035011429138561111 4.8469866485023221e-06 0 0.035019675882374313 6.3567339695723143e-06 0 0.035012950637124306 1.3135470265123419e-05 0 0.035033693907369087 2.614903786444706e-06 0 0.035019675882374313 6.3567339695723143e-06 0 0.035026356852010471 9.8665466507757898e-06 0 0.035034623811708653 1.0585027505563422e-05 0 0.035026356852010471 9.8665466507757898e-06 0 0.035027443006147366 1.8199475592862608e-05 0 0.03501999051932355 1.0748024461883764e-05 0 0.035026356852010471 9.8665466507757898e-06 0 0.035027443006147366 1.8199475592862608e-05 0 0.035374590607277247 -5.998530134488555e-05 0 0.035439722469666951 -0.0002408205212090371 0 0.03640794285892833 -0.00023167774646814227 0 0.036323633323207198 -0.00074256382580190484 0 0.036055854160222348 -0.00057345094682899583 0 0.036323633323207198 -0.00074256382580190484 0 0.036055854160222348 -0.00057345094682899583 0 0.036112378595939403 -0.0010021377634425732 0 0.035034623811708653 1.0585027505563422e-05 0 0.035027443006147366 1.8199475592862608e-05 0 0.035040484610864911 1.5919685960361075e-05 0 0.035439722469666951 -0.0002408205212090371 0 0.035276487967530072 -0.00053661463162285464 0 0.035027443006147366 1.8199475592862608e-05 0 0.035040484610864911 1.5919685960361075e-05 0 0.035036409341702428 2.5813905246975428e-05 0 0.03518381348968997 -0.00026638234467881014 0 0.035276487967530072 -0.00053661463162285464 0 0.03523552693595812 -0.00048759379079630721 0 0.035354937170877974 -0.00070289240408683289 0 0.035427551233068427 -0.00041696852840545241 0 0.035354937170877974 -0.00070289240408683289 0 0.035427551233068427 -0.00041696852840545241 0 0.03567298383234694 -0.0008714207725426783 0 0.035068245676823817 -7.0881357860465017e-05 0 0.03518381348968997 -0.00026638234467881014 0 0.034987824976678884 -2.9806513742760321e-06 0 0.034982245709810872 -5.1374992637013127e-06 0 0.034991720820682248 -1.1562658291272001e-06 0 0.034982245709810872 -5.1374992637013127e-06 0 0.034991720820682248 -1.1562658291272001e-06 0 0.034991057167123099 -3.6682502152964264e-06 0 0.034991720820682248 -1.1562658291272001e-06 0 0.034995626339499132 -1.1864023717453816e-06 0 0.034991057167123099 -3.6682502152964264e-06 0 0.034999992227412909 -2.0501713052759769e-09 0 0.034995626339499132 -1.1864023717453816e-06 0 0.034999995595270346 2.684648465018628e-09 0 0.034991720820682248 -1.1562658291272001e-06 0 0.034995626339499132 -1.1864023717453816e-06 0 0.034999995595270346 2.684648465018628e-09 0 0.034999992227412909 -2.0501713052759769e-09 0 0.034995626339499132 -1.1864023717453816e-06 0 0.034996959581771653 -2.1610950471080601e-06 0 0.034995626339499132 -1.1864023717453816e-06 0 0.034996959581771653 -2.1610950471080601e-06 0 0.034991057167123099 -3.6682502152964264e-06 0 0.034999992227412909 -2.0501713052759769e-09 0 0.034996959581771653 -2.1610950471080601e-06 0 0.03499998875688437 -4.9051032749600159e-09 0 0.034996510832965476 -2.3547839241534434e-06 0 0.034998065736834033 6.1938386042959865e-07 0 0.034990924227691435 5.1451254500699288e-07 0 0.034996959581771653 -2.1610950471080601e-06 0 0.034991057167123099 -3.6682502152964264e-06 0 0.034996510832965476 -2.3547839241534434e-06 0 0.034982245709810872 -5.1374992637013127e-06 0 0.034991057167123099 -3.6682502152964264e-06 0 0.034990924227691435 5.1451254500699288e-07 0 0.034991057167123099 -3.6682502152964264e-06 0 0.034996510832965476 -2.3547839241534434e-06 0 0.034990924227691435 5.1451254500699288e-07 0 0.034996959581771653 -2.1610950471080601e-06 0 0.034996510832965476 -2.3547839241534434e-06 0 0.034997602742292952 -2.4135407405239287e-06 0 0.034996510832965476 -2.3547839241534434e-06 0 0.034997602742292952 -2.4135407405239287e-06 0 0.034997037659701545 -1.6708365214447687e-06 0 0.035197733746247212 -0.00021524624672101614 0 0.035200532647929932 -0.0002389485270016303 0 0.034999998546055192 -2.8529326470725793e-09 0 0.035000383448361802 -7.6870818915581036e-08 0 0.035000003153450553 6.847338781033587e-10 0 0.034996959581771653 -2.1610950471080601e-06 0 0.03499998875688437 -4.9051032749600159e-09 0 0.034997602742292952 -2.4135407405239287e-06 0 0.035000234874068795 -1.6467818185470485e-07 0 0.035131453430092656 -5.0273166852911856e-05 0 0.034999998546055192 -2.8529326470725793e-09 0 0.035000383448361802 -7.6870818915581036e-08 0 0.035002684999022309 4.3760613883468181e-06 0 0.035014625056716923 -1.8438212548583455e-05 0 0.03500927196056982 -1.4273586703572085e-05 0 0.035011429138561111 4.8469866485023221e-06 0 0.035000383448361802 -7.6870818915581036e-08 0 0.035002684999022309 4.3760613883468181e-06 0 0.035018167405099242 -7.2185482956869672e-07 0 0.035011429138561111 4.8469866485023221e-06 0 0.035000383448361802 -7.6870818915581036e-08 0 0.034999914442846253 -2.7350729306024283e-08 0 0.035000383448361802 -7.6870818915581036e-08 0 0.035000003153450553 6.847338781033587e-10 0 0.035374590607277247 -5.998530134488555e-05 0 0.035131453430092656 -5.0273166852911856e-05 0 0.03499897004233464 -1.6772995153085735e-06 0 0.034997602742292952 -2.4135407405239287e-06 0 0.034997037659701545 -1.6708365214447687e-06 0 0.035011429138561111 4.8469866485023221e-06 0 0.035012950637124306 1.3135470265123419e-05 0 0.035002684999022309 4.3760613883468181e-06 0 0.035374590607277247 -5.998530134488555e-05 0 0.035200532647929932 -0.0002389485270016303 0 0.03640794285892833 -0.00023167774646814227 0 0.036633034387213957 -0.00069452895522963012 0 0.036838972159530865 -0.00029052641493129157 0 0.03640794285892833 -0.00023167774646814227 0 0.036323633323207198 -0.00074256382580190484 0 0.036633034387213957 -0.00069452895522963012 0 0.034605464756108414 -0.00015677256149979884 0 0.034685722876581969 1.0094961633060337e-05 0 0.034737188993658887 -0.0001160325088663346 0 0.034605464756108414 -0.00015677256149979884 0 0.034737188993658887 -0.0001160325088663346 0 0.034769803772924913 -0.00024675971561391512 0 0.035079254005671197 -0.00025786716490193483 0 0.035200532647929932 -0.0002389485270016303 0 0.034685722876581969 1.0094961633060337e-05 0 0.034806538277889508 2.5608598124199042e-07 0 0.034737188993658887 -0.0001160325088663346 0 0.035200532647929932 -0.0002389485270016303 0 0.035023546592607833 -0.00016414941113421442 0 0.034806538277889508 2.5608598124199042e-07 0 0.034737188993658887 -0.0001160325088663346 0 0.034849441678255946 -0.00016223896431595081 0 0.034737188993658887 -0.0001160325088663346 0 0.034849441678255946 -0.00016223896431595081 0 0.034769803772924913 -0.00024675971561391512 0 0.034849441678255946 -0.00016223896431595081 0 0.034905968943745369 -0.00010780371934223657 0 0.034904671002427404 -0.00014076175831077159 0 0.034849441678255946 -0.00016223896431595081 0 0.034883829667802464 -0.00023777540757265493 0 0.034904319712710706 -0.00017357683887798953 0 0.034849441678255946 -0.00016223896431595081 0 0.034904671002427404 -0.00014076175831077159 0 0.034904319712710706 -0.00017357683887798953 0 0.034849441678255946 -0.00016223896431595081 0 0.034962139200524663 -1.2987909857583758e-05 0 0.034996331541840654 -1.0978184763362083e-05 0 0.035023546592607833 -0.00016414941113421442 0 0.034992752820730347 -0.00014442601726721233 0 0.034806538277889508 2.5608598124199042e-07 0 0.034849441678255946 -0.00016223896431595081 0 0.034962139200524663 -1.2987909857583758e-05 0 0.034911850079221422 -0.00010298704913548624 0 0.034940872303522684 -6.8902983719179573e-05 0 0.034982245709810872 -5.1374992637013127e-06 0 0.034990924227691435 5.1451254500699288e-07 0 0.034962139200524663 -1.2987909857583758e-05 0 0.034987824976678884 -2.9806513742760321e-06 0 0.034962139200524663 -1.2987909857583758e-05 0 0.034996331541840654 -1.0978184763362083e-05 0 0.034987824976678884 -2.9806513742760321e-06 0 0.034982245709810872 -5.1374992637013127e-06 0 0.034962139200524663 -1.2987909857583758e-05 0 0.034849441678255946 -0.00016223896431595081 0 0.034883829667802464 -0.00023777540757265493 0 0.034769803772924913 -0.00024675971561391512 0 0.034874994188916986 -0.0003294302108554759 0 0.034883829667802464 -0.00023777540757265493 0 0.034769803772924913 -0.00024675971561391512 0 0.031773196378472132 -0.00069469744585664856 0 0.031499359522850885 -0.00099193764847674976 0 0.034874994188916986 -0.0003294302108554759 0 0.034769803772924913 -0.00024675971561391512 0 0.034743453282288013 -0.00038186705057022383 0 0.034769803772924913 -0.00024675971561391512 0 0.034647888247175206 -0.00030486429689962583 0 0.034743453282288013 -0.00038186705057022383 0 0.034647888247175206 -0.00030486429689962583 0 0.034592442616898395 -0.00043011149863892367 0 0.034743453282288013 -0.00038186705057022383 0 0.034605464756108414 -0.00015677256149979884 0 0.034769803772924913 -0.00024675971561391512 0 0.034647888247175206 -0.00030486429689962583 0 0.035079254005671197 -0.00025786716490193483 0 0.034445174445720095 -0.00045826238248478833 0 0.036323633323207198 -0.00074256382580190484 0 0.036633034387213957 -0.00069452895522963012 0 0.03642932400439574 -0.0011053611415411833 0 0.034605464756108414 -0.00015677256149979884 0 0.034647888247175206 -0.00030486429689962583 0 0.034522440870153923 -0.00030950620942754998 0 0.034647888247175206 -0.00030486429689962583 0 0.034592442616898395 -0.00043011149863892367 0 0.034522440870153923 -0.00030950620942754998 0 0.027966410434707361 -0.0020355461543912338 0 0.028343054036725539 -0.0019581065205411378 0 0.028113331656262043 -0.0017007523435197092 0 0.027966410434707361 -0.0020355461543912338 0 0.027704929576945918 -0.0017304775835573756 0 0.028113331656262043 -0.0017007523435197092 0 0.027966410434707361 -0.0020355461543912338 0 0.027704929576945918 -0.0017304775835573756 0 0.027511722780010576 -0.0017728279655266823 0 0.0316912079674109 -0.0011960468319901607 0 0.031499359522850885 -0.00099193764847674976 0 0.027511722780010576 -0.0017728279655266823 0 0.027543070640175093 -0.0017470600580389516 0 0.027636627837488537 -0.0015337442050240362 0 0.027704929576945918 -0.0017304775835573756 0 0.027511722780010576 -0.0017728279655266823 0 0.027543070640175093 -0.0017470600580389516 0 0.027704929576945918 -0.0017304775835573756 0 0.027543070640175093 -0.0017470600580389516 0 0.027564945021079486 -0.0017298631635431036 0 0.027543070640175093 -0.0017470600580389516 0 0.027564945021079486 -0.0017298631635431036 0 0.027557887260556996 -0.0018563993045530556 0 0.027543070640175093 -0.0017470600580389516 0 0.027557887260556996 -0.0018563993045530556 0 0.027822624666165707 -0.0019506423167874815 0 0.027543070640175093 -0.0017470600580389516 0 0.027636627837488537 -0.0015337442050240362 0 0.027822624666165707 -0.0019506423167874815 0 0.027687374500078899 -0.00090379168295981688 0 0.027636627837488537 -0.0015337442050240362 0 0.028567193212964775 -0.0011030701532482618 0 0.027687374500078899 -0.00090379168295981688 0 0.027511722780010576 -0.0017728279655266823 0 0.027636627837488537 -0.0015337442050240362 0 0.035756045755924379 -0.0010629762333644588 0 0.03587193811349889 -0.0011756795062974957 0 0.035692919256551749 -0.0011841777494707956 0 0.035756045755924379 -0.0010629762333644588 0 0.035692919256551749 -0.0011841777494707956 0 0.035635872238505784 -0.0010709301455572723 0 0.035756045755924379 -0.0010629762333644588 0 0.035635872238505784 -0.0010709301455572723 0 0.035609596438547733 -0.00094597251194525648 0 0.035756045755924379 -0.0010629762333644588 0 0.03587193811349889 -0.0011756795062974957 0 0.035898735465176607 -0.00094521979834898096 0 0.03587193811349889 -0.0011756795062974957 0 0.035721228665530409 -0.0013365721420761272 0 0.035882595005137866 -0.0014214562998243864 0 0.03587193811349889 -0.0011756795062974957 0 0.035692919256551749 -0.0011841777494707956 0 0.035721228665530409 -0.0013365721420761272 0 0.035692919256551749 -0.0011841777494707956 0 0.035587100153423153 -0.0012835529835917821 0 0.035721228665530409 -0.0013365721420761272 0 0.035587100153423153 -0.0012835529835917821 0 0.035454830946874495 -0.0011756579461842359 0 0.03557280961788252 -0.0011510545699997333 0 0.035692919256551749 -0.0011841777494707956 0 0.035587100153423153 -0.0012835529835917821 0 0.03557280961788252 -0.0011510545699997333 0 0.035290010606511407 -0.0012262835669845174 0 0.035454830946874495 -0.0011756579461842359 0 0.035452102579863601 -0.0013490657830750249 0 0.035587100153423153 -0.0012835529835917821 0 0.035454830946874495 -0.0011756579461842359 0 0.035452102579863601 -0.0013490657830750249 0 0.035290010606511407 -0.0012262835669845174 0 0.035321406019884698 -0.00099294005167985385 0 0.035454830946874495 -0.0011756579461842359 0 0.035321406019884698 -0.00099294005167985385 0 0.035454830946874495 -0.0011756579461842359 0 0.035499743173032242 -0.0010265499000812332 0 0.035692919256551749 -0.0011841777494707956 0 0.03557280961788252 -0.0011510545699997333 0 0.035635872238505784 -0.0010709301455572723 0 0.035454830946874495 -0.0011756579461842359 0 0.03557280961788252 -0.0011510545699997333 0 0.035499743173032242 -0.0010265499000812332 0 0.03557280961788252 -0.0011510545699997333 0 0.035499743173032242 -0.0010265499000812332 0 0.035635872238505784 -0.0010709301455572723 0 0.035609596438547733 -0.00094597251194525648 0 0.03548102804147165 -0.00089069190278811519 0 0.03567298383234694 -0.0008714207725426783 0 0.035354937170877974 -0.00070289240408683289 0 0.03548102804147165 -0.00089069190278811519 0 0.03567298383234694 -0.0008714207725426783 0 0.035499743173032242 -0.0010265499000812332 0 0.035635872238505784 -0.0010709301455572723 0 0.035609596438547733 -0.00094597251194525648 0 0.035321406019884698 -0.00099294005167985385 0 0.035354937170877974 -0.00070289240408683289 0 0.03548102804147165 -0.00089069190278811519 0 0.035499743173032242 -0.0010265499000812332 0 0.035609596438547733 -0.00094597251194525648 0 0.03548102804147165 -0.00089069190278811519 0 0.035321406019884698 -0.00099294005167985385 0 0.035499743173032242 -0.0010265499000812332 0 0.03548102804147165 -0.00089069190278811519 0 0.036055854160222348 -0.00057345094682899583 0 0.03569927453485653 -0.00091657563065331395 0 0.035898735465176607 -0.00094521979834898096 0 0.035756045755924379 -0.0010629762333644588 0 0.03569927453485653 -0.00091657563065331395 0 0.035898735465176607 -0.00094521979834898096 0 0.035756045755924379 -0.0010629762333644588 0 0.035609596438547733 -0.00094597251194525648 0 0.035687057341927973 -0.00087041989494671384 0 0.035314686054512164 -0.00060877240930523786 0 0.035276487967530072 -0.00053661463162285464 0 0.035279738342132307 -0.00054140146088006876 0 0.035276487967530072 -0.00053661463162285464 0 0.036055854160222348 -0.00057345094682899583 0 0.035898735465176607 -0.00094521979834898096 0 0.036112378595939403 -0.0010021377634425732 0 0.03587193811349889 -0.0011756795062974957 0 0.035898735465176607 -0.00094521979834898096 0 0.036112378595939403 -0.0010021377634425732 0 0.036323633323207198 -0.00074256382580190484 0 0.036112378595939403 -0.0010021377634425732 0 0.03642932400439574 -0.0011053611415411833 0 0.03642932400439574 -0.0011053611415411833 0 0.036197602662161113 -0.0012298284972687694 0 0.036221011309866158 -0.0015316123555029458 0 0.036112378595939403 -0.0010021377634425732 0 0.03642932400439574 -0.0011053611415411833 0 0.036197602662161113 -0.0012298284972687694 0 0.03587193811349889 -0.0011756795062974957 0 0.036112378595939403 -0.0010021377634425732 0 0.03602794138924785 -0.0012812484421969826 0 0.036112378595939403 -0.0010021377634425732 0 0.036197602662161113 -0.0012298284972687694 0 0.03602794138924785 -0.0012812484421969826 0 0.03587193811349889 -0.0011756795062974957 0 0.03602794138924785 -0.0012812484421969826 0 0.035882595005137866 -0.0014214562998243864 0 0.036197602662161113 -0.0012298284972687694 0 0.03602794138924785 -0.0012812484421969826 0 0.036221011309866158 -0.0015316123555029458 0 0.03602794138924785 -0.0012812484421969826 0 0.036221011309866158 -0.0015316123555029458 0 0.035882595005137866 -0.0014214562998243864 0 0.032742354970325321 -0.0012249275205456207 0 0.032488285171965489 -0.0015705016911721124 0 0.036221011309866158 -0.0015316123555029458 0 0.035869169709454252 -0.0016337124551523885 0 0.035882595005137866 -0.0014214562998243864 0 0.027966410434707361 -0.0020355461543912338 0 0.028539693747347765 -0.002138195509342077 0 0.028343054036725539 -0.0019581065205411378 0 0.034445174445720095 -0.00045826238248478833 0 0.032742354970325321 -0.0012249275205456207 0 0.0316912079674109 -0.0011960468319901607 0 0.032742354970325321 -0.0012249275205456207 0 0.034592442616898395 -0.00043011149863892367 0 0.034522440870153923 -0.00030950620942754998 0 0.034434658378283856 -0.00047227800480863469 0 0.032742354970325321 -0.0012249275205456207 0 0.032652094632812628 -0.0013150609158024472 0 0.028343054036725539 -0.0019581065205411378 0 0.028526015375459086 -0.0018610330894162862 0 0.028113331656262043 -0.0017007523435197092 0 0.028343054036725539 -0.0019581065205411378 0 0.028526015375459086 -0.0018610330894162862 0 0.02861419123981945 -0.0020583427053697759 0 0.028539693747347765 -0.002138195509342077 0 0.028343054036725539 -0.0019581065205411378 0 0.02861419123981945 -0.0020583427053697759 0 0.028562842532219117 -0.0021538861778432339 0 0.02861419123981945 -0.0020583427053697759 0 0.028989825151588752 -0.0020869337841627209 0 0.028815629048414872 -0.0019844012357453371 0 0.02861419123981945 -0.0020583427053697759 0 0.028989825151588752 -0.0020869337841627209 0 0.028526015375459086 -0.0018610330894162862 0 0.028815629048414872 -0.0019844012357453371 0 0.02861419123981945 -0.0020583427053697759 0 0.028526015375459086 -0.0018610330894162862 0 0.028815629048414872 -0.0019844012357453371 0 0.028774377387546842 -0.0018409561658818999 0 0.032488285171965489 -0.0015705016911721124 0 0.032445219433572925 -0.001759637339012621 0 0.028815629048414872 -0.0019844012357453371 0 0.029252020133083173 -0.0018511039647409664 0 0.028774377387546842 -0.0018409561658818999 0 0.028815629048414872 -0.0019844012357453371 0 0.028989825151588752 -0.0020869337841627209 0 0.029252020133083173 -0.0018511039647409664 0 0.028989825151588752 -0.0020869337841627209 0 0.029252020133083173 -0.0018511039647409664 0 0.029379062972256571 -0.0020010036672752289 0 0.035869169709454252 -0.0016337124551523885 0 0.035624247293231361 -0.0015004644647639137 0 0.035506443752898083 -0.0017526135938266227 0 0.035869169709454252 -0.0016337124551523885 0 0.035882595005137866 -0.0014214562998243864 0 0.035624247293231361 -0.0015004644647639137 0 0.035721228665530409 -0.0013365721420761272 0 0.035882595005137866 -0.0014214562998243864 0 0.035624247293231361 -0.0015004644647639137 0 0.035587100153423153 -0.0012835529835917821 0 0.035721228665530409 -0.0013365721420761272 0 0.035624247293231361 -0.0015004644647639137 0 0.035280825679000954 -0.0014321301604870577 0 0.035452102579863601 -0.0013490657830750249 0 0.035438667825867763 -0.0015313665319472657 0 0.035587100153423153 -0.0012835529835917821 0 0.035452102579863601 -0.0013490657830750249 0 0.035624247293231361 -0.0015004644647639137 0 0.035452102579863601 -0.0013490657830750249 0 0.035624247293231361 -0.0015004644647639137 0 0.035438667825867763 -0.0015313665319472657 0 0.035624247293231361 -0.0015004644647639137 0 0.035438667825867763 -0.0015313665319472657 0 0.035506443752898083 -0.0017526135938266227 0 0.035291995064104568 -0.0016385428559085916 0 0.035438667825867763 -0.0015313665319472657 0 0.035506443752898083 -0.0017526135938266227 0 0.032460501769569244 -0.0018900065854580371 0 0.030044888719175929 -0.0018443494415066421 0 0.029804158043572455 -0.0018953109926886074 0 0.029252020133083173 -0.0018511039647409664 0 0.029379062972256571 -0.0020010036672752289 0 0.029724948347788376 -0.0021901050771391418 0 0.03017798023456101 -0.0019042271582905964 0 0.02973825918574521 -0.0015719035236586084 0 0.030717031732293652 -0.0024052597399601924 0 0.029724948347788376 -0.0021901050771391418 0 0.03017798023456101 -0.0019042271582905964 0 0.03017798023456101 -0.0019042271582905964 0 0.030130086489024915 -0.0014991206440980696 0 0.02973825918574521 -0.0015719035236586084 0 0.030044888719175929 -0.0018443494415066421 0 0.029422983377477754 -0.0018239375934262828 0 0.029724948347788376 -0.0021901050771391418 0 0.029277543422393082 -0.0016903582848246982 0 0.02973825918574521 -0.0015719035236586084 0 0.029724948347788376 -0.0021901050771391418 0 0.029277543422393082 -0.0016903582848246982 0 0.028774377387546842 -0.0018409561658818999 0 0.029285709558841393 -0.0011992978682662866 0 0.02973825918574521 -0.0015719035236586084 0 0.029839567498040506 -0.0011032654811457677 0 0.029277543422393082 -0.0016903582848246982 0 0.029285709558841393 -0.0011992978682662866 0 0.02973825918574521 -0.0015719035236586084 0 0.029277543422393082 -0.0016903582848246982 0 0.029285709558841393 -0.0011992978682662866 0 0.028873638642881432 -0.0015272367353571508 0 0.030414528141474231 -0.00088313619410631541 0 0.030130086489024915 -0.0014991206440980696 0 0.029839567498040506 -0.0011032654811457677 0 0.030130086489024915 -0.0014991206440980696 0 0.02973825918574521 -0.0015719035236586084 0 0.029839567498040506 -0.0011032654811457677 0 0.030414528141474231 -0.00088313619410631541 0 0.029839567498040506 -0.0011032654811457677 0 0.02957024572599988 -0.00052000390132658162 0 0.030414528141474231 -0.00088313619410631541 0 0.030424780456552017 0.00018118868099097811 0 0.02957024572599988 -0.00052000390132658162 0 0.029285709558841393 -0.0011992978682662866 0 0.029839567498040506 -0.0011032654811457677 0 0.02957024572599988 -0.00052000390132658162 0 0.029285709558841393 -0.0011992978682662866 0 0.02957024572599988 -0.00052000390132658162 0 0.028797366575169597 -0.00082632416577378502 0 0.02838905409854715 -0.00096278683282287043 0 0.027141461719191209 -0.0019567792795134099 0 0.027400625910139281 -0.00085146802829365418 0 0.028483034283320677 -0.00064400438153720341 0 0.027863079725394292 -0.0011562224744066495 0 0.02882400247343727 -0.00019888937159655976 0 0.028797366575169597 -0.00082632416577378502 0 0.028245663359413899 -0.00069844711144822352 0 0.02957024572599988 -0.00052000390132658162 0 0.02882400247343727 -0.00019888937159655976 0 0.028797366575169597 -0.00082632416577378502 0 0.028797366575169597 -0.00082632416577378502 0 0.028310580718325588 -0.001072958447780789 0 0.028633847945238305 -0.0012577801263359239 0 0.028797366575169597 -0.00082632416577378502 0 0.028310580718325588 -0.001072958447780789 0 0.028245663359413899 -0.00069844711144822352 0 0.028633847945238305 -0.0012577801263359239 0 0.028475919933251152 -0.0016037858092673911 0 0.028177164328849442 -0.0013898208877715223 0 0.028310580718325588 -0.001072958447780789 0 0.028633847945238305 -0.0012577801263359239 0 0.028177164328849442 -0.0013898208877715223 0 0.028633847945238305 -0.0012577801263359239 0 0.028873638642881432 -0.0015272367353571508 0 0.028475919933251152 -0.0016037858092673911 0 0.029285709558841393 -0.0011992978682662866 0 0.028797366575169597 -0.00082632416577378502 0 0.028633847945238305 -0.0012577801263359239 0 0.029285709558841393 -0.0011992978682662866 0 0.028633847945238305 -0.0012577801263359239 0 0.028873638642881432 -0.0015272367353571508 0 0.029277543422393082 -0.0016903582848246982 0 0.028873638642881432 -0.0015272367353571508 0 0.028774377387546842 -0.0018409561658818999 0 0.028873638642881432 -0.0015272367353571508 0 0.028774377387546842 -0.0018409561658818999 0 0.028475919933251152 -0.0016037858092673911 0 0.028526015375459086 -0.0018610330894162862 0 0.028475919933251152 -0.0016037858092673911 0 0.028113331656262043 -0.0017007523435197092 0 0.028526015375459086 -0.0018610330894162862 0 0.028774377387546842 -0.0018409561658818999 0 0.028475919933251152 -0.0016037858092673911 0 0.028475919933251152 -0.0016037858092673911 0 0.028113331656262043 -0.0017007523435197092 0 0.028177164328849442 -0.0013898208877715223 0 0.028113331656262043 -0.0017007523435197092 0 0.027843165636396192 -0.0015161557690975579 0 0.028177164328849442 -0.0013898208877715223 0 0.027704929576945918 -0.0017304775835573756 0 0.028113331656262043 -0.0017007523435197092 0 0.027843165636396192 -0.0015161557690975579 0 0.027704929576945918 -0.0017304775835573756 0 0.027843165636396192 -0.0015161557690975579 0 0.027546890135054788 -0.0015560571921917157 0 0.027445157254167383 -0.0015008822081106325 0 0.027313934597567587 -0.0016585068889261281 0 0.027843165636396192 -0.0015161557690975579 0 0.027804575198800068 -0.0011708356192538429 0 0.027546890135054788 -0.0015560571921917157 0 0.028310580718325588 -0.001072958447780789 0 0.027804575198800068 -0.0011708356192538429 0 0.028177164328849442 -0.0013898208877715223 0 0.027843165636396192 -0.0015161557690975579 0 0.027804575198800068 -0.0011708356192538429 0 0.028177164328849442 -0.0013898208877715223 0 0.027557887260556996 -0.0018563993045530556 0 0.027300365603314992 -0.0018023294248570485 0 0.026923996031569818 -0.0017666198418369399 0 0.027564945021079486 -0.0017298631635431036 0 0.027557887260556996 -0.0018563993045530556 0 0.027546890135054788 -0.0015560571921917157 0 0.027324523741273928 -0.0017037186259791727 0 0.027313934597567587 -0.0016585068889261281 0 0.027704929576945918 -0.0017304775835573756 0 0.027564945021079486 -0.0017298631635431036 0 0.027546890135054788 -0.0015560571921917157 0 0.026555157800261478 -0.0020169476173713366 0 0.026923996031569818 -0.0017666198418369399 0 0.026759906347857087 -0.0019996143240597129 0 0.026923996031569818 -0.0017666198418369399 0 0.027011792144801164 -0.0019065997209348452 0 0.026759906347857087 -0.0019996143240597129 0 0.02727680040484565 -0.0028477635774098002 0 0.027132834588379059 -0.0030122189168632833 0 0.027300365603314992 -0.0018023294248570485 0 0.027011792144801164 -0.0019065997209348452 0 0.027061174222135231 -0.0020315340392509603 0 0.027300365603314992 -0.0018023294248570485 0 0.026923996031569818 -0.0017666198418369399 0 0.027011792144801164 -0.0019065997209348452 0 0.027011792144801164 -0.0019065997209348452 0 0.027061174222135231 -0.0020315340392509603 0 0.026759906347857087 -0.0019996143240597129 0 0.027061174222135231 -0.0020315340392509603 0 0.026759906347857087 -0.0019996143240597129 0 0.026709730735094393 -0.0021662216642363381 0 0.026759906347857087 -0.0019996143240597129 0 0.026709730735094393 -0.0021662216642363381 0 0.026450188245242656 -0.0018885008001457439 0 0.027061174222135231 -0.0020315340392509603 0 0.026709730735094393 -0.0021662216642363381 0 0.026988605883443918 -0.0023678395625220164 0 0.027132834588379059 -0.0030122189168632833 0 0.027022872597542855 -0.0030367845538951449 0 0.026555157800261478 -0.0020169476173713366 0 0.027141461719191209 -0.0019567792795134099 0 0.026450188245242656 -0.0018885008001457439 0 0.027445157254167383 -0.0015008822081106325 0 0.027863079725394292 -0.0011562224744066495 0 0.028310580718325588 -0.001072958447780789 0 0.027804575198800068 -0.0011708356192538429 0 0.028245663359413899 -0.00069844711144822352 0 0.026555157800261478 -0.0020169476173713366 0 0.026759906347857087 -0.0019996143240597129 0 0.026450188245242656 -0.0018885008001457439 0 0.026709730735094393 -0.0021662216642363381 0 0.026450188245242656 -0.0018885008001457439 0 0.026461963572539875 -0.0022773541082423856 0 0.026346727777463028 -0.0016598257278648482 0 0.026344768030323033 -0.0015824408591474427 0 0.026450188245242656 -0.0018885008001457439 0 0.026102342190115559 -0.0025037311637145145 0 0.026461963572539875 -0.0022773541082423856 0 0.027141461719191209 -0.0019567792795134099 0 0.026450188245242656 -0.0018885008001457439 0 0.027400625910139281 -0.00085146802829365418 0 0.026450188245242656 -0.0018885008001457439 0 0.026562488890293917 -0.00038591135065566646 0 0.027400625910139281 -0.00085146802829365418 0 0.026562488890293917 -0.00038591135065566646 0 0.027400625910139281 -0.00085146802829365418 0 0.027426521128323448 0.00023188034616805349 0 0.026461963572539875 -0.0022773541082423856 0 0.026372142931245516 -0.0026740242034050798 0 0.026621031669144046 -0.002492090147427164 0 0.026102342190115559 -0.0025037311637145145 0 0.026461963572539875 -0.0022773541082423856 0 0.026372142931245516 -0.0026740242034050798 0 0.026372142931245516 -0.0026740242034050798 0 0.026128533591500913 -0.0027942161077269731 0 0.026316144427610339 -0.0029717341606971329 0 0.026102342190115559 -0.0025037311637145145 0 0.026372142931245516 -0.0026740242034050798 0 0.026128533591500913 -0.0027942161077269731 0 0.026562488890293917 -0.00038591135065566646 0 0.026887195431416044 0.00096490876677376362 0 0.027426521128323448 0.00023188034616805349 0 0.026344768030323033 -0.0015824408591474427 0 0.026275142500447986 -0.0018263206458262616 0 0.026102342190115559 -0.0025037311637145145 0 0.026128533591500913 -0.0027942161077269731 0 0.025960412397143584 -0.0029391649510698992 0 0.026128533591500913 -0.0027942161077269731 0 0.025883736558309996 -0.0029316408013140781 0 0.026085243906141999 -0.0029638885191253608 0 0.026179052138003759 -0.0019547560215686603 0 0.026275142500447986 -0.0018263206458262616 0 0.026887195431416044 0.00096490876677376362 0 0.027732044684871976 0.00098819069591060986 0 0.027426521128323448 0.00023188034616805349 0 0.026709730735094393 -0.0021662216642363381 0 0.026988605883443918 -0.0023678395625220164 0 0.026621031669144046 -0.002492090147427164 0 0.026988605883443918 -0.0023678395625220164 0 0.026621031669144046 -0.002492090147427164 0 0.026596360841252217 -0.0028419359282591521 0 0.026709730735094393 -0.0021662216642363381 0 0.026461963572539875 -0.0022773541082423856 0 0.026621031669144046 -0.002492090147427164 0 0.026596360841252217 -0.0028419359282591521 0 0.026779756006204313 -0.0030776281732426219 0 0.026581163517122888 -0.0030576843271932774 0 0.026372142931245516 -0.0026740242034050798 0 0.026596360841252217 -0.0028419359282591521 0 0.026316144427610339 -0.0029717341606971329 0 0.026372142931245516 -0.0026740242034050798 0 0.026621031669144046 -0.002492090147427164 0 0.026596360841252217 -0.0028419359282591521 0 0.027022872597542855 -0.0030367845538951449 0 0.026975037884123591 -0.003050445088891943 0 0.026988605883443918 -0.0023678395625220164 0 0.026596360841252217 -0.0028419359282591521 0 0.026779756006204313 -0.0030776281732426219 0 0.026863282818178735 -0.0036105202278177233 0 0.026779756006204313 -0.0030776281732426219 0 0.026492698411838 -0.0033016660591823335 0 0.026779756006204313 -0.0030776281732426219 0 0.026755564108185831 -0.0029952549197221298 0 0.026492698411838 -0.0033016660591823335 0 0.026779756006204313 -0.0030776281732426219 0 0.026755564108185831 -0.0029952549197221298 0 0.026581163517122888 -0.0030576843271932774 0 0.026755564108185831 -0.0029952549197221298 0 0.026581163517122888 -0.0030576843271932774 0 0.026620089061964173 -0.003191341517353989 0 0.026596360841252217 -0.0028419359282591521 0 0.026581163517122888 -0.0030576843271932774 0 0.026316144427610339 -0.0029717341606971329 0 0.026581163517122888 -0.0030576843271932774 0 0.026316144427610339 -0.0029717341606971329 0 0.026291026678631122 -0.0032010185057103134 0 0.026410090096443375 -0.0032678516599582213 0 0.026620089061964173 -0.003191341517353989 0 0.026769661643423925 -0.0035586965621188758 0 0.026581163517122888 -0.0030576843271932774 0 0.026410090096443375 -0.0032678516599582213 0 0.026291026678631122 -0.0032010185057103134 0 0.026410090096443375 -0.0032678516599582213 0 0.026201660616114661 -0.0033712491513434597 0 0.026321128046054167 -0.0036021062530322218 0 0.026410090096443375 -0.0032678516599582213 0 0.026291026678631122 -0.0032010185057103134 0 0.026201660616114661 -0.0033712491513434597 0 0.026581163517122888 -0.0030576843271932774 0 0.026410090096443375 -0.0032678516599582213 0 0.026620089061964173 -0.003191341517353989 0 0.026755564108185831 -0.0029952549197221298 0 0.026304687357303153 -0.002667770668144324 0 0.027000479203973568 -0.0019889191782870293 0 0.025938234857367948 -0.0031593159581057313 0 0.025604519159430055 -0.0036666053417464977 0 0.026755564108185831 -0.0029952549197221298 0 0.026620089061964173 -0.003191341517353989 0 0.026769661643423925 -0.0035586965621188758 0 0.025555732959635001 -0.0027182604569871982 0 0.025423425051638537 -0.0033079655412019127 0 0.025073049355651501 -0.0031649249054368114 0 0.026275142500447986 -0.0018263206458262616 0 0.025804756121492689 -0.0031149876397448279 0 0.025998547074772917 -0.0031674601365459516 0 0.025883736558309996 -0.0029316408013140781 0 0.025683177284236469 -0.0034089705691900934 0 0.025998547074772917 -0.0031674601365459516 0 0.025883736558309996 -0.0029316408013140781 0 0.026085243906141999 -0.0029638885191253608 0 0.025998547074772917 -0.0031674601365459516 0 0.026085243906141999 -0.0029638885191253608 0 0.026316144427610339 -0.0029717341606971329 0 0.025998547074772917 -0.0031674601365459516 0 0.026316144427610339 -0.0029717341606971329 0 0.025988287281880428 -0.0035599175455101779 0 0.026128533591500913 -0.0027942161077269731 0 0.026085243906141999 -0.0029638885191253608 0 0.026316144427610339 -0.0029717341606971329 0 0.026316144427610339 -0.0029717341606971329 0 0.026291026678631122 -0.0032010185057103134 0 0.025887449908068627 -0.0033688175343607896 0 0.026015942540570072 -0.0032712453944275213 0 0.025850085844737129 -0.0035546851141241512 0 0.026291026678631122 -0.0032010185057103134 0 0.026201660616114661 -0.0033712491513434597 0 0.025887449908068627 -0.0033688175343607896 0 0.026201660616114661 -0.0033712491513434597 0 0.025887449908068627 -0.0033688175343607896 0 0.026081100402962264 -0.0035243964855898782 0 0.025998547074772917 -0.0031674601365459516 0 0.025988287281880428 -0.0035599175455101779 0 0.025683177284236469 -0.0034089705691900934 0 0.025423425051638537 -0.0033079655412019127 0 0.025073049355651501 -0.0031649249054368114 0 0.025059068819112532 -0.0035666214495622467 0 0.025073049355651501 -0.0031649249054368114 0 0.025059068819112532 -0.0035666214495622467 0 0.024604026703022537 -0.0036079512767262789 0 0.026887195431416044 0.00096490876677376362 0 0.027900413030960004 0.0017643470807572773 0 0.027732044684871976 0.00098819069591060986 0 0.026275142500447986 -0.0018263206458262616 0 0.026711370737282598 -0.0012698876675171669 0 0.027900413030960004 0.0017643470807572773 0 0.027732044684871976 0.00098819069591060986 0 0.028367368627320824 0.0012634585848318534 0 0.027732044684871976 0.00098819069591060986 0 0.028367368627320824 0.0012634585848318534 0 0.028038064044977235 0.00065061048376401965 0 0.027900413030960004 0.0017643470807572773 0 0.028367368627320824 0.0012634585848318534 0 0.028717507437660692 0.001732701727729827 0 0.028367368627320824 0.0012634585848318534 0 0.029143915919752017 0.0013165709687920051 0 0.028859570210631177 0.00072752495250150216 0 0.028367368627320824 0.0012634585848318534 0 0.028717507437660692 0.001732701727729827 0 0.029143915919752017 0.0013165709687920051 0 0.028367368627320824 0.0012634585848318534 0 0.028038064044977235 0.00065061048376401965 0 0.028859570210631177 0.00072752495250150216 0 0.028717507437660692 0.001732701727729827 0 0.029374916428150249 0.0018738989617548545 0 0.028754947519965775 0.002427032837993089 0 0.026711370737282598 -0.0012698876675171669 0 0.026995160082055148 -0.001228362981733229 0 0.027900413030960004 0.0017643470807572773 0 0.028717507437660692 0.001732701727729827 0 0.028754947519965775 0.002427032837993089 0 0.029374916428150249 0.0018738989617548545 0 0.028754947519965775 0.002427032837993089 0 0.029393702294000647 0.0023633717582954754 0 0.029374916428150249 0.0018738989617548545 0 0.029904232485614496 0.0020400867737341028 0 0.029393702294000647 0.0023633717582954754 0 0.028717507437660692 0.001732701727729827 0 0.029374916428150249 0.0018738989617548545 0 0.029143915919752017 0.0013165709687920051 0 0.030155044345844477 0.0020636760906533754 0 0.029904232485614496 0.0020400867737341028 0 0.030050200906873333 0.0025391492510337078 0 0.030155044345844477 0.0020636760906533754 0 0.029904232485614496 0.0020400867737341028 0 0.030223169811990573 0.0017931905244731238 0 0.030411025397533063 0.0020503250329592902 0 0.030155044345844477 0.0020636760906533754 0 0.030223169811990573 0.0017931905244731238 0 0.029374916428150249 0.0018738989617548545 0 0.029904232485614496 0.0020400867737341028 0 0.029896315769365977 0.0016267560046858073 0 0.029374916428150249 0.0018738989617548545 0 0.029896315769365977 0.0016267560046858073 0 0.029734280277783701 0.0013383482421199513 0 0.029904232485614496 0.0020400867737341028 0 0.029896315769365977 0.0016267560046858073 0 0.030223169811990573 0.0017931905244731238 0 0.029896315769365977 0.0016267560046858073 0 0.030223169811990573 0.0017931905244731238 0 0.030198174189951566 0.001121879260948257 0 0.029896315769365977 0.0016267560046858073 0 0.029734280277783701 0.0013383482421199513 0 0.030198174189951566 0.001121879260948257 0 0.029734280277783701 0.0013383482421199513 0 0.030198174189951566 0.001121879260948257 0 0.029714891383419328 0.0007887094999585397 0 0.029143915919752017 0.0013165709687920051 0 0.029714891383419328 0.0007887094999585397 0 0.028859570210631177 0.00072752495250150216 0 0.029374916428150249 0.0018738989617548545 0 0.029734280277783701 0.0013383482421199513 0 0.029143915919752017 0.0013165709687920051 0 0.029734280277783701 0.0013383482421199513 0 0.029143915919752017 0.0013165709687920051 0 0.029714891383419328 0.0007887094999585397 0 0.029714891383419328 0.0007887094999585397 0 0.029412313408161889 0.00024323657724377763 0 0.028859570210631177 0.00072752495250150216 0 0.030424780456552017 0.00018118868099097811 0 0.029714891383419328 0.0007887094999585397 0 0.029412313408161889 0.00024323657724377763 0 0.030424780456552017 0.00018118868099097811 0 0.030198174189951566 0.001121879260948257 0 0.029714891383419328 0.0007887094999585397 0 0.030424780456552017 0.00018118868099097811 0 0.02957024572599988 -0.00052000390132658162 0 0.029412313408161889 0.00024323657724377763 0 0.02957024572599988 -0.00052000390132658162 0 0.02882400247343727 -0.00019888937159655976 0 0.029412313408161889 0.00024323657724377763 0 0.02838905409854715 -0.00096278683282287043 0 0.029412313408161889 0.00024323657724377763 0 0.028266398848825303 3.5918524589884543e-05 0 0.028483034283320677 -0.00064400438153720341 0 0.028866066022820536 -0.00031757506140369068 0 0.02838905409854715 -0.00096278683282287043 0 0.028266398848825303 3.5918524589884543e-05 0 0.027400625910139281 -0.00085146802829365418 0 0.028266398848825303 3.5918524589884543e-05 0 0.027400625910139281 -0.00085146802829365418 0 0.027426521128323448 0.00023188034616805349 0 0.028266398848825303 3.5918524589884543e-05 0 0.027426521128323448 0.00023188034616805349 0 0.028038064044977235 0.00065061048376401965 0 0.027732044684871976 0.00098819069591060986 0 0.027426521128323448 0.00023188034616805349 0 0.028038064044977235 0.00065061048376401965 0 0.028266398848825303 3.5918524589884543e-05 0 0.028038064044977235 0.00065061048376401965 0 0.028859570210631177 0.00072752495250150216 0 0.029412313408161889 0.00024323657724377763 0 0.028266398848825303 3.5918524589884543e-05 0 0.028859570210631177 0.00072752495250150216 0 0.02427286653213423 -0.0036126030373393901 0 0.024281725089804734 -0.0036061318555788741 0 0.02427657104311691 -0.0036181545649402228 0 0.02427286653213423 -0.0036126030373393901 0 0.02427657104311691 -0.0036181545649402228 0 0.024277660581434185 -0.0036187180878692556 0 0.02427286653213423 -0.0036126030373393901 0 0.024277660581434185 -0.0036187180878692556 0 0.024253797747077404 -0.0036490909674127769 0 0.026097102930009705 -0.0034457444045378977 0 0.02599544965530896 -0.003616980712884574 0 0.026273577624255522 -0.0035984374503961435 0 0.025210239818391871 -0.003539878619839574 0 0.025103315492650161 -0.0035549129656037661 0 0.02599544965530896 -0.003616980712884574 0 0.025749764864768258 -0.0035631866012112608 0 0.025859304712707365 -0.0037398201298215004 0 0.026097102930009705 -0.0034457444045378977 0 0.02599544965530896 -0.003616980712884574 0 0.025749764864768258 -0.0035631866012112608 0 0.02403065687834717 -0.0043483491720177096 0 0.023965775625315346 -0.0043934402560973414 0 0.023957414224832461 -0.0043556507680583669 0 0.024281725089804734 -0.0036061318555788741 0 0.024288978340282937 -0.0036109794273444791 0 0.024303014591478166 -0.0035964722792055292 0 0.025103315492650161 -0.0035549129656037661 0 0.025472145391063281 -0.0034000441622842976 0 0.024563043532957091 -0.0039573964202442068 0 0.025472145391063281 -0.0034000441622842976 0 0.02403065687834717 -0.0043483491720177096 0 0.023957414224832461 -0.0043556507680583669 0 0.023940502362704816 -0.0043102308238261956 0 0.02403065687834717 -0.0043483491720177096 0 0.024023083759972259 -0.004265172998728574 0 0.023940502362704816 -0.0043102308238261956 0 0.024281725089804734 -0.0036061318555788741 0 0.024288978340282937 -0.0036109794273444791 0 0.02427657104311691 -0.0036181545649402228 0 0.02403065687834717 -0.0043483491720177096 0 0.024023083759972259 -0.004265172998728574 0 0.024124736960635832 -0.004248650651044546 0 0.024563043532957091 -0.0039573964202442068 0 0.024334858253889161 -0.0039797595269211441 0 0.024043625982567565 -0.0041978916548706217 0 0.024023083759972259 -0.004265172998728574 0 0.024124736960635832 -0.004248650651044546 0 0.024043625982567565 -0.0041978916548706217 0 0.024108849592575518 -0.0041386722003351611 0 0.024124736960635832 -0.004248650651044546 0 0.024023083759972259 -0.004265172998728574 0 0.023940502362704816 -0.0043102308238261956 0 0.023948775803276312 -0.0042129811506056774 0 0.024043625982567565 -0.0041978916548706217 0 0.024023083759972259 -0.004265172998728574 0 0.023948775803276312 -0.0042129811506056774 0 0.024043625982567565 -0.0041978916548706217 0 0.024012438302102621 -0.004128607114662221 0 0.023948775803276312 -0.0042129811506056774 0 0.024012438302102621 -0.004128607114662221 0 0.024108849592575518 -0.0041386722003351611 0 0.024092494304021536 -0.0040916246196581645 0 0.024043625982567565 -0.0041978916548706217 0 0.024012438302102621 -0.004128607114662221 0 0.024108849592575518 -0.0041386722003351611 0 0.024108849592575518 -0.0041386722003351611 0 0.024124736960635832 -0.004248650651044546 0 0.02418285909609641 -0.0041149498543601561 0 0.024108849592575518 -0.0041386722003351611 0 0.02418285909609641 -0.0041149498543601561 0 0.024161975842689639 -0.0040534310535161088 0 0.024334858253889161 -0.0039797595269211441 0 0.024270977299066389 -0.0039290792816930355 0 0.02427657104311691 -0.0036181545649402228 0 0.024277660581434185 -0.0036187180878692556 0 0.024303159254549383 -0.0035854420408062719 0 0.024277660581434185 -0.0036187180878692556 0 0.024303159254549383 -0.0035854420408062719 0 0.024315850397415507 -0.0035539317636761728 0 0.024303159254549383 -0.0035854420408062719 0 0.024315850397415507 -0.0035539317636761728 0 0.024354130307993316 -0.0036431337970277296 0 0.024315850397415507 -0.0035539317636761728 0 0.024345075162904621 -0.0035328404457222302 0 0.024354130307993316 -0.0036431337970277296 0 0.024315850397415507 -0.0035539317636761728 0 0.024345075162904621 -0.0035328404457222302 0 0.024421227106076797 -0.003465540363425737 0 0.024345075162904621 -0.0035328404457222302 0 0.024421227106076797 -0.003465540363425737 0 0.02452428052678185 -0.0034635985047010249 0 0.024421227106076797 -0.003465540363425737 0 0.024253797747077404 -0.0036490909674127769 0 0.024211410298293982 -0.0037587629959324595 0 0.024421227106076797 -0.003465540363425737 0 0.025117586200181008 -0.0034353755225930787 0 0.024211410298293982 -0.0037587629959324595 0 0.024315850397415507 -0.0035539317636761728 0 0.024421227106076797 -0.003465540363425737 0 0.024253797747077404 -0.0036490909674127769 0 0.024277660581434185 -0.0036187180878692556 0 0.024315850397415507 -0.0035539317636761728 0 0.024253797747077404 -0.0036490909674127769 0 0.024070009760026326 -0.0034423493208938271 0 0.023687492649443746 -0.0037161879588040285 0 0.024166600193759793 -0.0036294306098756694 0 0.025364713998378072 -0.0035009408467663945 0 0.025604519159430055 -0.0036666053417464977 0 0.024345075162904621 -0.0035328404457222302 0 0.02452428052678185 -0.0034635985047010249 0 0.024166600193759793 -0.0036294306098756694 0 0.024070009760026326 -0.0034423493208938271 0 0.02452428052678185 -0.0034635985047010249 0 0.024166600193759793 -0.0036294306098756694 0 0.024421227106076797 -0.003465540363425737 0 0.02452428052678185 -0.0034635985047010249 0 0.025117586200181008 -0.0034353755225930787 0 0.025792846166483224 -0.0033703182039604806 0 0.025464872222405684 -0.0034773004425148559 0 0.026304687357303153 -0.002667770668144324 0 0.025117586200181008 -0.0034353755225930787 0 0.026117831048898532 -0.0032782626714072047 0 0.025117586200181008 -0.0034353755225930787 0 0.026117831048898532 -0.0032782626714072047 0 0.024211410298293982 -0.0037587629959324595 0 0.024070009760026326 -0.0034423493208938271 0 0.02452428052678185 -0.0034635985047010249 0 0.025117586200181008 -0.0034353755225930787 0 0.025364713998378072 -0.0035009408467663945 0 0.025200868915184482 -0.0035763423122895798 0 0.026755564108185831 -0.0029952549197221298 0 0.026117831048898532 -0.0032782626714072047 0 0.026492698411838 -0.0033016660591823335 0 0.026755564108185831 -0.0029952549197221298 0 0.026304687357303153 -0.002667770668144324 0 0.026117831048898532 -0.0032782626714072047 0 0.026117831048898532 -0.0032782626714072047 0 0.026492698411838 -0.0033016660591823335 0 0.02632549244128075 -0.0033536547859626914 0 0.026492698411838 -0.0033016660591823335 0 0.02632549244128075 -0.0033536547859626914 0 0.026513508582918545 -0.0034624759085026971 0 0.02632549244128075 -0.0033536547859626914 0 0.026513508582918545 -0.0034624759085026971 0 0.026386652010247244 -0.0034413010559120635 0 0.026117831048898532 -0.0032782626714072047 0 0.02632549244128075 -0.0033536547859626914 0 0.02637563274333788 -0.0033920086975100976 0 0.026530599073147459 -0.0035742488840757396 0 0.026513508582918545 -0.0034624759085026971 0 0.026386652010247244 -0.0034413010559120635 0 0.026530599073147459 -0.0035742488840757396 0 0.026386652010247244 -0.0034413010559120635 0 0.026426791767135829 -0.0036210694153389722 0 0.026530599073147459 -0.0035742488840757396 0 0.026513508582918545 -0.0034624759085026971 0 0.026792247668780775 -0.0037158298150896142 0 0.026863282818178735 -0.0036105202278177233 0 0.026492698411838 -0.0033016660591823335 0 0.026513508582918545 -0.0034624759085026971 0 0.026863282818178735 -0.0036105202278177233 0 0.026513508582918545 -0.0034624759085026971 0 0.026792247668780775 -0.0037158298150896142 0 0.02427286653213423 -0.0036126030373393901 0 0.024253797747077404 -0.0036490909674127769 0 0.024211410298293982 -0.0037587629959324595 0 0.025210239818391871 -0.003539878619839574 0 0.025464872222405684 -0.0034773004425148559 0 0.026097102930009705 -0.0034457444045378977 0 0.02637563274333788 -0.0033920086975100976 0 0.026309921275990428 -0.0034738523869958546 0 0.02632549244128075 -0.0033536547859626914 0 0.02637563274333788 -0.0033920086975100976 0 0.026386652010247244 -0.0034413010559120635 0 0.02637563274333788 -0.0033920086975100976 0 0.026386652010247244 -0.0034413010559120635 0 0.026309921275990428 -0.0034738523869958546 0 0.026386652010247244 -0.0034413010559120635 0 0.026262338370147537 -0.0035922640598444904 0 0.026426791767135829 -0.0036210694153389722 0 0.026386652010247244 -0.0034413010559120635 0 0.026273577624255522 -0.0035984374503961435 0 0.026309921275990428 -0.0034738523869958546 0 0.026291242555756475 -0.0035743156466643165 0 0.026211937038200499 -0.0036374336286151133 0 0.026097102930009705 -0.0034457444045378977 0 0.026273577624255522 -0.0035984374503961435 0 0.026309921275990428 -0.0034738523869958546 0 0.026262338370147537 -0.0035922640598444904 0 0.026416942731328889 -0.0038526642589988059 0 0.026121528722230888 -0.0039919198266015997 0 0.026211937038200499 -0.0036374336286151133 0 0.026037869733983587 -0.003769651641476053 0 0.026426791767135829 -0.0036210694153389722 0 0.026416942731328889 -0.0038526642589988059 0 0.026586055521480439 -0.0037447716228436478 0 0.026262338370147537 -0.0035922640598444904 0 0.026426791767135829 -0.0036210694153389722 0 0.026416942731328889 -0.0038526642589988059 0 0.026416942731328889 -0.0038526642589988059 0 0.02676793557986426 -0.004026575512608036 0 0.026332576972952427 -0.0041700880536496183 0 0.026416942731328889 -0.0038526642589988059 0 0.026332576972952427 -0.0041700880536496183 0 0.026121528722230888 -0.0039919198266015997 0 0.027127989575796985 -0.003942514148450248 0 0.026863282818178735 -0.0036105202278177233 0 0.026792247668780775 -0.0037158298150896142 0 0.026530599073147459 -0.0035742488840757396 0 0.026792247668780775 -0.0037158298150896142 0 0.026586055521480439 -0.0037447716228436478 0 0.026530599073147459 -0.0035742488840757396 0 0.026426791767135829 -0.0036210694153389722 0 0.026586055521480439 -0.0037447716228436478 0 0.026416942731328889 -0.0038526642589988059 0 0.026586055521480439 -0.0037447716228436478 0 0.02676793557986426 -0.004026575512608036 0 0.026792247668780775 -0.0037158298150896142 0 0.026586055521480439 -0.0037447716228436478 0 0.02676793557986426 -0.004026575512608036 0 0.027127989575796985 -0.003942514148450248 0 0.026792247668780775 -0.0037158298150896142 0 0.02676793557986426 -0.004026575512608036 0 0.027285614105893866 -0.0045409593063468956 0 0.027127989575796985 -0.003942514148450248 0 0.027177301516021008 -0.0042741988714273945 0 0.027127989575796985 -0.003942514148450248 0 0.02676793557986426 -0.004026575512608036 0 0.027177301516021008 -0.0042741988714273945 0 0.02676793557986426 -0.004026575512608036 0 0.027177301516021008 -0.0042741988714273945 0 0.026649201314260643 -0.0045051106641055627 0 0.027177301516021008 -0.0042741988714273945 0 0.027598970911071209 -0.0043001378266084569 0 0.026649201314260643 -0.0045051106641055627 0 0.028270036050453182 -0.0041339731092907232 0 0.028820525327678748 -0.0040359063876149581 0 0.027598970911071209 -0.0043001378266084569 0 0.031069978164542145 -0.0041955898956457542 0 0.029314857190404709 -0.0030915632122169856 0 0.027598970911071209 -0.0043001378266084569 0 0.028000359349704674 -0.0030990671149020033 0 0.029314857190404709 -0.0030915632122169856 0 0.027285614105893866 -0.0045409593063468956 0 0.027598970911071209 -0.0043001378266084569 0 0.028000359349704674 -0.0030990671149020033 0 0.027285614105893866 -0.0045409593063468956 0 0.027177301516021008 -0.0042741988714273945 0 0.027598970911071209 -0.0043001378266084569 0 0.026332576972952427 -0.0041700880536496183 0 0.026176308995885182 -0.0044454501653972333 0 0.026005251264703776 -0.0042168388017977225 0 0.026332576972952427 -0.0041700880536496183 0 0.026005251264703776 -0.0042168388017977225 0 0.026121528722230888 -0.0039919198266015997 0 0.02676793557986426 -0.004026575512608036 0 0.026332576972952427 -0.0041700880536496183 0 0.026649201314260643 -0.0045051106641055627 0 0.028820525327678748 -0.0040359063876149581 0 0.029613943425627013 -0.0037469360350739201 0 0.026332576972952427 -0.0041700880536496183 0 0.026649201314260643 -0.0045051106641055627 0 0.026176308995885182 -0.0044454501653972333 0 0.031069978164542145 -0.0041955898956457542 0 0.033550106271471584 -0.0035608228674775884 0 0.033157462842428521 -0.0027029379252564087 0 0.033550106271471584 -0.0035608228674775884 0 0.034833895692126492 -0.002962369029131729 0 0.034478190788623478 -0.0026750724712722952 0 0.029613943425627013 -0.0037469360350739201 0 0.0301734742500217 -0.0032849306479521617 0 0.026176308995885182 -0.0044454501653972333 0 0.025828940657168897 -0.0044080383387897258 0 0.026005251264703776 -0.0042168388017977225 0 0.025828940657168897 -0.0044080383387897258 0 0.025784179417758714 -0.0042045048551292378 0 0.026005251264703776 -0.0042168388017977225 0 0.025784179417758714 -0.0042045048551292378 0 0.026005251264703776 -0.0042168388017977225 0 0.025795188084677446 -0.0039563667102061129 0 0.026005251264703776 -0.0042168388017977225 0 0.026121528722230888 -0.0039919198266015997 0 0.025795188084677446 -0.0039563667102061129 0 0.026121528722230888 -0.0039919198266015997 0 0.025795188084677446 -0.0039563667102061129 0 0.026026644965970933 -0.0037759542603345952 0 0.025852358250295762 -0.0039062493562170512 0 0.026037869733983587 -0.003769651641476053 0 0.025839925831930514 -0.0039396067419250769 0 0.025859304712707365 -0.0037398201298215004 0 0.026067563173921636 -0.0037680984488846882 0 0.02599544965530896 -0.003616980712884574 0 0.025859304712707365 -0.0037398201298215004 0 0.026067563173921636 -0.0037680984488846882 0 0.026262338370147537 -0.0035922640598444904 0 0.026121528722230888 -0.0039919198266015997 0 0.026026644965970933 -0.0037759542603345952 0 0.02599544965530896 -0.003616980712884574 0 0.026273577624255522 -0.0035984374503961435 0 0.026067563173921636 -0.0037680984488846882 0 0.025636087685059147 -0.0038116639713143092 0 0.025441284362862662 -0.0039369184263035907 0 0.025399073309678045 -0.0036981210868016808 0 0.025749764864768258 -0.0035631866012112608 0 0.025636087685059147 -0.0038116639713143092 0 0.025399073309678045 -0.0036981210868016808 0 0.025749764864768258 -0.0035631866012112608 0 0.025859304712707365 -0.0037398201298215004 0 0.025636087685059147 -0.0038116639713143092 0 0.025839925831930514 -0.0039396067419250769 0 0.025859304712707365 -0.0037398201298215004 0 0.025636087685059147 -0.0038116639713143092 0 0.025839925831930514 -0.0039396067419250769 0 0.025636087685059147 -0.0038116639713143092 0 0.025596281168081478 -0.0041068490997078402 0 0.025852358250295762 -0.0039062493562170512 0 0.025752598628516189 -0.0039778929279302858 0 0.025636087685059147 -0.0038116639713143092 0 0.025441284362862662 -0.0039369184263035907 0 0.025596281168081478 -0.0041068490997078402 0 0.025441284362862662 -0.0039369184263035907 0 0.025596281168081478 -0.0041068490997078402 0 0.025364103582430342 -0.0041376736567075778 0 0.025596281168081478 -0.0041068490997078402 0 0.025499315896662707 -0.004246421765621183 0 0.025364103582430342 -0.0041376736567075778 0 0.025596281168081478 -0.0041068490997078402 0 0.025650815586575261 -0.0042786536183189242 0 0.025499315896662707 -0.004246421765621183 0 0.025784179417758714 -0.0042045048551292378 0 0.025596281168081478 -0.0041068490997078402 0 0.025650815586575261 -0.0042786536183189242 0 0.025784179417758714 -0.0042045048551292378 0 0.025795188084677446 -0.0039563667102061129 0 0.025596281168081478 -0.0041068490997078402 0 0.025828940657168897 -0.0044080383387897258 0 0.025784179417758714 -0.0042045048551292378 0 0.025650815586575261 -0.0042786536183189242 0 0.034833895692126492 -0.002962369029131729 0 0.035577610945750376 -0.0027976641536402165 0 0.035101384437048959 -0.0028290504788774846 0 0.0301734742500217 -0.0032849306479521617 0 0.030603303930250018 -0.002520160854496693 0 0.025828940657168897 -0.0044080383387897258 0 0.025650815586575261 -0.0042786536183189242 0 0.025520165173712455 -0.0044048996654181194 0 0.025499315896662707 -0.004246421765621183 0 0.025520165173712455 -0.0044048996654181194 0 0.025363452288649765 -0.0042977038387301582 0 0.025650815586575261 -0.0042786536183189242 0 0.025499315896662707 -0.004246421765621183 0 0.025520165173712455 -0.0044048996654181194 0 0.035577610945750376 -0.0027976641536402165 0 0.03545445456044119 -0.0023556158135710397 0 0.035817812048861225 -0.0024989126281299884 0 0.035480330162180995 -0.0020297956497543463 0 0.035666206506489002 -0.0013911423762200668 0 0.035349907353741154 -0.0015356036577841782 0 0.03512275161657976 -0.0019424409733985145 0 0.03517851962437344 -0.0014352828202182193 0 0.03545445456044119 -0.0023556158135710397 0 0.035817812048861225 -0.0024989126281299884 0 0.035807710876807168 -0.0022868252495029692 0 0.03545445456044119 -0.0023556158135710397 0 0.035759743836108498 -0.0019577465546946932 0 0.035807710876807168 -0.0022868252495029692 0 0.03507142180419278 -0.0016159094150906364 0 0.035077985978792116 -0.0020374575368803257 0 0.034807368616287332 -0.001652994243063037 0 0.03507142180419278 -0.0016159094150906364 0 0.035077985978792116 -0.0020374575368803257 0 0.035349907353741154 -0.0015356036577841782 0 0.035480330162180995 -0.0020297956497543463 0 0.035077985978792116 -0.0020374575368803257 0 0.035349907353741154 -0.0015356036577841782 0 0.035577610945750376 -0.0027976641536402165 0 0.03545445456044119 -0.0023556158135710397 0 0.035101384437048959 -0.0028290504788774846 0 0.035077985978792116 -0.0020374575368803257 0 0.035101384437048959 -0.0028290504788774846 0 0.034857710101700523 -0.0025446390945410902 0 0.03512275161657976 -0.0019424409733985145 0 0.035026621478022608 -0.002209830195450466 0 0.035480330162180995 -0.0020297956497543463 0 0.035077985978792116 -0.0020374575368803257 0 0.035101384437048959 -0.0028290504788774846 0 0.034833895692126492 -0.002962369029131729 0 0.035101384437048959 -0.0028290504788774846 0 0.034857710101700523 -0.0025446390945410902 0 0.034833895692126492 -0.002962369029131729 0 0.034478190788623478 -0.0026750724712722952 0 0.034857710101700523 -0.0025446390945410902 0 0.034478190788623478 -0.0026750724712722952 0 0.034149321627280731 -0.0022215181174460182 0 0.034756137811093699 -0.0021921977436099582 0 0.034478190788623478 -0.0026750724712722952 0 0.034857710101700523 -0.0025446390945410902 0 0.034756137811093699 -0.0021921977436099582 0 0.035077985978792116 -0.0020374575368803257 0 0.034857710101700523 -0.0025446390945410902 0 0.034756137811093699 -0.0021921977436099582 0 0.033550106271471584 -0.0035608228674775884 0 0.034478190788623478 -0.0026750724712722952 0 0.034149321627280731 -0.0022215181174460182 0 0.034149321627280731 -0.0022215181174460182 0 0.033949548723085587 -0.0015771032397484544 0 0.033514845079633725 -0.001999511290399953 0 0.034149321627280731 -0.0022215181174460182 0 0.034349678376802389 -0.0016318886401768136 0 0.034523834079732377 -0.0019173250175905086 0 0.034149321627280731 -0.0022215181174460182 0 0.034349678376802389 -0.0016318886401768136 0 0.033949548723085587 -0.0015771032397484544 0 0.034149321627280731 -0.0022215181174460182 0 0.034756137811093699 -0.0021921977436099582 0 0.034523834079732377 -0.0019173250175905086 0 0.034756137811093699 -0.0021921977436099582 0 0.034523834079732377 -0.0019173250175905086 0 0.034807368616287332 -0.001652994243063037 0 0.035077985978792116 -0.0020374575368803257 0 0.034756137811093699 -0.0021921977436099582 0 0.034807368616287332 -0.001652994243063037 0 0.034349678376802389 -0.0016318886401768136 0 0.034523834079732377 -0.0019173250175905086 0 0.034807368616287332 -0.001652994243063037 0 0.034807368616287332 -0.001652994243063037 0 0.034633533027573153 -0.0011995126680331373 0 0.035046584279956654 -0.0012639908575624065 0 0.034349678376802389 -0.0016318886401768136 0 0.034807368616287332 -0.001652994243063037 0 0.034633533027573153 -0.0011995126680331373 0 0.034633533027573153 -0.0011995126680331373 0 0.034868698981429573 -0.0010457336344227945 0 0.035046584279956654 -0.0012639908575624065 0 0.033949548723085587 -0.0015771032397484544 0 0.034294421014105424 -0.001236754823634334 0 0.033893763069474135 -0.001195077070864377 0 0.034349678376802389 -0.0016318886401768136 0 0.034633533027573153 -0.0011995126680331373 0 0.034294421014105424 -0.001236754823634334 0 0.034349678376802389 -0.0016318886401768136 0 0.033949548723085587 -0.0015771032397484544 0 0.034294421014105424 -0.001236754823634334 0 0.034633533027573153 -0.0011995126680331373 0 0.034294421014105424 -0.001236754823634334 0 0.034348824302481512 -0.00087739556512172556 0 0.034294421014105424 -0.001236754823634334 0 0.034143724605422685 -0.0010383787940196579 0 0.034348824302481512 -0.00087739556512172556 0 0.034143724605422685 -0.0010383787940196579 0 0.033893763069474135 -0.001195077070864377 0 0.034038455958501294 -0.00087256746137763064 0 0.034294421014105424 -0.001236754823634334 0 0.034143724605422685 -0.0010383787940196579 0 0.033893763069474135 -0.001195077070864377 0 0.034348824302481512 -0.00087739556512172556 0 0.034208498740237132 -0.00060182576719883078 0 0.034644825949323423 -0.00054253041227412201 0 0.034143724605422685 -0.0010383787940196579 0 0.034348824302481512 -0.00087739556512172556 0 0.034038455958501294 -0.00087256746137763064 0 0.034348824302481512 -0.00087739556512172556 0 0.034038455958501294 -0.00087256746137763064 0 0.034208498740237132 -0.00060182576719883078 0 0.034348824302481512 -0.00087739556512172556 0 0.034739796153376148 -0.00085248409436982145 0 0.034644825949323423 -0.00054253041227412201 0 0.034633533027573153 -0.0011995126680331373 0 0.034868698981429573 -0.0010457336344227945 0 0.034739796153376148 -0.00085248409436982145 0 0.034868698981429573 -0.0010457336344227945 0 0.034739796153376148 -0.00085248409436982145 0 0.035046034331847678 -0.0008874088794702049 0 0.034633533027573153 -0.0011995126680331373 0 0.034348824302481512 -0.00087739556512172556 0 0.034739796153376148 -0.00085248409436982145 0 0.034739796153376148 -0.00085248409436982145 0 0.035046034331847678 -0.0008874088794702049 0 0.034886536898061718 -0.00064453587571150018 0 0.034868698981429573 -0.0010457336344227945 0 0.035046034331847678 -0.0008874088794702049 0 0.035046584279956654 -0.0012639908575624065 0 0.035046034331847678 -0.0008874088794702049 0 0.035340150236934181 -0.00080162476215128937 0 0.035329483292036327 -0.0011181346891623782 0 0.035046034331847678 -0.0008874088794702049 0 0.035329483292036327 -0.0011181346891623782 0 0.035046584279956654 -0.0012639908575624065 0 0.035046034331847678 -0.0008874088794702049 0 0.035340150236934181 -0.00080162476215128937 0 0.03511938525510639 -0.00058309979989876843 0 0.035340150236934181 -0.00080162476215128937 0 0.035550598891152682 -0.00099665153264115566 0 0.035556414915390952 -0.00075664323254372211 0 0.035340150236934181 -0.00080162476215128937 0 0.035550598891152682 -0.00099665153264115566 0 0.035329483292036327 -0.0011181346891623782 0 0.035550598891152682 -0.00099665153264115566 0 0.035329483292036327 -0.0011181346891623782 0 0.035666206506489002 -0.0013911423762200668 0 0.035329483292036327 -0.0011181346891623782 0 0.035666206506489002 -0.0013911423762200668 0 0.035349907353741154 -0.0015356036577841782 0 0.03507142180419278 -0.0016159094150906364 0 0.035349907353741154 -0.0015356036577841782 0 0.035046584279956654 -0.0012639908575624065 0 0.03507142180419278 -0.0016159094150906364 0 0.034807368616287332 -0.001652994243063037 0 0.035046584279956654 -0.0012639908575624065 0 0.035329483292036327 -0.0011181346891623782 0 0.035349907353741154 -0.0015356036577841782 0 0.035046584279956654 -0.0012639908575624065 0 0.027636627837488537 -0.0015337442050240362 0 0.028567193212964775 -0.0011030701532482618 0 0.027822624666165707 -0.0019506423167874815 0 0.028567193212964775 -0.0011030701532482618 0 0.027822624666165707 -0.0019506423167874815 0 0.029039491175372648 -0.0020049663996489129 0 0.027822624666165707 -0.0019506423167874815 0 0.028000359349704674 -0.0030990671149020033 0 0.029039491175372648 -0.0020049663996489129 0 0.027557887260556996 -0.0018563993045530556 0 0.027300365603314992 -0.0018023294248570485 0 0.027822624666165707 -0.0019506423167874815 0 0.027285614105893866 -0.0045409593063468956 0 0.027822624666165707 -0.0019506423167874815 0 0.028000359349704674 -0.0030990671149020033 0 0.02727680040484565 -0.0028477635774098002 0 0.027389359815475026 -0.0024799880140466009 0 0.028000359349704674 -0.0030990671149020033 0 0.029039491175372648 -0.0020049663996489129 0 0.029314857190404709 -0.0030915632122169856 0 0.031069978164542145 -0.0041955898956457542 0 0.029314857190404709 -0.0030915632122169856 0 0.030483151662186635 -0.0025465911650697655 0 0.029039491175372648 -0.0020049663996489129 0 0.029314857190404709 -0.0030915632122169856 0 0.030483151662186635 -0.0025465911650697655 0 0.028567193212964775 -0.0011030701532482618 0 0.030145936547658021 -0.0013692864517329708 0 0.029380652961437655 0.00027703623022615057 0 0.028567193212964775 -0.0011030701532482618 0 0.029039491175372648 -0.0020049663996489129 0 0.030145936547658021 -0.0013692864517329708 0 0.029039491175372648 -0.0020049663996489129 0 0.030483151662186635 -0.0025465911650697655 0 0.030145936547658021 -0.0013692864517329708 0 0.030145936547658021 -0.0013692864517329708 0 0.032279279399232766 -0.0021060799201557002 0 0.031945189069265835 -0.00052685999331357903 0 0.032961471066062564 -0.0012912694399025563 0 0.033008702557121516 -0.00092856625426295707 0 0.030483151662186635 -0.0025465911650697655 0 0.030145936547658021 -0.0013692864517329708 0 0.032279279399232766 -0.0021060799201557002 0 0.032279279399232766 -0.0021060799201557002 0 0.033375253284901492 -0.0015344078202791313 0 0.032900155848798698 -0.0014498426221216589 0 0.031069978164542145 -0.0041955898956457542 0 0.030483151662186635 -0.0025465911650697655 0 0.032279279399232766 -0.0021060799201557002 0 0.031069978164542145 -0.0041955898956457542 0 0.032279279399232766 -0.0021060799201557002 0 0.033157462842428521 -0.0027029379252564087 0 0.032279279399232766 -0.0021060799201557002 0 0.033157462842428521 -0.0027029379252564087 0 0.033514845079633725 -0.001999511290399953 0 0.034149321627280731 -0.0022215181174460182 0 0.033157462842428521 -0.0027029379252564087 0 0.033514845079633725 -0.001999511290399953 0 0.033550106271471584 -0.0035608228674775884 0 0.034149321627280731 -0.0022215181174460182 0 0.033157462842428521 -0.0027029379252564087 0 0.032279279399232766 -0.0021060799201557002 0 0.033514845079633725 -0.001999511290399953 0 0.033375253284901492 -0.0015344078202791313 0 0.033949548723085587 -0.0015771032397484544 0 0.033514845079633725 -0.001999511290399953 0 0.033375253284901492 -0.0015344078202791313 0 0.033949548723085587 -0.0015771032397484544 0 0.033375253284901492 -0.0015344078202791313 0 0.033893763069474135 -0.001195077070864377 0 0.033375253284901492 -0.0015344078202791313 0 0.033482610732251755 -0.0011727055591350052 0 0.033893763069474135 -0.001195077070864377 0 0.033375253284901492 -0.0015344078202791313 0 0.033482610732251755 -0.0011727055591350052 0 0.032900155848798698 -0.0014498426221216589 0 0.033482610732251755 -0.0011727055591350052 0 0.033720191961765233 -0.00079950112435495731 0 0.033198507830737412 -0.00085559408075621909 0 0.033482610732251755 -0.0011727055591350052 0 0.033786259007329497 -0.00096663965349035139 0 0.033720191961765233 -0.00079950112435495731 0 0.033482610732251755 -0.0011727055591350052 0 0.033786259007329497 -0.00096663965349035139 0 0.033893763069474135 -0.001195077070864377 0 0.033786259007329497 -0.00096663965349035139 0 0.033893763069474135 -0.001195077070864377 0 0.034038455958501294 -0.00087256746137763064 0 0.033968226729123932 -0.00070578513611614408 0 0.033720191961765233 -0.00079950112435495731 0 0.034072021362278618 -0.00045117476800694438 0 0.033786259007329497 -0.00096663965349035139 0 0.034038455958501294 -0.00087256746137763064 0 0.033968226729123932 -0.00070578513611614408 0 0.034038455958501294 -0.00087256746137763064 0 0.033968226729123932 -0.00070578513611614408 0 0.034208498740237132 -0.00060182576719883078 0 0.033786259007329497 -0.00096663965349035139 0 0.033968226729123932 -0.00070578513611614408 0 0.033720191961765233 -0.00079950112435495731 0 0.033720191961765233 -0.00079950112435495731 0 0.033682523383798478 -0.00080493560698703887 0 0.034072021362278618 -0.00045117476800694438 0 0.035055075748052444 -0.00025599700081223103 0 0.034999961374899892 -0.00021777484522016795 0 0.035045088236794843 -0.00015808646447058658 0 0.033167061349830017 -0.00029690891025535338 0 0.034034711217455577 -0.00037571282122544062 0 0.033199747336936813 -0.00030665440849382336 0 0.033167061349830017 -0.00029690891025535338 0 0.031814449512461991 0.0010290701012357808 0 0.031945189069265835 -0.00052685999331357903 0 0.029380652961437655 0.00027703623022615057 0 0.033482610732251755 -0.0011727055591350052 0 0.033198507830737412 -0.00085559408075621909 0 0.032900155848798698 -0.0014498426221216589 0 0.033167061349830017 -0.00029690891025535338 0 0.033008702557121516 -0.00092856625426295707 0 0.033167061349830017 -0.00029690891025535338 0 0.032441533289133268 -0.00039860243792252964 0 0.030145936547658021 -0.0013692864517329708 0 0.031945189069265835 -0.00052685999331357903 0 0.029380652961437655 0.00027703623022615057 0 0.034970772356637966 -0.00028437960224644084 0 0.034999961374899892 -0.00021777484522016795 0 0.034943215481470891 -0.00020007043440162052 0 0.035055075748052444 -0.00025599700081223103 0 0.034970772356637966 -0.00028437960224644084 0 0.034999961374899892 -0.00021777484522016795 0 0.034883829667802464 -0.00023777540757265493 0 0.034970772356637966 -0.00028437960224644084 0 0.034943215481470891 -0.00020007043440162052 0 0.034883829667802464 -0.00023777540757265493 0 0.034904319712710706 -0.00017357683887798953 0 0.034943215481470891 -0.00020007043440162052 0 0.034874994188916986 -0.0003294302108554759 0 0.034883829667802464 -0.00023777540757265493 0 0.034970772356637966 -0.00028437960224644084 0 0.027687374500078899 -0.00090379168295981688 0 0.028567193212964775 -0.0011030701532482618 0 0.029380652961437655 0.00027703623022615057 0 0.031773196378472132 -0.00069469744585664856 0 0.032441533289133268 -0.00039860243792252964 0 0.034905968943745369 -0.00010780371934223657 0 0.034943955079142872 -0.00010388908774935645 0 0.034924440785694913 -0.00012118951530502277 0 0.034943955079142872 -0.00010388908774935645 0 0.034924440785694913 -0.00012118951530502277 0 0.034937530963573889 -0.00014147971713855239 0 0.034943955079142872 -0.00010388908774935645 0 0.034937530963573889 -0.00014147971713855239 0 0.034979104123963607 -0.00011146917868612079 0 0.034905968943745369 -0.00010780371934223657 0 0.034924440785694913 -0.00012118951530502277 0 0.034904671002427404 -0.00014076175831077159 0 0.034924440785694913 -0.00012118951530502277 0 0.034904671002427404 -0.00014076175831077159 0 0.034937530963573889 -0.00014147971713855239 0 0.034904671002427404 -0.00014076175831077159 0 0.034904319712710706 -0.00017357683887798953 0 0.034937530963573889 -0.00014147971713855239 0 0.034904319712710706 -0.00017357683887798953 0 0.034943215481470891 -0.00020007043440162052 0 0.034937530963573889 -0.00014147971713855239 0 0.034943215481470891 -0.00020007043440162052 0 0.034937530963573889 -0.00014147971713855239 0 0.034980972896453175 -0.00016539727819146177 0 0.034999961374899892 -0.00021777484522016795 0 0.034980972896453175 -0.00016539727819146177 0 0.035045088236794843 -0.00015808646447058658 0 0.034980972896453175 -0.00016539727819146177 0 0.034979104123963607 -0.00011146917868612079 0 0.035045088236794843 -0.00015808646447058658 0 0.034999961374899892 -0.00021777484522016795 0 0.034943215481470891 -0.00020007043440162052 0 0.034980972896453175 -0.00016539727819146177 0 0.034937530963573889 -0.00014147971713855239 0 0.034980972896453175 -0.00016539727819146177 0 0.034979104123963607 -0.00011146917868612079 0 0.034979104123963607 -0.00011146917868612079 0 0.035045088236794843 -0.00015808646447058658 0 0.035027122487080821 -6.6035524511240539e-05 0 0.034072021362278618 -0.00045117476800694438 0 0.034556756062498001 -0.0001902494712124065 0 0.034530875294105534 -0.00012636661207936114 0 0.034034711217455577 -0.00037571282122544062 0 0.034579144357820273 -0.00022415982144889351 0 0.033968226729123932 -0.00070578513611614408 0 0.034072021362278618 -0.00045117476800694438 0 0.034208498740237132 -0.00060182576719883078 0 0.034072021362278618 -0.00045117476800694438 0 0.034208498740237132 -0.00060182576719883078 0 0.034513753313615753 -0.00034952241566308967 0 0.034072021362278618 -0.00045117476800694438 0 0.034556756062498001 -0.0001902494712124065 0 0.034513753313615753 -0.00034952241566308967 0 0.034556756062498001 -0.0001902494712124065 0 0.034773314927535187 -5.9132300768423895e-05 0 0.034530875294105534 -0.00012636661207936114 0 0.034556756062498001 -0.0001902494712124065 0 0.034773314927535187 -5.9132300768423895e-05 0 0.034821855629135375 -8.8635533973403208e-05 0 0.034773314927535187 -5.9132300768423895e-05 0 0.034999406876471982 -1.3052623681469575e-08 0 0.03499969965892212 -3.2842350094160057e-08 0 0.03500011508521917 -2.713182388067574e-08 0 0.035027122487080821 -6.6035524511240539e-05 0 0.034999892930198943 2.3355165368440822e-08 0 0.034773314927535187 -5.9132300768423895e-05 0 0.034999406876471982 -1.3052623681469575e-08 0 0.034530875294105534 -0.00012636661207936114 0 0.034999210074108646 -3.2915804616813294e-07 0 0.034579144357820273 -0.00022415982144889351 0 0.034979104123963607 -0.00011146917868612079 0 0.035027122487080821 -6.6035524511240539e-05 0 0.034958431920512997 -4.7794619500137749e-05 0 0.034943955079142872 -0.00010388908774935645 0 0.034979104123963607 -0.00011146917868612079 0 0.034958431920512997 -4.7794619500137749e-05 0 0.034999972241375354 -2.902664383353576e-08 0 0.034973881703776334 -3.0201321002475534e-05 0 0.035000001885202955 -1.4329325773298594e-09 0 0.034999995595270346 2.684648465018628e-09 0 0.034998911987028272 -3.8637085680231556e-07 0 0.035027122487080821 -6.6035524511240539e-05 0 0.034999892930198943 2.3355165368440822e-08 0 0.034958431920512997 -4.7794619500137749e-05 0 0.034991720820682248 -1.1562658291272001e-06 0 0.034999995595270346 2.684648465018628e-09 0 0.034998911987028272 -3.8637085680231556e-07 0 0.034940872303522684 -6.8902983719179573e-05 0 0.034973881703776334 -3.0201321002475534e-05 0 0.034905968943745369 -0.00010780371934223657 0 0.034943955079142872 -0.00010388908774935645 0 0.034958431920512997 -4.7794619500137749e-05 0 0.034987824976678884 -2.9806513742760321e-06 0 0.034991720820682248 -1.1562658291272001e-06 0 0.034998911987028272 -3.8637085680231556e-07 0 0.034987824976678884 -2.9806513742760321e-06 0 0.034996331541840654 -1.0978184763362083e-05 0 0.034998911987028272 -3.8637085680231556e-07 0 0.035108328334880791 -0.0003155546283153004 0 0.034936509590741613 -0.00044634131301356196 0 0.034836881097002094 -0.0002752182027102469 0 0.035108328334880791 -0.0003155546283153004 0 0.034836881097002094 -0.0002752182027102469 0 0.035015542272125708 -9.1101235024151596e-05 0 0.035108328334880791 -0.0003155546283153004 0 0.035349298053838969 -0.00051699450146943033 0 0.035322480060741936 -0.00014641405425198269 0 0.035108328334880791 -0.0003155546283153004 0 0.035349298053838969 -0.00051699450146943033 0 0.03511938525510639 -0.00058309979989876843 0 0.035340150236934181 -0.00080162476215128937 0 0.035349298053838969 -0.00051699450146943033 0 0.035556414915390952 -0.00075664323254372211 0 0.035340150236934181 -0.00080162476215128937 0 0.035349298053838969 -0.00051699450146943033 0 0.03511938525510639 -0.00058309979989876843 0 0.035108328334880791 -0.0003155546283153004 0 0.03511938525510639 -0.00058309979989876843 0 0.034936509590741613 -0.00044634131301356196 0 0.03511938525510639 -0.00058309979989876843 0 0.034936509590741613 -0.00044634131301356196 0 0.034886536898061718 -0.00064453587571150018 0 0.035046034331847678 -0.0008874088794702049 0 0.03511938525510639 -0.00058309979989876843 0 0.034886536898061718 -0.00064453587571150018 0 0.034936509590741613 -0.00044634131301356196 0 0.034644825949323423 -0.00054253041227412201 0 0.034836881097002094 -0.0002752182027102469 0 0.034739796153376148 -0.00085248409436982145 0 0.034886536898061718 -0.00064453587571150018 0 0.034644825949323423 -0.00054253041227412201 0 0.034936509590741613 -0.00044634131301356196 0 0.034886536898061718 -0.00064453587571150018 0 0.034644825949323423 -0.00054253041227412201 0 0.034208498740237132 -0.00060182576719883078 0 0.034644825949323423 -0.00054253041227412201 0 0.034513753313615753 -0.00034952241566308967 0 0.034556756062498001 -0.0001902494712124065 0 0.034513753313615753 -0.00034952241566308967 0 0.034821855629135375 -8.8635533973403208e-05 0 0.034644825949323423 -0.00054253041227412201 0 0.034513753313615753 -0.00034952241566308967 0 0.034836881097002094 -0.0002752182027102469 0 0.034513753313615753 -0.00034952241566308967 0 0.034836881097002094 -0.0002752182027102469 0 0.034821855629135375 -8.8635533973403208e-05 0 0.034836881097002094 -0.0002752182027102469 0 0.034821855629135375 -8.8635533973403208e-05 0 0.035015542272125708 -9.1101235024151596e-05 0 0.034773314927535187 -5.9132300768423895e-05 0 0.034821855629135375 -8.8635533973403208e-05 0 0.03499969965892212 -3.2842350094160057e-08 0 0.034821855629135375 -8.8635533973403208e-05 0 0.03499969965892212 -3.2842350094160057e-08 0 0.03499987063033981 -3.3226228547879296e-08 0 0.034821855629135375 -8.8635533973403208e-05 0 0.03499987063033981 -3.3226228547879296e-08 0 0.035015542272125708 -9.1101235024151596e-05 0 0.03499987063033981 -3.3226228547879296e-08 0 0.035015542272125708 -9.1101235024151596e-05 0 0.035000577440091385 7.3352179750480371e-08 0 0.035108328334880791 -0.0003155546283153004 0 0.035015542272125708 -9.1101235024151596e-05 0 0.035322480060741936 -0.00014641405425198269 0 0.035015542272125708 -9.1101235024151596e-05 0 0.035000577440091385 7.3352179750480371e-08 0 0.035322480060741936 -0.00014641405425198269 0 0.03499999409309229 2.6418019329272853e-09 0 0.034999706455800791 -2.0059540449456285e-06 0 0.034999999495802722 -3.3264421611785004e-09 0 0.03499999409309229 2.6418019329272853e-09 0 0.034999706455800791 -2.0059540449456285e-06 0 0.034997937253839574 -8.6385479114729038e-06 0 0.03500005756663066 -2.2024424463311693e-07 0 0.035034170478117993 -0.00019917109265352395 0 0.034999706455800791 -2.0059540449456285e-06 0 0.034998145594727761 -1.7872063488160383e-06 0 0.03499786413233788 -2.3376996628468207e-06 0 0.034999706455800791 -2.0059540449456285e-06 0 0.034999999495802722 -3.3264421611785004e-09 0 0.034998145594727761 -1.7872063488160383e-06 0 0.034999999495802722 -3.3264421611785004e-09 0 0.034998145594727761 -1.7872063488160383e-06 0 0.03499905738318454 -8.2210382050620375e-07 0 0.034998145594727761 -1.7872063488160383e-06 0 0.034997710450258138 -2.034739573568111e-06 0 0.03499905738318454 -8.2210382050620375e-07 0 0.034998145594727761 -1.7872063488160383e-06 0 0.03499718463593432 -2.6277935091303983e-06 0 0.03499786413233788 -2.3376996628468207e-06 0 0.034998145594727761 -1.7872063488160383e-06 0 0.03499718463593432 -2.6277935091303983e-06 0 0.03499683123933079 -2.8736385284994414e-06 0 0.03499718463593432 -2.6277935091303983e-06 0 0.03499683123933079 -2.8736385284994414e-06 0 0.034996122612985889 -3.7003543359189763e-06 0 0.034998145594727761 -1.7872063488160383e-06 0 0.03499683123933079 -2.8736385284994414e-06 0 0.034997710450258138 -2.034739573568111e-06 0 0.034973357447631276 -6.7591483959875834e-05 0 0.034973317321076683 -0.00013110534308809031 0 0.034999706455800791 -2.0059540449456285e-06 0 0.034997937253839574 -8.6385479114729038e-06 0 0.034999402670065925 -1.0931040997934237e-05 0 0.034999706455800791 -2.0059540449456285e-06 0 0.03499786413233788 -2.3376996628468207e-06 0 0.034996456470792352 -3.0164388786365489e-06 0 0.03499718463593432 -2.6277935091303983e-06 0 0.03499786413233788 -2.3376996628468207e-06 0 0.034996456470792352 -3.0164388786365489e-06 0 0.03499718463593432 -2.6277935091303983e-06 0 0.034996456470792352 -3.0164388786365489e-06 0 0.034996122612985889 -3.7003543359189763e-06 0 0.034996456470792352 -3.0164388786365489e-06 0 0.034996122612985889 -3.7003543359189763e-06 0 0.034995427552407907 -4.8482185804700979e-06 0 0.035349298053838969 -0.00051699450146943033 0 0.035322480060741936 -0.00014641405425198269 0 0.035660255141138471 -0.00054496541313418247 0 0.035034170478117993 -0.00019917109265352395 0 0.034984188002362741 -0.00044672232009838311 0 0.034973317321076683 -0.00013110534308809031 0 0.034984188002362741 -0.00044672232009838311 0 0.034997937253839574 -8.6385479114729038e-06 0 0.034999402670065925 -1.0931040997934237e-05 0 0.034999016187683377 -2.4436751425308977e-05 0 0.03499683123933079 -2.8736385284994414e-06 0 0.03499442190518133 -4.5808781531649591e-06 0 0.034997710450258138 -2.034739573568111e-06 0 0.03499683123933079 -2.8736385284994414e-06 0 0.034996122612985889 -3.7003543359189763e-06 0 0.03499442190518133 -4.5808781531649591e-06 0 0.034996122612985889 -3.7003543359189763e-06 0 0.034995427552407907 -4.8482185804700979e-06 0 0.03499442190518133 -4.5808781531649591e-06 0 0.035098418944179741 -0.00031985065507693312 0 0.034910858761755849 -0.00073920918822505371 0 0.03499442190518133 -4.5808781531649591e-06 0 0.034983999985444818 -1.1896560657409448e-05 0 0.03499109137565036 -9.9934796768943513e-06 0 0.034995427552407907 -4.8482185804700979e-06 0 0.03499442190518133 -4.5808781531649591e-06 0 0.034995285354010877 -5.4015676492443774e-06 0 0.034984188002362741 -0.00044672232009838311 0 0.03496237592361507 -0.00088707244188625917 0 0.035349298053838969 -0.00051699450146943033 0 0.035660255141138471 -0.00054496541313418247 0 0.035556414915390952 -0.00075664323254372211 0 0.035660255141138471 -0.00054496541313418247 0 0.03581993824782731 -0.00094077159060626189 0 0.035556414915390952 -0.00075664323254372211 0 0.034984188002362741 -0.00044672232009838311 0 0.034910858761755849 -0.00073920918822505371 0 0.034997018248955042 -6.5020981364132555e-06 0 0.034998886712790715 -8.0047014549132127e-06 0 0.034996346889993223 -1.1022645993542605e-05 0 0.034997018248955042 -6.5020981364132555e-06 0 0.034994294621196048 -8.8954316295951879e-06 0 0.034996346889993223 -1.1022645993542605e-05 0 0.034994294621196048 -8.8954316295951879e-06 0 0.03499442190518133 -4.5808781531649591e-06 0 0.03499109137565036 -9.9934796768943513e-06 0 0.034997018248955042 -6.5020981364132555e-06 0 0.034994294621196048 -8.8954316295951879e-06 0 0.03499442190518133 -4.5808781531649591e-06 0 0.03499442190518133 -4.5808781531649591e-06 0 0.034997961342918146 -2.4785518704647564e-06 0 0.034997710450258138 -2.034739573568111e-06 0 0.034997018248955042 -6.5020981364132555e-06 0 0.03499442190518133 -4.5808781531649591e-06 0 0.034997961342918146 -2.4785518704647564e-06 0 0.034997387600020684 3.2408435811355193e-06 0 0.034995590622017188 5.0244796975929267e-06 0 0.034997018248955042 -6.5020981364132555e-06 0 0.034997961342918146 -2.4785518704647564e-06 0 0.035000069910924886 -4.6355474268814104e-06 0 0.034997961342918146 -2.4785518704647564e-06 0 0.034999422328243719 -8.6882238465719543e-07 0 0.034999569444591108 -8.8159466480444612e-07 0 0.034997961342918146 -2.4785518704647564e-06 0 0.034999422328243719 -8.6882238465719543e-07 0 0.034997710450258138 -2.034739573568111e-06 0 0.034999422328243719 -8.6882238465719543e-07 0 0.034997710450258138 -2.034739573568111e-06 0 0.03499905738318454 -8.2210382050620375e-07 0 0.034999422328243719 -8.6882238465719543e-07 0 0.034999998136690233 5.4847531423410144e-10 0 0.03499905738318454 -8.2210382050620375e-07 0 0.034999999495802722 -3.3264421611785004e-09 0 0.034999998136690233 5.4847531423410144e-10 0 0.03499905738318454 -8.2210382050620375e-07 0 0.034999422328243719 -8.6882238465719543e-07 0 0.034999998136690233 5.4847531423410144e-10 0 0.034999999573702444 -2.5429234131422145e-09 0 0.034999422328243719 -8.6882238465719543e-07 0 0.034999999573702444 -2.5429234131422145e-09 0 0.034999562640095565 -7.7939996222694456e-07 0 0.034999998621603259 -5.0728927596270122e-10 0 0.034999114628333917 -1.1562518879550401e-07 0 0.034999999573702444 -2.5429234131422145e-09 0 0.034999562640095565 -7.7939996222694456e-07 0 0.034998990318594672 -1.3615685795853155e-06 0 0.034999999701732842 -1.852208638597867e-10 0 0.035000000790059209 4.5073507953323241e-10 0 0.035000031820719014 9.4076598844718708e-08 0 0.034999562640095565 -7.7939996222694456e-07 0 0.034998990318594672 -1.3615685795853155e-06 0 0.034999061115738923 -8.2347173561368267e-07 0 0.034999562640095565 -7.7939996222694456e-07 0 0.034999061115738923 -8.2347173561368267e-07 0 0.034999438005062021 -7.7186535228012774e-07 0 0.034999061115738923 -8.2347173561368267e-07 0 0.034998716456745786 -2.5195524677315188e-07 0 0.034999438005062021 -7.7186535228012774e-07 0 0.034999422328243719 -8.6882238465719543e-07 0 0.034999562640095565 -7.7939996222694456e-07 0 0.034999438005062021 -7.7186535228012774e-07 0 0.034999422328243719 -8.6882238465719543e-07 0 0.034999438005062021 -7.7186535228012774e-07 0 0.034999569444591108 -8.8159466480444612e-07 0 0.034999997265131789 -9.8227614697096929e-10 0 0.034997764672634372 1.9264506742659646e-07 0 0.034999764704881232 4.6879320451348242e-07 0 0.035000000790059209 4.5073507953323241e-10 0 0.035000031820719014 9.4076598844718708e-08 0 0.034999764704881232 4.6879320451348242e-07 0 0.034998990318594672 -1.3615685795853155e-06 0 0.034999061115738923 -8.2347173561368267e-07 0 0.034996820715852153 -1.1908657923205199e-06 0 0.035000000790059209 4.5073507953323241e-10 0 0.034999997265131789 -9.8227614697096929e-10 0 0.034999764704881232 4.6879320451348242e-07 0 0.034999114628333917 -1.1562518879550401e-07 0 0.03499817819104617 -8.7936225335188589e-08 0 0.034999061115738923 -8.2347173561368267e-07 0 0.034998716456745786 -2.5195524677315188e-07 0 0.034996820715852153 -1.1908657923205199e-06 0 0.034998716456745786 -2.5195524677315188e-07 0 0.034996820715852153 -1.1908657923205199e-06 0 0.03499692751144895 6.6003258792708548e-07 0 0.03499817819104617 -8.7936225335188589e-08 0 0.034997277964019906 1.0005317240135485e-07 0 0.034996820715852153 -1.1908657923205199e-06 0 0.034995158252807169 3.2801021171189795e-07 0 0.034994387024280711 1.6623705683978952e-07 0 0.034997764672634372 1.9264506742659646e-07 0 0.034999764704881232 4.6879320451348242e-07 0 0.034994387024280711 1.6623705683978952e-07 0 0.034996820715852153 -1.1908657923205199e-06 0 0.034995158252807169 3.2801021171189795e-07 0 0.03499692751144895 6.6003258792708548e-07 0 0.034995344999148061 1.5204018694209368e-06 0 0.03499692751144895 6.6003258792708548e-07 0 0.034996507475424606 2.3717504375743197e-06 0 0.034995344999148061 1.5204018694209368e-06 0 0.034995158252807169 3.2801021171189795e-07 0 0.03499692751144895 6.6003258792708548e-07 0 0.034998716456745786 -2.5195524677315188e-07 0 0.03499692751144895 6.6003258792708548e-07 0 0.034998516166645718 1.0534345747816981e-06 0 0.035005580123005059 -8.928688122249533e-06 0 0.035008664372726414 -7.9103102012823774e-06 0 0.03500413782718878 -6.297147440621366e-06 0 0.034926971412725778 4.1487788086496443e-05 0 0.034982958149143137 1.3366403683619483e-05 0 0.03499692751144895 6.6003258792708548e-07 0 0.034996507475424606 2.3717504375743197e-06 0 0.034998516166645718 1.0534345747816981e-06 0 0.034972441098098273 -2.2280446567558126e-05 0 0.034972738995283824 -1.7388050501328282e-05 0 0.034977978726068358 -1.6023936305624103e-05 0 0.034978802039823835 -6.0039124412723642e-06 0 0.034971395619267202 -1.3182366503106347e-05 0 0.034982098411744211 -1.1236929432707598e-05 0 0.034926971412725778 4.1487788086496443e-05 0 0.034948135675499835 2.9515704871595283e-05 0 0.034971395619267202 -1.3182366503106347e-05 0 0.034977978726068358 -1.6023936305624103e-05 0 0.034982098411744211 -1.1236929432707598e-05 0 0.034943346352565692 3.1502409341309923e-05 0 0.034926971412725778 4.1487788086496443e-05 0 0.034998716456745786 -2.5195524677315188e-07 0 0.034999569444591108 -8.8159466480444612e-07 0 0.034998516166645718 1.0534345747816981e-06 0 0.034995590622017188 5.0244796975929267e-06 0 0.034982958149143137 1.3366403683619483e-05 0 0.034998716456745786 -2.5195524677315188e-07 0 0.034999438005062021 -7.7186535228012774e-07 0 0.034999569444591108 -8.8159466480444612e-07 0 0.035005580123005059 -8.928688122249533e-06 0 0.03500413782718878 -6.297147440621366e-06 0 0.035002900663385655 -9.8235260812500036e-06 0 0.03500413782718878 -6.297147440621366e-06 0 0.035001063209201412 -7.639857344824682e-06 0 0.035002900663385655 -9.8235260812500036e-06 0 0.035000069910924886 -4.6355474268814104e-06 0 0.03500413782718878 -6.297147440621366e-06 0 0.035001063209201412 -7.639857344824682e-06 0 0.035000069910924886 -4.6355474268814104e-06 0 0.035001063209201412 -7.639857344824682e-06 0 0.034998886712790715 -8.0047014549132127e-06 0 0.035001063209201412 -7.639857344824682e-06 0 0.034998886712790715 -8.0047014549132127e-06 0 0.034999666216600341 -1.1124366443364102e-05 0 0.034997018248955042 -6.5020981364132555e-06 0 0.035000069910924886 -4.6355474268814104e-06 0 0.034998886712790715 -8.0047014549132127e-06 0 0.034998886712790715 -8.0047014549132127e-06 0 0.034999666216600341 -1.1124366443364102e-05 0 0.034996346889993223 -1.1022645993542605e-05 0 0.034999666216600341 -1.1124366443364102e-05 0 0.034997527789644815 -1.4251562491414071e-05 0 0.034999415379207303 -1.4663843134931784e-05 0 0.034999666216600341 -1.1124366443364102e-05 0 0.034997527789644815 -1.4251562491414071e-05 0 0.034996346889993223 -1.1022645993542605e-05 0 0.034999666216600341 -1.1124366443364102e-05 0 0.035001335443099496 -1.3705866228893516e-05 0 0.034999415379207303 -1.4663843134931784e-05 0 0.035001063209201412 -7.639857344824682e-06 0 0.034999666216600341 -1.1124366443364102e-05 0 0.035002900663385655 -9.8235260812500036e-06 0 0.035002900663385655 -9.8235260812500036e-06 0 0.035001335443099496 -1.3705866228893516e-05 0 0.035005152646091192 -1.2314452360735956e-05 0 0.035005580123005059 -8.928688122249533e-06 0 0.035002900663385655 -9.8235260812500036e-06 0 0.035005152646091192 -1.2314452360735956e-05 0 0.034999666216600341 -1.1124366443364102e-05 0 0.035002900663385655 -9.8235260812500036e-06 0 0.035001335443099496 -1.3705866228893516e-05 0 0.035052135154407298 3.5078126314399084e-05 0 0.034995422620080513 -1.5176820987977268e-05 0 0.035005538097204379 2.2451740156495778e-05 0 0.035001335443099496 -1.3705866228893516e-05 0 0.035000936532009815 -1.7577426318373406e-05 0 0.035005152646091192 -1.2314452360735956e-05 0 0.034358253121808673 0.00014907961409741649 0 0.034759514264958366 0.00011949041004833013 0 0.035001335443099496 -1.3705866228893516e-05 0 0.035000936532009815 -1.7577426318373406e-05 0 0.034999765065882538 -1.7238973930203324e-05 0 0.034358253121808673 0.00014907961409741649 0 0.034381233088897706 0.00014107024873376118 0 0.035001000686141231 -1.7747868065195979e-05 0 0.034999765065882538 -1.7238973930203324e-05 0 0.034998183207727053 -1.811603844659775e-05 0 0.034999765065882538 -1.7238973930203324e-05 0 0.034998242746374315 -1.6283897664201143e-05 0 0.034999415379207303 -1.4663843134931784e-05 0 0.034999765065882538 -1.7238973930203324e-05 0 0.034998242746374315 -1.6283897664201143e-05 0 0.034998183207727053 -1.811603844659775e-05 0 0.034998242746374315 -1.6283897664201143e-05 0 0.034997527789644815 -1.4251562491414071e-05 0 0.034996324709614633 -1.7246645106206898e-05 0 0.034998242746374315 -1.6283897664201143e-05 0 0.034998183207727053 -1.811603844659775e-05 0 0.034996324709614633 -1.7246645106206898e-05 0 0.034998242746374315 -1.6283897664201143e-05 0 0.034997527789644815 -1.4251562491414071e-05 0 0.034999415379207303 -1.4663843134931784e-05 0 0.035001335443099496 -1.3705866228893516e-05 0 0.034999765065882538 -1.7238973930203324e-05 0 0.034999415379207303 -1.4663843134931784e-05 0 0.034972441098098273 -2.2280446567558126e-05 0 0.034972738995283824 -1.7388050501328282e-05 0 0.034974917326005647 -1.3892114139429946e-05 0 0.034969246512350616 -1.4847194493019743e-05 0 0.034972738995283824 -1.7388050501328282e-05 0 0.034977978726068358 -1.6023936305624103e-05 0 0.034969246512350616 -1.4847194493019743e-05 0 0.034972738995283824 -1.7388050501328282e-05 0 0.034974917326005647 -1.3892114139429946e-05 0 0.034926971412725778 4.1487788086496443e-05 0 0.034759514264958366 0.00011949041004833013 0 0.035005580123005059 -8.928688122249533e-06 0 0.035008664372726414 -7.9103102012823774e-06 0 0.035005152646091192 -1.2314452360735956e-05 0 0.034972441098098273 -2.2280446567558126e-05 0 0.034974917326005647 -1.3892114139429946e-05 0 0.034995422620080513 -1.5176820987977268e-05 0 0.034974917326005647 -1.3892114139429946e-05 0 0.034995422620080513 -1.5176820987977268e-05 0 0.034966321201367931 1.345060770647733e-05 0 0.034995422620080513 -1.5176820987977268e-05 0 0.035005538097204379 2.2451740156495778e-05 0 0.034966321201367931 1.345060770647733e-05 0 0.035005538097204379 2.2451740156495778e-05 0 0.034966321201367931 1.345060770647733e-05 0 0.035005581952894195 6.190500196300628e-05 0 0.034969246512350616 -1.4847194493019743e-05 0 0.034974917326005647 -1.3892114139429946e-05 0 0.034966321201367931 1.345060770647733e-05 0 0.034869822396756373 -8.774934744936804e-05 0 0.034966321201367931 1.345060770647733e-05 0 0.0348680435797478 3.2055886211345374e-05 0 0.034877203247456551 -2.5388189386110433e-05 0 0.034904135362672575 -7.1173524718355056e-06 0 0.034860638813797779 0.00010394911905335591 0 0.03493337519940018 0.00011579834078174168 0 0.034788893253851226 0.00017389282807543383 0 0.034966321201367931 1.345060770647733e-05 0 0.0348680435797478 3.2055886211345374e-05 0 0.034930843760633323 0.00010787306266341839 0 0.0348680435797478 3.2055886211345374e-05 0 0.034860638813797779 0.00010394911905335591 0 0.034930843760633323 0.00010787306266341839 0 0.034071847148949688 0.00040094694329966788 0 0.033921645843483936 0.0003958750606346862 0 0.034031105922458109 0.00032912649062808688 0 0.033979763646210442 0.00034813298314391369 0 0.033950752161884416 0.00031457947900945623 0 0.033921645843483936 0.0003958750606346862 0 0.03357429436167117 0.00037260778059622932 0 0.033921645843483936 0.0003958750606346862 0 0.03425941274059436 0.00023447517200198229 0 0.034966321201367931 1.345060770647733e-05 0 0.034930843760633323 0.00010787306266341839 0 0.035005581952894195 6.190500196300628e-05 0 0.032652968731153552 0.001008583715009127 0 0.032873152739771615 0.0010774046806244874 0 0.032763230985689777 0.0012175181818441703 0 0.033921645843483936 0.0003958750606346862 0 0.033649624750531612 0.0006082873388369689 0 0.032652968731153552 0.001008583715009127 0 0.032448275625946127 0.0010453465232848421 0 0.032546899100150309 0.0012433734325330982 0 0.032652968731153552 0.001008583715009127 0 0.032546899100150309 0.0012433734325330982 0 0.032763230985689777 0.0012175181818441703 0 0.035001000686141231 -1.7747868065195979e-05 0 0.034998183207727053 -1.811603844659775e-05 0 0.034995853930646796 -2.0644322975139689e-05 0 0.033928249980181471 0.00036757121496725794 0 0.033950752161884416 0.00031457947900945623 0 0.033869719113421459 0.00030028701803936671 0 0.034358253121808673 0.00014907961409741649 0 0.03361377224405792 0.00021589527334384164 0 0.035001000686141231 -1.7747868065195979e-05 0 0.034994977565004311 -2.4658356330617363e-05 0 0.034995853930646796 -2.0644322975139689e-05 0 0.034998183207727053 -1.811603844659775e-05 0 0.034995853930646796 -2.0644322975139689e-05 0 0.034996324709614633 -1.7246645106206898e-05 0 0.033928249980181471 0.00036757121496725794 0 0.033979763646210442 0.00034813298314391369 0 0.033950752161884416 0.00031457947900945623 0 0.034358253121808673 0.00014907961409741649 0 0.03425941274059436 0.00023447517200198229 0 0.035052135154407298 3.5078126314399084e-05 0 0.035005538097204379 2.2451740156495778e-05 0 0.035005581952894195 6.190500196300628e-05 0 0.032873152739771615 0.0010774046806244874 0 0.032943086223814567 0.0012648991076744708 0 0.032763230985689777 0.0012175181818441703 0 0.032873152739771615 0.0010774046806244874 0 0.033081986244082318 0.0011258610641408824 0 0.032943086223814567 0.0012648991076744708 0 0.03357429436167117 0.00037260778059622932 0 0.03361377224405792 0.00021589527334384164 0 0.033013310630041759 7.6306841813515079e-05 0 0.032613334843722044 7.5411599186905482e-06 0 0.032727631932201837 -0.00025205318524121323 0 0.03361377224405792 0.00021589527334384164 0 0.033458572552750039 -0.00023391923919859579 0 0.03361377224405792 0.00021589527334384164 0 0.032757798897056024 0.00025632535993062465 0 0.034994977565004311 -2.4658356330617363e-05 0 0.034990158673316347 -2.1866348230532501e-05 0 0.034989330806528073 -2.6112950006081201e-05 0 0.034995853930646796 -2.0644322975139689e-05 0 0.034993369008679283 -1.8572315056484558e-05 0 0.034990158673316347 -2.1866348230532501e-05 0 0.034994977565004311 -2.4658356330617363e-05 0 0.034995853930646796 -2.0644322975139689e-05 0 0.034990158673316347 -2.1866348230532501e-05 0 0.034995853930646796 -2.0644322975139689e-05 0 0.034993369008679283 -1.8572315056484558e-05 0 0.034996324709614633 -1.7246645106206898e-05 0 0.034990158673316347 -2.1866348230532501e-05 0 0.034983900070789449 -1.9653757642273846e-05 0 0.034990410893971938 -1.7097093002176153e-05 0 0.034993369008679283 -1.8572315056484558e-05 0 0.034990158673316347 -2.1866348230532501e-05 0 0.034990410893971938 -1.7097093002176153e-05 0 0.033458572552750039 -0.00023391923919859579 0 0.032857168939661445 -0.00080391016627798684 0 0.034990158673316347 -2.1866348230532501e-05 0 0.034989330806528073 -2.6112950006081201e-05 0 0.034983179401281372 -2.7470207523569804e-05 0 0.032613334843722044 7.5411599186905482e-06 0 0.032397256247781864 -9.5113311902572924e-05 0 0.032215226226099139 -6.1908178386397333e-05 0 0.032546826841148249 -0.00015725936249039651 0 0.032613334843722044 7.5411599186905482e-06 0 0.032727631932201837 -0.00025205318524121323 0 0.032546826841148249 -0.00015725936249039651 0 0.032613334843722044 7.5411599186905482e-06 0 0.032397256247781864 -9.5113311902572924e-05 0 0.032397256247781864 -9.5113311902572924e-05 0 0.032215226226099139 -6.1908178386397333e-05 0 0.032225570033712216 -0.00010857632496334931 0 0.03167045966019022 -0.0015182252821750255 0 0.032186923182957683 -0.0014801001585995296 0 0.03159970589134041 -0.0011990427579215591 0 0.032397256247781864 -9.5113311902572924e-05 0 0.032225217747202738 -0.00010788715280271551 0 0.032248571770738879 -0.00021340395700237476 0 0.036349675564105496 -0.0026677451801361872 0 0.036147133601149697 -0.0024840439132900569 0 0.036221028081076724 -0.0022888300996315668 0 0.032857168939661445 -0.00080391016627798684 0 0.034101098070100713 -0.001426135926719072 0 0.032472755293853288 -0.00068524330792881568 0 0.032482319812307731 -0.00069841404983682831 0 0.032482319812307731 -0.00069841404983682831 0 0.031987723146306386 -0.00062120780698517381 0 0.036349675564105496 -0.0026677451801361872 0 0.036359253430133007 -0.0027126317935495794 0 0.036193204390060241 -0.0027252950071788066 0 0.032857168939661445 -0.00080391016627798684 0 0.032482319812307731 -0.00069841404983682831 0 0.036349675564105496 -0.0026677451801361872 0 0.036163687932046273 -0.0026905918525500522 0 0.036109322610861978 -0.0025943130223934231 0 0.036349675564105496 -0.0026677451801361872 0 0.036193204390060241 -0.0027252950071788066 0 0.036163687932046273 -0.0026905918525500522 0 0.032482319812307731 -0.00069841404983682831 0 0.031650683996112809 -0.0009525705886621851 0 0.031650683996112809 -0.0009525705886621851 0 0.031673013545920843 -0.00097262522166919956 0 0.036349675564105496 -0.0026677451801361872 0 0.036147133601149697 -0.0024840439132900569 0 0.036109322610861978 -0.0025943130223934231 0 0.035577610945750376 -0.0027976641536402165 0 0.03619346461384567 -0.002724405323768159 0 0.035984801247470152 -0.0026373600957169509 0 0.030603303930250018 -0.002520160854496693 0 0.031650683996112809 -0.0009525705886621851 0 0.035577610945750376 -0.0027976641536402165 0 0.035984801247470152 -0.0026373600957169509 0 0.035817812048861225 -0.0024989126281299884 0 0.036163687932046273 -0.0026905918525500522 0 0.035984801247470152 -0.0026373600957169509 0 0.036109322610861978 -0.0025943130223934231 0 0.03619346461384567 -0.002724405323768159 0 0.036163687932046273 -0.0026905918525500522 0 0.035984801247470152 -0.0026373600957169509 0 0.035984801247470152 -0.0026373600957169509 0 0.036043815086256092 -0.0025172854358950785 0 0.036109322610861978 -0.0025943130223934231 0 0.036147133601149697 -0.0024840439132900569 0 0.036043815086256092 -0.0025172854358950785 0 0.036109322610861978 -0.0025943130223934231 0 0.036147133601149697 -0.0024840439132900569 0 0.036066389839813494 -0.0024438159739537907 0 0.036098390551580227 -0.0023667128760997413 0 0.036147133601149697 -0.0024840439132900569 0 0.036043815086256092 -0.0025172854358950785 0 0.036066389839813494 -0.0024438159739537907 0 0.036043815086256092 -0.0025172854358950785 0 0.036066389839813494 -0.0024438159739537907 0 0.035975997639288902 -0.0024071953749409069 0 0.036043815086256092 -0.0025172854358950785 0 0.035817812048861225 -0.0024989126281299884 0 0.035975997639288902 -0.0024071953749409069 0 0.035984801247470152 -0.0026373600957169509 0 0.036043815086256092 -0.0025172854358950785 0 0.035817812048861225 -0.0024989126281299884 0 0.036042540410701561 -0.0021343382982641911 0 0.036135467954515541 -0.0022726218426409881 0 0.036096849337653648 -0.0018996876461604836 0 0.035016459033491334 -0.0017629783516066428 0 0.034871466491842612 -0.0015251096387363097 0 0.035817812048861225 -0.0024989126281299884 0 0.035807710876807168 -0.0022868252495029692 0 0.035975997639288902 -0.0024071953749409069 0 0.035807710876807168 -0.0022868252495029692 0 0.036001525445617723 -0.0022738112844497378 0 0.035975997639288902 -0.0024071953749409069 0 0.036001525445617723 -0.0022738112844497378 0 0.035975997639288902 -0.0024071953749409069 0 0.036098390551580227 -0.0023667128760997413 0 0.036066389839813494 -0.0024438159739537907 0 0.035975997639288902 -0.0024071953749409069 0 0.036098390551580227 -0.0023667128760997413 0 0.036001525445617723 -0.0022738112844497378 0 0.036098390551580227 -0.0023667128760997413 0 0.036135467954515541 -0.0022726218426409881 0 0.036001525445617723 -0.0022738112844497378 0 0.036042540410701561 -0.0021343382982641911 0 0.036135467954515541 -0.0022726218426409881 0 0.036042540410701561 -0.0021343382982641911 0 0.035930883421757195 -0.0021469611023211942 0 0.035975883362365506 -0.0019785865555752833 0 0.036001525445617723 -0.0022738112844497378 0 0.036042540410701561 -0.0021343382982641911 0 0.035930883421757195 -0.0021469611023211942 0 0.035807710876807168 -0.0022868252495029692 0 0.036001525445617723 -0.0022738112844497378 0 0.035930883421757195 -0.0021469611023211942 0 0.035759743836108498 -0.0019577465546946932 0 0.035807710876807168 -0.0022868252495029692 0 0.035930883421757195 -0.0021469611023211942 0 0.034083726986711672 -0.0010129006350460365 0 0.034084492068617085 -0.00092997269697735348 0 0.034141750167006032 -0.0010916710200646511 0 0.034019972041197666 -0.00076926773207061725 0 0.034083726986711672 -0.0010129006350460365 0 0.034084492068617085 -0.00092997269697735348 0 0.036135467954515541 -0.0022726218426409881 0 0.036221028081076724 -0.0022888300996315668 0 0.036093012220365948 -0.0018873434354650023 0 0.032857168939661445 -0.00080391016627798684 0 0.034026086904486434 -0.00066820013048373675 0 0.034101098070100713 -0.001426135926719072 0 0.034871466491842612 -0.0015251096387363097 0 0.034990158673316347 -2.1866348230532501e-05 0 0.034983179401281372 -2.7470207523569804e-05 0 0.034983900070789449 -1.9653757642273846e-05 0 0.036147133601149697 -0.0024840439132900569 0 0.036098390551580227 -0.0023667128760997413 0 0.036221028081076724 -0.0022888300996315668 0 0.036098390551580227 -0.0023667128760997413 0 0.036135467954515541 -0.0022726218426409881 0 0.036221028081076724 -0.0022888300996315668 0 0.034083726986711672 -0.0010129006350460365 0 0.034141750167006032 -0.0010916710200646511 0 0.034144492837813907 -0.001256294840425553 0 0.034026086904486434 -0.00066820013048373675 0 0.034910858761755849 -0.00073920918822505371 0 0.034983900070789449 -1.9653757642273846e-05 0 0.034988565759613809 -1.4371551967336824e-05 0 0.034990410893971938 -1.7097093002176153e-05 0 0.034983900070789449 -1.9653757642273846e-05 0 0.034988565759613809 -1.4371551967336824e-05 0 0.034983999985444818 -1.1896560657409448e-05 0 0.035759743836108498 -0.0019577465546946932 0 0.036049406769409022 -0.0017543197336788725 0 0.036059147220251768 -0.0015577968362964702 0 0.03517851962437344 -0.0014352828202182193 0 0.03496237592361507 -0.00088707244188625917 0 0.035759743836108498 -0.0019577465546946932 0 0.035930883421757195 -0.0021469611023211942 0 0.035975883362365506 -0.0019785865555752833 0 0.035759743836108498 -0.0019577465546946932 0 0.035975883362365506 -0.0019785865555752833 0 0.036049406769409022 -0.0017543197336788725 0 0.036042540410701561 -0.0021343382982641911 0 0.035975883362365506 -0.0019785865555752833 0 0.036096849337653648 -0.0018996876461604836 0 0.036095345730539935 -0.0018987666733358242 0 0.036049406769409022 -0.0017543197336788725 0 0.036059147220251768 -0.0015577968362964702 0 0.035975883362365506 -0.0019785865555752833 0 0.036096849337653648 -0.0018996876461604836 0 0.036049406769409022 -0.0017543197336788725 0 0.034871466491842612 -0.0015251096387363097 0 0.03496237592361507 -0.00088707244188625917 0 0.034871466491842612 -0.0015251096387363097 0 0.034902472350859061 -0.0015605898835978731 0 0.035550598891152682 -0.00099665153264115566 0 0.035666206506489002 -0.0013911423762200668 0 0.03581993824782731 -0.00094077159060626189 0 0.034998823840003572 -0.00052172897286819426 0 0.035020854271368383 -0.00073326162812599796 0 0.035039800541133016 -0.00070811745101261622 0 0.034141750167006032 -0.0010916710200646511 0 0.034160410037336039 -0.0012346454224705329 0 0.034144492837813907 -0.001256294840425553 0 0.03496237592361507 -0.00088707244188625917 0 0.034910858761755849 -0.00073920918822505371 0 0.035550598891152682 -0.00099665153264115566 0 0.03581993824782731 -0.00094077159060626189 0 0.035556414915390952 -0.00075664323254372211 0 0.034988565759613809 -1.4371551967336824e-05 0 0.034983999985444818 -1.1896560657409448e-05 0 0.03499109137565036 -9.9934796768943513e-06 0 0.034988565759613809 -1.4371551967336824e-05 0 0.03499109137565036 -9.9934796768943513e-06 0 0.034992791723783827 -1.2931273951509517e-05 0 0.034994294621196048 -8.8954316295951879e-06 0 0.03499109137565036 -9.9934796768943513e-06 0 0.034992791723783827 -1.2931273951509517e-05 0 0.034994294621196048 -8.8954316295951879e-06 0 0.034992791723783827 -1.2931273951509517e-05 0 0.034996346889993223 -1.1022645993542605e-05 0 0.034997527789644815 -1.4251562491414071e-05 0 0.034996346889993223 -1.1022645993542605e-05 0 0.034994506597646899 -1.5123560471959568e-05 0 0.034992791723783827 -1.2931273951509517e-05 0 0.034996346889993223 -1.1022645993542605e-05 0 0.034994506597646899 -1.5123560471959568e-05 0 0.034997527789644815 -1.4251562491414071e-05 0 0.034994506597646899 -1.5123560471959568e-05 0 0.034996324709614633 -1.7246645106206898e-05 0 0.034993369008679283 -1.8572315056484558e-05 0 0.034994506597646899 -1.5123560471959568e-05 0 0.034996324709614633 -1.7246645106206898e-05 0 0.034993369008679283 -1.8572315056484558e-05 0 0.034994506597646899 -1.5123560471959568e-05 0 0.034990410893971938 -1.7097093002176153e-05 0 0.034988565759613809 -1.4371551967336824e-05 0 0.034992791723783827 -1.2931273951509517e-05 0 0.034990410893971938 -1.7097093002176153e-05 0 0.034992791723783827 -1.2931273951509517e-05 0 0.034994506597646899 -1.5123560471959568e-05 0 0.034990410893971938 -1.7097093002176153e-05 0 0.034998032717196897 -1.4746955461826972e-06 0 0.033928972872870625 -0.00024833371489907391 0 0.031404738372099901 -3.6162296169120015e-05 0 0.034998032717196897 -1.4746955461826972e-06 0 0.029230536265880049 1.3557040999999977e-06 0 0.031404738372099901 -3.6162296169120015e-05 0 0.033928972872870625 -0.00024833371489907391 0 0.033014478770315429 -0.00021283861226058048 0 0.031404738372099901 -3.6162296169120015e-05 0 0.031479461861699851 -0.0007556710633196686 0 0.030586130761122692 -0.00051517136903688279 0 0.034998032717196897 -1.4746955461826972e-06 0 0.033928972872870625 -0.00024833371489907391 0 0.034995519908838556 8.205606666825083e-07 0 0.033928972872870625 -0.00024833371489907391 0 0.033895861848991723 -0.00031424422043000328 0 0.033202604366525001 -0.00073697243035325077 0 0.033928972872870625 -0.00024833371489907391 0 0.034995519908838556 8.205606666825083e-07 0 0.033895861848991723 -0.00031424422043000328 0 0.034998865612134195 -4.7386284852957897e-07 0 0.034324902532720199 -0.00042094206362490883 0 0.034995519908838556 8.205606666825083e-07 0 0.033895861848991723 -0.00031424422043000328 0 0.03301731706889089 -0.00034485088565921714 0 0.033895861848991723 -0.00031424422043000328 0 0.033202604366525001 -0.00073697243035325077 0 0.03301731706889089 -0.00034485088565921714 0 0.033202604366525001 -0.00073697243035325077 0 0.032428366526923963 -0.00094669756433295529 0 0.032651802812613949 -0.0008862442228599923 0 0.031813980324413488 -0.00081706732051696235 0 0.031479461861699851 -0.0007556710633196686 0 0.033928972872870625 -0.00024833371489907391 0 0.033202604366525001 -0.00073697243035325077 0 0.033014478770315429 -0.00021283861226058048 0 0.03141201271863351 -0.0011711607738223375 0 0.032428366526923963 -0.00094669756433295529 0 0.031166169260973497 -0.00058993984365180146 0 0.033202604366525001 -0.00073697243035325077 0 0.03141201271863351 -0.0011711607738223375 0 0.032428366526923963 -0.00094669756433295529 0 0.032428366526923963 -0.00094669756433295529 0 0.032275499605958498 -0.0010841982387044191 0 0.032651802812613949 -0.0008862442228599923 0 0.032428366526923963 -0.00094669756433295529 0 0.032275499605958498 -0.0010841982387044191 0 0.032270327542378741 -0.00050445068272076852 0 0.032275499605958498 -0.0010841982387044191 0 0.03225801867782966 -0.00093906387626089248 0 0.032651802812613949 -0.0008862442228599923 0 0.034092837558409056 -0.0005437682499477329 0 0.034369453733966875 -0.00035650673485800732 0 0.032275499605958498 -0.0010841982387044191 0 0.03225801867782966 -0.00093906387626089248 0 0.032371184461968822 -0.0010484502873941562 0 0.034999182710091926 -1.1553395902703573e-05 0 0.034996877734932243 -7.0277385643624727e-06 0 0.03500098095419768 -2.4814599319521213e-06 0 0.034999182710091926 -1.1553395902703573e-05 0 0.034996877734932243 -7.0277385643624727e-06 0 0.034985160547399828 -1.5556195719991248e-05 0 0.033202604366525001 -0.00073697243035325077 0 0.032651802812613949 -0.0008862442228599923 0 0.03301731706889089 -0.00034485088565921714 0 0.03225801867782966 -0.00093906387626089248 0 0.032651802812613949 -0.0008862442228599923 0 0.03301731706889089 -0.00034485088565921714 0 0.034092837558409056 -0.0005437682499477329 0 0.034324902532720199 -0.00042094206362490883 0 0.035000001394891928 -1.52095094256282e-10 0 0.03500098095419768 -2.4814599319521213e-06 0 0.035000000722844399 -1.2095254936116466e-09 0 0.035000000722844399 -1.2095254936116466e-09 0 0.034998582224388571 -2.0829815099752673e-06 0 0.034999992679875858 -5.417226549523118e-10 0 0.03500098095419768 -2.4814599319521213e-06 0 0.035000000722844399 -1.2095254936116466e-09 0 0.034998582224388571 -2.0829815099752673e-06 0 0.034996877734932243 -7.0277385643624727e-06 0 0.03500098095419768 -2.4814599319521213e-06 0 0.034998582224388571 -2.0829815099752673e-06 0 0.034996877734932243 -7.0277385643624727e-06 0 0.034998582224388571 -2.0829815099752673e-06 0 0.034995813570232057 -3.8603897024264104e-06 0 0.034996603397506022 1.0524933011536603e-06 0 0.034996098761211139 4.8464526874207908e-07 0 0.034993501577483994 -6.2390089067335881e-07 0 0.034996603397506022 1.0524933011536603e-06 0 0.034999993530632038 1.2352292667087436e-09 0 0.034997874973075646 3.7975593786785517e-07 0 0.034998582224388571 -2.0829815099752673e-06 0 0.034995813570232057 -3.8603897024264104e-06 0 0.034999992679875858 -5.417226549523118e-10 0 0.034884409702800226 -2.2674514914115483e-05 0 0.034999769786313771 -2.5176729900094295e-08 0 0.034999997265131789 -9.8227614697096929e-10 0 0.034999993530632038 1.2352292667087436e-09 0 0.034997874973075646 3.7975593786785517e-07 0 0.034999997265131789 -9.8227614697096929e-10 0 0.034997764672634372 1.9264506742659646e-07 0 0.034997874973075646 3.7975593786785517e-07 0 0.034997764672634372 1.9264506742659646e-07 0 0.034996098761211139 4.8464526874207908e-07 0 0.034994387024280711 1.6623705683978952e-07 0 0.034997764672634372 1.9264506742659646e-07 0 0.034997874973075646 3.7975593786785517e-07 0 0.034996098761211139 4.8464526874207908e-07 0 0.034996603397506022 1.0524933011536603e-06 0 0.034997874973075646 3.7975593786785517e-07 0 0.034996098761211139 4.8464526874207908e-07 0 0.034996098761211139 4.8464526874207908e-07 0 0.034994387024280711 1.6623705683978952e-07 0 0.034993501577483994 -6.2390089067335881e-07 0 0.034992717937179951 1.9437418630102085e-07 0 0.034994387024280711 1.6623705683978952e-07 0 0.034993501577483994 -6.2390089067335881e-07 0 0.034995158252807169 3.2801021171189795e-07 0 0.034992717937179951 1.9437418630102085e-07 0 0.034994387024280711 1.6623705683978952e-07 0 0.034995344999148061 1.5204018694209368e-06 0 0.034995158252807169 3.2801021171189795e-07 0 0.034992717937179951 1.9437418630102085e-07 0 0.034943346352565692 3.1502409341309923e-05 0 0.034948751627796509 2.8655211332441014e-05 0 0.034978802039823835 -6.0039124412723642e-06 0 0.034988823471528069 -6.1432855422446574e-06 0 0.034982098411744211 -1.1236929432707598e-05 0 0.034978802039823835 -6.0039124412723642e-06 0 0.034992717937179951 1.9437418630102085e-07 0 0.034988823471528069 -6.1432855422446574e-06 0 0.034992717937179951 1.9437418630102085e-07 0 0.034988823471528069 -6.1432855422446574e-06 0 0.034993501577483994 -6.2390089067335881e-07 0 0.034996877734932243 -7.0277385643624727e-06 0 0.034995813570232057 -3.8603897024264104e-06 0 0.034994611902113164 -9.1201918438165361e-06 0 0.034884409702800226 -2.2674514914115483e-05 0 0.034717517637342273 -8.3239678402056164e-05 0 0.034996603397506022 1.0524933011536603e-06 0 0.034993501577483994 -6.2390089067335881e-07 0 0.034996644202360774 -7.2671251454949166e-06 0 0.034785293952726025 -3.605201843334668e-05 0 0.034717517637342273 -8.3239678402056164e-05 0 0.034988823471528069 -6.1432855422446574e-06 0 0.034993501577483994 -6.2390089067335881e-07 0 0.034996644202360774 -7.2671251454949166e-06 0 0.034999182710091926 -1.1553395902703573e-05 0 0.034985160547399828 -1.5556195719991248e-05 0 0.034985599658831183 -3.286076009639531e-05 0 0.034717517637342273 -8.3239678402056164e-05 0 0.034369453733966875 -0.00035650673485800732 0 0.034675029765462197 -0.00027800561722064867 0 0.034771990367920856 -0.00018343554632623858 0 0.034668931884255745 -0.00015867012454089539 0 0.034717517637342273 -8.3239678402056164e-05 0 0.034815805863580247 -5.4588000592633073e-05 0 0.034988823471528069 -6.1432855422446574e-06 0 0.034984074724675601 -1.6909934061694731e-05 0 0.034982098411744211 -1.1236929432707598e-05 0 0.034988823471528069 -6.1432855422446574e-06 0 0.034996644202360774 -7.2671251454949166e-06 0 0.034984074724675601 -1.6909934061694731e-05 0 0.034984074724675601 -1.6909934061694731e-05 0 0.034977978726068358 -1.6023936305624103e-05 0 0.034982098411744211 -1.1236929432707598e-05 0 0.034772649931753982 -0.00010788483259360506 0 0.034668931884255745 -0.00015867012454089539 0 0.034780463164665661 -1.7641015850623235e-06 0 0.034869822396756373 -8.774934744936804e-05 0 0.034771990367920856 -0.00018343554632623858 0 0.034772649931753982 -0.00010788483259360506 0 0.034969246512350616 -1.4847194493019743e-05 0 0.034984074724675601 -1.6909934061694731e-05 0 0.034977978726068358 -1.6023936305624103e-05 0 0.034877203247456551 -2.5388189386110433e-05 0 0.034815805863580247 -5.4588000592633073e-05 0 0.034771990367920856 -0.00018343554632623858 0 0.034772649931753982 -0.00010788483259360506 0 0.034668931884255745 -0.00015867012454089539 0 0.034369453733966875 -0.00035650673485800732 0 0.034586692104501306 -0.00011154671622080275 0 0.034369453733966875 -0.00035650673485800732 0 0.033829477040755264 -1.1864882034155701e-06 0 0.034664361588004219 -0.00016535746669711369 0 0.034654786546977671 3.311892114201556e-05 0 0.034780463164665661 -1.7641015850623235e-06 0 0.034869822396756373 -8.774934744936804e-05 0 0.034772649931753982 -0.00010788483259360506 0 0.034780463164665661 -1.7641015850623235e-06 0 0.034869822396756373 -8.774934744936804e-05 0 0.0348680435797478 3.2055886211345374e-05 0 0.034780463164665661 -1.7641015850623235e-06 0 0.0348680435797478 3.2055886211345374e-05 0 0.034860638813797779 0.00010394911905335591 0 0.034774283616932113 8.602667481826101e-05 0 0.034654786546977671 3.311892114201556e-05 0 0.034780463164665661 -1.7641015850623235e-06 0 0.034774283616932113 8.602667481826101e-05 0 0.0348680435797478 3.2055886211345374e-05 0 0.034780463164665661 -1.7641015850623235e-06 0 0.034774283616932113 8.602667481826101e-05 0 0.034860638813797779 0.00010394911905335591 0 0.034774283616932113 8.602667481826101e-05 0 0.034788893253851226 0.00017389282807543383 0 0.034774283616932113 8.602667481826101e-05 0 0.034788893253851226 0.00017389282807543383 0 0.034643259975763036 0.00023022523188608789 0 0.033649624750531612 0.0006082873388369689 0 0.033488117980431935 0.00078595359680440422 0 0.032448275625946127 0.0010453465232848421 0 0.032200598006875719 0.00102619024379193 0 0.032301375409603809 0.0012001412372100761 0 0.033488117980431935 0.00078595359680440422 0 0.033444627479878759 0.00079948337853598395 0 0.032211998874015949 0.00097097086791764751 0 0.032204356607982418 0.0010430812391782299 0 0.032148773566712037 0.00093353037914202541 0 0.033488117980431935 0.00078595359680440422 0 0.033483512487446035 0.00078972269161056946 0 0.034654786546977671 3.311892114201556e-05 0 0.034774283616932113 8.602667481826101e-05 0 0.034643259975763036 0.00023022523188608789 0 0.033829477040755264 -1.1864882034155701e-06 0 0.033488117980431935 0.00078595359680440422 0 0.03245241396094313 -0.00033750482070265641 0 0.031813581929273541 0.00050892180104380503 0 0.031570962105161707 -0.00029230017110726302 0 0.03245241396094313 -0.00033750482070265641 0 0.03234484755220942 0.00084080486292156722 0 0.031813581929273541 0.00050892180104380503 0 0.031813581929273541 0.00050892180104380503 0 0.031412518131919816 0.0011368672716331881 0 0.031819949145185329 0.0010244448881593289 0 0.031813581929273541 0.00050892180104380503 0 0.032148773566712037 0.00093353037914202541 0 0.031819949145185329 0.0010244448881593289 0 0.03234484755220942 0.00084080486292156722 0 0.031813581929273541 0.00050892180104380503 0 0.032148773566712037 0.00093353037914202541 0 0.031813581929273541 0.00050892180104380503 0 0.031042859955469411 0.00036560926347447366 0 0.031412518131919816 0.0011368672716331881 0 0.031813581929273541 0.00050892180104380503 0 0.031570962105161707 -0.00029230017110726302 0 0.031042859955469411 0.00036560926347447366 0 0.031570962105161707 -0.00029230017110726302 0 0.032024728822946741 -0.00082739418867297087 0 0.031113545657385413 -0.0010629795722958799 0 0.032371184461968822 -0.0010484502873941562 0 0.03245241396094313 -0.00033750482070265641 0 0.032024728822946741 -0.00082739418867297087 0 0.03245241396094313 -0.00033750482070265641 0 0.031570962105161707 -0.00029230017110726302 0 0.032024728822946741 -0.00082739418867297087 0 0.032275499605958498 -0.0010841982387044191 0 0.032371184461968822 -0.0010484502873941562 0 0.032024728822946741 -0.00082739418867297087 0 0.031554253103110358 -0.00091092488033177755 0 0.031210345409144368 -0.00075106340965218766 0 0.032275499605958498 -0.0010841982387044191 0 0.032024728822946741 -0.00082739418867297087 0 0.031113545657385413 -0.0010629795722958799 0 0.032428366526923963 -0.00094669756433295529 0 0.032270327542378741 -0.00050445068272076852 0 0.031166169260973497 -0.00058993984365180146 0 0.032270327542378741 -0.00050445068272076852 0 0.031166169260973497 -0.00058993984365180146 0 0.030441670595844173 0.0001519965345858973 0 0.031210345409144368 -0.00075106340965218766 0 0.030370390450444384 -0.00036898215253383589 0 0.031113545657385413 -0.0010629795722958799 0 0.029888939012699182 -0.00068144027022517672 0 0.030749912067681764 -0.0002989210522370554 0 0.031570962105161707 -0.00029230017110726302 0 0.031113545657385413 -0.0010629795722958799 0 0.030749912067681764 -0.0002989210522370554 0 0.031570962105161707 -0.00029230017110726302 0 0.030749912067681764 -0.0002989210522370554 0 0.031042859955469411 0.00036560926347447366 0 0.030749912067681764 -0.0002989210522370554 0 0.031042859955469411 0.00036560926347447366 0 0.03001008457158709 0.00029530518623682402 0 0.031042859955469411 0.00036560926347447366 0 0.030497656580133769 0.00097518470160820288 0 0.031412518131919816 0.0011368672716331881 0 0.031042859955469411 0.00036560926347447366 0 0.03001008457158709 0.00029530518623682402 0 0.030497656580133769 0.00097518470160820288 0 0.03001008457158709 0.00029530518623682402 0 0.029109720390129813 0.0013862591197338558 0 0.030497656580133769 0.00097518470160820288 0 0.029888939012699182 -0.00068144027022517672 0 0.030749912067681764 -0.0002989210522370554 0 0.03001008457158709 0.00029530518623682402 0 0.030370390450444384 -0.00036898215253383589 0 0.029792800322209483 -0.00010993769857333975 0 0.029888939012699182 -0.00068144027022517672 0 0.03001008457158709 0.00029530518623682402 0 0.028518542730231355 -7.9881473916812874e-05 0 0.03001008457158709 0.00029530518623682402 0 0.028518542730231355 -7.9881473916812874e-05 0 0.029109720390129813 0.0013862591197338558 0 0.026326087631389432 3.3084118765134848e-06 0 0.028518542730231355 -7.9881473916812874e-05 0 0.029109720390129813 0.0013862591197338558 0 0.026326087631389432 3.3084118765134848e-06 0 0.027774612946651841 -6.9337822031693917e-07 0 0.028518542730231355 -7.9881473916812874e-05 0 0.027774612946651841 -6.9337822031693917e-07 0 0.028518542730231355 -7.9881473916812874e-05 0 0.029221465508868824 -1.2047448901679568e-06 0 0.030441670595844173 0.0001519965345858973 0 0.029221465508868824 -1.2047448901679568e-06 0 0.030044970872898574 -0.0006301140644702362 0 0.030441670595844173 0.0001519965345858973 0 0.028518542730231355 -7.9881473916812874e-05 0 0.029221465508868824 -1.2047448901679568e-06 0 0.031166169260973497 -0.00058993984365180146 0 0.030441670595844173 0.0001519965345858973 0 0.030044970872898574 -0.0006301140644702362 0 0.03141201271863351 -0.0011711607738223375 0 0.031166169260973497 -0.00058993984365180146 0 0.030044970872898574 -0.0006301140644702362 0 0.029226600805357817 -3.3628928675880245e-07 0 0.030586130761122692 -0.00051517136903688279 0 0.022550333239293018 -3.3316010299018395e-07 0 0.022226095043942101 -0.00012463355021850921 0 0.021266452614188521 -0.00027714958023587256 0 0.022226095043942101 -0.00012463355021850921 0 0.021120436777916647 -0.00033783216841157558 0 0.021266452614188521 -0.00027714958023587256 0 0.022550333239293018 -3.3316010299018395e-07 0 0.022226095043942101 -0.00012463355021850921 0 0.024436768250353708 -7.7377762821503716e-07 0 0.026318824041209474 3.1241043850154664e-06 0 0.024436768250353708 -7.7377762821503716e-07 0 0.022992797660770756 0.00078893518774795178 0 0.026321988600823992 8.4739034588182181e-07 0 0.02601944641518561 0.00045868893414991119 0 0.022226095043942101 -0.00012463355021850921 0 0.024436768250353708 -7.7377762821503716e-07 0 0.022992797660770756 0.00078893518774795178 0 0.022226095043942101 -0.00012463355021850921 0 0.022992797660770756 0.00078893518774795178 0 0.021205998086772433 0.0005448082000728844 0 0.02601944641518561 0.00045868893414991119 0 0.026000033295822358 0.00073204536377631708 0 0.029109720390129813 0.0013862591197338558 0 0.030497656580133769 0.00097518470160820288 0 0.0305987521186179 0.0017355972984364758 0 0.030497656580133769 0.00097518470160820288 0 0.0305987521186179 0.0017355972984364758 0 0.031412518131919816 0.0011368672716331881 0 0.021205998086772433 0.0005448082000728844 0 0.021052187427605857 -7.7028110137345108e-05 0 0.020439354524576667 0.00011173968836551954 0 0.022226095043942101 -0.00012463355021850921 0 0.021205998086772433 0.0005448082000728844 0 0.021052187427605857 -7.7028110137345108e-05 0 0.022226095043942101 -0.00012463355021850921 0 0.021052187427605857 -7.7028110137345108e-05 0 0.021120436777916647 -0.00033783216841157558 0 0.021052187427605857 -7.7028110137345108e-05 0 0.021120436777916647 -0.00033783216841157558 0 0.020578103663153605 -0.00030202630392752719 0 0.021120436777916647 -0.00033783216841157558 0 0.020578103663153605 -0.00030202630392752719 0 0.020532688088397002 -0.00045636161183512078 0 0.020578103663153605 -0.00030202630392752719 0 0.020316186596226245 -0.00029305368830604594 0 0.020326448016028665 -0.00044060710105924895 0 0.020316186596226245 -0.00029305368830604594 0 0.020439354524576667 0.00011173968836551954 0 0.020227206232341862 -0.00011539466835847346 0 0.026085749445906289 0.00078275531307256732 0 0.026209466191271631 0.00071376517475929839 0 0.021052187427605857 -7.7028110137345108e-05 0 0.020578103663153605 -0.00030202630392752719 0 0.020439354524576667 0.00011173968836551954 0 0.020578103663153605 -0.00030202630392752719 0 0.020316186596226245 -0.00029305368830604594 0 0.020439354524576667 0.00011173968836551954 0 0.0305987521186179 0.0017355972984364758 0 0.031657145217240397 0.0018199974626511351 0 0.031412518131919816 0.0011368672716331881 0 0.026000033295822358 0.00073204536377631708 0 0.026085749445906289 0.00078275531307256732 0 0.031412518131919816 0.0011368672716331881 0 0.031819949145185329 0.0010244448881593289 0 0.032007652495035156 0.0013281316601884815 0 0.032087135564633502 0.0011294720591917314 0 0.031819949145185329 0.0010244448881593289 0 0.032007652495035156 0.0013281316601884815 0 0.032148773566712037 0.00093353037914202541 0 0.032087135564633502 0.0011294720591917314 0 0.031819949145185329 0.0010244448881593289 0 0.032204356607982418 0.0010430812391782299 0 0.032148773566712037 0.00093353037914202541 0 0.032087135564633502 0.0011294720591917314 0 0.032087135564633502 0.0011294720591917314 0 0.032007652495035156 0.0013281316601884815 0 0.032151329897977698 0.0011711831697141539 0 0.031657145217240397 0.0018199974626511351 0 0.032007652495035156 0.0013281316601884815 0 0.03220381759817717 0.0015055494710506342 0 0.031657145217240397 0.0018199974626511351 0 0.031412518131919816 0.0011368672716331881 0 0.032007652495035156 0.0013281316601884815 0 0.031657145217240397 0.0018199974626511351 0 0.03220381759817717 0.0015055494710506342 0 0.032254575477826612 0.0017443077440463335 0 0.03220381759817717 0.0015055494710506342 0 0.032380206943684549 0.0014504664299331469 0 0.032254575477826612 0.0017443077440463335 0 0.03220381759817717 0.0015055494710506342 0 0.032301375409603809 0.0012001412372100761 0 0.032380206943684549 0.0014504664299331469 0 0.032007652495035156 0.0013281316601884815 0 0.032301375409603809 0.0012001412372100761 0 0.032151329897977698 0.0011711831697141539 0 0.032007652495035156 0.0013281316601884815 0 0.03220381759817717 0.0015055494710506342 0 0.032301375409603809 0.0012001412372100761 0 0.032204356607982418 0.0010430812391782299 0 0.032301375409603809 0.0012001412372100761 0 0.032151329897977698 0.0011711831697141539 0 0.032200598006875719 0.00102619024379193 0 0.032204356607982418 0.0010430812391782299 0 0.032301375409603809 0.0012001412372100761 0 0.032204356607982418 0.0010430812391782299 0 0.032087135564633502 0.0011294720591917314 0 0.032151329897977698 0.0011711831697141539 0 0.032448275625946127 0.0010453465232848421 0 0.032301375409603809 0.0012001412372100761 0 0.032546899100150309 0.0012433734325330982 0 0.032301375409603809 0.0012001412372100761 0 0.032380206943684549 0.0014504664299331469 0 0.032546899100150309 0.0012433734325330982 0 0.032380206943684549 0.0014504664299331469 0 0.032254575477826612 0.0017443077440463335 0 0.032548225577172414 0.0015376267563048738 0 0.032380206943684549 0.0014504664299331469 0 0.032546899100150309 0.0012433734325330982 0 0.032548225577172414 0.0015376267563048738 0 0.026209466191271631 0.00071376517475929839 0 0.026296508537278791 0.00055291374002617167 0 0.032254575477826612 0.0017443077440463335 0 0.032548225577172414 0.0015376267563048738 0 0.032552862672186024 0.0017197595227822729 0 0.020316186596226245 -0.00029305368830604594 0 0.020227206232341862 -0.00011539466835847346 0 0.020250727446720695 -0.00042121594658009307 0 0.020227206232341862 -0.00011539466835847346 0 0.020250727446720695 -0.00042121594658009307 0 0.020016089737982981 -0.00020020325367959909 0 0.020250727446720695 -0.00042121594658009307 0 0.020016089737982981 -0.00020020325367959909 0 0.020010365357744003 -0.00045037779421975747 0 0.020250727446720695 -0.00042121594658009307 0 0.020076675796322066 -0.00070915460662914897 0 0.020010365357744003 -0.00045037779421975747 0 0.020316186596226245 -0.00029305368830604594 0 0.020250727446720695 -0.00042121594658009307 0 0.020326448016028665 -0.00044060710105924895 0 0.020250727446720695 -0.00042121594658009307 0 0.020307497221412486 -0.00040057516141498735 0 0.020326448016028665 -0.00044060710105924895 0 0.020307497221412486 -0.00040057516141498735 0 0.020338264901340556 -0.00031536320377675955 0 0.020291650418067259 -0.00038871679798452269 0 0.020307497221412486 -0.00040057516141498735 0 0.020438279903900056 -0.00038811558681024896 0 0.020388209902391284 -0.00033151000591100018 0 0.020250727446720695 -0.00042121594658009307 0 0.020307497221412486 -0.00040057516141498735 0 0.020438279903900056 -0.00038811558681024896 0 0.017228628600388089 0.00015909834927690648 0 0.015984650590648464 -0.00057859929295451943 0 0.020438279903900056 -0.00038811558681024896 0 0.020459967875852594 -0.00029253081819632324 0 0.020388209902391284 -0.00033151000591100018 0 0.020459967875852594 -0.00029253081819632324 0 0.020388209902391284 -0.00033151000591100018 0 0.020408162906293235 -0.00025746402051293071 0 0.020459967875852594 -0.00029253081819632324 0 0.020408162906293235 -0.00025746402051293071 0 0.020474951874996598 -0.00020662407466990617 0 0.020408162906293235 -0.00025746402051293071 0 0.020474951874996598 -0.00020662407466990617 0 0.02041865586521463 -0.00013995774102965657 0 0.020474951874996598 -0.00020662407466990617 0 0.02041865586521463 -0.00013995774102965657 0 0.020514945672285605 -7.934934022565562e-05 0 0.020354059865357634 -7.2916970323000434e-05 0 0.020348436891905443 -0.00021545888100684435 0 0.020248429835240105 -0.00014030637342183196 0 0.02041865586521463 -0.00013995774102965657 0 0.020354059865357634 -7.2916970323000434e-05 0 0.020400702501492961 8.0249150462301236e-07 0 0.02041865586521463 -0.00013995774102965657 0 0.020354059865357634 -7.2916970323000434e-05 0 0.020348436891905443 -0.00021545888100684435 0 0.020408162906293235 -0.00025746402051293071 0 0.02041865586521463 -0.00013995774102965657 0 0.020348436891905443 -0.00021545888100684435 0 0.020348436891905443 -0.00021545888100684435 0 0.020338264901340556 -0.00031536320377675955 0 0.020284515183282923 -0.00029988196999278466 0 0.020408162906293235 -0.00025746402051293071 0 0.020348436891905443 -0.00021545888100684435 0 0.020338264901340556 -0.00031536320377675955 0 0.020307497221412486 -0.00040057516141498735 0 0.020388209902391284 -0.00033151000591100018 0 0.020338264901340556 -0.00031536320377675955 0 0.020388209902391284 -0.00033151000591100018 0 0.020408162906293235 -0.00025746402051293071 0 0.020338264901340556 -0.00031536320377675955 0 0.020338264901340556 -0.00031536320377675955 0 0.020284515183282923 -0.00029988196999278466 0 0.020291650418067259 -0.00038871679798452269 0 0.020284515183282923 -0.00029988196999278466 0 0.020248429835240105 -0.00014030637342183196 0 0.020187110012125132 -0.00038061170947719498 0 0.020284515183282923 -0.00029988196999278466 0 0.020187110012125132 -0.00038061170947719498 0 0.020291650418067259 -0.00038871679798452269 0 0.020348436891905443 -0.00021545888100684435 0 0.020284515183282923 -0.00029988196999278466 0 0.020248429835240105 -0.00014030637342183196 0 0.020354059865357634 -7.2916970323000434e-05 0 0.020248429835240105 -0.00014030637342183196 0 0.020289526900958262 -4.8615664646336902e-07 0 0.020248429835240105 -0.00014030637342183196 0 0.019994745954877234 -0.00015256015240874756 0 0.020154511632378549 3.8771101827389042e-05 0 0.020248429835240105 -0.00014030637342183196 0 0.019994745954877234 -0.00015256015240874756 0 0.020187110012125132 -0.00038061170947719498 0 0.019994745954877234 -0.00015256015240874756 0 0.020187110012125132 -0.00038061170947719498 0 0.019816946846552816 -0.00037838532163459208 0 0.020187110012125132 -0.00038061170947719498 0 0.020326448016028665 -0.00044060710105924895 0 0.020196195586865216 -0.0004557345678578139 0 0.020326448016028665 -0.00044060710105924895 0 0.020532688088397002 -0.00045636161183512078 0 0.020196195586865216 -0.0004557345678578139 0 0.020307497221412486 -0.00040057516141498735 0 0.020291650418067259 -0.00038871679798452269 0 0.020326448016028665 -0.00044060710105924895 0 0.020187110012125132 -0.00038061170947719498 0 0.020291650418067259 -0.00038871679798452269 0 0.020326448016028665 -0.00044060710105924895 0 0.020578103663153605 -0.00030202630392752719 0 0.020326448016028665 -0.00044060710105924895 0 0.020532688088397002 -0.00045636161183512078 0 0.021120436777916647 -0.00033783216841157558 0 0.020532688088397002 -0.00045636161183512078 0 0.020154171349770097 -0.00045291514134462239 0 0.020532688088397002 -0.00045636161183512078 0 0.020154171349770097 -0.00045291514134462239 0 0.020196195586865216 -0.0004557345678578139 0 0.020187110012125132 -0.00038061170947719498 0 0.020196195586865216 -0.0004557345678578139 0 0.019816946846552816 -0.00037838532163459208 0 0.020154171349770097 -0.00045291514134462239 0 0.020196195586865216 -0.0004557345678578139 0 0.019816946846552816 -0.00037838532163459208 0 0.019994745954877234 -0.00015256015240874756 0 0.019816946846552816 -0.00037838532163459208 0 0.019409673835413598 3.4826057754680339e-05 0 0.019816946846552816 -0.00037838532163459208 0 0.019059539189755646 -0.00028570199590108813 0 0.019409673835413598 3.4826057754680339e-05 0 0.020154171349770097 -0.00045291514134462239 0 0.019816946846552816 -0.00037838532163459208 0 0.019059539189755646 -0.00028570199590108813 0 0.020154171349770097 -0.00045291514134462239 0 0.019059539189755646 -0.00028570199590108813 0 0.019290747044358032 -0.00029663418411928356 0 0.019059539189755646 -0.00028570199590108813 0 0.019290747044358032 -0.00029663418411928356 0 0.018041936830512133 -0.00012840360906475476 0 0.019059539189755646 -0.00028570199590108813 0 0.018041936830512133 -0.00012840360906475476 0 0.017826374845734832 6.4695062838282907e-05 0 0.018041936830512133 -0.00012840360906475476 0 0.01877918090407751 -4.7668797759350692e-07 0 0.016893014956388112 1.3316863207955615e-07 0 0.019290747044358032 -0.00029663418411928356 0 0.018041936830512133 -0.00012840360906475476 0 0.01877918090407751 -4.7668797759350692e-07 0 0.019290747044358032 -0.00029663418411928356 0 0.01877918090407751 -4.7668797759350692e-07 0 0.020664643243137871 -6.3035459768891231e-07 0 0.020154171349770097 -0.00045291514134462239 0 0.019290747044358032 -0.00029663418411928356 0 0.020664643243137871 -6.3035459768891231e-07 0 0.020154171349770097 -0.00045291514134462239 0 0.020664643243137871 -6.3035459768891231e-07 0 0.021266452614188521 -0.00027714958023587256 0 0.021120436777916647 -0.00033783216841157558 0 0.020154171349770097 -0.00045291514134462239 0 0.021266452614188521 -0.00027714958023587256 0 0.022550333239293018 -3.3316010299018395e-07 0 0.020664643243137871 -6.3035459768891231e-07 0 0.021266452614188521 -0.00027714958023587256 0 0.032787144518129752 0.0017970075661176573 0 0.032835683710051342 0.0018031833564857735 0 0.032774542528530341 0.001858969752797697 0 0.032787144518129752 0.0017970075661176573 0 0.032782306541331782 0.0017891742654363308 0 0.032777653092381613 0.001811453534857708 0 0.02829293948915652 -0.00097372822848366372 0 0.030536110913943811 -0.00073669888634910147 0 0.02829293948915652 -0.00097372822848366372 0 0.02907784805542846 -0.00064160748706187151 0 0.032787144518129752 0.0017970075661176573 0 0.032782306541331782 0.0017891742654363308 0 0.032811174938583793 0.0017941868551305778 0 0.032774943865399357 0.0017831363677378049 0 0.032811174938583793 0.0017941868551305778 0 0.03281265009521328 0.0017643589123304416 0 0.033120374130561306 0.0015767852783775652 0 0.033143567702566198 0.0014561395426944152 0 0.033024429061283715 0.0014834370365600657 0 0.032835683710051342 0.0018031833564857735 0 0.032811174938583793 0.0017941868551305778 0 0.03284305684920729 0.0017684014833313979 0 0.032787144518129752 0.0017970075661176573 0 0.032835683710051342 0.0018031833564857735 0 0.032811174938583793 0.0017941868551305778 0 0.03281265009521328 0.0017643589123304416 0 0.03284305684920729 0.0017684014833313979 0 0.032850670701573749 0.0017459395514342418 0 0.03284305684920729 0.0017684014833313979 0 0.032850670701573749 0.0017459395514342418 0 0.032918134999056117 0.0017270845344296076 0 0.032835683710051342 0.0018031833564857735 0 0.03284305684920729 0.0017684014833313979 0 0.032918134999056117 0.0017270845344296076 0 0.032811174938583793 0.0017941868551305778 0 0.03281265009521328 0.0017643589123304416 0 0.03284305684920729 0.0017684014833313979 0 0.032850670701573749 0.0017459395514342418 0 0.032784920238184613 0.001725753443871053 0 0.0328480911965656 0.0017157277834552696 0 0.03281265009521328 0.0017643589123304416 0 0.032850670701573749 0.0017459395514342418 0 0.032784920238184613 0.001725753443871053 0 0.023893936636546157 -0.0044040471443944663 0 0.023904279058867522 -0.0043820747892840293 0 0.023883508395770449 -0.0043730909572833841 0 0.032774943865399357 0.0017831363677378049 0 0.03281265009521328 0.0017643589123304416 0 0.032784920238184613 0.001725753443871053 0 0.02829293948915652 -0.00097372822848366372 0 0.026426630719563679 -0.0018066864085922133 0 0.02829293948915652 -0.00097372822848366372 0 0.026351744118008391 -0.0025173775764708185 0 0.023893936636546157 -0.0044040471443944663 0 0.023904279058867522 -0.0043820747892840293 0 0.02392589145311522 -0.0043965950765916381 0 0.023904279058867522 -0.0043820747892840293 0 0.02392589145311522 -0.0043965950765916381 0 0.023915230317206309 -0.0043652334904059776 0 0.02392589145311522 -0.0043965950765916381 0 0.023937686982640996 -0.0043739413780578594 0 0.023915230317206309 -0.0043652334904059776 0 0.026351744118008391 -0.0025173775764708185 0 0.025472145391063281 -0.0034000441622842976 0 0.02392589145311522 -0.0043965950765916381 0 0.023965775625315346 -0.0043934402560973414 0 0.023937686982640996 -0.0043739413780578594 0 0.027791068268745174 -0.0027916821517804118 0 0.026526943250926388 -0.003243435800278058 0 0.027614928593803094 -0.0019923223396240983 0 0.025472145391063281 -0.0034000441622842976 0 0.027279750930255635 -0.0027183981660353781 0 0.025441284362862662 -0.0039369184263035907 0 0.025220096346256857 -0.0039229245666900182 0 0.025364103582430342 -0.0041376736567075778 0 0.025441284362862662 -0.0039369184263035907 0 0.025399073309678045 -0.0036981210868016808 0 0.025220096346256857 -0.0039229245666900182 0 0.029052164943616954 -0.0023399530302474431 0 0.027791068268745174 -0.0027916821517804118 0 0.027614928593803094 -0.0019923223396240983 0 0.027279750930255635 -0.0027183981660353781 0 0.030536110913943811 -0.00073669888634910147 0 0.029052164943616954 -0.0023399530302474431 0 0.027614928593803094 -0.0019923223396240983 0 0.028700595893183235 -0.00074361175224369391 0 0.025220096346256857 -0.0039229245666900182 0 0.025195927974416093 -0.0041310615056465065 0 0.025049191577009366 -0.0041337932727650321 0 0.025195927974416093 -0.0041310615056465065 0 0.025083263729808108 -0.0042801787867204752 0 0.025049191577009366 -0.0041337932727650321 0 0.031493487730303332 -0.00057264120037091402 0 0.030536110913943811 -0.00073669888634910147 0 0.025220096346256857 -0.0039229245666900182 0 0.025195927974416093 -0.0041310615056465065 0 0.025364103582430342 -0.0041376736567075778 0 0.025195927974416093 -0.0041310615056465065 0 0.025364103582430342 -0.0041376736567075778 0 0.025227733206147435 -0.0042796763290675818 0 0.025520165173712455 -0.0044048996654181194 0 0.025204781410007617 -0.0044214562582791488 0 0.025363452288649765 -0.0042977038387301582 0 0.025499315896662707 -0.004246421765621183 0 0.025364103582430342 -0.0041376736567075778 0 0.025363452288649765 -0.0042977038387301582 0 0.025364103582430342 -0.0041376736567075778 0 0.025363452288649765 -0.0042977038387301582 0 0.025227733206147435 -0.0042796763290675818 0 0.025204781410007617 -0.0044214562582791488 0 0.025363452288649765 -0.0042977038387301582 0 0.025227733206147435 -0.0042796763290675818 0 0.031150010317158788 -0.00097786651254818378 0 0.031014206742625283 -0.00081802080516911436 0 0.030850870074444429 0.00036506748099674147 0 0.031800938507938838 -0.00049816130195740895 0 0.0317837631485864 -0.00047801435800714625 0 0.031825563628959851 -0.00060723709273817126 0 0.031493487730303332 -0.00057264120037091402 0 0.031523032285821387 -0.00047743877792080899 0 0.025195927974416093 -0.0041310615056465065 0 0.025083263729808108 -0.0042801787867204752 0 0.025227733206147435 -0.0042796763290675818 0 0.025204781410007617 -0.0044214562582791488 0 0.025083263729808108 -0.0042801787867204752 0 0.025227733206147435 -0.0042796763290675818 0 0.031493487730303332 -0.00057264120037091402 0 0.031987723146306386 -0.00062120780698517381 0 0.032186923182957683 -0.0014801001585995296 0 0.031476177113766254 -0.00064145855831961333 0 0.03159970589134041 -0.0011990427579215591 0 0.031650683996112809 -0.0009525705886621851 0 0.031493487730303332 -0.00057264120037091402 0 0.031523032285821387 -0.00047743877792080899 0 0.031987723146306386 -0.00062120780698517381 0 0.032397256247781864 -9.5113311902572924e-05 0 0.032248571770738879 -0.00021340395700237476 0 0.032449379938674187 -0.00028941347102784019 0 0.033294844681734187 0.0013800833979367105 0 0.03313644481629404 0.0013842120191525865 0 0.033184813185914222 0.0012525984239457298 0 0.032317941874609034 -0.00043149477307494145 0 0.032248571770738879 -0.00021340395700237476 0 0.032449379938674187 -0.00028941347102784019 0 0.032546826841148249 -0.00015725936249039651 0 0.032397256247781864 -9.5113311902572924e-05 0 0.032449379938674187 -0.00028941347102784019 0 0.032546826841148249 -0.00015725936249039651 0 0.032449379938674187 -0.00028941347102784019 0 0.032727631932201837 -0.00025205318524121323 0 0.032449379938674187 -0.00028941347102784019 0 0.032442684806361657 -0.00057880316490894264 0 0.032727631932201837 -0.00025205318524121323 0 0.031605187163136261 -4.9831024524556984e-05 0 0.032757798897056024 0.00025632535993062465 0 0.032317941874609034 -0.00043149477307494145 0 0.032449379938674187 -0.00028941347102784019 0 0.032442684806361657 -0.00057880316490894264 0 0.031523032285821387 -0.00047743877792080899 0 0.031605187163136261 -4.9831024524556984e-05 0 0.031523032285821387 -0.00047743877792080899 0 0.031095960249906102 -0.00032528151361801012 0 0.031199075237291766 0.00042243330630606623 0 0.031095960249906102 -0.00032528151361801012 0 0.032787144518129752 0.0017970075661176573 0 0.032778770955532908 0.0018127348342412972 0 0.032777653092381613 0.001811453534857708 0 0.031014206742625283 -0.00081802080516911436 0 0.03069335019939853 0.0001832373416323261 0 0.030850870074444429 0.00036506748099674147 0 0.032194143960671107 0.00092469473848573512 0 0.031605187163136261 -4.9831024524556984e-05 0 0.031333220475417305 -0.00064971267353344667 0 0.030966195278816347 0.00049854574364937578 0 0.030659331440179394 0.00014452074117009061 0 0.032787144518129752 0.0017970075661176573 0 0.032767394742759678 0.0018504873920494585 0 0.032774542528530341 0.001858969752797697 0 0.031095960249906102 -0.00032528151361801012 0 0.031605187163136261 -4.9831024524556984e-05 0 0.031095960249906102 -0.00032528151361801012 0 0.030536110913943811 -0.00073669888634910147 0 0.03313644481629404 0.0013842120191525865 0 0.033054797287761138 0.0013167401811237684 0 0.033024429061283715 0.0014834370365600657 0 0.033294844681734187 0.0013800833979367105 0 0.033143567702566198 0.0014561395426944152 0 0.03313644481629404 0.0013842120191525865 0 0.033120374130561306 0.0015767852783775652 0 0.033294844681734187 0.0013800833979367105 0 0.033143567702566198 0.0014561395426944152 0 0.033143567702566198 0.0014561395426944152 0 0.03313644481629404 0.0013842120191525865 0 0.033024429061283715 0.0014834370365600657 0 0.033081986244082318 0.0011258610641408824 0 0.033184813185914222 0.0012525984239457298 0 0.033054797287761138 0.0013167401811237684 0 0.03313644481629404 0.0013842120191525865 0 0.033184813185914222 0.0012525984239457298 0 0.033054797287761138 0.0013167401811237684 0 0.033081986244082318 0.0011258610641408824 0 0.033054797287761138 0.0013167401811237684 0 0.032943086223814567 0.0012648991076744708 0 0.033054797287761138 0.0013167401811237684 0 0.032943086223814567 0.0012648991076744708 0 0.032954693104729031 0.0013953322218073188 0 0.032943086223814567 0.0012648991076744708 0 0.032828310027355638 0.001390744203158456 0 0.032954693104729031 0.0013953322218073188 0 0.032943086223814567 0.0012648991076744708 0 0.032828310027355638 0.001390744203158456 0 0.032763230985689777 0.0012175181818441703 0 0.032828310027355638 0.001390744203158456 0 0.032744291279871253 0.0015703123699833392 0 0.032893428735146842 0.0015316641348250796 0 0.032828310027355638 0.001390744203158456 0 0.032954693104729031 0.0013953322218073188 0 0.032893428735146842 0.0015316641348250796 0 0.033024429061283715 0.0014834370365600657 0 0.032954693104729031 0.0013953322218073188 0 0.032893428735146842 0.0015316641348250796 0 0.033054797287761138 0.0013167401811237684 0 0.033024429061283715 0.0014834370365600657 0 0.032954693104729031 0.0013953322218073188 0 0.032546899100150309 0.0012433734325330982 0 0.032763230985689777 0.0012175181818441703 0 0.032687630642398879 0.0013815711005278862 0 0.032828310027355638 0.001390744203158456 0 0.032763230985689777 0.0012175181818441703 0 0.032687630642398879 0.0013815711005278862 0 0.032828310027355638 0.001390744203158456 0 0.032687630642398879 0.0013815711005278862 0 0.032744291279871253 0.0015703123699833392 0 0.032687630642398879 0.0013815711005278862 0 0.032548225577172414 0.0015376267563048738 0 0.032744291279871253 0.0015703123699833392 0 0.032546899100150309 0.0012433734325330982 0 0.032687630642398879 0.0013815711005278862 0 0.032548225577172414 0.0015376267563048738 0 0.032548225577172414 0.0015376267563048738 0 0.032744291279871253 0.0015703123699833392 0 0.032552862672186024 0.0017197595227822729 0 0.019669803742168979 -0.00034596836343235544 0 0.020016089737982981 -0.00020020325367959909 0 0.019831608025320815 -0.00040763834532628736 0 0.026328116073215651 0.00022313715763682955 0 0.026296508537278791 0.00055291374002617167 0 0.032744291279871253 0.0015703123699833392 0 0.032787323524460725 0.0017429135745067664 0 0.032552862672186024 0.0017197595227822729 0 0.020016089737982981 -0.00020020325367959909 0 0.020010365357744003 -0.00045037779421975747 0 0.019831608025320815 -0.00040763834532628736 0 0.033024429061283715 0.0014834370365600657 0 0.032961185081443425 0.0016042199347203155 0 0.032893428735146842 0.0015316641348250796 0 0.033120374130561306 0.0015767852783775652 0 0.033024429061283715 0.0014834370365600657 0 0.032961185081443425 0.0016042199347203155 0 0.032744291279871253 0.0015703123699833392 0 0.032893428735146842 0.0015316641348250796 0 0.032864213248759641 0.0016480649100885244 0 0.032961185081443425 0.0016042199347203155 0 0.032893428735146842 0.0015316641348250796 0 0.032864213248759641 0.0016480649100885244 0 0.032787323524460725 0.0017429135745067664 0 0.032864213248759641 0.0016480649100885244 0 0.032918134999056117 0.0017270845344296076 0 0.032744291279871253 0.0015703123699833392 0 0.032787323524460725 0.0017429135745067664 0 0.032864213248759641 0.0016480649100885244 0 0.032961185081443425 0.0016042199347203155 0 0.032864213248759641 0.0016480649100885244 0 0.032918134999056117 0.0017270845344296076 0 0.032194143960671107 0.00092469473848573512 0 0.032365871385809736 0.0011668254527995305 0 0.032850670701573749 0.0017459395514342418 0 0.032918134999056117 0.0017270845344296076 0 0.032886179925969393 0.0017292363041259242 0 0.033120374130561306 0.0015767852783775652 0 0.032961185081443425 0.0016042199347203155 0 0.032918134999056117 0.0017270845344296076 0 0.032918134999056117 0.0017270845344296076 0 0.032920455051598872 0.0017277207358581724 0 0.032886179925969393 0.0017292363041259242 0 0.032920455051598872 0.0017277207358581724 0 0.032886179925969393 0.0017292363041259242 0 0.0328480911965656 0.0017157277834552696 0 0.019669803742168979 -0.00034596836343235544 0 0.019620442224851875 -0.00042366753280109482 0 0.01965928330727372 -0.00042378226189640348 0 0.019620442224851875 -0.00042366753280109482 0 0.019622384722777695 -0.00042363603078947142 0 0.01965928330727372 -0.00042378226189640348 0 0.032787323524460725 0.0017429135745067664 0 0.032918134999056117 0.0017270845344296076 0 0.032920455051598872 0.0017277207358581724 0 0.020040249112093914 -0.0020152216546924454 0 0.019755346877371988 -0.0016831990882785286 0 0.026328116073215651 0.00022313715763682955 0 0.026133376619668268 -0.00054179305022003109 0 0.01813447570894227 -0.00064962311201552598 0 0.018900873360158242 -0.00088055557687727424 0 0.01965928330727372 -0.00042378226189640348 0 0.018900873360158242 -0.00088055557687727424 0 0.019379169600089934 -0.00080123240160428339 0 0.01965928330727372 -0.00042378226189640348 0 0.018900873360158242 -0.00088055557687727424 0 0.019379169600089934 -0.00080123240160428339 0 0.019429682765712469 -0.0012309529271740754 0 0.019379169600089934 -0.00080123240160428339 0 0.019429682765712469 -0.0012309529271740754 0 0.019643687286399772 -0.00062630787745473625 0 0.018900873360158242 -0.00088055557687727424 0 0.019429682765712469 -0.0012309529271740754 0 0.019068865062982755 -0.0017572145677508602 0 0.018900873360158242 -0.00088055557687727424 0 0.018364968698549641 -0.001284593584365501 0 0.019068865062982755 -0.0017572145677508602 0 0.018364968698549641 -0.001284593584365501 0 0.017854086082389992 -0.0011185458548148939 0 0.017559285619747827 -0.0016757604398817659 0 0.01813447570894227 -0.00064962311201552598 0 0.017854086082389992 -0.0011185458548148939 0 0.018314434531873335 -0.00098290956104838171 0 0.018900873360158242 -0.00088055557687727424 0 0.018364968698549641 -0.001284593584365501 0 0.018314434531873335 -0.00098290956104838171 0 0.01813447570894227 -0.00064962311201552598 0 0.018900873360158242 -0.00088055557687727424 0 0.018314434531873335 -0.00098290956104838171 0 0.018364968698549641 -0.001284593584365501 0 0.017854086082389992 -0.0011185458548148939 0 0.018314434531873335 -0.00098290956104838171 0 0.020010365357744003 -0.00045037779421975747 0 0.019860608158294386 -0.00053019902200786197 0 0.019831608025320815 -0.00040763834532628736 0 0.020010365357744003 -0.00045037779421975747 0 0.019860608158294386 -0.00053019902200786197 0 0.019949125702767967 -0.00060982136694242423 0 0.019772585467000645 -0.00052053461513579637 0 0.019831608025320815 -0.00040763834532628736 0 0.01965928330727372 -0.00042378226189640348 0 0.019772585467000645 -0.00052053461513579637 0 0.019643687286399772 -0.00062630787745473625 0 0.019798166550397608 -0.00064910177955665948 0 0.019860608158294386 -0.00053019902200786197 0 0.019772585467000645 -0.00052053461513579637 0 0.019831608025320815 -0.00040763834532628736 0 0.019860608158294386 -0.00053019902200786197 0 0.019772585467000645 -0.00052053461513579637 0 0.019798166550397608 -0.00064910177955665948 0 0.019669803742168979 -0.00034596836343235544 0 0.019831608025320815 -0.00040763834532628736 0 0.01965928330727372 -0.00042378226189640348 0 0.019772585467000645 -0.00052053461513579637 0 0.01965928330727372 -0.00042378226189640348 0 0.019643687286399772 -0.00062630787745473625 0 0.019379169600089934 -0.00080123240160428339 0 0.01965928330727372 -0.00042378226189640348 0 0.019643687286399772 -0.00062630787745473625 0 0.019643687286399772 -0.00062630787745473625 0 0.019798166550397608 -0.00064910177955665948 0 0.019801101636120928 -0.00079853971543865669 0 0.019429682765712469 -0.0012309529271740754 0 0.019643687286399772 -0.00062630787745473625 0 0.020277037832358017 -0.001658553423957368 0 0.019429682765712469 -0.0012309529271740754 0 0.020277037832358017 -0.001658553423957368 0 0.019068865062982755 -0.0017572145677508602 0 0.01251017734042064 -0.0037851589874737536 0 0.010889441883994775 -0.0035977300063895607 0 0.019798166550397608 -0.00064910177955665948 0 0.019849986329630691 -0.00073063944293856934 0 0.019801101636120928 -0.00079853971543865669 0 0.011303749220513169 -0.003215047888884224 0 0.010889441883994775 -0.0035977300063895607 0 0.020076675796322066 -0.00070915460662914897 0 0.020010365357744003 -0.00045037779421975747 0 0.019949125702767967 -0.00060982136694242423 0 0.020076675796322066 -0.00070915460662914897 0 0.019849986329630691 -0.00073063944293856934 0 0.019879073339947487 -0.00097753724643746928 0 0.019863829623770365 -0.00063653167730632005 0 0.019849986329630691 -0.00073063944293856934 0 0.019949125702767967 -0.00060982136694242423 0 0.019860608158294386 -0.00053019902200786197 0 0.019863829623770365 -0.00063653167730632005 0 0.019949125702767967 -0.00060982136694242423 0 0.019860608158294386 -0.00053019902200786197 0 0.019798166550397608 -0.00064910177955665948 0 0.019863829623770365 -0.00063653167730632005 0 0.019798166550397608 -0.00064910177955665948 0 0.019863829623770365 -0.00063653167730632005 0 0.019849986329630691 -0.00073063944293856934 0 0.020076675796322066 -0.00070915460662914897 0 0.019849986329630691 -0.00073063944293856934 0 0.019949125702767967 -0.00060982136694242423 0 0.015984650590648464 -0.00057859929295451943 0 0.010546833874336473 -0.0046979676103013112 0 0.020438279903900056 -0.00038811558681024896 0 0.020459967875852594 -0.00029253081819632324 0 0.020581736331041489 -0.00026285307041081185 0 0.019849986329630691 -0.00073063944293856934 0 0.019879073339947487 -0.00097753724643746928 0 0.01978323929114446 -0.00081444452605371838 0 0.020459967875852594 -0.00029253081819632324 0 0.020474951874996598 -0.00020662407466990617 0 0.020581736331041489 -0.00026285307041081185 0 0.010546833874336473 -0.0046979676103013112 0 0.010889441883994775 -0.0035977300063895607 0 0.010889441883994775 -0.0035977300063895607 0 0.010388005480990944 -0.0058859664245927068 0 0.0010371083715584118 -0.010155042423674616 0 0.0010745415425351865 -0.010202026344542633 0 0.0011462308286668403 -0.010121044201700917 0 0.020277037832358017 -0.001658553423957368 0 0.019068865062982755 -0.0017572145677508602 0 0.019365584029843765 -0.0028892706900145574 0 0.010546833874336473 -0.0046979676103013112 0 0.0044116832313601763 -0.0099156102489547163 0 0.0010371083715584118 -0.010155042423674616 0 0.0010779536482111102 -0.010050729120031675 0 0.0011462308286668403 -0.010121044201700917 0 -0.00015508056450600662 -0.011614676590972289 0 0.00048628921221762427 -0.010743889539156093 0 -0.00012251786022180231 -0.010481061312034771 0 0.020474951874996598 -0.00020662407466990617 0 0.020581736331041489 -0.00026285307041081185 0 0.020514945672285605 -7.934934022565562e-05 0 -0.00015508056450600662 -0.011614676590972289 0 -0.00012251786022180231 -0.010481061312034771 0 -0.00074087433280660843 -0.010681587680499387 0 0.010546833874336473 -0.0046979676103013112 0 0.010288976577348511 -0.0049018502179913716 0 0.018364968698549641 -0.001284593584365501 0 0.018132255797611185 -0.0025777002263932328 0 0.019068865062982755 -0.0017572145677508602 0 0.018364968698549641 -0.001284593584365501 0 0.018132255797611185 -0.0025777002263932328 0 0.017559285619747827 -0.0016757604398817659 0 0.018132255797611185 -0.0025777002263932328 0 0.019068865062982755 -0.0017572145677508602 0 0.019365584029843765 -0.0028892706900145574 0 0.010388005480990944 -0.0058859664245927068 0 0.010820383123910472 -0.0066678234363793292 0 0.018132255797611185 -0.0025777002263932328 0 0.019365584029843765 -0.0028892706900145574 0 0.018450469570248755 -0.0041231502484197447 0 0.0010779536482111102 -0.010050729120031675 0 0.0011462308286668403 -0.010121044201700917 0 0.0013398705337071503 -0.0099626146826426714 0 0.018132255797611185 -0.0025777002263932328 0 0.017213772845751082 -0.0038918940885116294 0 0.018450469570248755 -0.0041231502484197447 0 0.020382106148876603 -0.0034467090338541617 0 0.017493295938600436 -0.0045206245169816025 0 0.023708099274980476 -0.0041487906542570533 0 0.023643789060766248 -0.0042351874744870578 0 0.023600624169003138 -0.004100885183637046 0 0.018132255797611185 -0.0025777002263932328 0 0.016901178286700923 -0.0024301792389845307 0 0.017213772845751082 -0.0038918940885116294 0 0.023708099274980476 -0.0041487906542570533 0 0.023748542120188589 -0.0042143072678713671 0 0.023643789060766248 -0.0042351874744870578 0 0.023708099274980476 -0.0041487906542570533 0 0.023748542120188589 -0.0042143072678713671 0 0.023783704739405956 -0.0041354201090885211 0 0.023748542120188589 -0.0042143072678713671 0 0.023734814094008187 -0.0042898953712494532 0 0.023643789060766248 -0.0042351874744870578 0 0.023734814094008187 -0.0042898953712494532 0 0.023643789060766248 -0.0042351874744870578 0 0.023678918091365717 -0.0043770140768913945 0 0.023748542120188589 -0.0042143072678713671 0 0.023734814094008187 -0.0042898953712494532 0 0.023804077804511197 -0.0042599835685225244 0 0.018132255797611185 -0.0025777002263932328 0 0.016901178286700923 -0.0024301792389845307 0 0.017559285619747827 -0.0016757604398817659 0 0.016901178286700923 -0.0024301792389845307 0 0.017559285619747827 -0.0016757604398817659 0 0.016582741033276047 -0.00096892513161205311 0 0.020382106148876603 -0.0034467090338541617 0 0.023400316919085735 -0.0027492029043116257 0 0.020040249112093914 -0.0020152216546924454 0 0.023400316919085735 -0.0027492029043116257 0 0.017854086082389992 -0.0011185458548148939 0 0.017559285619747827 -0.0016757604398817659 0 0.016582741033276047 -0.00096892513161205311 0 0.01813447570894227 -0.00064962311201552598 0 0.017854086082389992 -0.0011185458548148939 0 0.016582741033276047 -0.00096892513161205311 0 0.019622384722777695 -0.00042363603078947142 0 0.019677695323153024 -0.00042725638639635446 0 0.019678568610582071 -0.00043215690701705408 0 0.023734814094008187 -0.0042898953712494532 0 0.023752202802431427 -0.0043631978405487817 0 0.023678918091365717 -0.0043770140768913945 0 0.023734814094008187 -0.0042898953712494532 0 0.023752202802431427 -0.0043631978405487817 0 0.023804082616549458 -0.0043522037947874379 0 0.023719124526993519 -0.0030156388429963149 0 0.024097405791708441 -0.0028071895853124312 0 0.023895974862240248 -0.0043304823048154976 0 0.023874585149473323 -0.0043397061135552958 0 0.023896868579678369 -0.0043562084439315758 0 0.023732380113521533 -0.0034816484032503688 0 0.024269407860282175 -0.0033719168318526289 0 0.024244174787341845 -0.0032578890795795243 0 0.023719124526993519 -0.0030156388429963149 0 0.023400316919085735 -0.0027492029043116257 0 0.023400316919085735 -0.0027492029043116257 0 0.024097405791708441 -0.0028071895853124312 0 0.024097405791708441 -0.0028071895853124312 0 0.026426630719563679 -0.0018066864085922133 0 0.023874585149473323 -0.0043397061135552958 0 0.023896868579678369 -0.0043562084439315758 0 0.023883508395770449 -0.0043730909572833841 0 0.032793767594418086 0.0016444728501865454 0 0.032784920238184613 0.001725753443871053 0 0.0328480911965656 0.0017157277834552696 0 0.023904279058867522 -0.0043820747892840293 0 0.023896868579678369 -0.0043562084439315758 0 0.023883508395770449 -0.0043730909572833841 0 0.032920455051598872 0.0017277207358581724 0 0.032793767594418086 0.0016444728501865454 0 0.0328480911965656 0.0017157277834552696 0 0.019620442224851875 -0.00042366753280109482 0 0.019622384722777695 -0.00042363603078947142 0 0.019678568610582071 -0.00043215690701705408 0 0.026133376619668268 -0.00054179305022003109 0 0.024097405791708441 -0.0028071895853124312 0 0.032850670701573749 0.0017459395514342418 0 0.032886179925969393 0.0017292363041259242 0 0.0328480911965656 0.0017157277834552696 0 0.023928324919662944 -0.0043458239961513189 0 0.023957414224832461 -0.0043556507680583669 0 0.023937686982640996 -0.0043739413780578594 0 0.023965775625315346 -0.0043934402560973414 0 0.023957414224832461 -0.0043556507680583669 0 0.023937686982640996 -0.0043739413780578594 0 0.023928324919662944 -0.0043458239961513189 0 0.023937686982640996 -0.0043739413780578594 0 0.023915230317206309 -0.0043652334904059776 0 0.023904279058867522 -0.0043820747892840293 0 0.023896868579678369 -0.0043562084439315758 0 0.023915230317206309 -0.0043652334904059776 0 0.023895974862240248 -0.0043304823048154976 0 0.023896868579678369 -0.0043562084439315758 0 0.023909291857920349 -0.0043449572973229544 0 0.023896868579678369 -0.0043562084439315758 0 0.023915230317206309 -0.0043652334904059776 0 0.023909291857920349 -0.0043449572973229544 0 0.023928324919662944 -0.0043458239961513189 0 0.023915230317206309 -0.0043652334904059776 0 0.023909291857920349 -0.0043449572973229544 0 0.023928324919662944 -0.0043458239961513189 0 0.023909291857920349 -0.0043449572973229544 0 0.023910067710092263 -0.0043272567827231032 0 0.023719124526993519 -0.0030156388429963149 0 0.023719273611290139 -0.0031934395548857283 0 0.023895974862240248 -0.0043304823048154976 0 0.023909291857920349 -0.0043449572973229544 0 0.023910067710092263 -0.0043272567827231032 0 0.023719273611290139 -0.0031934395548857283 0 0.023737019896496552 -0.0033643557359393705 0 0.023928324919662944 -0.0043458239961513189 0 0.023910067710092263 -0.0043272567827231032 0 0.023940502362704816 -0.0043102308238261956 0 0.023928324919662944 -0.0043458239961513189 0 0.023957414224832461 -0.0043556507680583669 0 0.023940502362704816 -0.0043102308238261956 0 0.023804082616549458 -0.0043522037947874379 0 0.023940502362704816 -0.0043102308238261956 0 0.023885552642918605 -0.0042473776023199865 0 0.023940502362704816 -0.0043102308238261956 0 0.023885552642918605 -0.0042473776023199865 0 0.023948775803276312 -0.0042129811506056774 0 0.023885552642918605 -0.0042473776023199865 0 0.023948775803276312 -0.0042129811506056774 0 0.02385152845213518 -0.0041996346336801854 0 0.023748542120188589 -0.0042143072678713671 0 0.023804077804511197 -0.0042599835685225244 0 0.02385152845213518 -0.0041996346336801854 0 0.023804082616549458 -0.0043522037947874379 0 0.023885552642918605 -0.0042473776023199865 0 0.023804077804511197 -0.0042599835685225244 0 0.023734814094008187 -0.0042898953712494532 0 0.023804082616549458 -0.0043522037947874379 0 0.023804077804511197 -0.0042599835685225244 0 0.023885552642918605 -0.0042473776023199865 0 0.023804077804511197 -0.0042599835685225244 0 0.02385152845213518 -0.0041996346336801854 0 0.023748542120188589 -0.0042143072678713671 0 0.02385152845213518 -0.0041996346336801854 0 0.023783704739405956 -0.0041354201090885211 0 0.02385152845213518 -0.0041996346336801854 0 0.023783704739405956 -0.0041354201090885211 0 0.023893537468148561 -0.0041141285302406108 0 0.024012438302102621 -0.004128607114662221 0 0.023948775803276312 -0.0042129811506056774 0 0.023893537468148561 -0.0041141285302406108 0 0.023948775803276312 -0.0042129811506056774 0 0.02385152845213518 -0.0041996346336801854 0 0.023893537468148561 -0.0041141285302406108 0 0.024012438302102621 -0.004128607114662221 0 0.023893537468148561 -0.0041141285302406108 0 0.023962497220886607 -0.0040478827427603298 0 0.023893537468148561 -0.0041141285302406108 0 0.023867947307862184 -0.003999646434354482 0 0.023962497220886607 -0.0040478827427603298 0 0.023893537468148561 -0.0041141285302406108 0 0.023786659199974323 -0.0040602722694644457 0 0.023867947307862184 -0.003999646434354482 0 0.023783704739405956 -0.0041354201090885211 0 0.023893537468148561 -0.0041141285302406108 0 0.023786659199974323 -0.0040602722694644457 0 0.023783704739405956 -0.0041354201090885211 0 0.023786659199974323 -0.0040602722694644457 0 0.023716346641842575 -0.0040785897372904497 0 0.02376256406402328 -0.0039761206856558304 0 0.023859420247190025 -0.0039177914441157853 0 0.023660063536967826 -0.003893322709003224 0 0.023786659199974323 -0.0040602722694644457 0 0.02376256406402328 -0.0039761206856558304 0 0.023867947307862184 -0.003999646434354482 0 0.02376256406402328 -0.0039761206856558304 0 0.023867947307862184 -0.003999646434354482 0 0.023859420247190025 -0.0039177914441157853 0 0.023867947307862184 -0.003999646434354482 0 0.023931489747695333 -0.0039793554403903739 0 0.023962497220886607 -0.0040478827427603298 0 0.023867947307862184 -0.003999646434354482 0 0.023931489747695333 -0.0039793554403903739 0 0.023859420247190025 -0.0039177914441157853 0 0.022744861845109519 -0.0033684274371877272 0 0.021757884926981452 -0.0041230791248094024 0 0.021886694290208192 -0.0023265255251599111 0 0.022034207641801969 -0.004364795793751125 0 0.022826537569632668 -0.0042712691520397526 0 0.023931489747695333 -0.0039793554403903739 0 0.023859420247190025 -0.0039177914441157853 0 0.023974390288682229 -0.0039319940459877608 0 0.022744861845109519 -0.0033684274371877272 0 0.021757884926981452 -0.0041230791248094024 0 0.023566466478156353 -0.0038439902852013125 0 0.021757884926981452 -0.0041230791248094024 0 0.023566466478156353 -0.0038439902852013125 0 0.023974390288682229 -0.0039319940459877608 0 0.022744861845109519 -0.0033684274371877272 0 0.021886694290208192 -0.0023265255251599111 0 0.024025784432527328 -0.0033273172394512338 0 0.019392408694493043 -0.0062611990161031651 0 0.021784998274932469 -0.0057473686021801392 0 0.022034207641801969 -0.004364795793751125 0 0.019648966791296994 -0.0046629565952545898 0 0.021757884926981452 -0.0041230791248094024 0 0.020043782382490261 -0.0034067068804129637 0 0.0193829840144185 -0.0042539944448405842 0 0.021757884926981452 -0.0041230791248094024 0 0.020043782382490261 -0.0034067068804129637 0 0.020388942806646083 -0.0026208814055933313 0 0.021757884926981452 -0.0041230791248094024 0 0.020388942806646083 -0.0026208814055933313 0 0.021886694290208192 -0.0023265255251599111 0 0.019392408694493043 -0.0062611990161031651 0 0.013668716175608586 -0.005697863774160556 0 0.020266188680267038 -0.0097660606173582808 0 0.019561851380456931 -0.0094406952104679805 0 0.020170201757836771 -0.0093132322089811634 0 0.020388942806646083 -0.0026208814055933313 0 0.021886694290208192 -0.0023265255251599111 0 0.019641712974949949 -0.0012831796512257415 0 0.020266188680267038 -0.0097660606173582808 0 0.020965617559773518 -0.010085717397657321 0 0.020727507553528174 -0.0095776893470250722 0 0.020266188680267038 -0.0097660606173582808 0 0.020464000265356875 -0.0093974196836756896 0 0.020170201757836771 -0.0093132322089811634 0 0.020266188680267038 -0.0097660606173582808 0 0.020464000265356875 -0.0093974196836756896 0 0.020727507553528174 -0.0095776893470250722 0 0.020464000265356875 -0.0093974196836756896 0 0.020727507553528174 -0.0095776893470250722 0 0.020720861909882884 -0.0092977265238803619 0 0.0054769868443115752 -0.004253841148008428 0 0.0059478323328285773 -0.0044859162652459471 0 0.0056436212950101428 -0.0046308909190677571 0 0.0054769868443115752 -0.004253841148008428 0 0.0056436212950101428 -0.0046308909190677571 0 0.0053613542980847934 -0.0046648425977740072 0 0.0054769868443115752 -0.004253841148008428 0 0.0059478323328285773 -0.0044859162652459471 0 0.0059614194910705774 -0.0039978429976780215 0 0.0059478323328285773 -0.0044859162652459471 0 0.0059614194910705774 -0.0039978429976780215 0 0.0062895481288522482 -0.0042382598489639654 0 0.0059478323328285773 -0.0044859162652459471 0 0.0058717348255087195 -0.0048474551050239362 0 0.0064428847292244164 -0.0049459961096929884 0 0.0059478323328285773 -0.0044859162652459471 0 0.0058717348255087195 -0.0048474551050239362 0 0.0056436212950101428 -0.0046308909190677571 0 0.0058717348255087195 -0.0048474551050239362 0 0.0056436212950101428 -0.0046308909190677571 0 0.0055725504426753754 -0.0049453972145451306 0 0.0056436212950101428 -0.0046308909190677571 0 0.0053865817855647709 -0.0048002117499707161 0 0.0053613542980847934 -0.0046648425977740072 0 0.0055725504426753754 -0.0049453972145451306 0 0.0053865817855647709 -0.0048002117499707161 0 0.005328721313732074 -0.0049806721699005149 0 0.0056436212950101428 -0.0046308909190677571 0 0.0055725504426753754 -0.0049453972145451306 0 0.0053865817855647709 -0.0048002117499707161 0 0.013056271897519782 -0.0049636715779007717 0 0.012950889120927216 -0.0053817408880012926 0 0.0054769868443115752 -0.004253841148008428 0 0.0053613542980847934 -0.0046648425977740072 0 0.0049405509665666628 -0.0049743858550139455 0 0.0053865817855647709 -0.0048002117499707161 0 0.0053613542980847934 -0.0046648425977740072 0 0.0049405509665666628 -0.0049743858550139455 0 0.0053865817855647709 -0.0048002117499707161 0 0.0049405509665666628 -0.0049743858550139455 0 0.005328721313732074 -0.0049806721699005149 0 0.013668716175608586 -0.005697863774160556 0 0.014482825901597185 -0.004804739516985743 0 0.019641712974949949 -0.0012831796512257415 0 0.019625381186436551 -0.0022168981412942529 0 0.018884946945965448 -0.0022798514342589464 0 0.019619228795442405 -0.0013088534705493616 0 0.018884946945965448 -0.0022798514342589464 0 0.019384754959435434 -0.0011994828352856462 0 0.013668716175608586 -0.005697863774160556 0 0.012950889120927216 -0.0053817408880012926 0 0.020388942806646083 -0.0026208814055933313 0 0.019641712974949949 -0.0012831796512257415 0 0.019625381186436551 -0.0022168981412942529 0 0.019584655397028156 -0.002682929229580939 0 0.018884946945965448 -0.0022798514342589464 0 0.019093012451363103 -0.0031397864003601303 0 0.019625381186436551 -0.0022168981412942529 0 0.019584655397028156 -0.002682929229580939 0 0.018884946945965448 -0.0022798514342589464 0 0.020388942806646083 -0.0026208814055933313 0 0.019625381186436551 -0.0022168981412942529 0 0.019584655397028156 -0.002682929229580939 0 0.01821248442538612 -0.0027617764337836762 0 0.018884946945965448 -0.0022798514342589464 0 0.019384754959435434 -0.0011994828352856462 0 0.01821248442538612 -0.0027617764337836762 0 0.018884946945965448 -0.0022798514342589464 0 0.019093012451363103 -0.0031397864003601303 0 0.01821248442538612 -0.0027617764337836762 0 0.019093012451363103 -0.0031397864003601303 0 0.018642527889706807 -0.0034566959529153331 0 0.019093012451363103 -0.0031397864003601303 0 0.018642527889706807 -0.0034566959529153331 0 0.0193829840144185 -0.0042539944448405842 0 0.01821248442538612 -0.0027617764337836762 0 0.018642527889706807 -0.0034566959529153331 0 0.018193544002052427 -0.0038099310539797021 0 0.020043782382490261 -0.0034067068804129637 0 0.019093012451363103 -0.0031397864003601303 0 0.0193829840144185 -0.0042539944448405842 0 0.020043782382490261 -0.0034067068804129637 0 0.019584655397028156 -0.002682929229580939 0 0.019093012451363103 -0.0031397864003601303 0 0.020043782382490261 -0.0034067068804129637 0 0.020388942806646083 -0.0026208814055933313 0 0.019584655397028156 -0.002682929229580939 0 0.018642527889706807 -0.0034566959529153331 0 0.0193829840144185 -0.0042539944448405842 0 0.018193544002052427 -0.0038099310539797021 0 0.019648966791296994 -0.0046629565952545898 0 0.013235774629573852 -0.0053538210128753084 0 0.0193829840144185 -0.0042539944448405842 0 0.018193544002052427 -0.0038099310539797021 0 0.017011709386012767 -0.004358922834233051 0 0.01821248442538612 -0.0027617764337836762 0 0.018193544002052427 -0.0038099310539797021 0 0.017011709386012767 -0.004358922834233051 0 0.013056271897519782 -0.0049636715779007717 0 0.013235774629573852 -0.0053538210128753084 0 0.0059614194910705774 -0.0039978429976780215 0 0.0061377480076631992 -0.0035270963518294314 0 0.0062895481288522482 -0.0042382598489639654 0 0.0054769868443115752 -0.004253841148008428 0 0.0059614194910705774 -0.0039978429976780215 0 0.0060204700141255566 -0.003532052223031316 0 0.0059614194910705774 -0.0039978429976780215 0 0.0060204700141255566 -0.003532052223031316 0 0.0061377480076631992 -0.0035270963518294314 0 0.013235774629573852 -0.0053538210128753084 0 0.012185643852892395 -0.0054135497378651381 0 0.010242309380938688 -0.0090992545877786653 0 0.015683481860619814 -0.0088585559400898503 0 0.014458105201376694 -0.0035441185433002899 0 0.012982682844299686 -0.0056112420957580575 0 0.017493295938600436 -0.0045206245169816025 0 0.023383296505621941 -0.0038961391386268633 0 0.023358746920795811 -0.003926981778237245 0 0.023592687147496901 -0.0040188033769810146 0 0.012982682844299686 -0.0056112420957580575 0 0.019309098645629599 -0.0063910212714971487 0 0.023551591151883895 -0.0039543003873762665 0 0.023675832224146508 -0.0040044353891647367 0 0.023600624169003138 -0.004100885183637046 0 0.012185643852892395 -0.0054135497378651381 0 0.012982682844299686 -0.0056112420957580575 0 0.013235774629573852 -0.0053538210128753084 0 0.012982682844299686 -0.0056112420957580575 0 0.020780420440236425 -0.0064335144642408805 0 0.019309098645629599 -0.0063910212714971487 0 0.02376256406402328 -0.0039761206856558304 0 0.023660063536967826 -0.003893322709003224 0 0.023592687147496901 -0.0040188033769810146 0 0.023786659199974323 -0.0040602722694644457 0 0.02376256406402328 -0.0039761206856558304 0 0.023592687147496901 -0.0040188033769810146 0 0.023660063536967826 -0.003893322709003224 0 0.023383296505621941 -0.0038961391386268633 0 0.023592687147496901 -0.0040188033769810146 0 0.023786659199974323 -0.0040602722694644457 0 0.023675832224146508 -0.0040044353891647367 0 0.023716346641842575 -0.0040785897372904497 0 0.023708099274980476 -0.0041487906542570533 0 0.023716346641842575 -0.0040785897372904497 0 0.023600624169003138 -0.004100885183637046 0 0.023675832224146508 -0.0040044353891647367 0 0.023716346641842575 -0.0040785897372904497 0 0.023600624169003138 -0.004100885183637046 0 0.023708099274980476 -0.0041487906542570533 0 0.023783704739405956 -0.0041354201090885211 0 0.023716346641842575 -0.0040785897372904497 0 0.017529710673655972 -0.0053583784746349438 0 0.017213772845751082 -0.0038918940885116294 0 0.018450469570248755 -0.0041231502484197447 0 0.0044116832313601763 -0.0099156102489547163 0 0.003287478536666479 -0.010543782678967247 0 0.0010779536482111102 -0.010050729120031675 0 0.0013398705337071503 -0.0099626146826426714 0 0.0011544283872218877 -0.0098021841478870865 0 0.0013398705337071503 -0.0099626146826426714 0 0.0011544283872218877 -0.0098021841478870865 0 0.0014555720728138856 -0.009537728229749666 0 0.0011544283872218877 -0.0098021841478870865 0 0.00077126309968297401 -0.0094316248915497589 0 0.00055683334820764378 -0.0097145447416940277 0 0.0011544283872218877 -0.0098021841478870865 0 0.00077126309968297401 -0.0094316248915497589 0 0.0010765648307410826 -0.0093759417896087244 0 0.00077126309968297401 -0.0094316248915497589 0 0.0010765648307410826 -0.0093759417896087244 0 0.00068085599186560773 -0.0091155469864022433 0 0.0010765648307410826 -0.0093759417896087244 0 0.0014555720728138856 -0.009537728229749666 0 0.001466807119559353 -0.009305198641533027 0 0.0011544283872218877 -0.0098021841478870865 0 0.0010765648307410826 -0.0093759417896087244 0 0.0014555720728138856 -0.009537728229749666 0 0.0018988297252524264 -0.0093933071901730961 0 0.0013398705337071503 -0.0099626146826426714 0 0.0014555720728138856 -0.009537728229749666 0 0.012982682844299686 -0.0056112420957580575 0 0.010820383123910472 -0.0066678234363793292 0 0.0014555720728138856 -0.009537728229749666 0 0.0017473868623525256 -0.0093142060661214887 0 0.001466807119559353 -0.009305198641533027 0 0.0018988297252524264 -0.0093933071901730961 0 0.0014555720728138856 -0.009537728229749666 0 0.0017473868623525256 -0.0093142060661214887 0 0.012982682844299686 -0.0056112420957580575 0 0.010669846634296029 -0.0055964539336548552 0 -0.00052880469514122997 -0.010099681418020388 0 -0.00012251786022180231 -0.010481061312034771 0 -0.00074087433280660843 -0.010681587680499387 0 -0.00052880469514122997 -0.010099681418020388 0 -0.00012251786022180231 -0.010481061312034771 0 1.1980892961338873e-05 -0.0098491888471082308 0 0.00048628921221762427 -0.010743889539156093 0 0.0011544283872218877 -0.0098021841478870865 0 0.00041344133776769702 -0.010118701605351258 0 -0.00012251786022180231 -0.010481061312034771 0 0.00041344133776769702 -0.010118701605351258 0 1.1980892961338873e-05 -0.0098491888471082308 0 0.00048628921221762427 -0.010743889539156093 0 -0.00012251786022180231 -0.010481061312034771 0 0.00041344133776769702 -0.010118701605351258 0 0.0011544283872218877 -0.0098021841478870865 0 0.00041344133776769702 -0.010118701605351258 0 0.00055683334820764378 -0.0097145447416940277 0 0.00077126309968297401 -0.0094316248915497589 0 0.00032872665160034404 -0.0093817697598326238 0 0.00068085599186560773 -0.0091155469864022433 0 0.00077126309968297401 -0.0094316248915497589 0 0.00055683334820764378 -0.0097145447416940277 0 0.00032872665160034404 -0.0093817697598326238 0 0.00032872665160034404 -0.0093817697598326238 0 -0.00017348469681373077 -0.0095048183784398887 0 -6.3263621131240565e-05 -0.0091780273666086636 0 0.00032872665160034404 -0.0093817697598326238 0 1.1980892961338873e-05 -0.0098491888471082308 0 -0.00017348469681373077 -0.0095048183784398887 0 0.00055683334820764378 -0.0097145447416940277 0 0.00032872665160034404 -0.0093817697598326238 0 1.1980892961338873e-05 -0.0098491888471082308 0 0.00041344133776769702 -0.010118701605351258 0 0.00055683334820764378 -0.0097145447416940277 0 1.1980892961338873e-05 -0.0098491888471082308 0 1.1980892961338873e-05 -0.0098491888471082308 0 -0.00017348469681373077 -0.0095048183784398887 0 -0.00052342757709680819 -0.0096672288279505466 0 -0.00017348469681373077 -0.0095048183784398887 0 -0.00052342757709680819 -0.0096672288279505466 0 -0.00056512883417948734 -0.009208718993139936 0 -0.00052342757709680819 -0.0096672288279505466 0 -0.00056512883417948734 -0.009208718993139936 0 -0.00097208200685206198 -0.00944451706902401 0 -0.00052880469514122997 -0.010099681418020388 0 -0.00052342757709680819 -0.0096672288279505466 0 -0.00074649051433666315 -0.009806983467230879 0 -0.00052880469514122997 -0.010099681418020388 0 1.1980892961338873e-05 -0.0098491888471082308 0 -0.00052342757709680819 -0.0096672288279505466 0 -0.00056512883417948734 -0.009208718993139936 0 -0.0002993377651601297 -0.0087625468844996172 0 -0.0007980265378454152 -0.0087226491486742021 0 -0.00017348469681373077 -0.0095048183784398887 0 -0.00056512883417948734 -0.009208718993139936 0 -6.3263621131240565e-05 -0.0091780273666086636 0 -6.3263621131240565e-05 -0.0091780273666086636 0 -0.0002993377651601297 -0.0087625468844996172 0 0.00029395766360005871 -0.0089434543447976453 0 -0.00056512883417948734 -0.009208718993139936 0 -6.3263621131240565e-05 -0.0091780273666086636 0 -0.0002993377651601297 -0.0087625468844996172 0 0.00050674635847291951 -0.0069065686357409391 0 0.0027594322114863215 -0.0066010020161195769 0 0.00029395766360005871 -0.0089434543447976453 0 0.00011594062886111934 -0.0084068172379735476 0 0.0010030551791903296 -0.0087948070883673637 0 -0.0002993377651601297 -0.0087625468844996172 0 0.00029395766360005871 -0.0089434543447976453 0 0.00011594062886111934 -0.0084068172379735476 0 0.00032872665160034404 -0.0093817697598326238 0 -6.3263621131240565e-05 -0.0091780273666086636 0 0.00029395766360005871 -0.0089434543447976453 0 0.00029395766360005871 -0.0089434543447976453 0 0.00068085599186560773 -0.0091155469864022433 0 0.0010030551791903296 -0.0087948070883673637 0 0.00032872665160034404 -0.0093817697598326238 0 0.00029395766360005871 -0.0089434543447976453 0 0.00068085599186560773 -0.0091155469864022433 0 -0.0017021757018214009 -0.0080768898974020193 0 -0.0017626632330144307 -0.0080685916874032038 0 -0.0016695849439330105 -0.0081164885310167651 0 -0.0017021757018214009 -0.0080768898974020193 0 -0.0017463260765248701 -0.0080179437305211501 0 -0.0016626844217141098 -0.0080688491278988837 0 -0.0017021757018214009 -0.0080768898974020193 0 -0.0017463260765248701 -0.0080179437305211501 0 -0.0017626632330144307 -0.0080685916874032038 0 -0.0002993377651601297 -0.0087625468844996172 0 -0.0007980265378454152 -0.0087226491486742021 0 -0.00080427723545294723 -0.0080478153917984165 0 -0.0017463260765248701 -0.0080179437305211501 0 -0.0017626632330144307 -0.0080685916874032038 0 -0.0018498184984265937 -0.0079387440231580113 0 0.00050674635847291951 -0.0069065686357409391 0 -0.00048469125530547661 -0.0071024414205840157 0 -0.0002993377651601297 -0.0087625468844996172 0 0.00011594062886111934 -0.0084068172379735476 0 -0.00080427723545294723 -0.0080478153917984165 0 0.010669846634296029 -0.0055964539336548552 0 0.0027594322114863215 -0.0066010020161195769 0 0.0068659114927743575 -0.0047765901253234121 0 0.0075218972307882822 -0.0050750909989040341 0 0.0068349873617540476 -0.0052220615875828184 0 0.0018081681475691776 -0.0093003175143640798 0 0.001466807119559353 -0.009305198641533027 0 0.00096494515708609146 -0.0088706822844452481 0 0.012185643852892395 -0.0054135497378651381 0 0.0082729330236281547 -0.0054333857979438245 0 0.0067405048390683144 -0.0047821835131510431 0 0.0068659114927743575 -0.0047765901253234121 0 0.0068349873617540476 -0.0052220615875828184 0 0.012185643852892395 -0.0054135497378651381 0 0.010669846634296029 -0.0055964539336548552 0 0.011037524894798589 -0.0058252410940051761 0 0.010543493789567638 -0.0036808728403015987 0 0.014869011250958358 -0.0056554571097060732 0 0.010669846634296029 -0.0055964539336548552 0 0.009594379151469901 -0.005746501868262228 0 0.0010765648307410826 -0.0093759417896087244 0 0.001466807119559353 -0.009305198641533027 0 0.00096494515708609146 -0.0088706822844452481 0 0.0010765648307410826 -0.0093759417896087244 0 0.00068085599186560773 -0.0091155469864022433 0 0.00096494515708609146 -0.0088706822844452481 0 0.0024702540793010933 -0.0069035380241414873 0 0.0027594322114863215 -0.0066010020161195769 0 -0.0017021757018214009 -0.0080768898974020193 0 -0.0016695849439330105 -0.0081164885310167651 0 -0.0016626844217141098 -0.0080688491278988837 0 0.0027594322114863215 -0.0066010020161195769 0 0.0048328480504361915 -0.0062561250677926773 0 -0.0016695849439330105 -0.0081164885310167651 0 -0.0016626844217141098 -0.0080688491278988837 0 -0.0016131709261966926 -0.0080750903584224897 0 0.0075218972307882822 -0.0050750909989040341 0 0.0068349873617540476 -0.0052220615875828184 0 0.0069305601647881481 -0.0056619065845535353 0 0.0082729330236281547 -0.0054333857979438245 0 0.0048328480504361915 -0.0062561250677926773 0 0.0059478323328285773 -0.0044859162652459471 0 0.0062895481288522482 -0.0042382598489639654 0 0.0064428847292244164 -0.0049459961096929884 0 -0.0016131709261966926 -0.0080750903584224897 0 -0.0016138362130756862 -0.0080845741075801485 0 -0.0015329340088543661 -0.0081503994728986343 0 -0.001376188410734485 -0.0088786701693781035 0 -0.0012154729724461698 -0.0083506104225638516 0 -0.0015329340088543661 -0.0081503994728986343 0 0.0048328480504361915 -0.0062561250677926773 0 0.0039018011519400524 -0.0067323903363445542 0 -0.0016626844217141098 -0.0080688491278988837 0 -0.0016131709261966926 -0.0080750903584224897 0 -0.0016138362130756862 -0.0080845741075801485 0 -0.0017129829977115347 -0.0080086714921848851 0 -0.0016138362130756862 -0.0080845741075801485 0 -0.0015329340088543661 -0.0081503994728986343 0 -0.0017463260765248701 -0.0080179437305211501 0 -0.0016626844217141098 -0.0080688491278988837 0 -0.0017129829977115347 -0.0080086714921848851 0 -0.0016626844217141098 -0.0080688491278988837 0 -0.0017129829977115347 -0.0080086714921848851 0 -0.0016138362130756862 -0.0080845741075801485 0 -0.0017129829977115347 -0.0080086714921848851 0 -0.0017998509390372115 -0.0078282663395213281 0 -0.0016191740133531412 -0.0079256904561975199 0 -0.0017129829977115347 -0.0080086714921848851 0 -0.0015329340088543661 -0.0081503994728986343 0 -0.0016191740133531412 -0.0079256904561975199 0 -0.0015329340088543661 -0.0081503994728986343 0 -0.0016191740133531412 -0.0079256904561975199 0 -0.0011778318770705291 -0.0080817750378235145 0 -0.0012154729724461698 -0.0083506104225638516 0 -0.0015329340088543661 -0.0081503994728986343 0 -0.0011778318770705291 -0.0080817750378235145 0 -0.0017463260765248701 -0.0080179437305211501 0 -0.0017932999637983163 -0.0079445147286657872 0 -0.0018498184984265937 -0.0079387440231580113 0 -0.0017932999637983163 -0.0079445147286657872 0 -0.0018371180915971559 -0.0078767919296238841 0 -0.0018498184984265937 -0.0079387440231580113 0 -0.0018371180915971559 -0.0078767919296238841 0 -0.0018498184984265937 -0.0079387440231580113 0 -0.0018419896171003429 -0.0078620613318523269 0 -0.0017463260765248701 -0.0080179437305211501 0 -0.0017129829977115347 -0.0080086714921848851 0 -0.0017932999637983163 -0.0079445147286657872 0 -0.0017129829977115347 -0.0080086714921848851 0 -0.0017932999637983163 -0.0079445147286657872 0 -0.001819223967974849 -0.0078672228135717275 0 -0.0017129829977115347 -0.0080086714921848851 0 -0.001819223967974849 -0.0078672228135717275 0 -0.0017998509390372115 -0.0078282663395213281 0 -0.0017932999637983163 -0.0079445147286657872 0 -0.001819223967974849 -0.0078672228135717275 0 -0.0018371180915971559 -0.0078767919296238841 0 -0.001819223967974849 -0.0078672228135717275 0 -0.0018581785375273443 -0.0078051416055437703 0 -0.0018371180915971559 -0.0078767919296238841 0 -0.0018581785375273443 -0.0078051416055437703 0 -0.0018371180915971559 -0.0078767919296238841 0 -0.0018549166802274935 -0.0078251374458286685 0 -0.0018696893972506502 -0.0077356360854978655 0 -0.0018759347905128298 -0.0077019788773531068 0 -0.0018720420077405987 -0.0077023188662836504 0 -0.001819223967974849 -0.0078672228135717275 0 -0.0018581785375273443 -0.0078051416055437703 0 -0.0018759347905128298 -0.0077019788773531068 0 -0.0018696893972506502 -0.0077356360854978655 0 -0.0018720420077405987 -0.0077023188662836504 0 -0.001870749091779619 -0.0077653184141680803 0 -0.0018581785375273443 -0.0078051416055437703 0 -0.0018696893972506502 -0.0077356360854978655 0 -0.001870749091779619 -0.0077653184141680803 0 -0.0018581785375273443 -0.0078051416055437703 0 -0.0018696893972506502 -0.0077356360854978655 0 -0.0018759347905128298 -0.0077019788773531068 0 -0.0017998509390372115 -0.0078282663395213281 0 -0.0018759347905128298 -0.0077019788773531068 0 -0.0018402162381878965 -0.007682940460247473 0 -0.001819223967974849 -0.0078672228135717275 0 -0.0017998509390372115 -0.0078282663395213281 0 -0.0018759347905128298 -0.0077019788773531068 0 -0.0018985013486427335 -0.0076101306150770289 0 -0.0018692796912788672 -0.007662772938434149 0 -0.0018890338471653811 -0.0076276138768574661 0 -0.0018759347905128298 -0.0077019788773531068 0 -0.0018985013486427335 -0.0076101306150770289 0 -0.0018402162381878965 -0.007682940460247473 0 -0.0018759347905128298 -0.0077019788773531068 0 -0.0018985013486427335 -0.0076101306150770289 0 -0.0018692796912788672 -0.007662772938434149 0 -0.0018985013486427335 -0.0076101306150770289 0 -0.001974050749692553 -0.0074918078153196621 0 -0.0018890338471653811 -0.0076276138768574661 0 -0.0018759347905128298 -0.0077019788773531068 0 -0.0018692796912788672 -0.007662772938434149 0 -0.0018720420077405987 -0.0077023188662836504 0 -0.0018692796912788672 -0.007662772938434149 0 -0.0018720420077405987 -0.0077023188662836504 0 -0.0018771953907714106 -0.0076891666665009177 0 -0.001255676466491279 -0.0078232691978150585 0 -0.0016191740133531412 -0.0079256904561975199 0 -0.0011778318770705291 -0.0080817750378235145 0 -0.0015385496334978416 -0.0077161836167451365 0 -0.001255676466491279 -0.0078232691978150585 0 -0.0012363580545604123 -0.0075780015945799443 0 -0.0015385496334978416 -0.0077161836167451365 0 -0.001255676466491279 -0.0078232691978150585 0 -0.0016191740133531412 -0.0079256904561975199 0 -0.0017998509390372115 -0.0078282663395213281 0 -0.0016191740133531412 -0.0079256904561975199 0 -0.0018402162381878965 -0.007682940460247473 0 -0.0015385496334978416 -0.0077161836167451365 0 -0.0016191740133531412 -0.0079256904561975199 0 -0.0018402162381878965 -0.007682940460247473 0 -0.0015385496334978416 -0.0077161836167451365 0 -0.0018402162381878965 -0.007682940460247473 0 -0.001668743491106426 -0.0074323380212138485 0 -0.0018402162381878965 -0.007682940460247473 0 -0.001974050749692553 -0.0074918078153196621 0 -0.001668743491106426 -0.0074323380212138485 0 -0.0018985013486427335 -0.0076101306150770289 0 -0.0018402162381878965 -0.007682940460247473 0 -0.001974050749692553 -0.0074918078153196621 0 -0.001974050749692553 -0.0074918078153196621 0 -0.001668743491106426 -0.0074323380212138485 0 -0.0019584363800265567 -0.0070874304550532993 0 -0.0015385496334978416 -0.0077161836167451365 0 -0.001668743491106426 -0.0074323380212138485 0 -0.0012363580545604123 -0.0075780015945799443 0 -0.001668743491106426 -0.0074323380212138485 0 -0.0012273726870273645 -0.0071740871234777393 0 -0.0016797349572265756 -0.006894908499331648 0 -0.001668743491106426 -0.0074323380212138485 0 -0.0012363580545604123 -0.0075780015945799443 0 -0.0012273726870273645 -0.0071740871234777393 0 -0.0012273726870273645 -0.0071740871234777393 0 -0.00072612710466824718 -0.0074160735901860663 0 -0.00074245372545274422 -0.0068977706001276274 0 -0.00072612710466824718 -0.0074160735901860663 0 -0.00030661145079402834 -0.0071046134771329287 0 -0.00074245372545274422 -0.0068977706001276274 0 -0.0012363580545604123 -0.0075780015945799443 0 -0.0012273726870273645 -0.0071740871234777393 0 -0.00072612710466824718 -0.0074160735901860663 0 -0.0012363580545604123 -0.0075780015945799443 0 -0.00072612710466824718 -0.0074160735901860663 0 -0.00090366514674237292 -0.0078196188157691228 0 -0.001255676466491279 -0.0078232691978150585 0 -0.0012363580545604123 -0.0075780015945799443 0 -0.00090366514674237292 -0.0078196188157691228 0 -0.00090366514674237292 -0.0078196188157691228 0 -0.00069555223292576103 -0.0080102862523782487 0 -0.00050252937121654496 -0.0077393837679022521 0 -0.00072612710466824718 -0.0074160735901860663 0 -0.00090366514674237292 -0.0078196188157691228 0 -0.00050252937121654496 -0.0077393837679022521 0 -0.00090366514674237292 -0.0078196188157691228 0 -0.00069555223292576103 -0.0080102862523782487 0 -0.0011778318770705291 -0.0080817750378235145 0 -0.001255676466491279 -0.0078232691978150585 0 -0.00090366514674237292 -0.0078196188157691228 0 -0.0011778318770705291 -0.0080817750378235145 0 -0.00069555223292576103 -0.0080102862523782487 0 -7.7076597644864755e-05 -0.0080281292357803572 0 -0.00050252937121654496 -0.0077393837679022521 0 -7.7076597644864755e-05 -0.0080281292357803572 0 -0.00050252937121654496 -0.0077393837679022521 0 -0.00010459592130086376 -0.0075574532452525652 0 -0.00072612710466824718 -0.0074160735901860663 0 -0.00050252937121654496 -0.0077393837679022521 0 -0.00010459592130086376 -0.0075574532452525652 0 -0.00072612710466824718 -0.0074160735901860663 0 -0.00010459592130086376 -0.0075574532452525652 0 -0.00030661145079402834 -0.0071046134771329287 0 -0.00010459592130086376 -0.0075574532452525652 0 0.0001943379366882444 -0.0071200417654624813 0 -0.00030661145079402834 -0.0071046134771329287 0 -7.7076597644864755e-05 -0.0080281292357803572 0 -0.00010459592130086376 -0.0075574532452525652 0 0.00055272050229572306 -0.0074355722393672522 0 -0.00027603421253692646 -0.010382553460635068 0 0.00057505640856858652 -0.0086409978318527682 0 0.0010256529423995503 -0.0090990626740514741 0 -0.00010459592130086376 -0.0075574532452525652 0 0.00055272050229572306 -0.0074355722393672522 0 0.0001943379366882444 -0.0071200417654624813 0 0.00057505640856858652 -0.0086409978318527682 0 0.0010256529423995503 -0.0090990626740514741 0 0.0023800526188082166 -0.007790423745752297 0 0.0042784036489041458 -0.0066501694969522155 0 0.0039886027331635793 -0.0066904387474336739 0 0.0038887443929633788 -0.0068411945792131784 0 0.0027470590352761575 -0.0075126677880035502 0 0.0031000873788165034 -0.0072271018382770186 0 0.0042784036489041458 -0.0066501694969522155 0 0.0039886027331635793 -0.0066904387474336739 0 0.0041203117347438601 -0.0064865515672134083 0 0.0039886027331635793 -0.0066904387474336739 0 0.0039075585507505018 -0.0065062745894703461 0 0.0041203117347438601 -0.0064865515672134083 0 0.01228521531480632 -0.0070156119254272866 0 0.012490547993535833 -0.006983015044078676 0 0.0039075585507505018 -0.0065062745894703461 0 0.0042248035734001278 -0.0062513551039494134 0 0.0043410088907591751 -0.0058196902413893553 0 0.020707560387253177 -0.0079562122857811321 0 0.020135164847537541 -0.0086969188828572679 0 0.020669989067896608 -0.0085128639119885011 0 0.0039075585507505018 -0.0065062745894703461 0 0.0041203117347438601 -0.0064865515672134083 0 0.0042248035734001278 -0.0062513551039494134 0 0.0042784036489041458 -0.0066501694969522155 0 0.0041203117347438601 -0.0064865515672134083 0 0.0042248035734001278 -0.0062513551039494134 0 0.0047922185548252248 -0.006251380083314992 0 0.0042784036489041458 -0.0066501694969522155 0 0.0042248035734001278 -0.0062513551039494134 0 0.0047922185548252248 -0.006251380083314992 0 0.0042248035734001278 -0.0062513551039494134 0 0.0044224808254212265 -0.0060612764404271748 0 0.0027195316571155498 -0.0073703758266356273 0 0.0017635770582181878 -0.0079152793472499067 0 0.0027195316571155498 -0.0073703758266356273 0 0.0027470590352761575 -0.0075126677880035502 0 0.0047922185548252248 -0.006251380083314992 0 0.0045854579515275133 -0.0059252429251283982 0 0.0048672818617854757 -0.0057930911867730677 0 0.0047922185548252248 -0.006251380083314992 0 0.0045854579515275133 -0.0059252429251283982 0 0.0044224808254212265 -0.0060612764404271748 0 0.0045854579515275133 -0.0059252429251283982 0 0.0044224808254212265 -0.0060612764404271748 0 0.0043410088907591751 -0.0058196902413893553 0 0.0042248035734001278 -0.0062513551039494134 0 0.0044224808254212265 -0.0060612764404271748 0 0.0043410088907591751 -0.0058196902413893553 0 0.0045854579515275133 -0.0059252429251283982 0 0.0043410088907591751 -0.0058196902413893553 0 0.0045590879754589314 -0.0056875400412123587 0 0.0045854579515275133 -0.0059252429251283982 0 0.0045590879754589314 -0.0056875400412123587 0 0.0048672818617854757 -0.0057930911867730677 0 0.0045590879754589314 -0.0056875400412123587 0 0.0048227679909693243 -0.0056248207695033534 0 0.0048672818617854757 -0.0057930911867730677 0 0.020135164847537541 -0.0086969188828572679 0 0.020669989067896608 -0.0085128639119885011 0 0.02041795295127663 -0.0088343542136182611 0 0.020135164847537541 -0.0086969188828572679 0 0.02041795295127663 -0.0088343542136182611 0 0.020155826221636211 -0.0090426351595674411 0 0.020669989067896608 -0.0085128639119885011 0 0.02041795295127663 -0.0088343542136182611 0 0.020682245766254725 -0.0088325530309017672 0 0.020472648636638714 -0.0090592994145915744 0 0.02085149670015423 -0.0090429398816914714 0 0.020720861909882884 -0.0092977265238803619 0 0.020682245766254725 -0.0088325530309017672 0 0.020472648636638714 -0.0090592994145915744 0 0.02085149670015423 -0.0090429398816914714 0 0.02041795295127663 -0.0088343542136182611 0 0.020682245766254725 -0.0088325530309017672 0 0.020472648636638714 -0.0090592994145915744 0 0.02041795295127663 -0.0088343542136182611 0 0.020472648636638714 -0.0090592994145915744 0 0.020155826221636211 -0.0090426351595674411 0 0.020472648636638714 -0.0090592994145915744 0 0.020155826221636211 -0.0090426351595674411 0 0.020170201757836771 -0.0093132322089811634 0 0.020472648636638714 -0.0090592994145915744 0 0.020464000265356875 -0.0093974196836756896 0 0.020170201757836771 -0.0093132322089811634 0 0.020472648636638714 -0.0090592994145915744 0 0.020464000265356875 -0.0093974196836756896 0 0.020720861909882884 -0.0092977265238803619 0 0.019561851380456931 -0.0094406952104679805 0 0.020155826221636211 -0.0090426351595674411 0 0.020170201757836771 -0.0093132322089811634 0 0.013668716175608586 -0.005697863774160556 0 0.012490547993535833 -0.006983015044078676 0 0.019561851380456931 -0.0094406952104679805 0 0.020135164847537541 -0.0086969188828572679 0 0.020155826221636211 -0.0090426351595674411 0 0.0045590879754589314 -0.0056875400412123587 0 0.0050183601256899007 -0.0050546747383217764 0 0.0048927940477253252 -0.005453834693520088 0 0.0050034667579187493 -0.0049518986191645596 0 0.0043410088907591751 -0.0058196902413893553 0 0.0045590879754589314 -0.0056875400412123587 0 0.010399254740710816 -0.0068034681254539528 0 0.012950889120927216 -0.0053817408880012926 0 0.0045590879754589314 -0.0056875400412123587 0 0.0048227679909693243 -0.0056248207695033534 0 0.0048927940477253252 -0.005453834693520088 0 0.0050183601256899007 -0.0050546747383217764 0 0.0050728472719387867 -0.0052943388377146277 0 0.0048927940477253252 -0.005453834693520088 0 0.0050034667579187493 -0.0049518986191645596 0 0.0045590879754589314 -0.0056875400412123587 0 0.005090968447242758 -0.0049919906867429533 0 0.0050183601256899007 -0.0050546747383217764 0 0.0050728472719387867 -0.0052943388377146277 0 0.0051793399441106436 -0.0052092032788500419 0 0.0049753431552618807 -0.0055630876578497577 0 0.0053139329056532672 -0.0053826879653129413 0 0.0048672818617854757 -0.0057930911867730677 0 0.0050728472719387867 -0.0052943388377146277 0 0.0048927940477253252 -0.005453834693520088 0 0.005076103966475223 -0.0054354448096293959 0 0.0048927940477253252 -0.005453834693520088 0 0.005076103966475223 -0.0054354448096293959 0 0.0049753431552618807 -0.0055630876578497577 0 0.0048227679909693243 -0.0056248207695033534 0 0.0048927940477253252 -0.005453834693520088 0 0.0049753431552618807 -0.0055630876578497577 0 0.005076103966475223 -0.0054354448096293959 0 0.0049753431552618807 -0.0055630876578497577 0 0.0053139329056532672 -0.0053826879653129413 0 0.005076103966475223 -0.0054354448096293959 0 0.0051660696371525735 -0.0053558701877112038 0 0.0053139329056532672 -0.0053826879653129413 0 0.0050728472719387867 -0.0052943388377146277 0 0.005076103966475223 -0.0054354448096293959 0 0.0051660696371525735 -0.0053558701877112038 0 0.0051660696371525735 -0.0053558701877112038 0 0.0053139329056532672 -0.0053826879653129413 0 0.0052167843144904679 -0.0052797144600424638 0 0.0049405509665666628 -0.0049743858550139455 0 0.005328721313732074 -0.0049806721699005149 0 0.0054184650567852101 -0.0052022610277434479 0 0.0050183601256899007 -0.0050546747383217764 0 0.0051793399441106436 -0.0052092032788500419 0 0.0054184650567852101 -0.0052022610277434479 0 0.0052167843144904679 -0.0052797144600424638 0 0.0051793399441106436 -0.0052092032788500419 0 0.0054184650567852101 -0.0052022610277434479 0 0.0053139329056532672 -0.0053826879653129413 0 0.0052167843144904679 -0.0052797144600424638 0 0.0054184650567852101 -0.0052022610277434479 0 0.012950889120927216 -0.0053817408880012926 0 0.011750524125426522 -0.0049880424252045138 0 0.0050728472719387867 -0.0052943388377146277 0 0.0052167843144904679 -0.0052797144600424638 0 0.0051793399441106436 -0.0052092032788500419 0 0.0050728472719387867 -0.0052943388377146277 0 0.0051660696371525735 -0.0053558701877112038 0 0.0052167843144904679 -0.0052797144600424638 0 0.0064428847292244164 -0.0049459961096929884 0 0.0057814585628293809 -0.0052247570479894579 0 0.0055609473965824883 -0.0058207410777672934 0 0.0055725504426753754 -0.0049453972145451306 0 0.005328721313732074 -0.0049806721699005149 0 0.0054184650567852101 -0.0052022610277434479 0 0.0058717348255087195 -0.0048474551050239362 0 0.0055725504426753754 -0.0049453972145451306 0 0.0057814585628293809 -0.0052247570479894579 0 -0.001376188410734485 -0.0088786701693781035 0 -0.0012154729724461698 -0.0083506104225638516 0 -0.00078865327011198936 -0.0083689589103237028 0 0.0055725504426753754 -0.0049453972145451306 0 0.0057814585628293809 -0.0052247570479894579 0 0.0054184650567852101 -0.0052022610277434479 0 0.0048328480504361915 -0.0062561250677926773 0 0.0031431536104105707 -0.0071974195524655013 0 0.0053139329056532672 -0.0053826879653129413 0 0.0054184650567852101 -0.0052022610277434479 0 0.0055175457309313333 -0.0054050060118441753 0 0.0057814585628293809 -0.0052247570479894579 0 0.0054184650567852101 -0.0052022610277434479 0 0.0055175457309313333 -0.0054050060118441753 0 0.0058717348255087195 -0.0048474551050239362 0 0.0064428847292244164 -0.0049459961096929884 0 0.0057814585628293809 -0.0052247570479894579 0 0.0057814585628293809 -0.0052247570479894579 0 0.0055175457309313333 -0.0054050060118441753 0 0.0055609473965824883 -0.0058207410777672934 0 0.0053139329056532672 -0.0053826879653129413 0 0.0055175457309313333 -0.0054050060118441753 0 0.0055609473965824883 -0.0058207410777672934 0 -0.0012154729724461698 -0.0083506104225638516 0 -0.00078865327011198936 -0.0083689589103237028 0 -0.0011778318770705291 -0.0080817750378235145 0 -0.00069555223292576103 -0.0080102862523782487 0 -0.00078865327011198936 -0.0083689589103237028 0 -0.0011778318770705291 -0.0080817750378235145 0 0.0046315777483772981 -0.0067353352523373926 0 0.0053139329056532672 -0.0053826879653129413 0 0.0055609473965824883 -0.0058207410777672934 0 0.0027195316571155498 -0.0073703758266356273 0 0.0031431536104105707 -0.0071974195524655013 0 -0.00069555223292576103 -0.0080102862523782487 0 -7.7076597644864755e-05 -0.0080281292357803572 0 -0.00078865327011198936 -0.0083689589103237028 0 0.0027195316571155498 -0.0073703758266356273 0 0.0039144217940793695 -0.0058907598701795983 0 0.0047922185548252248 -0.006251380083314992 0 0.0053139329056532672 -0.0053826879653129413 0 0.0048672818617854757 -0.0057930911867730677 0 0.0048227679909693243 -0.0056248207695033534 0 0.0049753431552618807 -0.0055630876578497577 0 0.0048672818617854757 -0.0057930911867730677 0 0.015007298397155949 1.0668878456049005e-06 0 0.014419142521118138 -0.00010960662855890902 0 0.013120834879468602 -1.3176091154953108e-06 0 0.013735356454480796 -0.00019092434307735456 0 0.014419142521118138 -0.00010960662855890902 0 0.013120834879468602 -1.3176091154953108e-06 0 0.013735356454480796 -0.00019092434307735456 0 0.013598691528851807 -0.00014008818441465216 0 0.012929722857812813 -0.00047295140897853902 0 0.013735356454480796 -0.00019092434307735456 0 0.013598691528851807 -0.00014008818441465216 0 0.014419142521118138 -0.00010960662855890902 0 0.01400613880125089 0.00036769885646729738 0 0.014419142521118138 -0.00010960662855890902 0 0.015843149559824223 0.00064259067331154157 0 0.013598691528851807 -0.00014008818441465216 0 0.01400613880125089 0.00036769885646729738 0 0.014419142521118138 -0.00010960662855890902 0 0.015007298397155949 1.0668878456049005e-06 0 0.014419142521118138 -0.00010960662855890902 0 0.015843149559824223 0.00064259067331154157 0 0.015007298397155949 1.0668878456049005e-06 0 0.016798689546442609 0.00019807456345586179 0 0.016893014956388112 1.3316863207955615e-07 0 0.015007298397155949 1.0668878456049005e-06 0 0.016798689546442609 0.00019807456345586179 0 0.015843149559824223 0.00064259067331154157 0 0.018041936830512133 -0.00012840360906475476 0 0.016798689546442609 0.00019807456345586179 0 0.016893014956388112 1.3316863207955615e-07 0 0.018041936830512133 -0.00012840360906475476 0 0.016798689546442609 0.00019807456345586179 0 0.017826374845734832 6.4695062838282907e-05 0 0.017826374845734832 6.4695062838282907e-05 0 0.015843149559824223 0.00064259067331154157 0 0.018865206765282031 0.00096012921554330672 0 0.01400613880125089 0.00036769885646729738 0 0.015843149559824223 0.00064259067331154157 0 0.012517119980911703 0.001451785307774353 0 0.016798689546442609 0.00019807456345586179 0 0.017826374845734832 6.4695062838282907e-05 0 0.015843149559824223 0.00064259067331154157 0 0.015604705750823402 0.00036159631500508988 0 0.015348271481828041 0.00026896895755919379 0 0.01400613880125089 0.00036769885646729738 0 0.012517119980911703 0.001451785307774353 0 0.010898453854541771 0.00056262946567883754 0 0.019059539189755646 -0.00028570199590108813 0 0.017826374845734832 6.4695062838282907e-05 0 0.018774223708857722 0.00013061012957224925 0 0.018865206765282031 0.00096012921554330672 0 0.018774223708857722 0.00013061012957224925 0 0.019409673835413598 3.4826057754680339e-05 0 0.019059539189755646 -0.00028570199590108813 0 0.018774223708857722 0.00013061012957224925 0 0.019409673835413598 3.4826057754680339e-05 0 0.017826374845734832 6.4695062838282907e-05 0 0.018865206765282031 0.00096012921554330672 0 0.018774223708857722 0.00013061012957224925 0 0.019409673835413598 3.4826057754680339e-05 0 0.019874664715999333 0.00058649171565202686 0 0.019943316935890822 0.00014138618092793354 0 0.019994745954877234 -0.00015256015240874756 0 0.019409673835413598 3.4826057754680339e-05 0 0.019943316935890822 0.00014138618092793354 0 0.015348271481828041 0.00026896895755919379 0 0.014758870445417169 -0.00020920078847788947 0 0.010898453854541771 0.00056262946567883754 0 0.0089224414848707127 -0.00022158096848007037 0 0.0095265709454195359 0.0017185254255365474 0 0.012517119980911703 0.001451785307774353 0 0.010898453854541771 0.00056262946567883754 0 0.0095265709454195359 0.0017185254255365474 0 0.018865206765282031 0.00096012921554330672 0 0.019409673835413598 3.4826057754680339e-05 0 0.019874664715999333 0.00058649171565202686 0 0.010618744379840412 -0.0012363358069085242 0 0.010898453854541771 0.00056262946567883754 0 0.0089224414848707127 -0.00022158096848007037 0 0.012793109343278975 -0.00034607493183154393 0 0.011800276829558231 -0.00091668272260638374 0 0.01400613880125089 0.00036769885646729738 0 0.010618744379840412 -0.0012363358069085242 0 0.010898453854541771 0.00056262946567883754 0 0.013598691528851807 -0.00014008818441465216 0 0.01400613880125089 0.00036769885646729738 0 0.01232446619351487 -0.00013140050537314676 0 0.013598691528851807 -0.00014008818441465216 0 0.01232446619351487 -0.00013140050537314676 0 0.012929722857812813 -0.00047295140897853902 0 0.01232446619351487 -0.00013140050537314676 0 0.012247616874391328 -0.00042005758374589276 0 0.012316200854092706 -0.00043200940089691567 0 0.01232446619351487 -0.00013140050537314676 0 0.012459808172064745 -0.00046128723232922026 0 0.012316200854092706 -0.00043200940089691567 0 0.01232446619351487 -0.00013140050537314676 0 0.012929722857812813 -0.00047295140897853902 0 0.012459808172064745 -0.00046128723232922026 0 0.010618744379840412 -0.0012363358069085242 0 0.0073683340272701521 -0.0028570084088116411 0 0.0084714432535459086 -0.0011824420522149064 0 0.011800276829558231 -0.00091668272260638374 0 0.011195021662654816 -0.0015636736635296186 0 0.01232446619351487 -0.00013140050537314676 0 0.012171568925012548 -0.00037741907141146321 0 0.012247616874391328 -0.00042005758374589276 0 0.0073683340272701521 -0.0028570084088116411 0 0.0069827409567726111 -0.00041732478202382385 0 0.0084714432535459086 -0.0011824420522149064 0 0.010069656472671617 -0.0030345485330489082 0 0.0098975998595277181 -0.0038853397472121873 0 0.011195021662654816 -0.0015636736635296186 0 0.013057916782306818 -0.00088916947951101074 0 0.020124226917521491 0.00048684958558890438 0 0.020175190042819244 0.00051258416451530357 0 0.020169193715102948 0.00029718894463783154 0 0.020175190042819244 0.00051258416451530357 0 0.020169193715102948 0.00029718894463783154 0 0.020312002661618232 0.00031500289325790692 0 0.011195021662654816 -0.0015636736635296186 0 0.010069656472671617 -0.0030345485330489082 0 0.020169193715102948 0.00029718894463783154 0 0.020282574687124001 0.00019978903933331378 0 0.020312002661618232 0.00031500289325790692 0 0.0069827409567726111 -0.00041732478202382385 0 0.0084714432535459086 -0.0011824420522149064 0 0.0089224414848707127 -0.00022158096848007037 0 0.0069827409567726111 -0.00041732478202382385 0 0.0089224414848707127 -0.00022158096848007037 0 0.0079841502336110062 0.00066381212847091572 0 0.010618744379840412 -0.0012363358069085242 0 0.0084714432535459086 -0.0011824420522149064 0 0.0089224414848707127 -0.00022158096848007037 0 0.0089224414848707127 -0.00022158096848007037 0 0.0079841502336110062 0.00066381212847091572 0 0.0095265709454195359 0.0017185254255365474 0 0.019874664715999333 0.00058649171565202686 0 0.020109434297004139 0.00024901152999522359 0 0.020309449088705973 0.00027504523158793483 0 0.014758870445417169 -0.00020920078847788947 0 0.014895285734131054 -0.0014353127070811725 0 0.0079841502336110062 0.00066381212847091572 0 0.0095265709454195359 0.0017185254255365474 0 0.0066026871098765405 0.0020198284341637115 0 0.019874664715999333 0.00058649171565202686 0 0.019943316935890822 0.00014138618092793354 0 0.020109434297004139 0.00024901152999522359 0 0.019943316935890822 0.00014138618092793354 0 0.020109434297004139 0.00024901152999522359 0 0.020154511632378549 3.8771101827389042e-05 0 0.019994745954877234 -0.00015256015240874756 0 0.019943316935890822 0.00014138618092793354 0 0.020154511632378549 3.8771101827389042e-05 0 0.020248429835240105 -0.00014030637342183196 0 0.020154511632378549 3.8771101827389042e-05 0 0.020289526900958262 -4.8615664646336902e-07 0 0.020154511632378549 3.8771101827389042e-05 0 0.020289526900958262 -4.8615664646336902e-07 0 0.020299807066685546 0.0001391523764039548 0 0.020109434297004139 0.00024901152999522359 0 0.020299807066685546 0.0001391523764039548 0 0.020309449088705973 0.00027504523158793483 0 0.020109434297004139 0.00024901152999522359 0 0.020154511632378549 3.8771101827389042e-05 0 0.020299807066685546 0.0001391523764039548 0 0.020289526900958262 -4.8615664646336902e-07 0 0.020299807066685546 0.0001391523764039548 0 0.020335251410635517 3.284930949922529e-05 0 0.013057916782306818 -0.00088916947951101074 0 0.014895285734131054 -0.0014353127070811725 0 0.020299807066685546 0.0001391523764039548 0 0.020302093215722287 0.00012947425083408346 0 0.020307097314138486 0.00011490185605163102 0 0.020214219542336636 0.00011765712465171994 0 0.020282574687124001 0.00019978903933331378 0 0.020307097314138486 0.00011490185605163102 0 0.014895285734131054 -0.0014353127070811725 0 0.015515440913051596 -0.0014349636194199457 0 0.020169193715102948 0.00029718894463783154 0 0.020214219542336636 0.00011765712465171994 0 0.020282574687124001 0.00019978903933331378 0 0.0069827409567726111 -0.00041732478202382385 0 0.0079841502336110062 0.00066381212847091572 0 0.0066026871098765405 0.0020198284341637115 0 0.014969505627639549 -0.0013795983421299677 0 0.014895285734131054 -0.0014353127070811725 0 0.020282574687124001 0.00019978903933331378 0 0.02043266105610584 0.00012281962988185135 0 0.020312002661618232 0.00031500289325790692 0 0.020282574687124001 0.00019978903933331378 0 0.020307097314138486 0.00011490185605163102 0 0.02043266105610584 0.00012281962988185135 0 0.010013693204391098 -0.0045148229272476154 0 0.0098975998595277181 -0.0038853397472121873 0 0.020307097314138486 0.00011490185605163102 0 0.020400702501492961 8.0249150462301236e-07 0 0.020335251410635517 3.284930949922529e-05 0 0.020299807066685546 0.0001391523764039548 0 0.020307097314138486 0.00011490185605163102 0 0.020335251410635517 3.284930949922529e-05 0 0.020307097314138486 0.00011490185605163102 0 0.020400702501492961 8.0249150462301236e-07 0 0.02043266105610584 0.00012281962988185135 0 0.020354059865357634 -7.2916970323000434e-05 0 0.020289526900958262 -4.8615664646336902e-07 0 0.020335251410635517 3.284930949922529e-05 0 0.020354059865357634 -7.2916970323000434e-05 0 0.020400702501492961 8.0249150462301236e-07 0 0.020335251410635517 3.284930949922529e-05 0 0.010288976577348511 -0.0049018502179913716 0 0.010013693204391098 -0.0045148229272476154 0 0.020400702501492961 8.0249150462301236e-07 0 0.020514945672285605 -7.934934022565562e-05 0 0.02043266105610584 0.00012281962988185135 0 -0.00074087433280660843 -0.010681587680499387 0 -0.0009655023276950018 -0.010009504361917767 0 -0.0012645793534250679 -0.0097647086140640604 0 0.02041865586521463 -0.00013995774102965657 0 0.020400702501492961 8.0249150462301236e-07 0 0.020514945672285605 -7.934934022565562e-05 0 -0.00052880469514122997 -0.010099681418020388 0 -0.00074087433280660843 -0.010681587680499387 0 -0.0009655023276950018 -0.010009504361917767 0 -0.0009655023276950018 -0.010009504361917767 0 -0.00074649051433666315 -0.009806983467230879 0 -0.00097208200685206198 -0.00944451706902401 0 -0.0009655023276950018 -0.010009504361917767 0 -0.00097208200685206198 -0.00944451706902401 0 -0.0016192874088237035 -0.0089031033788677712 0 -0.0009655023276950018 -0.010009504361917767 0 -0.0012645793534250679 -0.0097647086140640604 0 -0.0014219656352364763 -0.008867466369209492 0 -0.00052880469514122997 -0.010099681418020388 0 -0.0009655023276950018 -0.010009504361917767 0 -0.00074649051433666315 -0.009806983467230879 0 0.0017470570669450372 -0.0078540211194474286 0 0.0025387688116291773 -0.0067835224790446826 0 -0.00052342757709680819 -0.0096672288279505466 0 -0.00074649051433666315 -0.009806983467230879 0 -0.00097208200685206198 -0.00944451706902401 0 -0.00056512883417948734 -0.009208718993139936 0 -0.00097208200685206198 -0.00944451706902401 0 -0.0010520031958352219 -0.0089699729873237277 0 -0.00056512883417948734 -0.009208718993139936 0 -0.0010520031958352219 -0.0089699729873237277 0 -0.0007980265378454152 -0.0087226491486742021 0 -0.0010520031958352219 -0.0089699729873237277 0 -0.0007980265378454152 -0.0087226491486742021 0 -0.0012992301385990254 -0.0085778274716120425 0 -0.0010520031958352219 -0.0089699729873237277 0 -0.0016192874088237035 -0.0089031033788677712 0 -0.0012992301385990254 -0.0085778274716120425 0 -0.00097208200685206198 -0.00944451706902401 0 -0.0010520031958352219 -0.0089699729873237277 0 -0.0016192874088237035 -0.0089031033788677712 0 -0.0012645793534250679 -0.0097647086140640604 0 -0.0017433578400089635 -0.0088345158062000158 0 -0.0014219656352364763 -0.008867466369209492 0 0.0025387688116291773 -0.0067835224790446826 0 0.006034297314991382 -0.0039851724216201341 0 -0.0016192874088237035 -0.0089031033788677712 0 -0.0019186821448210517 -0.0081627675494095765 0 -0.0012992301385990254 -0.0085778274716120425 0 -0.0022572175928877252 -0.0079419049824027924 0 -0.0014219656352364763 -0.008867466369209492 0 -0.0019172345496557964 -0.0077699630300345846 0 -0.0019186821448210517 -0.0081627675494095765 0 -0.001397954148199796 -0.0081863739313082825 0 -0.0012992301385990254 -0.0085778274716120425 0 -0.0016192874088237035 -0.0089031033788677712 0 -0.0019186821448210517 -0.0081627675494095765 0 -0.0021903891456665262 -0.0078067867654035301 0 -0.0022572175928877252 -0.0079419049824027924 0 -0.0017433578400089635 -0.0088345158062000158 0 -0.0014219656352364763 -0.008867466369209492 0 -0.0019186821448210517 -0.0081627675494095765 0 -0.0016824777212718772 -0.0080547444019601639 0 -0.001397954148199796 -0.0081863739313082825 0 -0.0019186821448210517 -0.0081627675494095765 0 -0.0016824777212718772 -0.0080547444019601639 0 -0.0019520067062419745 -0.0078119842519993373 0 -0.0016824777212718772 -0.0080547444019601639 0 -0.001397954148199796 -0.0081863739313082825 0 -0.0017672798177268698 -0.0078242070114299227 0 -0.001397954148199796 -0.0081863739313082825 0 -0.00080427723545294723 -0.0080478153917984165 0 -0.0017672798177268698 -0.0078242070114299227 0 -0.0007980265378454152 -0.0087226491486742021 0 -0.00080427723545294723 -0.0080478153917984165 0 -0.0012992301385990254 -0.0085778274716120425 0 -0.001397954148199796 -0.0081863739313082825 0 -0.00080427723545294723 -0.0080478153917984165 0 -0.0012992301385990254 -0.0085778274716120425 0 -0.0018498184984265937 -0.0079387440231580113 0 -0.001819682860615901 -0.0078527817238444216 0 -0.0018419896171003429 -0.0078620613318523269 0 -0.00048469125530547661 -0.0071024414205840157 0 -0.00081514707538031777 -0.0071464996927822167 0 -0.0018498184984265937 -0.0079387440231580113 0 -0.001819682860615901 -0.0078527817238444216 0 -0.0017672798177268698 -0.0078242070114299227 0 -0.001819682860615901 -0.0078527817238444216 0 -0.0018063109965284971 -0.0078177070972184418 0 -0.0018554152401748666 -0.0078183284781714341 0 -0.001819682860615901 -0.0078527817238444216 0 -0.0018419896171003429 -0.0078620613318523269 0 -0.0018554152401748666 -0.0078183284781714341 0 -0.001819682860615901 -0.0078527817238444216 0 -0.0017672798177268698 -0.0078242070114299227 0 -0.0018063109965284971 -0.0078177070972184418 0 -0.0018181764899534195 -0.0078233602356324681 0 -0.0018063109965284971 -0.0078177070972184418 0 -0.0018883161570444082 -0.0077902701137596841 0 -0.0016824777212718772 -0.0080547444019601639 0 -0.0017672798177268698 -0.0078242070114299227 0 -0.0019520067062419745 -0.0078119842519993373 0 -0.0017672798177268698 -0.0078242070114299227 0 -0.0019520067062419745 -0.0078119842519993373 0 -0.0018063109965284971 -0.0078177070972184418 0 0.0047221965203258854 -0.0039853220373245839 0 0.0042303350974964796 -0.0042435513444437816 0 0.0044857225669047377 -0.0045124390441088182 0 0.0047221965203258854 -0.0039853220373245839 0 -0.0019186821448210517 -0.0081627675494095765 0 -0.0021903891456665262 -0.0078067867654035301 0 -0.0019870008367667401 -0.0077029318516293232 0 0.006034297314991382 -0.0039851724216201341 0 0.0047221965203258854 -0.0039853220373245839 0 -0.0018063109965284971 -0.0078177070972184418 0 -0.0018883161570444082 -0.0077902701137596841 0 -0.0018554152401748666 -0.0078183284781714341 0 0.0047221965203258854 -0.0039853220373245839 0 0.0042621392334544371 -0.0039600385931489518 0 -0.0018883161570444082 -0.0077902701137596841 0 -0.0018554152401748666 -0.0078183284781714341 0 -0.0018828100212645155 -0.0077551721838098374 0 -0.0018419896171003429 -0.0078620613318523269 0 -0.0018554152401748666 -0.0078183284781714341 0 -0.0018549166802274935 -0.0078251374458286685 0 -0.0018371180915971559 -0.0078767919296238841 0 -0.0018419896171003429 -0.0078620613318523269 0 -0.0018549166802274935 -0.0078251374458286685 0 -0.0018581785375273443 -0.0078051416055437703 0 -0.0018549166802274935 -0.0078251374458286685 0 -0.001870749091779619 -0.0077653184141680803 0 -0.0018554152401748666 -0.0078183284781714341 0 -0.0018549166802274935 -0.0078251374458286685 0 -0.001870749091779619 -0.0077653184141680803 0 -0.0018554152401748666 -0.0078183284781714341 0 -0.001870749091779619 -0.0077653184141680803 0 -0.0018828100212645155 -0.0077551721838098374 0 -0.001870749091779619 -0.0077653184141680803 0 -0.0018780972346082593 -0.0077197522764318304 0 -0.0018828100212645155 -0.0077551721838098374 0 -0.0018720420077405987 -0.0077023188662836504 0 -0.001870749091779619 -0.0077653184141680803 0 -0.0018780972346082593 -0.0077197522764318304 0 -0.0018720420077405987 -0.0077023188662836504 0 -0.0018780972346082593 -0.0077197522764318304 0 -0.0018771953907714106 -0.0076891666665009177 0 -0.0018780972346082593 -0.0077197522764318304 0 -0.0018771953907714106 -0.0076891666665009177 0 -0.001890205432017518 -0.0077163677123746662 0 -0.0018940461494063247 -0.0076927756410426562 0 -0.001890205432017518 -0.0077163677123746662 0 -0.0019110740793754849 -0.0077056723016841414 0 -0.0018940461494063247 -0.0076927756410426562 0 -0.0019110740793754849 -0.0077056723016841414 0 -0.0019121689302327625 -0.0076885986923540444 0 -0.0018771953907714106 -0.0076891666665009177 0 -0.0018940461494063247 -0.0076927756410426562 0 -0.001890205432017518 -0.0077163677123746662 0 -0.0018780972346082593 -0.0077197522764318304 0 -0.001890205432017518 -0.0077163677123746662 0 -0.0018828100212645155 -0.0077551721838098374 0 -0.001890205432017518 -0.0077163677123746662 0 -0.0018828100212645155 -0.0077551721838098374 0 -0.0019189294235428286 -0.0077126424475992021 0 0.0022346019131958463 -0.0035936395227903384 0 0.0031940177667242448 -0.003439842625278266 0 -0.0018883161570444082 -0.0077902701137596841 0 -0.0018828100212645155 -0.0077551721838098374 0 -0.0019189294235428286 -0.0077126424475992021 0 0.0042621392334544371 -0.0039600385931489518 0 0.0031940177667242448 -0.003439842625278266 0 0.012512287742529174 -0.00027427966728570276 0 0.012413528641159806 -0.00023053236606894784 0 0.01241714081867169 -0.00013535860739343663 0 0.012512287742529174 -0.00027427966728570276 0 0.01241714081867169 -0.00013535860739343663 0 0.01247087455844152 -2.9165334595801362e-05 0 0.012413528641159806 -0.00023053236606894784 0 0.012361462915110149 -0.00019290476323915857 0 0.01241714081867169 -0.00013535860739343663 0 0.012361462915110149 -0.00019290476323915857 0 0.01228785548066052 -0.00031234449812356658 0 0.012360021156487126 -0.00025958917752095216 0 0.012413528641159806 -0.00023053236606894784 0 0.012361462915110149 -0.00019290476323915857 0 0.012360021156487126 -0.00025958917752095216 0 0.012361462915110149 -0.00019290476323915857 0 0.01241714081867169 -0.00013535860739343663 0 0.012313588636119905 -0.0001025439379432217 0 0.01241714081867169 -0.00013535860739343663 0 0.01247087455844152 -2.9165334595801362e-05 0 0.012363664611098902 -1.8086601720472513e-05 0 0.01241714081867169 -0.00013535860739343663 0 0.012363664611098902 -1.8086601720472513e-05 0 0.012313588636119905 -0.0001025439379432217 0 0.0031940177667242448 -0.003439842625278266 0 0.0054375044039057822 -0.002002100665709554 0 0.00021990004532072941 0.0024964473348394549 0 -0.00068372178593981419 0.0018882576330876103 0 -0.00014161399835649745 0.0012903214836818729 0 0.0054375044039057822 -0.002002100665709554 0 0.0024577262302716068 -0.0030200326301426141 0 0.003164954684285971 -0.0027188682954152063 0 0.0023818013572422946 -0.0026028933766778116 0 0.0030842614207631986 -0.0021440438574586184 0 0.0031940177667242448 -0.003439842625278266 0 0.0024577262302716068 -0.0030200326301426141 0 0.012363664611098902 -1.8086601720472513e-05 0 0.012313588636119905 -0.0001025439379432217 0 0.012180547352598815 -8.4988947336865224e-05 0 0.0054375044039057822 -0.002002100665709554 0 0.006915678544703696 -0.00043679682462609878 0 0.00021990004532072941 0.0024964473348394549 0 0.0025256170091999697 0.0021904577671893071 0 0.0014506638278329643 0.0011202515027067459 0 0.0054375044039057822 -0.002002100665709554 0 0.0092134257507609438 -9.1268308417687176e-05 0 0.012839919954494402 0.00035159851120616795 0 0.012180547352598815 -8.4988947336865224e-05 0 0.012035281472625874 0.0004893471513859938 0 0.012361462915110149 -0.00019290476323915857 0 0.012313588636119905 -0.0001025439379432217 0 0.01228785548066052 -0.00031234449812356658 0 0.0112034261456478 -0.00079553148430681593 0 0.011103966618501463 -0.0010260631035234127 0 0.012313588636119905 -0.0001025439379432217 0 0.012268465018062382 -0.00021991544868829797 0 0.012180547352598815 -8.4988947336865224e-05 0 0.012313588636119905 -0.0001025439379432217 0 0.012268465018062382 -0.00021991544868829797 0 0.012351751545562393 -0.00029325680296300109 0 0.012268465018062382 -0.00021991544868829797 0 0.012281408206029968 -0.00030579677208300679 0 0.012211476013760218 -0.00037162742625310689 0 0.012300602859117778 -0.00041464482769082244 0 0.012351751545562393 -0.00029325680296300109 0 0.012311242757374019 -0.00046336773104647754 0 0.012268465018062382 -0.00021991544868829797 0 0.012281408206029968 -0.00030579677208300679 0 0.012351751545562393 -0.00029325680296300109 0 0.011103966618501463 -0.0010260631035234127 0 0.010795130080386765 -0.0018162320688613065 0 0.012283528124416765 -0.00036648235211049138 0 0.012268929239064745 -0.00043402252037074118 0 0.012211476013760218 -0.00037162742625310689 0 0.012281408206029968 -0.00030579677208300679 0 0.012283528124416765 -0.00036648235211049138 0 0.012211476013760218 -0.00037162742625310689 0 0.012283528124416765 -0.00036648235211049138 0 0.012300602859117778 -0.00041464482769082244 0 0.012268929239064745 -0.00043402252037074118 0 0.012283528124416765 -0.00036648235211049138 0 0.012300602859117778 -0.00041464482769082244 0 0.012351751545562393 -0.00029325680296300109 0 0.012281408206029968 -0.00030579677208300679 0 0.012283528124416765 -0.00036648235211049138 0 0.012351751545562393 -0.00029325680296300109 0 0.012360021156487126 -0.00025958917752095216 0 0.01242484088701332 -0.00031906634972467268 0 0.012418688409715739 -0.00041783632273724068 0 0.012544027882236514 -0.00055962053466545041 0 0.012512287742529174 -0.00027427966728570276 0 0.012418688409715739 -0.00041783632273724068 0 0.01228785548066052 -0.00031234449812356658 0 0.012360021156487126 -0.00025958917752095216 0 0.012490259092991524 -0.000518355175983526 0 0.0078678789177619047 -0.0027628436643420892 0 0.0074394031959597214 -0.0030701957392691944 0 0.01228785548066052 -0.00031234449812356658 0 0.012490259092991524 -0.000518355175983526 0 0.012320132349420943 -0.0006291691227095005 0 0.012413528641159806 -0.00023053236606894784 0 0.012360021156487126 -0.00025958917752095216 0 0.01242484088701332 -0.00031906634972467268 0 0.012512287742529174 -0.00027427966728570276 0 0.012413528641159806 -0.00023053236606894784 0 0.01242484088701332 -0.00031906634972467268 0 0.012512287742529174 -0.00027427966728570276 0 0.01242484088701332 -0.00031906634972467268 0 0.012418688409715739 -0.00041783632273724068 0 0.012490259092991524 -0.000518355175983526 0 0.012320132349420943 -0.0006291691227095005 0 0.012476293514447089 -0.00070900013664815242 0 0.006034297314991382 -0.0039851724216201341 0 0.0074394031959597214 -0.0030701957392691944 0 0.012490853707448636 -0.00058680154554817171 0 0.012544027882236514 -0.00055962053466545041 0 0.012418688409715739 -0.00041783632273724068 0 0.012628088005126679 -0.00080448961559888765 0 0.012490259092991524 -0.000518355175983526 0 0.012476293514447089 -0.00070900013664815242 0 0.010069656472671617 -0.0030345485330489082 0 0.006034297314991382 -0.0039851724216201341 0 0.012467770634572486 -0.00088529633219302357 0 0.012628088005126679 -0.00080448961559888765 0 0.012476293514447089 -0.00070900013664815242 0 0.010069656472671617 -0.0030345485330489082 0 0.010795130080386765 -0.0018162320688613065 0 0.011195021662654816 -0.0015636736635296186 0 0.010795130080386765 -0.0018162320688613065 0 0.012467770634572486 -0.00088529633219302357 0 0.012320132349420943 -0.0006291691227095005 0 0.012476293514447089 -0.00070900013664815242 0 0.010552448186138546 -0.004004955940552047 0 0.011410860240336024 -0.0035715570220750813 0 0.010161405358550875 -0.0015379211206575708 0 0.012171568925012548 -0.00037741907141146321 0 0.012257356714838174 -0.00043251595491800151 0 0.012247616874391328 -0.00042005758374589276 0 0.012247616874391328 -0.00042005758374589276 0 0.012268929239064745 -0.00043402252037074118 0 0.012316200854092706 -0.00043200940089691567 0 0.012247616874391328 -0.00042005758374589276 0 0.012268929239064745 -0.00043402252037074118 0 0.012270146441823863 -0.00043068046516308705 0 0.012300602859117778 -0.00041464482769082244 0 0.012268929239064745 -0.00043402252037074118 0 0.012270146441823863 -0.00043068046516308705 0 0.012257356714838174 -0.00043251595491800151 0 0.012247616874391328 -0.00042005758374589276 0 0.012270146441823863 -0.00043068046516308705 0 0.012300602859117778 -0.00041464482769082244 0 0.012257356714838174 -0.00043251595491800151 0 0.012270146441823863 -0.00043068046516308705 0 0.010804786244380866 -0.0017869183113782697 0 0.010795130080386765 -0.0018162320688613065 0 0.012292468536829016 -0.00044951242405138938 0 0.012169471427416251 -0.00044813493075583117 0 0.012211476013760218 -0.00037162742625310689 0 0.012268929239064745 -0.00043402252037074118 0 0.012292468536829016 -0.00044951242405138938 0 0.012316200854092706 -0.00043200940089691567 0 0.012268929239064745 -0.00043402252037074118 0 0.012292468536829016 -0.00044951242405138938 0 0.012211476013760218 -0.00037162742625310689 0 0.012459808172064745 -0.00046128723232922026 0 0.012292468536829016 -0.00044951242405138938 0 0.012316200854092706 -0.00043200940089691567 0 0.012459808172064745 -0.00046128723232922026 0 0.012292468536829016 -0.00044951242405138938 0 0.012169471427416251 -0.00044813493075583117 0 0.012929722857812813 -0.00047295140897853902 0 0.012459808172064745 -0.00046128723232922026 0 0.012169471427416251 -0.00044813493075583117 0 0.012929722857812813 -0.00047295140897853902 0 0.012169471427416251 -0.00044813493075583117 0 0.011523776004070499 -0.00044751774918083041 0 0.012169471427416251 -0.00044813493075583117 0 0.012017917379395842 -0.00024530164920203107 0 0.011552098429921704 -0.00019015998135883363 0 0.012169471427416251 -0.00044813493075583117 0 0.012211476013760218 -0.00037162742625310689 0 0.012017917379395842 -0.00024530164920203107 0 0.012268465018062382 -0.00021991544868829797 0 0.012211476013760218 -0.00037162742625310689 0 0.012017917379395842 -0.00024530164920203107 0 0.012268465018062382 -0.00021991544868829797 0 0.012017917379395842 -0.00024530164920203107 0 0.012180547352598815 -8.4988947336865224e-05 0 0.012017917379395842 -0.00024530164920203107 0 0.012180547352598815 -8.4988947336865224e-05 0 0.011746362910344822 6.7949048187136067e-05 0 0.012180547352598815 -8.4988947336865224e-05 0 0.012035281472625874 0.0004893471513859938 0 0.011746362910344822 6.7949048187136067e-05 0 0.006915678544703696 -0.00043679682462609878 0 0.0077881970909921116 6.2583950046206737e-05 0 0.012035281472625874 0.0004893471513859938 0 0.011746362910344822 6.7949048187136067e-05 0 0.010915784845271538 0.00051983375316557974 0 0.011552098429921704 -0.00019015998135883363 0 0.011746362910344822 6.7949048187136067e-05 0 0.010915784845271538 0.00051983375316557974 0 0.012017917379395842 -0.00024530164920203107 0 0.011552098429921704 -0.00019015998135883363 0 0.011746362910344822 6.7949048187136067e-05 0 0.011552098429921704 -0.00019015998135883363 0 0.010913484983816158 -0.00014794555356145792 0 0.010915784845271538 0.00051983375316557974 0 0.0098319127675085601 -9.675249293739091e-07 0 0.010913484983816158 -0.00014794555356145792 0 0.010915784845271538 0.00051983375316557974 0 0.0098319127675085601 -9.675249293739091e-07 0 0.0084338121734634092 2.609703522104424e-06 0 0.010915784845271538 0.00051983375316557974 0 0.0098319127675085601 -9.675249293739091e-07 0 0.010913484983816158 -0.00014794555356145792 0 0.011233387621551778 -5.4839799401823391e-07 0 0.011236295682747604 -4.3532248461620802e-07 0 0.01198915292912919 -0.00034088930968593882 0 0.010913484983816158 -0.00014794555356145792 0 0.011233387621551778 -5.4839799401823391e-07 0 0.011523776004070499 -0.00044751774918083041 0 0.012169471427416251 -0.00044813493075583117 0 0.011552098429921704 -0.00019015998135883363 0 0.011523776004070499 -0.00044751774918083041 0 0.011552098429921704 -0.00019015998135883363 0 0.010913484983816158 -0.00014794555356145792 0 0.011523776004070499 -0.00044751774918083041 0 0.012168064772027132 -0.00036737627714620121 0 0.01198915292912919 -0.00034088930968593882 0 0.013735356454480796 -0.00019092434307735456 0 0.012929722857812813 -0.00047295140897853902 0 0.013424006641481349 -0.00014092692624879244 0 0.011237368871928107 1.3044921286931285e-06 0 0.013424006641481349 -0.00014092692624879244 0 0.013120834879468602 -1.3176091154953108e-06 0 0.013735356454480796 -0.00019092434307735456 0 0.013424006641481349 -0.00014092692624879244 0 0.013120834879468602 -1.3176091154953108e-06 0 0.0047086967445316343 -0.00036401715999522812 0 0.0048391193344321237 -1.1636692617405327e-06 0 0.0052897187152373621 -0.00012582676401674063 0 0.0047086967445316343 -0.00036401715999522812 0 0.0044862721932055179 -0.00021209822232732596 0 0.0052897187152373621 -0.00012582676401674063 0 0.0047086967445316343 -0.00036401715999522812 0 0.0043228519430366782 -0.00040361274831008124 0 0.0044333160559485753 -0.00065273968701454372 0 0.0047086967445316343 -0.00036401715999522812 0 0.0048391193344321237 -1.1636692617405327e-06 0 0.0043228519430366782 -0.00040361274831008124 0 0.003571598076386173 -0.00048894134311748745 0 0.0044862721932055179 -0.00021209822232732596 0 0.00266307991321285 1.1523253697842756e-05 0 0.0019823029560941301 -0.0010842211753492688 0 0.0044601572007275372 -0.0012187831092681149 0 0.0043696722857453204 -0.00091056091122751926 0 0.0047086967445316343 -0.00036401715999522812 0 0.0044333160559485753 -0.00065273968701454372 0 0.0043409625253195139 -0.00053121277427359054 0 0.0044333160559485753 -0.00065273968701454372 0 0.0042788562343167563 -0.00071868744566113503 0 0.0043696722857453204 -0.00091056091122751926 0 0.0044333160559485753 -0.00065273968701454372 0 0.0042788562343167563 -0.00071868744566113503 0 0.0043409625253195139 -0.00053121277427359054 0 0.0042788562343167563 -0.00071868744566113503 0 0.0037947916238589363 -0.00072062277365672698 0 0.0043696722857453204 -0.00091056091122751926 0 0.0042788562343167563 -0.00071868744566113503 0 0.0037947916238589363 -0.00072062277365672698 0 0.0043409625253195139 -0.00053121277427359054 0 0.0037947916238589363 -0.00072062277365672698 0 0.003571598076386173 -0.00048894134311748745 0 0.0043409625253195139 -0.00053121277427359054 0 0.003571598076386173 -0.00048894134311748745 0 0.0043409625253195139 -0.00053121277427359054 0 0.0044862721932055179 -0.00021209822232732596 0 0.0047086967445316343 -0.00036401715999522812 0 0.0043409625253195139 -0.00053121277427359054 0 0.0044862721932055179 -0.00021209822232732596 0 0.0055397674075211428 -0.00053412279487470766 0 0.0035503351064884322 -0.00093860410843436891 0 0.0059321486099941177 -0.00096924633164693159 0 0.0041292326259412364 -0.00084019456272364497 0 0.0037388053135193784 -0.0018691858846769515 0 0.0044862721932055179 -0.00021209822232732596 0 0.0052897187152373621 -0.00012582676401674063 0 0.0051262803595873343 0.00059314772087755777 0 0.0044862721932055179 -0.00021209822232732596 0 0.0051262803595873343 0.00059314772087755777 0 0.00266307991321285 1.1523253697842756e-05 0 0.0063526734534801099 2.0665105185006925e-08 0 0.0052897187152373621 -0.00012582676401674063 0 0.0051262803595873343 0.00059314772087755777 0 0.0048391193344321237 -1.1636692617405327e-06 0 0.0063526734534801099 2.0665105185006925e-08 0 0.0052897187152373621 -0.00012582676401674063 0 0.0078678394716784703 -2.4874174048715742e-06 0 0.0064433514241438224 0.0001764272704689279 0 0.0059321486099941177 -0.00096924633164693159 0 0.0063526734534801099 2.0665105185006925e-08 0 0.0078625824098088447 1.511634308715386e-06 0 0.0051262803595873343 0.00059314772087755777 0 0.0078617392501840137 8.7949179459638739e-08 0 0.0055397674075211428 -0.00053412279487470766 0 0.0078678394716784703 -2.4874174048715742e-06 0 0.0084263033111304803 3.5467571646749537e-06 0 0.0064433514241438224 0.0001764272704689279 0 0.0084263033111304803 3.5467571646749537e-06 0 0.0064433514241438224 0.0001764272704689279 0 0.0052163336359596843 0.0017013748609452351 0 0.0084291807580478655 2.2712697440120619e-07 0 0.0077881970909921116 6.2583950046206737e-05 0 0.0064433514241438224 0.0001764272704689279 0 0.0052163336359596843 0.0017013748609452351 0 0.0041025968751935158 0.00022363966792433951 0 0.0059321486099941177 -0.00096924633164693159 0 0.0041292326259412364 -0.00084019456272364497 0 0.0041025968751935158 0.00022363966792433951 0 0.0064433514241438224 0.0001764272704689279 0 0.0059321486099941177 -0.00096924633164693159 0 0.0041025968751935158 0.00022363966792433951 0 0.0041292326259412364 -0.00084019456272364497 0 0.0041025968751935158 0.00022363966792433951 0 0.0028306174296479527 -0.00071988096322091481 0 0.0025256170091999697 0.0021904577671893071 0 0.0052163336359596843 0.0017013748609452351 0 0.0041025968751935158 0.00022363966792433951 0 0.0025256170091999697 0.0021904577671893071 0 0.0021631553905297773 0.00030000672317354233 0 0.0014506638278329643 0.0011202515027067459 0 0.0025256170091999697 0.0021904577671893071 0 0.0041025968751935158 0.00022363966792433951 0 0.0021631553905297773 0.00030000672317354233 0 0.0041025968751935158 0.00022363966792433951 0 0.0021631553905297773 0.00030000672317354233 0 0.0028306174296479527 -0.00071988096322091481 0 0.0021631553905297773 0.00030000672317354233 0 0.0017360001300603777 -0.00082379625895152733 0 0.0012134317138133685 -0.00028789506728136427 0 0.0021631553905297773 0.00030000672317354233 0 0.0028306174296479527 -0.00071988096322091481 0 0.0017360001300603777 -0.00082379625895152733 0 0.0028306174296479527 -0.00071988096322091481 0 0.0017360001300603777 -0.00082379625895152733 0 0.0022833818320910268 -0.0015473559800098129 0 0.0028306174296479527 -0.00071988096322091481 0 0.0022833818320910268 -0.0015473559800098129 0 0.0037388053135193784 -0.0018691858846769515 0 0.0017360001300603777 -0.00082379625895152733 0 0.0022833818320910268 -0.0015473559800098129 0 0.001262721969599393 -0.0016768768622495947 0 0.0041292326259412364 -0.00084019456272364497 0 0.0028306174296479527 -0.00071988096322091481 0 0.0037388053135193784 -0.0018691858846769515 0 0.0019823029560941301 -0.0010842211753492688 0 0.0017578543566780201 -0.0012305789067988077 0 0.0012387826988408568 -0.00096690626459426643 0 0.0018387266081571207 -0.00011601650079146135 0 0.0019519103277984568 1.4298734534470667e-05 0 0.0037947916238589363 -0.00072062277365672698 0 0.0019823029560941301 -0.0010842211753492688 0 0.0043696722857453204 -0.00091056091122751926 0 0.00266307991321285 1.1523253697842756e-05 0 0.0019823029560941301 -0.0010842211753492688 0 0.0017578543566780201 -0.0012305789067988077 0 0.003571598076386173 -0.00048894134311748745 0 0.00266307991321285 1.1523253697842756e-05 0 0.0019823029560941301 -0.0010842211753492688 0 0.0037947916238589363 -0.00072062277365672698 0 0.003571598076386173 -0.00048894134311748745 0 0.0019823029560941301 -0.0010842211753492688 0 0.0035503351064884322 -0.00093860410843436891 0 0.0017924918928607066 -0.0012227237432989948 0 0.0022833818320910268 -0.0015473559800098129 0 0.0037388053135193784 -0.0018691858846769515 0 0.0019086347779887307 -0.0025535818745152403 0 0.0022833818320910268 -0.0015473559800098129 0 0.0019086347779887307 -0.0025535818745152403 0 0.001262721969599393 -0.0016768768622495947 0 0.00074425439629832572 -0.0023512670815635664 0 0.00017531989813833639 -0.0017409822983580209 0 0.001262721969599393 -0.0016768768622495947 0 0.0019086347779887307 -0.0025535818745152403 0 0.00074425439629832572 -0.0023512670815635664 0 0.001262721969599393 -0.0016768768622495947 0 0.00017531989813833639 -0.0017409822983580209 0 -0.0010307952162885851 -0.0016986227584907441 0 -6.6778388466121592e-05 -0.0025166099746342036 0 0.00074425439629832572 -0.0023512670815635664 0 0.00017531989813833639 -0.0017409822983580209 0 -6.6778388466121592e-05 -0.0025166099746342036 0 0.00017531989813833639 -0.0017409822983580209 0 -0.00048053824985661307 -0.00093758723786367248 0 -0.0010307952162885851 -0.0016986227584907441 0 0.00017531989813833639 -0.0017409822983580209 0 -0.00048053824985661307 -0.00093758723786367248 0 0.00060707377465944062 -0.00091875313681110131 0 -0.00048053824985661307 -0.00093758723786367248 0 9.2228830896139542e-06 -0.00054800585562087174 0 -0.0003700166487875374 -0.0001845923352125878 0 -0.00048053824985661307 -0.00093758723786367248 0 0.00060707377465944062 -0.00091875313681110131 0 9.2228830896139542e-06 -0.00054800585562087174 0 0.00060707377465944062 -0.00091875313681110131 0 0.00054779259353218452 -0.0003034094214071637 0 9.2228830896139542e-06 -0.00054800585562087174 0 0.00017531989813833639 -0.0017409822983580209 0 0.00060707377465944062 -0.00091875313681110131 0 0.001262721969599393 -0.0016768768622495947 0 0.0017360001300603777 -0.00082379625895152733 0 0.00060707377465944062 -0.00091875313681110131 0 0.001262721969599393 -0.0016768768622495947 0 0.0017360001300603777 -0.00082379625895152733 0 0.00060707377465944062 -0.00091875313681110131 0 0.0012134317138133685 -0.00028789506728136427 0 0.0012134317138133685 -0.00028789506728136427 0 0.00054779259353218452 -0.0003034094214071637 0 0.001034493667560209 0.00031602690195296751 0 0.00060707377465944062 -0.00091875313681110131 0 0.0012134317138133685 -0.00028789506728136427 0 0.00054779259353218452 -0.0003034094214071637 0 0.001034493667560209 0.00031602690195296751 0 0.00065302895186030341 0.00075941439152710049 0 0.0002459177502945735 0.00020412976216152426 0 0.00054779259353218452 -0.0003034094214071637 0 0.001034493667560209 0.00031602690195296751 0 0.0002459177502945735 0.00020412976216152426 0 0.0021631553905297773 0.00030000672317354233 0 0.0012134317138133685 -0.00028789506728136427 0 0.001034493667560209 0.00031602690195296751 0 0.001034493667560209 0.00031602690195296751 0 0.0014506638278329643 0.0011202515027067459 0 0.00065302895186030341 0.00075941439152710049 0 0.00021990004532072941 0.0024964473348394549 0 0.0014506638278329643 0.0011202515027067459 0 0.00043555557591038141 0.0013423690594305602 0 0.0021631553905297773 0.00030000672317354233 0 0.001034493667560209 0.00031602690195296751 0 0.0014506638278329643 0.0011202515027067459 0 0.0014506638278329643 0.0011202515027067459 0 0.00065302895186030341 0.00075941439152710049 0 0.00043555557591038141 0.0013423690594305602 0 0.00065302895186030341 0.00075941439152710049 0 0.00043555557591038141 0.0013423690594305602 0 0.00011530101353739469 0.00083284906370044746 0 -0.00068372178593981419 0.0018882576330876103 0 -0.00014161399835649745 0.0012903214836818729 0 -0.00048995493484014672 0.0006080675707949391 0 0.0024577262302716068 -0.0030200326301426141 0 0.00094457225863312801 -0.0018241083069195307 0 0.00021990004532072941 0.0024964473348394549 0 0.00043555557591038141 0.0013423690594305602 0 -0.00014161399835649745 0.0012903214836818729 0 -0.00014161399835649745 0.0012903214836818729 0 0.00011530101353739469 0.00083284906370044746 0 -0.00048995493484014672 0.0006080675707949391 0 0.00043555557591038141 0.0013423690594305602 0 -0.00014161399835649745 0.0012903214836818729 0 0.00011530101353739469 0.00083284906370044746 0 0.00065302895186030341 0.00075941439152710049 0 0.00011530101353739469 0.00083284906370044746 0 0.0002459177502945735 0.00020412976216152426 0 0.00011530101353739469 0.00083284906370044746 0 -0.00048995493484014672 0.0006080675707949391 0 -0.00011132278587358202 0.00036265677021227156 0 -0.00048995493484014672 0.0006080675707949391 0 -0.00011132278587358202 0.00036265677021227156 0 -0.0003700166487875374 -0.0001845923352125878 0 0.00094457225863312801 -0.0018241083069195307 0 0.00086265503877209419 -0.0015449073580660864 0 -0.00050712828582088652 0.00030616894717614535 0 -0.0003700166487875374 -0.0001845923352125878 0 -0.0009592448213857713 -8.4636312030770939e-06 0 0.00011530101353739469 0.00083284906370044746 0 -0.00011132278587358202 0.00036265677021227156 0 0.0002459177502945735 0.00020412976216152426 0 -0.00011132278587358202 0.00036265677021227156 0 0.0002459177502945735 0.00020412976216152426 0 -0.0003700166487875374 -0.0001845923352125878 0 0.0002459177502945735 0.00020412976216152426 0 9.2228830896139542e-06 -0.00054800585562087174 0 -0.0003700166487875374 -0.0001845923352125878 0 0.00054779259353218452 -0.0003034094214071637 0 0.0002459177502945735 0.00020412976216152426 0 9.2228830896139542e-06 -0.00054800585562087174 0 -0.00048053824985661307 -0.00093758723786367248 0 -0.0003700166487875374 -0.0001845923352125878 0 -0.0012018441641851519 -0.00043936716394243598 0 -0.0012018441641851519 -0.00043936716394243598 0 -0.0009592448213857713 -8.4636312030770939e-06 0 -0.0016989189129342141 0.00024006661548128322 0 -0.0003700166487875374 -0.0001845923352125878 0 -0.0012018441641851519 -0.00043936716394243598 0 -0.0009592448213857713 -8.4636312030770939e-06 0 -0.00050712828582088652 0.00030616894717614535 0 -0.0009592448213857713 -8.4636312030770939e-06 0 -0.0016989189129342141 0.00024006661548128322 0 0.0024577262302716068 -0.0030200326301426141 0 -0.0006246040645917348 -0.0027487211815483306 0 0.00094457225863312801 -0.0018241083069195307 0 -0.0006246040645917348 -0.0027487211815483306 0 0.001694861692994674 -0.0022812349257319633 0 0.0017883250357012585 -0.0029540525341182674 0 0.00079040693088526048 -0.0028695565400427055 0 -0.0018940461494063247 -0.0076927756410426562 0 -0.0019121689302327625 -0.0076885986923540444 0 -0.0018822341427462684 -0.0076673435391178086 0 -0.0018771953907714106 -0.0076891666665009177 0 -0.0018822341427462684 -0.0076673435391178086 0 -0.0018591827769968464 -0.0076642808872220353 0 -0.0006246040645917348 -0.0027487211815483306 0 -0.0017259559150149236 -0.0036433324892705008 0 -0.0018771953907714106 -0.0076891666665009177 0 -0.0018940461494063247 -0.0076927756410426562 0 -0.0018822341427462684 -0.0076673435391178086 0 -0.0006246040645917348 -0.0027487211815483306 0 -0.0010693895996618085 -0.0021699833150568954 0 -0.0016989189129342141 0.00024006661548128322 0 -0.0019243019159557375 -0.00074637531175743635 0 -0.0024814132853345976 -0.00063214540297696351 0 -0.0012018441641851519 -0.00043936716394243598 0 -0.0016989189129342141 0.00024006661548128322 0 -0.0019243019159557375 -0.00074637531175743635 0 -0.0019243019159557375 -0.00074637531175743635 0 -0.0013615221907196269 -0.0010283184484815172 0 -0.0019492939392693667 -0.0013487244810926982 0 -0.0019243019159557375 -0.00074637531175743635 0 -0.0019492939392693667 -0.0013487244810926982 0 -0.0023149038344237719 -0.0011701903675577529 0 -0.0012018441641851519 -0.00043936716394243598 0 -0.0019243019159557375 -0.00074637531175743635 0 -0.0013615221907196269 -0.0010283184484815172 0 -0.00048053824985661307 -0.00093758723786367248 0 -0.0013615221907196269 -0.0010283184484815172 0 -0.0010307952162885851 -0.0016986227584907441 0 -0.00048053824985661307 -0.00093758723786367248 0 -0.0012018441641851519 -0.00043936716394243598 0 -0.0013615221907196269 -0.0010283184484815172 0 -0.0010307952162885851 -0.0016986227584907441 0 -0.0019492939392693667 -0.0013487244810926982 0 -0.0021336290441539745 -0.0017281704725167595 0 -0.0013615221907196269 -0.0010283184484815172 0 -0.0010307952162885851 -0.0016986227584907441 0 -0.0019492939392693667 -0.0013487244810926982 0 -0.0019492939392693667 -0.0013487244810926982 0 -0.0022979067736520458 -0.0014813319482336498 0 -0.0021336290441539745 -0.0017281704725167595 0 -0.0019492939392693667 -0.0013487244810926982 0 -0.0022979067736520458 -0.0014813319482336498 0 -0.0023149038344237719 -0.0011701903675577529 0 -0.0022979067736520458 -0.0014813319482336498 0 -0.0024181446137765752 -0.0012652041495019089 0 -0.002496950718216148 -0.0012598222977781655 0 -0.0022979067736520458 -0.0014813319482336498 0 -0.0021336290441539745 -0.0017281704725167595 0 -0.0024181446137765752 -0.0012652041495019089 0 -0.0021336290441539745 -0.0017281704725167595 0 -0.0025136013651912842 -0.0012159625274089586 0 -0.0026867757004919307 -0.0012622399390616304 0 -0.0010307952162885851 -0.0016986227584907441 0 -0.0021336290441539745 -0.0017281704725167595 0 -0.00084444156843318803 -0.0027580279310734151 0 -0.0011175846239205433 -0.0014299836804820634 0 -0.00088730415852753333 -0.0014118342254164275 0 -0.0025136013651912842 -0.0012159625274089586 0 -0.0026801267844280344 -0.0010151238117218743 0 -0.0026867757004919307 -0.0012622399390616304 0 -0.0021336290441539745 -0.0017281704725167595 0 -0.0025136013651912842 -0.0012159625274089586 0 -0.0024181446137765752 -0.0012652041495019089 0 -0.0025136013651912842 -0.0012159625274089586 0 -0.0026555550212002477 -0.001014445148208986 0 -0.0024181446137765752 -0.0012652041495019089 0 -0.0025136013651912842 -0.0012159625274089586 0 -0.0026555550212002477 -0.001014445148208986 0 -0.0026801267844280344 -0.0010151238117218743 0 -0.0026555550212002477 -0.001014445148208986 0 -0.0024181446137765752 -0.0012652041495019089 0 -0.0026460395778604212 -0.0010510765367434706 0 -0.0024181446137765752 -0.0012652041495019089 0 -0.0026460395778604212 -0.0010510765367434706 0 -0.002496950718216148 -0.0012598222977781655 0 -0.0026460395778604212 -0.0010510765367434706 0 -0.002832872158931821 -0.00090364778962050672 0 -0.0026613785226147347 -0.0010327445581374407 0 -0.0028414598759355482 -0.0007422120595733788 0 -0.002832872158931821 -0.00090364778962050672 0 -0.0026613785226147347 -0.0010327445581374407 0 -0.0026555550212002477 -0.001014445148208986 0 -0.002832872158931821 -0.00090364778962050672 0 -0.0027060351707261757 -0.00086862520344658807 0 -0.0026555550212002477 -0.001014445148208986 0 -0.0026460395778604212 -0.0010510765367434706 0 -0.002832872158931821 -0.00090364778962050672 0 -0.002832872158931821 -0.00090364778962050672 0 -0.0027060351707261757 -0.00086862520344658807 0 -0.00266157258378895 -0.00094143267823992025 0 -0.0030633467889361336 -0.00067376326379071266 0 -0.002832872158931821 -0.00090364778962050672 0 -0.0032091106533965108 -0.00066429574090099851 0 -0.0028017557147894463 -0.00074873236168162811 0 -0.0027914760495611202 -0.00070404997205925004 0 -0.0027914760495611202 -0.00070404997205925004 0 -0.0026346608171648753 -0.00059641091721369922 0 -0.0027060351707261757 -0.00086862520344658807 0 -0.00266157258378895 -0.00094143267823992025 0 -0.0024527068516234057 -0.00068278443989172209 0 -0.00266157258378895 -0.00094143267823992025 0 -0.0024527068516234057 -0.00068278443989172209 0 -0.002167251529636649 -0.00075672742396817709 0 -0.0027060351707261757 -0.00086862520344658807 0 -0.0024527068516234057 -0.00068278443989172209 0 -0.0025862268005750477 -0.00070195233840130724 0 -0.0025862268005750477 -0.00070195233840130724 0 -0.0026670687392570508 -0.00072010906614588578 0 -0.002269818026514595 -0.00029420577953016402 0 -0.0025862268005750477 -0.00070195233840130724 0 -0.0027358611159952438 -0.00088255377763086758 0 -0.0026670687392570508 -0.00072010906614588578 0 -0.0026555550212002477 -0.001014445148208986 0 -0.0027060351707261757 -0.00086862520344658807 0 -0.0026801267844280344 -0.0010151238117218743 0 -0.0027060351707261757 -0.00086862520344658807 0 -0.0025862268005750477 -0.00070195233840130724 0 -0.0027358611159952438 -0.00088255377763086758 0 -0.0027060351707261757 -0.00086862520344658807 0 -0.0026801267844280344 -0.0010151238117218743 0 -0.0027358611159952438 -0.00088255377763086758 0 -0.00088730415852753333 -0.0014118342254164275 0 -0.00018606503699671823 -0.0013201058717574761 0 -0.0027358611159952438 -0.00088255377763086758 0 -0.0026867757004919307 -0.0012622399390616304 0 -0.0028009769758039721 -0.00092147791783885307 0 -0.00084444156843318803 -0.0027580279310734151 0 -6.6778388466121592e-05 -0.0025166099746342036 0 0.00039440150167367635 -0.0033022914482141435 0 -0.00028090303189430229 -0.0013577127231853418 0 -0.00018606503699671823 -0.0013201058717574761 0 -0.0026801267844280344 -0.0010151238117218743 0 -0.0027358611159952438 -0.00088255377763086758 0 -0.0026867757004919307 -0.0012622399390616304 0 -0.0010307952162885851 -0.0016986227584907441 0 -0.00084444156843318803 -0.0027580279310734151 0 -6.6778388466121592e-05 -0.0025166099746342036 0 -0.00018606503699671823 -0.0013201058717574761 0 -0.00037909800843948036 -0.00079351729761552444 0 0.0017924918928607066 -0.0012227237432989948 0 -0.00018606503699671823 -0.0013201058717574761 0 0.0019086347779887307 -0.0025535818745152403 0 0.00074425439629832572 -0.0023512670815635664 0 0.00039440150167367635 -0.0033022914482141435 0 0.00074425439629832572 -0.0023512670815635664 0 -6.6778388466121592e-05 -0.0025166099746342036 0 0.00039440150167367635 -0.0033022914482141435 0 0.0017578543566780201 -0.0012305789067988077 0 0.0025985943479078792 -0.00058287583615112138 0 0.0016549873871084977 -0.00027149599593730687 0 0.0017578543566780201 -0.0012305789067988077 0 0.0012387826988408568 -0.00096690626459426643 0 0.0016549873871084977 -0.00027149599593730687 0 0.0012387826988408568 -0.00096690626459426643 0 0.00021645785773806621 -0.00056097923047353194 0 0.0016549873871084977 -0.00027149599593730687 0 0.0019823029560941301 -0.0010842211753492688 0 0.0012387826988408568 -0.00096690626459426643 0 -0.00041304060187568491 -0.0012969640459710395 0 0.0012387826988408568 -0.00096690626459426643 0 0.00021645785773806621 -0.00056097923047353194 0 -1.4564553304303406e-05 -0.0008610381668668933 0 -0.00037909800843948036 -0.00079351729761552444 0 -0.0006597944202545973 -0.00058118387403145006 0 0.00021645785773806621 -0.00056097923047353194 0 0.0016549873871084977 -0.00027149599593730687 0 -0.001223010582197138 -3.1485288410562687e-06 0 -0.002269818026514595 -0.00029420577953016402 0 -0.0020487931022234126 -0.00046256965054032454 0 -0.001223010582197138 -3.1485288410562687e-06 0 -0.0024527068516234057 -0.00068278443989172209 0 -0.0025862268005750477 -0.00070195233840130724 0 -0.002269818026514595 -0.00029420577953016402 0 -0.0024527068516234057 -0.00068278443989172209 0 -0.002269818026514595 -0.00029420577953016402 0 -0.0020487931022234126 -0.00046256965054032454 0 -0.0024527068516234057 -0.00068278443989172209 0 -0.002167251529636649 -0.00075672742396817709 0 -0.0020487931022234126 -0.00046256965054032454 0 -0.003207549399657594 -0.00053313154974846838 0 -0.0032091106533965108 -0.00066429574090099851 0 -0.0031314057220709936 -0.00033725861659362642 0 -0.0031314057220709936 -0.00033725861659362642 0 -0.002111329941176944 -0.00027152415716955811 0 -0.0025448641615594238 -0.00038228451080106734 0 -0.0028684552057780077 -0.00045502043439742693 0 -0.0031314057220709936 -0.00033725861659362642 0 -0.0025448641615594238 -0.00038228451080106734 0 -0.003207549399657594 -0.00053313154974846838 0 -0.0028684552057780077 -0.00045502043439742693 0 -0.0031314057220709936 -0.00033725861659362642 0 -0.0026346608171648753 -0.00059641091721369922 0 -0.0024595131407604341 -0.00052523226626525858 0 -0.002167251529636649 -0.00075672742396817709 0 -0.0020487931022234126 -0.00046256965054032454 0 -0.0018089487799925533 -0.00026571706746755379 0 -0.002167251529636649 -0.00075672742396817709 0 -0.0018089487799925533 -0.00026571706746755379 0 -0.002111329941176944 -0.00027152415716955811 0 -0.002111329941176944 -0.00027152415716955811 0 -0.0022693398855368157 -0.0003441048084490426 0 -0.0014439786281251477 4.2742400574276215e-05 0 -0.0001165082496463198 -0.00020846855709439713 0 0.00076138750808137621 -4.3747285361898683e-06 0 -0.0018089487799925533 -0.00026571706746755379 0 -0.002111329941176944 -0.00027152415716955811 0 -0.0014439786281251477 4.2742400574276215e-05 0 -0.002111329941176944 -0.00027152415716955811 0 -0.0025448641615594238 -0.00038228451080106734 0 -0.0022693398855368157 -0.0003441048084490426 0 -0.0026733428624016497 -0.00038139939211566918 0 -0.0025448641615594238 -0.00038228451080106734 0 -0.0022693398855368157 -0.0003441048084490426 0 -0.0028684552057780077 -0.00045502043439742693 0 -0.0026733428624016497 -0.00038139939211566918 0 -0.0025448641615594238 -0.00038228451080106734 0 -0.0029149645110429175 -0.00031182603352818687 0 -0.0026733428624016497 -0.00038139939211566918 0 -0.0022693398855368157 -0.0003441048084490426 0 -0.00076109452250208687 -0.00040607336098560768 0 -0.0001165082496463198 -0.00020846855709439713 0 -0.00080410595128761872 5.3929264302268096e-07 0 0.0011199415439701575 -6.2723894808929957e-05 0 0.0012622271805758718 -8.9727961826382857e-07 0 0.0012622271805758718 -8.9727961826382857e-07 0 0.0016586802923094569 -0.00013716393694689874 0 0.0033245056630879172 1.1314651962521114e-06 0 0.0011199415439701575 -6.2723894808929957e-05 0 0.0016586802923094569 -0.00013716393694689874 0 0.0019502362207569899 -0.00020314280200903228 0 0.0011199415439701575 -6.2723894808929957e-05 0 0.0012622271805758718 -8.9727961826382857e-07 0 0.0016586802923094569 -0.00013716393694689874 0 0.0016586802923094569 -0.00013716393694689874 0 0.0019502362207569899 -0.00020314280200903228 0 0.0033245056630879172 1.1314651962521114e-06 0 -0.0020487931022234126 -0.00046256965054032454 0 -0.0018089487799925533 -0.00026571706746755379 0 -0.001223010582197138 -3.1485288410562687e-06 0 -0.0018089487799925533 -0.00026571706746755379 0 -0.001223010582197138 -3.1485288410562687e-06 0 -0.0014439786281251477 4.2742400574276215e-05 0 0.00021645785773806621 -0.00056097923047353194 0 -0.001223010582197138 -3.1485288410562687e-06 0 -0.00063600100930440238 -0.00052039538850540254 0 -0.0014439786281251477 4.2742400574276215e-05 0 -0.00063600100930440238 -0.00052039538850540254 0 -0.00060280024388492735 -0.00074272909117705074 0 -0.001223010582197138 -3.1485288410562687e-06 0 -0.0014439786281251477 4.2742400574276215e-05 0 -0.00063600100930440238 -0.00052039538850540254 0 0.0012387826988408568 -0.00096690626459426643 0 -1.4564553304303406e-05 -0.0008610381668668933 0 -0.00041304060187568491 -0.0012969640459710395 0 -0.0014439786281251477 4.2742400574276215e-05 0 -0.00060280024388492735 -0.00074272909117705074 0 -0.00041304060187568491 -0.0012969640459710395 0 0.00076138750808137621 -4.3747285361898683e-06 0 0.0019519103277984568 1.4298734534470667e-05 0 0.00021645785773806621 -0.00056097923047353194 0 -0.00063600100930440238 -0.00052039538850540254 0 -1.4564553304303406e-05 -0.0008610381668668933 0 -0.00060280024388492735 -0.00074272909117705074 0 -1.4564553304303406e-05 -0.0008610381668668933 0 -0.00041304060187568491 -0.0012969640459710395 0 -0.00063600100930440238 -0.00052039538850540254 0 -0.00060280024388492735 -0.00074272909117705074 0 -1.4564553304303406e-05 -0.0008610381668668933 0 0.0019519103277984568 1.4298734534470667e-05 0 0.0019651591269999936 -2.7473882372139374e-06 0 0.0043228519430366782 -0.00040361274831008124 0 0.0044333160559485753 -0.00065273968701454372 0 0.0045050052056431608 -0.00066998006244491787 0 0.0044333160559485753 -0.00065273968701454372 0 0.0045050052056431608 -0.00066998006244491787 0 0.0043696722857453204 -0.00091056091122751926 0 0.0048391193344321237 -1.1636692617405327e-06 0 0.0043228519430366782 -0.00040361274831008124 0 0.0033298895282165672 1.9599615082957371e-07 0 0.0019519103277984568 1.4298734534470667e-05 0 0.0033261917946590656 -5.0571478373996357e-07 0 0.0019502362207569899 -0.00020314280200903228 0 0.0018134120209596192 0.00091137651810202795 0 0.0033245056630879172 1.1314651962521114e-06 0 0.0043228519430366782 -0.00040361274831008124 0 0.0045050052056431608 -0.00066998006244491787 0 0.0033298895282165672 1.9599615082957371e-07 0 -0.00059087040738817036 -0.0052694906175982659 0 -0.0011346305562883123 -0.0039596687098056626 0 -0.00019397077803064044 -0.0043809585551015679 0 -0.00059087040738817036 -0.0052694906175982659 0 0.00049480443985042925 -0.0052800860421235813 0 7.2168509458472659e-05 -0.006055145558828693 0 -0.00059087040738817036 -0.0052694906175982659 0 -0.00019397077803064044 -0.0043809585551015679 0 0.00049480443985042925 -0.0052800860421235813 0 -0.00059087040738817036 -0.0052694906175982659 0 -0.0014099183628634654 -0.0049969952565407276 0 -0.0011346305562883123 -0.0039596687098056626 0 -0.00059087040738817036 -0.0052694906175982659 0 -0.0014099183628634654 -0.0049969952565407276 0 -0.0012720509455618569 -0.0058747824958748102 0 -0.0011346305562883123 -0.0039596687098056626 0 -0.00019397077803064044 -0.0043809585551015679 0 -0.00038964448664033385 -0.0033036597117794223 0 -0.00019397077803064044 -0.0043809585551015679 0 0.00072473149050859484 -0.0037135675120942182 0 -0.00038964448664033385 -0.0033036597117794223 0 0.00072473149050859484 -0.0037135675120942182 0 0.00058184447308065048 -0.0045528064107686434 0 0.0013447152429289712 -0.0048406247208401584 0 -0.00019397077803064044 -0.0043809585551015679 0 0.00072473149050859484 -0.0037135675120942182 0 0.00058184447308065048 -0.0045528064107686434 0 0.00072473149050859484 -0.0037135675120942182 0 0.0017166493051437594 -0.0041295824664464393 0 0.0013447152429289712 -0.0048406247208401584 0 0.0017166493051437594 -0.0041295824664464393 0 0.0020816884261041489 -0.0035387933540538827 0 0.0025565331647051204 -0.0041794515488830612 0 0.00072473149050859484 -0.0037135675120942182 0 0.0017166493051437594 -0.0041295824664464393 0 0.0014091541875790278 -0.0034579840964927768 0 0.0017166493051437594 -0.0041295824664464393 0 0.0020816884261041489 -0.0035387933540538827 0 0.0014091541875790278 -0.0034579840964927768 0 0.0017166493051437594 -0.0041295824664464393 0 0.0023154751657609284 -0.0048763965949439655 0 0.0013447152429289712 -0.0048406247208401584 0 0.0017166493051437594 -0.0041295824664464393 0 0.0023154751657609284 -0.0048763965949439655 0 0.0025565331647051204 -0.0041794515488830612 0 0.0023154751657609284 -0.0048763965949439655 0 0.0013447152429289712 -0.0048406247208401584 0 0.00224678712882491 -0.0055862662762148803 0 0.0013447152429289712 -0.0048406247208401584 0 0.00224678712882491 -0.0055862662762148803 0 0.0014821501407529269 -0.0057921938127928375 0 -0.00019397077803064044 -0.0043809585551015679 0 0.00058184447308065048 -0.0045528064107686434 0 0.00049480443985042925 -0.0052800860421235813 0 0.00058184447308065048 -0.0045528064107686434 0 0.0013447152429289712 -0.0048406247208401584 0 0.00049480443985042925 -0.0052800860421235813 0 0.0013447152429289712 -0.0048406247208401584 0 0.00049480443985042925 -0.0052800860421235813 0 0.0014821501407529269 -0.0057921938127928375 0 0.00049480443985042925 -0.0052800860421235813 0 0.00078358302635247459 -0.0061340908501318911 0 7.2168509458472659e-05 -0.006055145558828693 0 0.00049480443985042925 -0.0052800860421235813 0 0.00078358302635247459 -0.0061340908501318911 0 0.0014821501407529269 -0.0057921938127928375 0 0.00078358302635247459 -0.0061340908501318911 0 0.0014649444588617556 -0.0068028328653954575 0 0.00049630162654062395 -0.0066868796521821101 0 0.00078358302635247459 -0.0061340908501318911 0 0.00049630162654062395 -0.0066868796521821101 0 7.2168509458472659e-05 -0.006055145558828693 0 0.00224678712882491 -0.0055862662762148803 0 0.0022316113745921525 -0.0061574668431566447 0 0.0014821501407529269 -0.0057921938127928375 0 0.00078358302635247459 -0.0061340908501318911 0 0.0014821501407529269 -0.0057921938127928375 0 0.0014649444588617556 -0.0068028328653954575 0 0.0022316113745921525 -0.0061574668431566447 0 0.0014821501407529269 -0.0057921938127928375 0 0.0014649444588617556 -0.0068028328653954575 0 0.0022316113745921525 -0.0061574668431566447 0 0.0014649444588617556 -0.0068028328653954575 0 0.0025874584726337004 -0.0067565563427878688 0 0.00057505640856858652 -0.0086409978318527682 0 0.0014649444588617556 -0.0068028328653954575 0 0.0023800526188082166 -0.007790423745752297 0 0.0014649444588617556 -0.0068028328653954575 0 0.0023800526188082166 -0.007790423745752297 0 0.0025874584726337004 -0.0067565563427878688 0 0.0017635770582181878 -0.0079152793472499067 0 0.0017456421648124555 -0.0075962681793422058 0 0.00055272050229572306 -0.0074355722393672522 0 0.0014649444588617556 -0.0068028328653954575 0 0.00066950262892972881 -0.0070203122741397724 0 0.0014649444588617556 -0.0068028328653954575 0 0.00049630162654062395 -0.0066868796521821101 0 0.00066950262892972881 -0.0070203122741397724 0 0.00049630162654062395 -0.0066868796521821101 0 0.00066950262892972881 -0.0070203122741397724 0 0.0001943379366882444 -0.0071200417654624813 0 0.00055272050229572306 -0.0074355722393672522 0 0.00066950262892972881 -0.0070203122741397724 0 0.0001943379366882444 -0.0071200417654624813 0 0.0001943379366882444 -0.0071200417654624813 0 -0.00030661145079402834 -0.0071046134771329287 0 -0.00016091206203094747 -0.0066735689637903639 0 -0.00030661145079402834 -0.0071046134771329287 0 -0.00016091206203094747 -0.0066735689637903639 0 -0.00074245372545274422 -0.0068977706001276274 0 -0.00016091206203094747 -0.0066735689637903639 0 -0.00066883693997216371 -0.0062290865244821018 0 -0.00074245372545274422 -0.0068977706001276274 0 0.00049630162654062395 -0.0066868796521821101 0 0.0001943379366882444 -0.0071200417654624813 0 -0.00016091206203094747 -0.0066735689637903639 0 0.00049630162654062395 -0.0066868796521821101 0 -0.00016091206203094747 -0.0066735689637903639 0 7.2168509458472659e-05 -0.006055145558828693 0 -0.00059087040738817036 -0.0052694906175982659 0 7.2168509458472659e-05 -0.006055145558828693 0 -0.00066883693997216371 -0.0062290865244821018 0 -0.00016091206203094747 -0.0066735689637903639 0 7.2168509458472659e-05 -0.006055145558828693 0 -0.00066883693997216371 -0.0062290865244821018 0 -0.00059087040738817036 -0.0052694906175982659 0 -0.0012720509455618569 -0.0058747824958748102 0 -0.00066883693997216371 -0.0062290865244821018 0 -0.0012720509455618569 -0.0058747824958748102 0 -0.00066883693997216371 -0.0062290865244821018 0 -0.0012085342417139698 -0.0065841010211306556 0 -0.00066883693997216371 -0.0062290865244821018 0 -0.0012085342417139698 -0.0065841010211306556 0 -0.00074245372545274422 -0.0068977706001276274 0 -0.0012273726870273645 -0.0071740871234777393 0 -0.0012085342417139698 -0.0065841010211306556 0 -0.00074245372545274422 -0.0068977706001276274 0 -0.0012273726870273645 -0.0071740871234777393 0 -0.0012085342417139698 -0.0065841010211306556 0 -0.0016797349572265756 -0.006894908499331648 0 -0.0012085342417139698 -0.0065841010211306556 0 -0.0016797349572265756 -0.006894908499331648 0 -0.0016377562851668027 -0.0063030262522434178 0 -0.0016797349572265756 -0.006894908499331648 0 -0.002134481688149109 -0.0063694548837079125 0 -0.0016377562851668027 -0.0063030262522434178 0 -0.0016797349572265756 -0.006894908499331648 0 -0.0020183760364553792 -0.0067821115231949999 0 -0.002134481688149109 -0.0063694548837079125 0 -0.0016797349572265756 -0.006894908499331648 0 -0.0019584363800265567 -0.0070874304550532993 0 -0.0020183760364553792 -0.0067821115231949999 0 -0.001668743491106426 -0.0074323380212138485 0 -0.0016797349572265756 -0.006894908499331648 0 -0.0019584363800265567 -0.0070874304550532993 0 -0.001974050749692553 -0.0074918078153196621 0 -0.0019584363800265567 -0.0070874304550532993 0 -0.0024340059439556206 -0.0067556335226335558 0 -0.0019584363800265567 -0.0070874304550532993 0 -0.0024340059439556206 -0.0067556335226335558 0 -0.0023258085292932927 -0.0067627655750828143 0 -0.0019584363800265567 -0.0070874304550532993 0 -0.0020183760364553792 -0.0067821115231949999 0 -0.0023258085292932927 -0.0067627655750828143 0 -0.0014285927970887806 -0.0051812751097089034 0 -0.0014055990906871555 -0.0044091457673485152 0 -0.001974050749692553 -0.0074918078153196621 0 -0.0019590968533022154 -0.0076495497155800165 0 -0.0018890338471653811 -0.0076276138768574661 0 -0.0014055990906871555 -0.0044091457673485152 0 -0.0014127155226711153 -0.0044139754548357286 0 -0.0020183760364553792 -0.0067821115231949999 0 -0.0023258085292932927 -0.0067627655750828143 0 -0.002134481688149109 -0.0063694548837079125 0 -0.0024832246006398994 -0.006747396819790215 0 -0.0023258085292932927 -0.0067627655750828143 0 -0.002134481688149109 -0.0063694548837079125 0 -0.0014055990906871555 -0.0044091457673485152 0 -0.0021229946398485773 -0.0031757105618934545 0 -0.0024832246006398994 -0.006747396819790215 0 -0.002134481688149109 -0.0063694548837079125 0 -0.0028757829789584025 -0.0053514797656930065 0 -0.002134481688149109 -0.0063694548837079125 0 -0.0019879403771325974 -0.0056093239764816224 0 -0.0028757829789584025 -0.0053514797656930065 0 -0.0028917224970516223 -0.00037624899133254733 0 -0.002682602724345215 -0.00059101665026006995 0 -0.0028743813719410028 -0.00078513102397756711 0 -0.0014099183628634654 -0.0049969952565407276 0 -0.0012720509455618569 -0.0058747824958748102 0 -0.0019879403771325974 -0.0056093239764816224 0 -0.0012720509455618569 -0.0058747824958748102 0 -0.0012085342417139698 -0.0065841010211306556 0 -0.0016377562851668027 -0.0063030262522434178 0 -0.0012720509455618569 -0.0058747824958748102 0 -0.0019879403771325974 -0.0056093239764816224 0 -0.0016377562851668027 -0.0063030262522434178 0 -0.002134481688149109 -0.0063694548837079125 0 -0.0019879403771325974 -0.0056093239764816224 0 -0.0016377562851668027 -0.0063030262522434178 0 -0.0018692796912788672 -0.007662772938434149 0 -0.0018771953907714106 -0.0076891666665009177 0 -0.0018591827769968464 -0.0076642808872220353 0 -0.0019590968533022154 -0.0076495497155800165 0 -0.0018591827769968464 -0.0076642808872220353 0 -0.0018890338471653811 -0.0076276138768574661 0 -0.0014055990906871555 -0.0044091457673485152 0 -0.0017259559150149236 -0.0036433324892705008 0 -0.0028917224970516223 -0.00037624899133254733 0 -0.002505823498989711 -0.00041894221656117665 0 -0.002682602724345215 -0.00059101665026006995 0 -0.0018692796912788672 -0.007662772938434149 0 -0.0018591827769968464 -0.0076642808872220353 0 -0.0018890338471653811 -0.0076276138768574661 0 -0.0021882755106309927 -0.0004496456620508732 0 -0.002505823498989711 -0.00041894221656117665 0 -0.0024814132853345976 -0.00063214540297696351 0 -0.002505823498989711 -0.00041894221656117665 0 -0.002682602724345215 -0.00059101665026006995 0 -0.0024814132853345976 -0.00063214540297696351 0 -0.0019243019159557375 -0.00074637531175743635 0 -0.0024814132853345976 -0.00063214540297696351 0 -0.0023149038344237719 -0.0011701903675577529 0 -0.0024814132853345976 -0.00063214540297696351 0 -0.0026129407625761778 -0.00098201974064151187 0 -0.0023149038344237719 -0.0011701903675577529 0 -0.002682602724345215 -0.00059101665026006995 0 -0.0024814132853345976 -0.00063214540297696351 0 -0.0026129407625761778 -0.00098201974064151187 0 -0.0026129407625761778 -0.00098201974064151187 0 -0.0028743813719410028 -0.00078513102397756711 0 -0.0027489729432466103 -0.0011930727966082048 0 -0.002682602724345215 -0.00059101665026006995 0 -0.0026129407625761778 -0.00098201974064151187 0 -0.0028743813719410028 -0.00078513102397756711 0 -0.0026129407625761778 -0.00098201974064151187 0 -0.0027489729432466103 -0.0011930727966082048 0 -0.0025030116678443951 -0.0013568773578188067 0 -0.0026129407625761778 -0.00098201974064151187 0 -0.0023149038344237719 -0.0011701903675577529 0 -0.0025030116678443951 -0.0013568773578188067 0 -0.0022979067736520458 -0.0014813319482336498 0 -0.0023149038344237719 -0.0011701903675577529 0 -0.0025030116678443951 -0.0013568773578188067 0 -0.0014099183628634654 -0.0049969952565407276 0 -0.0019879403771325974 -0.0056093239764816224 0 -0.0021061353462371989 -0.0044482969213521014 0 -0.0028757829789584025 -0.0053514797656930065 0 -0.0030728725906036605 -0.0038248346493207812 0 -0.0021061353462371989 -0.0044482969213521014 0 -0.0021229946398485773 -0.0031757105618934545 0 -0.0024624429055655024 -0.0025011703698886423 0 -0.0019879403771325974 -0.0056093239764816224 0 -0.0028757829789584025 -0.0053514797656930065 0 -0.0021061353462371989 -0.0044482969213521014 0 -0.0030728725906036605 -0.0038248346493207812 0 -0.0021061353462371989 -0.0044482969213521014 0 -0.0021138552414866618 -0.002880549260241584 0 -0.0011346305562883123 -0.0039596687098056626 0 -0.0021061353462371989 -0.0044482969213521014 0 -0.0021138552414866618 -0.002880549260241584 0 -0.0014099183628634654 -0.0049969952565407276 0 -0.0011346305562883123 -0.0039596687098056626 0 -0.0021061353462371989 -0.0044482969213521014 0 -0.0024624429055655024 -0.0025011703698886423 0 -0.0025890340291293132 -0.0019888187079111874 0 -0.0030728725906036605 -0.0038248346493207812 0 -0.0021138552414866618 -0.002880549260241584 0 -0.0030193400326221391 -0.002340723002001065 0 -0.0021138552414866618 -0.002880549260241584 0 -0.0023812288060411696 -0.0017872325387593233 0 -0.0030193400326221391 -0.002340723002001065 0 -0.0023812288060411696 -0.0017872325387593233 0 -0.0030193400326221391 -0.002340723002001065 0 -0.002600767723170729 -0.0011851258537540501 0 -0.0025890340291293132 -0.0019888187079111874 0 -0.0026118397217937319 -0.0017318962207935253 0 -0.0021138552414866618 -0.002880549260241584 0 -0.0023812288060411696 -0.0017872325387593233 0 -0.0018433577464249023 -0.0018564859167476257 0 -0.0021138552414866618 -0.002880549260241584 0 -0.0018433577464249023 -0.0018564859167476257 0 -0.0012401719424075502 -0.0025848781787417953 0 -0.0022979067736520458 -0.0014813319482336498 0 -0.0025030116678443951 -0.0013568773578188067 0 -0.002496950718216148 -0.0012598222977781655 0 -0.0027489729432466103 -0.0011930727966082048 0 -0.002575923518382664 -0.0013169504244359481 0 -0.0025030116678443951 -0.0013568773578188067 0 -0.002575923518382664 -0.0013169504244359481 0 -0.0025648817300355556 -0.0012468931897056811 0 -0.002600767723170729 -0.0011851258537540501 0 -0.002575923518382664 -0.0013169504244359481 0 -0.0025030116678443951 -0.0013568773578188067 0 -0.0025648817300355556 -0.0012468931897056811 0 -0.0025030116678443951 -0.0013568773578188067 0 -0.0025648817300355556 -0.0012468931897056811 0 -0.002496950718216148 -0.0012598222977781655 0 -0.0026460395778604212 -0.0010510765367434706 0 -0.002496950718216148 -0.0012598222977781655 0 -0.0026613785226147347 -0.0010327445581374407 0 -0.0025648817300355556 -0.0012468931897056811 0 -0.002496950718216148 -0.0012598222977781655 0 -0.0026613785226147347 -0.0010327445581374407 0 -0.0025648817300355556 -0.0012468931897056811 0 -0.0026613785226147347 -0.0010327445581374407 0 -0.002600767723170729 -0.0011851258537540501 0 -0.0027173084156974004 -0.00075176700896341343 0 -0.0026613785226147347 -0.0010327445581374407 0 -0.002600767723170729 -0.0011851258537540501 0 -0.0023136907526573208 -0.00069898628516198991 0 -0.0027173084156974004 -0.00075176700896341343 0 -0.002600767723170729 -0.0011851258537540501 0 -0.0027173084156974004 -0.00075176700896341343 0 -0.0028414598759355482 -0.0007422120595733788 0 -0.0026613785226147347 -0.0010327445581374407 0 -0.0018433577464249023 -0.0018564859167476257 0 -0.0021275646989068592 -0.0011680034815736073 0 -0.0013567348498380949 -0.0014361955394839507 0 -0.0023812288060411696 -0.0017872325387593233 0 -0.0018433577464249023 -0.0018564859167476257 0 -0.0021275646989068592 -0.0011680034815736073 0 -0.0021275646989068592 -0.0011680034815736073 0 -0.0016698899889278449 -0.00076038858717730902 0 -0.0013567348498380949 -0.0014361955394839507 0 -0.0023812288060411696 -0.0017872325387593233 0 -0.0021275646989068592 -0.0011680034815736073 0 -0.002600767723170729 -0.0011851258537540501 0 -0.0023136907526573208 -0.00069898628516198991 0 -0.0021275646989068592 -0.0011680034815736073 0 -0.002600767723170729 -0.0011851258537540501 0 -0.0023136907526573208 -0.00069898628516198991 0 -0.0021275646989068592 -0.0011680034815736073 0 -0.0016698899889278449 -0.00076038858717730902 0 -0.0016403652429830325 -0.00044803852394147321 0 -0.0016698899889278449 -0.00076038858717730902 0 -0.001387091570401027 -0.00044845412642665022 0 -0.0016698899889278449 -0.00076038858717730902 0 -0.001387091570401027 -0.00044845412642665022 0 -0.0010735729709942146 -0.00078576674357590248 0 -0.001387091570401027 -0.00044845412642665022 0 -0.001003038158724146 -0.00025430686091136172 0 -0.0010735729709942146 -0.00078576674357590248 0 -0.0013144289840148948 -0.00027803356655214294 0 -0.001387091570401027 -0.00044845412642665022 0 -0.001003038158724146 -0.00025430686091136172 0 -0.001003038158724146 -0.00025430686091136172 0 -0.0010735729709942146 -0.00078576674357590248 0 -0.00055761311910981271 -0.00063260828731529417 0 -0.0010735729709942146 -0.00078576674357590248 0 -0.00063508951938802773 -0.001348909893555231 0 -0.0013567348498380949 -0.0014361955394839507 0 -0.0010735729709942146 -0.00078576674357590248 0 -0.00063508951938802773 -0.001348909893555231 0 -0.00055761311910981271 -0.00063260828731529417 0 -0.0016698899889278449 -0.00076038858717730902 0 -0.0010735729709942146 -0.00078576674357590248 0 -0.0013567348498380949 -0.0014361955394839507 0 -0.0018433577464249023 -0.0018564859167476257 0 -0.0013567348498380949 -0.0014361955394839507 0 -0.0012401719424075502 -0.0025848781787417953 0 -0.0013567348498380949 -0.0014361955394839507 0 -0.00057490570023540038 -0.0022168340992163062 0 -0.0012401719424075502 -0.0025848781787417953 0 -0.00063508951938802773 -0.001348909893555231 0 -0.0013567348498380949 -0.0014361955394839507 0 -0.00057490570023540038 -0.0022168340992163062 0 -0.00063508951938802773 -0.001348909893555231 0 -0.00057490570023540038 -0.0022168340992163062 0 -6.4818020765056722e-05 -0.0019048323361464657 0 -0.00057490570023540038 -0.0022168340992163062 0 0.00020765337389054708 -0.0028105356559947089 0 -6.4818020765056722e-05 -0.0019048323361464657 0 -0.00057490570023540038 -0.0022168340992163062 0 -0.00038964448664033385 -0.0033036597117794223 0 0.00020765337389054708 -0.0028105356559947089 0 -0.00057490570023540038 -0.0022168340992163062 0 -0.00038964448664033385 -0.0033036597117794223 0 -0.0012401719424075502 -0.0025848781787417953 0 -0.0011346305562883123 -0.0039596687098056626 0 -0.00038964448664033385 -0.0033036597117794223 0 -0.0012401719424075502 -0.0025848781787417953 0 -0.0011346305562883123 -0.0039596687098056626 0 -0.0021138552414866618 -0.002880549260241584 0 -0.0012401719424075502 -0.0025848781787417953 0 0.0016514011053004305 -0.0029430867568762701 0 0.0012521664988935958 -0.0022845627973281583 0 0.0019781176058866028 -0.0023488727398893062 0 0.0016514011053004305 -0.0029430867568762701 0 0.00095056519404564826 -0.0029217824131659094 0 0.0012521664988935958 -0.0022845627973281583 0 0.0016514011053004305 -0.0029430867568762701 0 0.0019781176058866028 -0.0023488727398893062 0 0.0024459098409304642 -0.0028904418578225379 0 0.0016514011053004305 -0.0029430867568762701 0 0.0020816884261041489 -0.0035387933540538827 0 0.0024459098409304642 -0.0028904418578225379 0 0.0016514011053004305 -0.0029430867568762701 0 0.0014091541875790278 -0.0034579840964927768 0 0.00095056519404564826 -0.0029217824131659094 0 0.0016514011053004305 -0.0029430867568762701 0 0.0020816884261041489 -0.0035387933540538827 0 0.0014091541875790278 -0.0034579840964927768 0 0.00072473149050859484 -0.0037135675120942182 0 0.0014091541875790278 -0.0034579840964927768 0 0.00095056519404564826 -0.0029217824131659094 0 0.00072473149050859484 -0.0037135675120942182 0 -0.00038964448664033385 -0.0033036597117794223 0 0.00020765337389054708 -0.0028105356559947089 0 0.00072473149050859484 -0.0037135675120942182 0 0.00020765337389054708 -0.0028105356559947089 0 0.00095056519404564826 -0.0029217824131659094 0 0.00095056519404564826 -0.0029217824131659094 0 0.00053377743582574521 -0.0022977115984556666 0 0.0012521664988935958 -0.0022845627973281583 0 0.00020765337389054708 -0.0028105356559947089 0 0.00095056519404564826 -0.0029217824131659094 0 0.00053377743582574521 -0.0022977115984556666 0 0.00053377743582574521 -0.0022977115984556666 0 0.00093405919982886396 -0.0013965645010585955 0 0.0012521664988935958 -0.0022845627973281583 0 0.00020765337389054708 -0.0028105356559947089 0 0.00053377743582574521 -0.0022977115984556666 0 -6.4818020765056722e-05 -0.0019048323361464657 0 0.00053377743582574521 -0.0022977115984556666 0 -6.4818020765056722e-05 -0.0019048323361464657 0 9.0521639540524647e-05 -0.0012972160442986471 0 -0.00063508951938802773 -0.001348909893555231 0 -6.4818020765056722e-05 -0.0019048323361464657 0 9.0521639540524647e-05 -0.0012972160442986471 0 0.00053377743582574521 -0.0022977115984556666 0 0.00093405919982886396 -0.0013965645010585955 0 9.0521639540524647e-05 -0.0012972160442986471 0 0.0015393492521769336 -0.0017559589277491043 0 0.00093405919982886396 -0.0013965645010585955 0 0.0012521664988935958 -0.0022845627973281583 0 0.0015393492521769336 -0.0017559589277491043 0 0.00093405919982886396 -0.0013965645010585955 0 0.0021022884673227091 -0.0011885993305726893 0 0.0015393492521769336 -0.0017559589277491043 0 0.0012521664988935958 -0.0022845627973281583 0 0.0019781176058866028 -0.0023488727398893062 0 0.0019781176058866028 -0.0023488727398893062 0 0.0021022884673227091 -0.0011885993305726893 0 0.0027793663538171055 -0.0020957112749302163 0 0.0015393492521769336 -0.0017559589277491043 0 0.0019781176058866028 -0.0023488727398893062 0 0.0021022884673227091 -0.0011885993305726893 0 0.00093405919982886396 -0.0013965645010585955 0 0.0011478227090628871 -0.00051559562772083168 0 0.00017227995418999582 -0.00058597660129035614 0 0.00093405919982886396 -0.0013965645010585955 0 0.0021022884673227091 -0.0011885993305726893 0 0.0011478227090628871 -0.00051559562772083168 0 0.0021022884673227091 -0.0011885993305726893 0 0.0011478227090628871 -0.00051559562772083168 0 0.0020204950460908219 9.0495184104884597e-05 0 -0.00063508951938802773 -0.001348909893555231 0 9.0521639540524647e-05 -0.0012972160442986471 0 -0.00055761311910981271 -0.00063260828731529417 0 0.00093405919982886396 -0.0013965645010585955 0 9.0521639540524647e-05 -0.0012972160442986471 0 0.00017227995418999582 -0.00058597660129035614 0 0.00017227995418999582 -0.00058597660129035614 0 -0.00055761311910981271 -0.00063260828731529417 0 -0.00051661488563602956 3.8693868787287544e-05 0 9.0521639540524647e-05 -0.0012972160442986471 0 0.00017227995418999582 -0.00058597660129035614 0 -0.00055761311910981271 -0.00063260828731529417 0 0.00047801492765494832 0.0030169404151881873 0 -0.00051661488563602956 3.8693868787287544e-05 0 0.00081197778958814646 0.00093186337749553993 0 -0.001003038158724146 -0.00025430686091136172 0 -0.00055761311910981271 -0.00063260828731529417 0 -0.00051661488563602956 3.8693868787287544e-05 0 0.00017227995418999582 -0.00058597660129035614 0 -0.00051661488563602956 3.8693868787287544e-05 0 0.00081197778958814646 0.00093186337749553993 0 -0.001209906565684327 -0.00010881302153122466 0 -0.001003038158724146 -0.00025430686091136172 0 -0.00051661488563602956 3.8693868787287544e-05 0 0.0020204950460908219 9.0495184104884597e-05 0 0.00081197778958814646 0.00093186337749553993 0 0.0021491392825682748 0.0011854613668313794 0 0.0011478227090628871 -0.00051559562772083168 0 0.00017227995418999582 -0.00058597660129035614 0 0.00081197778958814646 0.00093186337749553993 0 0.0011478227090628871 -0.00051559562772083168 0 0.0020204950460908219 9.0495184104884597e-05 0 0.00081197778958814646 0.00093186337749553993 0 0.0016880255519659006 0.0018418326078518913 0 0.00081197778958814646 0.00093186337749553993 0 0.0021491392825682748 0.0011854613668313794 0 0.0016880255519659006 0.0018418326078518913 0 0.002355906594162223 0.0021287382316922169 0 0.0021491392825682748 0.0011854613668313794 0 0.0021491392825682748 0.0011854613668313794 0 0.0029214000661517241 0.0015792801656424515 0 0.0030962248011227652 0.0006800781536723681 0 0.002355906594162223 0.0021287382316922169 0 0.0021491392825682748 0.0011854613668313794 0 0.0029214000661517241 0.0015792801656424515 0 0.0020204950460908219 9.0495184104884597e-05 0 0.0021491392825682748 0.0011854613668313794 0 0.0030962248011227652 0.0006800781536723681 0 0.0030962248011227652 0.0006800781536723681 0 0.004487881558467144 0.00091012231764072879 0 0.0036917230810761515 -0.00012130531645501958 0 0.0029214000661517241 0.0015792801656424515 0 0.0030962248011227652 0.0006800781536723681 0 0.0038584968235584084 0.0017559238702171145 0 0.0052512029698806974 0.0021223817854895076 0 0.004487881558467144 0.00091012231764072879 0 0.0062916257855493768 0.0010939130285090878 0 0.0052512029698806974 0.0021223817854895076 0 0.0038584968235584084 0.0017559238702171145 0 0.004487881558467144 0.00091012231764072879 0 0.004487881558467144 0.00091012231764072879 0 0.005033519920016394 -0.00011945871108641641 0 0.0062916257855493768 0.0010939130285090878 0 0.0030962248011227652 0.0006800781536723681 0 0.0038584968235584084 0.0017559238702171145 0 0.004487881558467144 0.00091012231764072879 0 0.004487881558467144 0.00091012231764072879 0 0.005033519920016394 -0.00011945871108641641 0 0.0036917230810761515 -0.00012130531645501958 0 0.005033519920016394 -0.00011945871108641641 0 0.0042180523647391173 -0.00081849058938167406 0 0.0048206477690905906 -0.0014775884634421132 0 0.005033519920016394 -0.00011945871108641641 0 0.0042180523647391173 -0.00081849058938167406 0 0.0036917230810761515 -0.00012130531645501958 0 0.0042180523647391173 -0.00081849058938167406 0 0.0036917230810761515 -0.00012130531645501958 0 0.0031634905306005805 -0.001202806012830977 0 0.0027831233187570309 -0.00036437522715820713 0 0.0036917230810761515 -0.00012130531645501958 0 0.0031634905306005805 -0.001202806012830977 0 0.0021022884673227091 -0.0011885993305726893 0 0.0027831233187570309 -0.00036437522715820713 0 0.0031634905306005805 -0.001202806012830977 0 0.0021022884673227091 -0.0011885993305726893 0 0.0020204950460908219 9.0495184104884597e-05 0 0.0027831233187570309 -0.00036437522715820713 0 0.0020204950460908219 9.0495184104884597e-05 0 0.0030962248011227652 0.0006800781536723681 0 0.0027831233187570309 -0.00036437522715820713 0 0.0030962248011227652 0.0006800781536723681 0 0.0027831233187570309 -0.00036437522715820713 0 0.0036917230810761515 -0.00012130531645501958 0 0.0081403225467196506 0.0026058212108825687 0 0.0080127190704895133 0.0011831598498303637 0 0.0062916257855493768 0.0010939130285090878 0 0.0080127190704895133 0.0011831598498303637 0 0.0062916257855493768 0.0010939130285090878 0 0.0071498001861669625 0.00030459035837886747 0 0.005033519920016394 -0.00011945871108641641 0 0.0062916257855493768 0.0010939130285090878 0 0.0063602444047576815 -0.00068052818705577388 0 0.0062916257855493768 0.0010939130285090878 0 0.0063602444047576815 -0.00068052818705577388 0 0.0071498001861669625 0.00030459035837886747 0 0.005033519920016394 -0.00011945871108641641 0 0.0063602444047576815 -0.00068052818705577388 0 0.0048206477690905906 -0.0014775884634421132 0 0.0063602444047576815 -0.00068052818705577388 0 0.0071498001861669625 0.00030459035837886747 0 0.0079669515466092161 -0.0003667145055595052 0 0.0080127190704895133 0.0011831598498303637 0 0.0071498001861669625 0.00030459035837886747 0 0.0079669515466092161 -0.0003667145055595052 0 0.0080127190704895133 0.0011831598498303637 0 0.0079669515466092161 -0.0003667145055595052 0 0.0092398993464951826 0.0007385404531079009 0 0.0079669515466092161 -0.0003667145055595052 0 0.0074862688328544268 -0.0019113068459880394 0 0.0095333687231686018 -0.00095060526884135107 0 0.0063602444047576815 -0.00068052818705577388 0 0.0079669515466092161 -0.0003667145055595052 0 0.0074862688328544268 -0.0019113068459880394 0 0.0074862688328544268 -0.0019113068459880394 0 0.0056957424498685913 -0.0019765987397892208 0 0.0061804327089486277 -0.0031025185517012366 0 0.0063602444047576815 -0.00068052818705577388 0 0.0074862688328544268 -0.0019113068459880394 0 0.0056957424498685913 -0.0019765987397892208 0 0.0063602444047576815 -0.00068052818705577388 0 0.0056957424498685913 -0.0019765987397892208 0 0.0048206477690905906 -0.0014775884634421132 0 0.0056957424498685913 -0.0019765987397892208 0 0.0061804327089486277 -0.0031025185517012366 0 0.0051072538081178981 -0.0028849584565334668 0 0.0052612063141589246 -0.0036542791592629499 0 0.0061804327089486277 -0.0031025185517012366 0 0.0051072538081178981 -0.0028849584565334668 0 0.0052612063141589246 -0.0036542791592629499 0 0.0061804327089486277 -0.0031025185517012366 0 0.006475676921755753 -0.0041320529486325907 0 0.0061804327089486277 -0.0031025185517012366 0 0.0074173993353745813 -0.0031753755004020673 0 0.006475676921755753 -0.0041320529486325907 0 0.0074862688328544268 -0.0019113068459880394 0 0.0074173993353745813 -0.0031753755004020673 0 0.0092788462125100255 -0.0027902485334735084 0 0.0074862688328544268 -0.0019113068459880394 0 0.0061804327089486277 -0.0031025185517012366 0 0.0074173993353745813 -0.0031753755004020673 0 0.0036335745374865935 -0.0018855455324418618 0 0.0027793663538171055 -0.0020957112749302163 0 0.0033384406978261053 -0.0028495469631521246 0 0.0036335745374865935 -0.0018855455324418618 0 0.0042422481450383543 -0.0023094799640357103 0 0.0033384406978261053 -0.0028495469631521246 0 0.0021022884673227091 -0.0011885993305726893 0 0.0027793663538171055 -0.0020957112749302163 0 0.0031634905306005805 -0.001202806012830977 0 0.0036335745374865935 -0.0018855455324418618 0 0.0027793663538171055 -0.0020957112749302163 0 0.0031634905306005805 -0.001202806012830977 0 0.0042180523647391173 -0.00081849058938167406 0 0.0036335745374865935 -0.0018855455324418618 0 0.0031634905306005805 -0.001202806012830977 0 0.0042180523647391173 -0.00081849058938167406 0 0.0036335745374865935 -0.0018855455324418618 0 0.0048206477690905906 -0.0014775884634421132 0 0.0056957424498685913 -0.0019765987397892208 0 0.0048206477690905906 -0.0014775884634421132 0 0.0042422481450383543 -0.0023094799640357103 0 0.0036335745374865935 -0.0018855455324418618 0 0.0048206477690905906 -0.0014775884634421132 0 0.0042422481450383543 -0.0023094799640357103 0 0.0042422481450383543 -0.0023094799640357103 0 0.0041876986039033164 -0.0033571054305617837 0 0.0033384406978261053 -0.0028495469631521246 0 0.0042422481450383543 -0.0023094799640357103 0 0.0051072538081178981 -0.0028849584565334668 0 0.0041876986039033164 -0.0033571054305617837 0 0.0056957424498685913 -0.0019765987397892208 0 0.0042422481450383543 -0.0023094799640357103 0 0.0051072538081178981 -0.0028849584565334668 0 0.0052612063141589246 -0.0036542791592629499 0 0.0041876986039033164 -0.0033571054305617837 0 0.0045963834819628315 -0.0039148662358727236 0 0.0052612063141589246 -0.0036542791592629499 0 0.0051072538081178981 -0.0028849584565334668 0 0.0041876986039033164 -0.0033571054305617837 0 0.0041876986039033164 -0.0033571054305617837 0 0.0035174557415349607 -0.003616475853282924 0 0.0033384406978261053 -0.0028495469631521246 0 0.0035174557415349607 -0.003616475853282924 0 0.0033384406978261053 -0.0028495469631521246 0 0.0028503544647805125 -0.0035356748632983759 0 0.0019781176058866028 -0.0023488727398893062 0 0.0027793663538171055 -0.0020957112749302163 0 0.0024459098409304642 -0.0028904418578225379 0 0.0027793663538171055 -0.0020957112749302163 0 0.0033384406978261053 -0.0028495469631521246 0 0.0024459098409304642 -0.0028904418578225379 0 0.0020816884261041489 -0.0035387933540538827 0 0.0024459098409304642 -0.0028904418578225379 0 0.0028503544647805125 -0.0035356748632983759 0 0.0033384406978261053 -0.0028495469631521246 0 0.0024459098409304642 -0.0028904418578225379 0 0.0028503544647805125 -0.0035356748632983759 0 0.0020816884261041489 -0.0035387933540538827 0 0.0028503544647805125 -0.0035356748632983759 0 0.0025565331647051204 -0.0041794515488830612 0 0.0028503544647805125 -0.0035356748632983759 0 0.0025565331647051204 -0.0041794515488830612 0 0.0033176292163797131 -0.0041981819895761064 0 0.0035174557415349607 -0.003616475853282924 0 0.0028503544647805125 -0.0035356748632983759 0 0.0033176292163797131 -0.0041981819895761064 0 0.0035174557415349607 -0.003616475853282924 0 0.0033176292163797131 -0.0041981819895761064 0 0.0039999545914153412 -0.0040135609398880261 0 0.0033176292163797131 -0.0041981819895761064 0 0.0030768508325337771 -0.0047758111138730686 0 0.0039333987983617077 -0.0047573512604223338 0 0.0023154751657609284 -0.0048763965949439655 0 0.0025565331647051204 -0.0041794515488830612 0 0.0030768508325337771 -0.0047758111138730686 0 0.0025565331647051204 -0.0041794515488830612 0 0.0033176292163797131 -0.0041981819895761064 0 0.0030768508325337771 -0.0047758111138730686 0 0.0023154751657609284 -0.0048763965949439655 0 0.00224678712882491 -0.0055862662762148803 0 0.0029277282016729454 -0.0053427496162660217 0 0.0023154751657609284 -0.0048763965949439655 0 0.0030768508325337771 -0.0047758111138730686 0 0.0029277282016729454 -0.0053427496162660217 0 0.0030768508325337771 -0.0047758111138730686 0 0.0029277282016729454 -0.0053427496162660217 0 0.0035507438521345377 -0.0052223024651995124 0 0.0030768508325337771 -0.0047758111138730686 0 0.0035507438521345377 -0.0052223024651995124 0 0.0039333987983617077 -0.0047573512604223338 0 0.0029277282016729454 -0.0053427496162660217 0 0.0034531029848489827 -0.0056787773350913699 0 0.0029203156379356437 -0.0058921677910647756 0 0.0029277282016729454 -0.0053427496162660217 0 0.0035507438521345377 -0.0052223024651995124 0 0.0034531029848489827 -0.0056787773350913699 0 0.0035507438521345377 -0.0052223024651995124 0 0.0034531029848489827 -0.0056787773350913699 0 0.0039717785546869331 -0.0057680344110300347 0 0.0034531029848489827 -0.0056787773350913699 0 0.0039717785546869331 -0.0057680344110300347 0 0.003480710046117295 -0.0061341669107267578 0 0.0034531029848489827 -0.0056787773350913699 0 0.0029203156379356437 -0.0058921677910647756 0 0.003480710046117295 -0.0061341669107267578 0 0.00224678712882491 -0.0055862662762148803 0 0.0029277282016729454 -0.0053427496162660217 0 0.0029203156379356437 -0.0058921677910647756 0 0.004578103027914962 -0.0055666236739508644 0 0.0046239397209834636 -0.0059671050411333167 0 0.0039717785546869331 -0.0057680344110300347 0 0.004578103027914962 -0.0055666236739508644 0 0.0046239397209834636 -0.0059671050411333167 0 0.0051138695568962054 -0.0056470548338659549 0 0.0046239397209834636 -0.0059671050411333167 0 0.0051138695568962054 -0.0056470548338659549 0 0.0051000731759704267 -0.0059818005216732278 0 0.0046239397209834636 -0.0059671050411333167 0 0.0051000731759704267 -0.0059818005216732278 0 0.0048608316682207083 -0.0062754279604807272 0 0.0046239397209834636 -0.0059671050411333167 0 0.0039717785546869331 -0.0057680344110300347 0 0.0039411024753536351 -0.0064499946393941883 0 0.004578103027914962 -0.0055666236739508644 0 0.0039717785546869331 -0.0057680344110300347 0 0.0042555599216992472 -0.0052656595433260974 0 0.0035507438521345377 -0.0052223024651995124 0 0.0042555599216992472 -0.0052656595433260974 0 0.0039333987983617077 -0.0047573512604223338 0 0.0035507438521345377 -0.0052223024651995124 0 0.0039717785546869331 -0.0057680344110300347 0 0.0042555599216992472 -0.0052656595433260974 0 0.0042555599216992472 -0.0052656595433260974 0 0.0045268882903563533 -0.0048811060480154341 0 0.0039333987983617077 -0.0047573512604223338 0 0.0042555599216992472 -0.0052656595433260974 0 0.0049537596243005187 -0.0051768798083428698 0 0.0045268882903563533 -0.0048811060480154341 0 0.004578103027914962 -0.0055666236739508644 0 0.0042555599216992472 -0.0052656595433260974 0 0.0049537596243005187 -0.0051768798083428698 0 0.004578103027914962 -0.0055666236739508644 0 0.0049537596243005187 -0.0051768798083428698 0 0.0051138695568962054 -0.0056470548338659549 0 0.0049537596243005187 -0.0051768798083428698 0 0.0045268882903563533 -0.0048811060480154341 0 0.0052178183133231304 -0.0045740195965143235 0 0.004497836164923389 -0.0044294150734939045 0 0.0045963834819628315 -0.0039148662358727236 0 0.0052178183133231304 -0.0045740195965143235 0 0.0045268882903563533 -0.0048811060480154341 0 0.004497836164923389 -0.0044294150734939045 0 0.0052178183133231304 -0.0045740195965143235 0 0.0033176292163797131 -0.0041981819895761064 0 0.0039333987983617077 -0.0047573512604223338 0 0.0039999545914153412 -0.0040135609398880261 0 0.004497836164923389 -0.0044294150734939045 0 0.0039333987983617077 -0.0047573512604223338 0 0.0039999545914153412 -0.0040135609398880261 0 0.0045268882903563533 -0.0048811060480154341 0 0.004497836164923389 -0.0044294150734939045 0 0.0039333987983617077 -0.0047573512604223338 0 0.0041876986039033164 -0.0033571054305617837 0 0.0035174557415349607 -0.003616475853282924 0 0.0039999545914153412 -0.0040135609398880261 0 0.0041876986039033164 -0.0033571054305617837 0 0.0039999545914153412 -0.0040135609398880261 0 0.0045963834819628315 -0.0039148662358727236 0 0.004497836164923389 -0.0044294150734939045 0 0.0039999545914153412 -0.0040135609398880261 0 0.0045963834819628315 -0.0039148662358727236 0 0.0052612063141589246 -0.0036542791592629499 0 0.0045963834819628315 -0.0039148662358727236 0 0.0052178183133231304 -0.0045740195965143235 0 0.0052612063141589246 -0.0036542791592629499 0 0.006475676921755753 -0.0041320529486325907 0 0.0052178183133231304 -0.0045740195965143235 0 0.006475676921755753 -0.0041320529486325907 0 0.0052178183133231304 -0.0045740195965143235 0 0.0060493922553934128 -0.0050551161396279369 0 0.006475676921755753 -0.0041320529486325907 0 0.0073674219359658091 -0.0053128276829248226 0 0.0060493922553934128 -0.0050551161396279369 0 0.0074173993353745813 -0.0031753755004020673 0 0.006475676921755753 -0.0041320529486325907 0 0.0079438878010239765 -0.0040093383777885403 0 0.006475676921755753 -0.0041320529486325907 0 0.0079438878010239765 -0.0040093383777885403 0 0.0073674219359658091 -0.0053128276829248226 0 0.0073674219359658091 -0.0053128276829248226 0 0.007433006329492539 -0.0065714468159240088 0 0.0093820591825611276 -0.0064181028649057644 0 0.0073674219359658091 -0.0053128276829248226 0 0.0059120657751673533 -0.0058392076936966877 0 0.007433006329492539 -0.0065714468159240088 0 0.0059120657751673533 -0.0058392076936966877 0 0.0053737338278863544 -0.006635136796114772 0 0.007433006329492539 -0.0065714468159240088 0 0.0049537596243005187 -0.0051768798083428698 0 0.0052178183133231304 -0.0045740195965143235 0 0.0054787517285487747 -0.0053462365364724384 0 0.0054787517285487747 -0.0053462365364724384 0 0.0060493922553934128 -0.0050551161396279369 0 0.0059120657751673533 -0.0058392076936966877 0 0.0052178183133231304 -0.0045740195965143235 0 0.0054787517285487747 -0.0053462365364724384 0 0.0060493922553934128 -0.0050551161396279369 0 0.0049537596243005187 -0.0051768798083428698 0 0.0054787517285487747 -0.0053462365364724384 0 0.0051138695568962054 -0.0056470548338659549 0 0.0073674219359658091 -0.0053128276829248226 0 0.0060493922553934128 -0.0050551161396279369 0 0.0059120657751673533 -0.0058392076936966877 0 0.0054787517285487747 -0.0053462365364724384 0 0.0059120657751673533 -0.0058392076936966877 0 0.0051138695568962054 -0.0056470548338659549 0 0.0059120657751673533 -0.0058392076936966877 0 0.0051138695568962054 -0.0056470548338659549 0 0.0051000731759704267 -0.0059818005216732278 0 0.0059120657751673533 -0.0058392076936966877 0 0.0051000731759704267 -0.0059818005216732278 0 0.0054234605024401413 -0.0061482199340763058 0 0.0059120657751673533 -0.0058392076936966877 0 0.0054234605024401413 -0.0061482199340763058 0 0.0053737338278863544 -0.006635136796114772 0 0.0051000731759704267 -0.0059818005216732278 0 0.0052739755006297418 -0.0063417636618868668 0 0.0048608316682207083 -0.0062754279604807272 0 0.0051000731759704267 -0.0059818005216732278 0 0.0054234605024401413 -0.0061482199340763058 0 0.0052739755006297418 -0.0063417636618868668 0 0.0052739755006297418 -0.0063417636618868668 0 0.0053737338278863544 -0.006635136796114772 0 0.0048608316682207083 -0.0062754279604807272 0 0.0054234605024401413 -0.0061482199340763058 0 0.0052739755006297418 -0.0063417636618868668 0 0.0053737338278863544 -0.006635136796114772 0 0.012359298382778126 -0.0055135819710823413 0 0.014629982131607022 -0.0065409142925288493 0 0.021848746290912689 -0.006492896794029362 0 0.022225197654323948 -0.0067737029755503388 0 0.022536043938497629 -0.006438440951003814 0 0.021848746290912689 -0.006492896794029362 0 0.021944236545557525 -0.0068632136624787662 0 0.021719701961365242 -0.0070431045606150974 0 0.021848746290912689 -0.006492896794029362 0 0.022225197654323948 -0.0067737029755503388 0 0.021944236545557525 -0.0068632136624787662 0 0.022536043938497629 -0.006438440951003814 0 0.022632354515119999 -0.0070072645100804172 0 0.023029237435781988 -0.0068680812786117759 0 0.022225197654323948 -0.0067737029755503388 0 0.022536043938497629 -0.006438440951003814 0 0.022632354515119999 -0.0070072645100804172 0 0.022632354515119999 -0.0070072645100804172 0 0.022511009970569765 -0.0073333342027300024 0 0.022098535326723484 -0.0071482675821019099 0 0.022225197654323948 -0.0067737029755503388 0 0.022632354515119999 -0.0070072645100804172 0 0.022098535326723484 -0.0071482675821019099 0 0.022632354515119999 -0.0070072645100804172 0 0.022511009970569765 -0.0073333342027300024 0 0.022989919647198129 -0.0073091926915457156 0 0.021944236545557525 -0.0068632136624787662 0 0.022098535326723484 -0.0071482675821019099 0 0.021719701961365242 -0.0070431045606150974 0 0.022225197654323948 -0.0067737029755503388 0 0.021944236545557525 -0.0068632136624787662 0 0.022098535326723484 -0.0071482675821019099 0 0.022098535326723484 -0.0071482675821019099 0 0.021719701961365242 -0.0070431045606150974 0 0.021659444826074997 -0.0075034799947061399 0 0.021719701961365242 -0.0070431045606150974 0 0.021283278628056002 -0.0072183373801743911 0 0.021659444826074997 -0.0075034799947061399 0 0.021848746290912689 -0.006492896794029362 0 0.021719701961365242 -0.0070431045606150974 0 0.021283278628056002 -0.0072183373801743911 0 0.0038887443929633788 -0.0068411945792131784 0 0.003750605883867227 -0.0068637990976069532 0 0.0037160147727763283 -0.0066731054996108947 0 0.0039886027331635793 -0.0066904387474336739 0 0.0038887443929633788 -0.0068411945792131784 0 0.003750605883867227 -0.0068637990976069532 0 0.0023800526188082166 -0.007790423745752297 0 0.0037160147727763283 -0.0066731054996108947 0 0.0025874584726337004 -0.0067565563427878688 0 0.0031000873788165034 -0.0072271018382770186 0 0.0033388363984738845 -0.0070040987575801551 0 0.0022316113745921525 -0.0061574668431566447 0 0.0025874584726337004 -0.0067565563427878688 0 0.0030395412608709852 -0.0063406399254898318 0 0.0037160147727763283 -0.0066731054996108947 0 0.0025874584726337004 -0.0067565563427878688 0 0.0030395412608709852 -0.0063406399254898318 0 0.0022316113745921525 -0.0061574668431566447 0 0.0030395412608709852 -0.0063406399254898318 0 0.0029203156379356437 -0.0058921677910647756 0 0.00224678712882491 -0.0055862662762148803 0 0.0022316113745921525 -0.0061574668431566447 0 0.0029203156379356437 -0.0058921677910647756 0 0.0037160147727763283 -0.0066731054996108947 0 0.0030395412608709852 -0.0063406399254898318 0 0.003480710046117295 -0.0061341669107267578 0 0.0030395412608709852 -0.0063406399254898318 0 0.0029203156379356437 -0.0058921677910647756 0 0.003480710046117295 -0.0061341669107267578 0 0.0037160147727763283 -0.0066731054996108947 0 0.003480710046117295 -0.0061341669107267578 0 0.0039411024753536351 -0.0064499946393941883 0 0.0039717785546869331 -0.0057680344110300347 0 0.003480710046117295 -0.0061341669107267578 0 0.0039411024753536351 -0.0064499946393941883 0 0.012359298382778126 -0.0055135819710823413 0 0.012293340938465172 -0.006583525863246213 0 0.0042970298451317961 -0.0064572721396425605 0 0.003750605883867227 -0.0068637990976069532 0 0.0037160147727763283 -0.0066731054996108947 0 0.0042970298451317961 -0.0064572721396425605 0 0.0037160147727763283 -0.0066731054996108947 0 0.0039411024753536351 -0.0064499946393941883 0 0.0046239397209834636 -0.0059671050411333167 0 0.0039411024753536351 -0.0064499946393941883 0 0.0048608316682207083 -0.0062754279604807272 0 0.0053737338278863544 -0.006635136796114772 0 0.0039411024753536351 -0.0064499946393941883 0 0.0048608316682207083 -0.0062754279604807272 0 0.012359298382778126 -0.0055135819710823413 0 0.010302890174953099 -0.0057181600173561772 0 0.021005674089521614 -0.0082393480121241598 0 0.021982813799352401 -0.0086298514011561682 0 0.020353785276441629 -0.0091210708697605954 0 0.021005674089521614 -0.0082393480121241598 0 0.021982813799352401 -0.0086298514011561682 0 0.021706689223644032 -0.007678956385255415 0 0.021982813799352401 -0.0086298514011561682 0 0.020353785276441629 -0.0091210708697605954 0 0.021808977607716135 -0.0098984486141139721 0 0.020353785276441629 -0.0091210708697605954 0 0.019417155047505321 -0.0091126678914956044 0 0.018819607053322918 -0.010088235013308579 0 0.019417155047505321 -0.0091126678914956044 0 0.018701782824313763 -0.0091766599330609638 0 0.018819607053322918 -0.010088235013308579 0 0.018701782824313763 -0.0091766599330609638 0 0.019794498679689045 -0.0080322496970931731 0 0.018447758619558715 -0.0078660662426255582 0 0.019417155047505321 -0.0091126678914956044 0 0.018701782824313763 -0.0091766599330609638 0 0.019794498679689045 -0.0080322496970931731 0 0.020353785276441629 -0.0091210708697605954 0 0.019417155047505321 -0.0091126678914956044 0 0.019794498679689045 -0.0080322496970931731 0 0.021005674089521614 -0.0082393480121241598 0 0.020353785276441629 -0.0091210708697605954 0 0.019794498679689045 -0.0080322496970931731 0 0.019794498679689045 -0.0080322496970931731 0 0.021155726030297715 -0.0073479340103013652 0 0.020343454412048281 -0.0062947489693737811 0 0.019794498679689045 -0.0080322496970931731 0 0.019182922799936206 -0.0069306650391959632 0 0.020343454412048281 -0.0062947489693737811 0 0.019794498679689045 -0.0080322496970931731 0 0.019182922799936206 -0.0069306650391959632 0 0.018447758619558715 -0.0078660662426255582 0 0.021680760654097256 -0.0066767691895890649 0 0.021155726030297715 -0.0073479340103013652 0 0.020343454412048281 -0.0062947489693737811 0 0.021680760654097256 -0.0066767691895890649 0 0.021155726030297715 -0.0073479340103013652 0 0.021894578752451321 -0.0070638619476322577 0 0.021005674089521614 -0.0082393480121241598 0 0.021155726030297715 -0.0073479340103013652 0 0.021706689223644032 -0.007678956385255415 0 0.021005674089521614 -0.0082393480121241598 0 0.019794498679689045 -0.0080322496970931731 0 0.021155726030297715 -0.0073479340103013652 0 0.021982813799352401 -0.0086298514011561682 0 0.021706689223644032 -0.007678956385255415 0 0.022303135648647717 -0.0071575847618662149 0 0.021155726030297715 -0.0073479340103013652 0 0.021706689223644032 -0.007678956385255415 0 0.021894578752451321 -0.0070638619476322577 0 0.021706689223644032 -0.007678956385255415 0 0.022303135648647717 -0.0071575847618662149 0 0.021894578752451321 -0.0070638619476322577 0 0.022303135648647717 -0.0071575847618662149 0 0.021894578752451321 -0.0070638619476322577 0 0.022290004901774192 -0.0064924482916648551 0 0.021680760654097256 -0.0066767691895890649 0 0.021894578752451321 -0.0070638619476322577 0 0.022290004901774192 -0.0064924482916648551 0 0.021680760654097256 -0.0066767691895890649 0 0.022290004901774192 -0.0064924482916648551 0 0.022005593568182626 -0.0059675335913373113 0 0.022528462321358893 -0.0076876302857443232 0 0.022974326906682215 -0.0070827624788215443 0 0.022591462290338635 -0.0065499525954385062 0 0.022822251581959781 -0.0067067057751866235 0 0.022814891153263003 -0.0060165390823518107 0 0.021982813799352401 -0.0086298514011561682 0 0.023302935686819071 -0.0072181967201290212 0 0.02329525957898267 -0.0073831327572748068 0 0.021982813799352401 -0.0086298514011561682 0 0.022822251581959781 -0.0067067057751866235 0 0.023577111875879745 -0.0062879460876157037 0 0.021982813799352401 -0.0086298514011561682 0 0.022303135648647717 -0.0071575847618662149 0 0.022822251581959781 -0.0067067057751866235 0 0.022303135648647717 -0.0071575847618662149 0 0.022591462290338635 -0.0065499525954385062 0 0.022822251581959781 -0.0067067057751866235 0 0.022303135648647717 -0.0071575847618662149 0 0.022290004901774192 -0.0064924482916648551 0 0.022591462290338635 -0.0065499525954385062 0 0.022822251581959781 -0.0067067057751866235 0 0.023577111875879745 -0.0062879460876157037 0 0.02317071176469393 -0.0061475906789734535 0 0.022632354515119999 -0.0070072645100804172 0 0.022989919647198129 -0.0073091926915457156 0 0.023015154662967607 -0.0071341611158707262 0 0.02329525957898267 -0.0073831327572748068 0 0.022989919647198129 -0.0073091926915457156 0 0.023015154662967607 -0.0071341611158707262 0 0.023302935686819071 -0.0072181967201290212 0 0.02329525957898267 -0.0073831327572748068 0 0.022989919647198129 -0.0073091926915457156 0 0.02329525957898267 -0.0073831327572748068 0 0.023015154662967607 -0.0071341611158707262 0 0.023029237435781988 -0.0068680812786117759 0 0.022632354515119999 -0.0070072645100804172 0 0.023015154662967607 -0.0071341611158707262 0 0.023029237435781988 -0.0068680812786117759 0 0.022536043938497629 -0.006438440951003814 0 0.023029237435781988 -0.0068680812786117759 0 0.023265281050872461 -0.0063561579578984683 0 0.017985776639039264 -0.0078304042164341163 0 0.016176123784394678 -0.0076398821402753449 0 0.014629982131607022 -0.0065409142925288493 0 0.016176123784394678 -0.0076398821402753449 0 0.02329525957898267 -0.0073831327572748068 0 0.023029237435781988 -0.0068680812786117759 0 0.023265281050872461 -0.0063561579578984683 0 0.021982813799352401 -0.0086298514011561682 0 0.023623915037894037 -0.0095174895379552919 0 0.021808977607716135 -0.0098984486141139721 0 0.021982813799352401 -0.0086298514011561682 0 0.02329525957898267 -0.0073831327572748068 0 0.023623915037894037 -0.0095174895379552919 0 0.013592440527783916 -0.00896680391616465 0 0.010689329932846856 -0.011772446479127356 0 0.014629165678891236 -0.011402673157739985 0 0.013592440527783916 -0.00896680391616465 0 0.010689329932846856 -0.011772446479127356 0 0.010387549643682116 -0.0079875096509847889 0 0.016176123784394678 -0.0076398821402753449 0 0.017415283126017891 -0.0086028448688859407 0 0.0073674219359658091 -0.0053128276829248226 0 0.0093820591825611276 -0.0064181028649057644 0 0.0092561577240857663 -0.0045565303065657446 0 0.016176123784394678 -0.0076398821402753449 0 0.013422563889393328 -0.0058835476458441094 0 0.0079438878010239765 -0.0040093383777885403 0 0.0092561577240857663 -0.0045565303065657446 0 0.0092788462125100255 -0.0027902485334735084 0 0.0079438878010239765 -0.0040093383777885403 0 0.0073674219359658091 -0.0053128276829248226 0 0.0092561577240857663 -0.0045565303065657446 0 0.013592440527783916 -0.00896680391616465 0 0.010387549643682116 -0.0079875096509847889 0 0.012234987510817939 -0.0065108545000397084 0 0.010387549643682116 -0.0079875096509847889 0 0.012234987510817939 -0.0065108545000397084 0 0.01000553499238949 -0.004400262474092918 0 0.013592440527783916 -0.00896680391616465 0 0.012234987510817939 -0.0065108545000397084 0 0.014228153375899021 -0.006751822428474193 0 0.014228153375899021 -0.006751822428474193 0 0.016338873337425935 -0.0075027066325062909 0 0.015633877367972282 -0.008474708824699969 0 0.014228153375899021 -0.006751822428474193 0 0.016338873337425935 -0.0075027066325062909 0 0.01493246399715906 -0.0054351587098433653 0 0.016338873337425935 -0.0075027066325062909 0 0.015633877367972282 -0.008474708824699969 0 0.017202526736142407 -0.0092366281075737765 0 0.013592440527783916 -0.00896680391616465 0 0.014228153375899021 -0.006751822428474193 0 0.015633877367972282 -0.008474708824699969 0 0.020353785276441629 -0.0091210708697605954 0 0.021808977607716135 -0.0098984486141139721 0 0.018819607053322918 -0.010088235013308579 0 0.013592440527783916 -0.00896680391616465 0 0.016045286068190553 -0.0098070468069565743 0 0.014629165678891236 -0.011402673157739985 0 0.017415283126017891 -0.0086028448688859407 0 0.017833056565698092 -0.008855047332880216 0 0.013592440527783916 -0.00896680391616465 0 0.015633877367972282 -0.008474708824699969 0 0.016045286068190553 -0.0098070468069565743 0 0.016045286068190553 -0.0098070468069565743 0 0.014629165678891236 -0.011402673157739985 0 0.018819607053322918 -0.010088235013308579 0 0.015633877367972282 -0.008474708824699969 0 0.016045286068190553 -0.0098070468069565743 0 0.017202526736142407 -0.0092366281075737765 0 0.018701782824313763 -0.0091766599330609638 0 0.018819607053322918 -0.010088235013308579 0 0.018928805691472348 -0.00994956173682837 0 0.016045286068190553 -0.0098070468069565743 0 0.018819607053322918 -0.010088235013308579 0 0.017202526736142407 -0.0092366281075737765 0 0.018819607053322918 -0.010088235013308579 0 0.017202526736142407 -0.0092366281075737765 0 0.018928805691472348 -0.00994956173682837 0 -0.0020627464501180946 0.0052416669728546699 0 -0.0023587456475761405 0.0067743953536258924 0 -0.003039033733033848 0.0075205248871315807 0 0.0088560684909943562 -0.0010232232529862053 0 0.0072722764571041864 0.0012404001723329522 0 0.016338873337425935 -0.0075027066325062909 0 0.018928805691472348 -0.00994956173682837 0 0.016682981123638901 -0.0054689502898101353 0 -0.0020627464501180946 0.0052416669728546699 0 -0.0019572460444283631 0.0065117045543345549 0 -0.0023587456475761405 0.0067743953536258924 0 0.016338873337425935 -0.0075027066325062909 0 0.017202526736142407 -0.0092366281075737765 0 0.018928805691472348 -0.00994956173682837 0 -0.0019572460444283631 0.0065117045543345549 0 -0.0023587456475761405 0.0067743953536258924 0 -0.0023810643866560848 0.0078159347566373917 0 -0.0023810643866560848 0.0078159347566373917 0 -0.003039033733033848 0.0075205248871315807 0 -0.0035198745110925091 0.0098579173830527864 0 -0.0031155941978172181 0.0085103308046127236 0 -0.0026921587812136897 0.009162846662217854 0 -0.0017759159141965948 0.0084827551093572384 0 -0.0023587456475761405 0.0067743953536258924 0 -0.0023810643866560848 0.0078159347566373917 0 -0.003039033733033848 0.0075205248871315807 0 0.016338873337425935 -0.0075027066325062909 0 0.016682981123638901 -0.0054689502898101353 0 0.01493246399715906 -0.0054351587098433653 0 0.014228153375899021 -0.006751822428474193 0 0.01493246399715906 -0.0054351587098433653 0 0.013015988654160184 -0.0045098362782852956 0 0.0144974469169346 -0.0036158630514929865 0 0.013015988654160184 -0.0045098362782852956 0 0.013178398906999948 -0.0029924287673532071 0 0.01493246399715906 -0.0054351587098433653 0 0.0144974469169346 -0.0036158630514929865 0 0.013015988654160184 -0.0045098362782852956 0 0.016682981123638901 -0.0054689502898101353 0 0.01493246399715906 -0.0054351587098433653 0 0.0144974469169346 -0.0036158630514929865 0 0.016682981123638901 -0.0054689502898101353 0 0.0144974469169346 -0.0036158630514929865 0 0.013684229554407058 -0.0014545812891436707 0 -0.003039033733033848 0.0075205248871315807 0 -0.0035198745110925091 0.0098579173830527864 0 -0.0036781315159731365 0.0099634961641763883 0 -0.0031155941978172181 0.0085103308046127236 0 -0.0035198745110925091 0.0098579173830527864 0 -0.0032257472709024074 0.009610489807294403 0 -0.0024724729015209645 0.0078689209201665816 0 -0.0031077444944049527 0.0086774691360371678 0 0.0072722764571041864 0.0012404001723329522 0 0.0057755320413259894 0.0040916466380621673 0 0.0144974469169346 -0.0036158630514929865 0 0.013558076484959308 -0.0025189579929109835 0 0.013684229554407058 -0.0014545812891436707 0 0.0144974469169346 -0.0036158630514929865 0 0.013558076484959308 -0.0025189579929109835 0 0.013178398906999948 -0.0029924287673532071 0 0.013558076484959308 -0.0025189579929109835 0 0.013684229554407058 -0.0014545812891436707 0 0.012895531438769731 -0.0020267072291833164 0 -0.0035198745110925091 0.0098579173830527864 0 -0.0033412416064006207 0.009980220393373233 0 -0.0034944837604088783 0.010057757170347639 0 -0.0035198745110925091 0.0098579173830527864 0 -0.0036781315159731365 0.0099634961641763883 0 -0.0034944837604088783 0.010057757170347639 0 -0.0035198745110925091 0.0098579173830527864 0 -0.0033412416064006207 0.009980220393373233 0 -0.0032257472709024074 0.009610489807294403 0 -0.0033412416064006207 0.009980220393373233 0 -0.0032257472709024074 0.009610489807294403 0 -0.0031178784145743299 0.010047720846029751 0 -0.0031155941978172181 0.0085103308046127236 0 -0.0032257472709024074 0.009610489807294403 0 -0.0030302416963665394 0.0095137316888928708 0 -0.0032257472709024074 0.009610489807294403 0 -0.0030302416963665394 0.0095137316888928708 0 -0.0031178784145743299 0.010047720846029751 0 -0.0026907726319941772 0.01007095261329511 0 -0.0030302416963665394 0.0095137316888928708 0 -0.0031178784145743299 0.010047720846029751 0 -0.0026907726319941772 0.01007095261329511 0 -0.0026921587812136897 0.009162846662217854 0 -0.0030302416963665394 0.0095137316888928708 0 -0.0031155941978172181 0.0085103308046127236 0 -0.0026921587812136897 0.009162846662217854 0 -0.0030302416963665394 0.0095137316888928708 0 0.013422563889393328 -0.0058835476458441094 0 0.012018299445283607 -0.0038368469604084941 0 0.0074173993353745813 -0.0031753755004020673 0 0.0079438878010239765 -0.0040093383777885403 0 0.0092788462125100255 -0.0027902485334735084 0 0.012234987510817939 -0.0065108545000397084 0 0.01000553499238949 -0.004400262474092918 0 0.013015988654160184 -0.0045098362782852956 0 0.01000553499238949 -0.004400262474092918 0 0.013015988654160184 -0.0045098362782852956 0 0.01157130501369313 -0.0025963519559070798 0 0.012234987510817939 -0.0065108545000397084 0 0.014228153375899021 -0.006751822428474193 0 0.013015988654160184 -0.0045098362782852956 0 0.013178398906999948 -0.0029924287673532071 0 0.012895531438769731 -0.0020267072291833164 0 0.01157130501369313 -0.0025963519559070798 0 0.013015988654160184 -0.0045098362782852956 0 0.013178398906999948 -0.0029924287673532071 0 0.01157130501369313 -0.0025963519559070798 0 0.013558076484959308 -0.0025189579929109835 0 0.013178398906999948 -0.0029924287673532071 0 0.012895531438769731 -0.0020267072291833164 0 0.013684229554407058 -0.0014545812891436707 0 0.01275865490538605 -0.0014635178219596688 0 0.011966739599210246 -0.00064135915365021103 0 0.012895531438769731 -0.0020267072291833164 0 0.012153914030433441 -0.0015698072356788713 0 0.01157130501369313 -0.0025963519559070798 0 0.013684229554407058 -0.0014545812891436707 0 0.012895531438769731 -0.0020267072291833164 0 0.01275865490538605 -0.0014635178219596688 0 0.012895531438769731 -0.0020267072291833164 0 0.01275865490538605 -0.0014635178219596688 0 0.012153914030433441 -0.0015698072356788713 0 0.01275865490538605 -0.0014635178219596688 0 0.012153914030433441 -0.0015698072356788713 0 0.011966739599210246 -0.00064135915365021103 0 0.010988905383392545 -0.0011915410214388084 0 0.01157130501369313 -0.0025963519559070798 0 0.0095333687231686018 -0.00095060526884135107 0 0.012153914030433441 -0.0015698072356788713 0 0.010988905383392545 -0.0011915410214388084 0 0.01157130501369313 -0.0025963519559070798 0 0.01000553499238949 -0.004400262474092918 0 0.01157130501369313 -0.0025963519559070798 0 0.0095333687231686018 -0.00095060526884135107 0 0.0074862688328544268 -0.0019113068459880394 0 0.0092788462125100255 -0.0027902485334735084 0 0.0095333687231686018 -0.00095060526884135107 0 0.012018299445283607 -0.0038368469604084941 0 0.011570654420857581 -0.0027284070855847211 0 0.0079669515466092161 -0.0003667145055595052 0 0.0092398993464951826 0.0007385404531079009 0 0.0095333687231686018 -0.00095060526884135107 0 0.010988905383392545 -0.0011915410214388084 0 0.0095333687231686018 -0.00095060526884135107 0 0.010212983929720696 0.00013392480795447578 0 0.0092398993464951826 0.0007385404531079009 0 0.010212983929720696 0.00013392480795447578 0 0.010671571076569623 0.0012288275754737683 0 0.0092398993464951826 0.0007385404531079009 0 0.0095333687231686018 -0.00095060526884135107 0 0.010212983929720696 0.00013392480795447578 0 -0.0036781315159731365 0.0099634961641763883 0 -0.0035290327220752816 0.010545679533597054 0 -0.0034913801247219533 0.010240784178626259 0 0.013684229554407058 -0.0014545812891436707 0 0.011966739599210246 -0.00064135915365021103 0 0.010986882293162801 0.0016539691701677264 0 0.011082291180512641 0.00037771477460834841 0 0.011966739599210246 -0.00064135915365021103 0 0.010986882293162801 0.0016539691701677264 0 0.0057755320413259894 0.0040916466380621673 0 0.0046401534526923673 0.0071666431572467038 0 0.010212983929720696 0.00013392480795447578 0 0.011082291180512641 0.00037771477460834841 0 0.010671571076569623 0.0012288275754737683 0 0.010212983929720696 0.00013392480795447578 0 0.011082291180512641 0.00037771477460834841 0 0.011138466857961231 -0.00038846221211231909 0 0.010988905383392545 -0.0011915410214388084 0 0.010212983929720696 0.00013392480795447578 0 0.011138466857961231 -0.00038846221211231909 0 0.011082291180512641 0.00037771477460834841 0 0.011138466857961231 -0.00038846221211231909 0 0.011966739599210246 -0.00064135915365021103 0 0.012153914030433441 -0.0015698072356788713 0 0.010988905383392545 -0.0011915410214388084 0 0.011966739599210246 -0.00064135915365021103 0 0.010988905383392545 -0.0011915410214388084 0 0.011138466857961231 -0.00038846221211231909 0 0.011966739599210246 -0.00064135915365021103 0 -0.0035290327220752816 0.010545679533597054 0 -0.0033793721075595648 0.010395727684700484 0 -0.0034913801247219533 0.010240784178626259 0 -0.0035290327220752816 0.010545679533597054 0 -0.0033793721075595648 0.010395727684700484 0 -0.0032241103900826108 0.010569183449615077 0 0.011082291180512641 0.00037771477460834841 0 0.010986882293162801 0.0016539691701677264 0 0.010671571076569623 0.0012288275754737683 0 0.01085310217146384 0.0014614692512540642 0 0.010671571076569623 0.0012288275754737683 0 0.0097116803607117837 0.0020096663473261308 0 0.0046401534526923673 0.0071666431572467038 0 0.0046693981582338825 0.0071322167052910871 0 0.0054606624224890514 0.0070277291120653118 0 0.0046401534526923673 0.0071666431572467038 0 0.0095934624010764885 0.0031280713924071611 0 0.01085310217146384 0.0014614692512540642 0 0.0097116803607117837 0.0020096663473261308 0 0.0092398993464951826 0.0007385404531079009 0 0.010671571076569623 0.0012288275754737683 0 0.0097116803607117837 0.0020096663473261308 0 0.0081403225467196506 0.0026058212108825687 0 0.0080127190704895133 0.0011831598498303637 0 0.0097116803607117837 0.0020096663473261308 0 0.0080127190704895133 0.0011831598498303637 0 0.0092398993464951826 0.0007385404531079009 0 0.0097116803607117837 0.0020096663473261308 0 -0.0030938432981801769 0.010317414780645412 0 -0.0028424972296964826 0.010438638050566152 0 -0.0031070304727157049 0.01050637118921019 0 -0.0026907726319941772 0.01007095261329511 0 -0.0028424972296964826 0.010438638050566152 0 -0.0031178784145743299 0.010047720846029751 0 -0.0030938432981801769 0.010317414780645412 0 -0.0028424972296964826 0.010438638050566152 0 -0.0031178784145743299 0.010047720846029751 0 -0.0033412416064006207 0.009980220393373233 0 -0.0031178784145743299 0.010047720846029751 0 -0.0033192590887464977 0.010226997028688673 0 -0.0030938432981801769 0.010317414780645412 0 -0.0031178784145743299 0.010047720846029751 0 -0.0033192590887464977 0.010226997028688673 0 -0.0033412416064006207 0.009980220393373233 0 -0.0033192590887464977 0.010226997028688673 0 -0.0034944837604088783 0.010057757170347639 0 -0.0036781315159731365 0.0099634961641763883 0 -0.0034944837604088783 0.010057757170347639 0 -0.0034913801247219533 0.010240784178626259 0 -0.0033192590887464977 0.010226997028688673 0 -0.0034944837604088783 0.010057757170347639 0 -0.0034913801247219533 0.010240784178626259 0 -0.0033192590887464977 0.010226997028688673 0 -0.0033793721075595648 0.010395727684700484 0 -0.0031070304727157049 0.01050637118921019 0 -0.0033192590887464977 0.010226997028688673 0 -0.0033793721075595648 0.010395727684700484 0 -0.0034913801247219533 0.010240784178626259 0 -0.0030938432981801769 0.010317414780645412 0 -0.0033192590887464977 0.010226997028688673 0 -0.0031070304727157049 0.01050637118921019 0 -0.0028817239288496011 0.010784253755657483 0 -0.0031070304727157049 0.01050637118921019 0 -0.0032241103900826108 0.010569183449615077 0 -0.0028817239288496011 0.010784253755657483 0 -0.0035290327220752816 0.010545679533597054 0 -0.0032241103900826108 0.010569183449615077 0 -0.0028817239288496011 0.010784253755657483 0 -0.0031070304727157049 0.01050637118921019 0 -0.0027797476746483254 0.010673079014569604 0 -0.0033793721075595648 0.010395727684700484 0 -0.0031070304727157049 0.01050637118921019 0 -0.0032241103900826108 0.010569183449615077 0 -0.0028424972296964826 0.010438638050566152 0 -0.0031070304727157049 0.01050637118921019 0 -0.0027797476746483254 0.010673079014569604 0 -0.0028424972296964826 0.010438638050566152 0 -0.0027797476746483254 0.010673079014569604 0 -0.0027196455153964557 0.010803521414477303 0 -0.0028424972296964826 0.010438638050566152 0 -0.0027196455153964557 0.010803521414477303 0 -0.0026959600276328334 0.010468864465192967 0 -0.0026907726319941772 0.01007095261329511 0 -0.0028424972296964826 0.010438638050566152 0 -0.0026959600276328334 0.010468864465192967 0 -0.0026959600276328334 0.010468864465192967 0 -0.0024779384573407328 0.010961322620255873 0 -0.0021249171215834955 0.010510899168190934 0 -0.0027186194146169621 0.010970765901665271 0 -0.0027196455153964557 0.010803521414477303 0 -0.0024779384573407328 0.010961322620255873 0 -0.0027196455153964557 0.010803521414477303 0 -0.0026959600276328334 0.010468864465192967 0 -0.0024779384573407328 0.010961322620255873 0 -0.0024779384573407328 0.010961322620255873 0 -0.0023485189427840374 0.011167936290209138 0 -0.0014358820373581828 0.011615854938738561 0 -0.0027186194146169621 0.010970765901665271 0 -0.0024779384573407328 0.010961322620255873 0 -0.0023485189427840374 0.011167936290209138 0 -0.0023485189427840374 0.011167936290209138 0 -0.0024666755630174809 0.011180378110476846 0 -0.0014358820373581828 0.011615854938738561 0 -0.0025962424163115234 0.011064283914473009 0 -0.0023485189427840374 0.011167936290209138 0 -0.0024666755630174809 0.011180378110476846 0 -0.00093132494494867679 0.012627807234840274 0 -0.0010853996676477172 0.01236018208247047 0 -5.6196961029132401e-05 0.014734783789346055 0 -0.0014358820373581828 0.011615854938738561 0 0.00095628050550454642 0.012524984992100729 0 -0.0014358820373581828 0.011615854938738561 0 0.00095628050550454642 0.012524984992100729 0 0.00065300011582873738 0.010272493112076163 0 -0.0014358820373581828 0.011615854938738561 0 -0.0021249171215834955 0.010510899168190934 0 0.00065300011582873738 0.010272493112076163 0 -0.0024779384573407328 0.010961322620255873 0 -0.0014358820373581828 0.011615854938738561 0 -0.0021249171215834955 0.010510899168190934 0 -0.0021249171215834955 0.010510899168190934 0 -0.0010733278225804799 0.0085715131376635709 0 -0.0027120349517224655 0.0099283192869397061 0 0.0010390012362489643 0.0085126624733415836 0 -0.00090208077627776211 0.0092657652808565989 0 -0.0021249171215834955 0.010510899168190934 0 -0.0010733278225804799 0.0085715131376635709 0 0.00065300011582873738 0.010272493112076163 0 0.0024282148686655693 0.0084216309724207076 0 0.0048144625817903904 0.00747169228504381 0 0.0032098724301987394 0.0062294617458028582 0 0.0024282148686655693 0.0084216309724207076 0 -0.00011518027169836352 0.0093684106259502419 0 0.00098870249428971435 0.0065623894122292265 0 -0.00058115811415592714 0.0076702228956087486 0 -0.0017759159141965948 0.0084827551093572384 0 -0.00011518027169836352 0.0093684106259502419 0 -0.00058115811415592714 0.0076702228956087486 0 -0.00011518027169836352 0.0093684106259502419 0 0.00098870249428971435 0.0065623894122292265 0 -0.0031155941978172181 0.0085103308046127236 0 -0.0017759159141965948 0.0084827551093572384 0 -0.0014314333740192717 0.0062379576630127416 0 -0.00058115811415592714 0.0076702228956087486 0 -0.0017759159141965948 0.0084827551093572384 0 -0.0014314333740192717 0.0062379576630127416 0 -0.0026907726319941772 0.01007095261329511 0 -0.0026921587812136897 0.009162846662217854 0 -0.0017759159141965948 0.0084827551093572384 0 -0.0026907726319941772 0.01007095261329511 0 -0.0017759159141965948 0.0084827551093572384 0 -0.00011518027169836352 0.0093684106259502419 0 -0.0026907726319941772 0.01007095261329511 0 -0.0026959600276328334 0.010468864465192967 0 -0.0027120349517224655 0.0099283192869397061 0 -0.0017630068521800361 0.0095917527480282056 0 -0.00090208077627776211 0.0092657652808565989 0 -0.0026959600276328334 0.010468864465192967 0 -0.0021249171215834955 0.010510899168190934 0 -0.0027120349517224655 0.0099283192869397061 0 0.010629303488630641 0.010797989721219379 0 0.0084758612144141977 0.013669819604261835 0 0.0083044880653556051 0.0097141401735618815 0 0.0081324745194351986 0.015326210340921874 0 0.0096752488203206751 0.015043205339010171 0 0.0084758612144141977 0.013669819604261835 0 0.0084758612144141977 0.013669819604261835 0 0.0060194971201181086 0.01207013953909376 0 0.0050212551922938792 0.015356752508052719 0 0.005588203757170106 0.012837477529054217 0 0.0036863295521929072 0.013095150515040004 0 0.0081324745194351986 0.015326210340921874 0 0.0084758612144141977 0.013669819604261835 0 0.005767379117442642 0.015014800291432272 0 0.0084758612144141977 0.013669819604261835 0 0.0060194971201181086 0.01207013953909376 0 0.0083044880653556051 0.0097141401735618815 0 0.0060194971201181086 0.01207013953909376 0 0.0032819534571035141 0.012256520514453372 0 0.0048583422591570863 0.0096453203232400204 0 0.0060194971201181086 0.01207013953909376 0 0.0032819534571035141 0.012256520514453372 0 0.0050212551922938792 0.015356752508052719 0 0.0032819534571035141 0.012256520514453372 0 0.0050212551922938792 0.015356752508052719 0 0.0021374647567487283 0.014410333559793776 0 0.0012664153043110697 0.017179993640615666 0 -5.6196961029132401e-05 0.014734783789346055 0 0.0021374647567487283 0.014410333559793776 0 -5.6196961029132401e-05 0.014734783789346055 0 0.0021374647567487283 0.014410333559793776 0 0.00095628050550454642 0.012524984992100729 0 0.0032819534571035141 0.012256520514453372 0 0.00095628050550454642 0.012524984992100729 0 0.00065300011582873738 0.010272493112076163 0 0.0032819534571035141 0.012256520514453372 0 0.0021374647567487283 0.014410333559793776 0 0.00095628050550454642 0.012524984992100729 0 0.00065300011582873738 0.010272493112076163 0 0.0025531858229982034 0.0072417204153088508 0 0.0048583422591570863 0.0096453203232400204 0 0.0010390012362489643 0.0085126624733415836 0 0.0033891195886008138 0.0076796674891640212 0 -0.0010733278225804799 0.0085715131376635709 0 0.00065300011582873738 0.010272493112076163 0 0.0025531858229982034 0.0072417204153088508 0 0.0033891195886008138 0.0076796674891640212 0 0.0048180552789299034 0.0072253563520602096 0 0.0025531858229982034 0.0072417204153088508 0 0.0048583422591570863 0.0096453203232400204 0 0.0069025809284352334 0.0066590602501907983 0 0.0032819534571035141 0.012256520514453372 0 0.00065300011582873738 0.010272493112076163 0 0.0048583422591570863 0.0096453203232400204 0 0.0060194971201181086 0.01207013953909376 0 0.0048583422591570863 0.0096453203232400204 0 0.0083044880653556051 0.0097141401735618815 0 0.0048583422591570863 0.0096453203232400204 0 0.0083044880653556051 0.0097141401735618815 0 0.0069025809284352334 0.0066590602501907983 0 0.011013920018243887 0.0086067581580623106 0 0.0083044880653556051 0.0097141401735618815 0 0.0096779685863858135 0.0068191050029993948 0 0.0083044880653556051 0.0097141401735618815 0 0.0096779685863858135 0.0068191050029993948 0 0.0069025809284352334 0.0066590602501907983 0 0.0088668231440676027 0.0047179244457374462 0 0.0069025809284352334 0.0066590602501907983 0 0.0069516093493128123 0.0036457221764580206 0 0.010708306296532579 0.0051192365219320368 0 0.0088668231440676027 0.0047179244457374462 0 0.0096779685863858135 0.0068191050029993948 0 0.010708306296532579 0.0051192365219320368 0 0.010396611861331295 0.0035582152987351456 0 0.0088668231440676027 0.0047179244457374462 0 0.0088668231440676027 0.0047179244457374462 0 0.0096779685863858135 0.0068191050029993948 0 0.0069025809284352334 0.0066590602501907983 0 0.0069025809284352334 0.0066590602501907983 0 0.005447840383524416 0.005375314397542871 0 0.0069516093493128123 0.0036457221764580206 0 0.005447840383524416 0.005375314397542871 0 0.0052720076063967371 0.003549470694394782 0 0.0069516093493128123 0.0036457221764580206 0 0.0048144625817903904 0.00747169228504381 0 0.0069025809284352334 0.0066590602501907983 0 0.005447840383524416 0.005375314397542871 0 0.0048144625817903904 0.00747169228504381 0 0.005447840383524416 0.005375314397542871 0 0.0032098724301987394 0.0062294617458028582 0 0.005447840383524416 0.005375314397542871 0 0.0038717490324126202 0.0042745964481349834 0 0.0032098724301987394 0.0062294617458028582 0 0.005447840383524416 0.005375314397542871 0 0.0038717490324126202 0.0042745964481349834 0 0.0052720076063967371 0.003549470694394782 0 0.0038717490324126202 0.0042745964481349834 0 0.0041181388471319925 0.0025321963300026415 0 0.0052720076063967371 0.003549470694394782 0 0.0041181388471319925 0.0025321963300026415 0 0.0029464633318619605 0.0017575790319775671 0 0.0042353509642765984 0.00075481682362061979 0 0.0041181388471319925 0.0025321963300026415 0 0.006007877353063777 0.0018573361838662105 0 0.0042353509642765984 0.00075481682362061979 0 0.006007877353063777 0.0018573361838662105 0 0.0056685281196042327 0.00039663297173920007 0 0.0042353509642765984 0.00075481682362061979 0 0.006007877353063777 0.0018573361838662105 0 0.0076302097537177078 0.00035717787364702584 0 0.0056685281196042327 0.00039663297173920007 0 0.0041181388471319925 0.0025321963300026415 0 0.006007877353063777 0.0018573361838662105 0 0.0052720076063967371 0.003549470694394782 0 0.006007877353063777 0.0018573361838662105 0 0.0052720076063967371 0.003549470694394782 0 0.0069516093493128123 0.0036457221764580206 0 0.006007877353063777 0.0018573361838662105 0 0.0069516093493128123 0.0036457221764580206 0 0.0087403402872923714 0.0022325219531669194 0 0.0088668231440676027 0.0047179244457374462 0 0.0069516093493128123 0.0036457221764580206 0 0.0087403402872923714 0.0022325219531669194 0 0.006007877353063777 0.0018573361838662105 0 0.0087403402872923714 0.0022325219531669194 0 0.0076302097537177078 0.00035717787364702584 0 0.010847072295361556 0.0017120712660286964 0 0.010232898840175452 -0.00024013586279907266 0 0.0087403402872923714 0.0022325219531669194 0 0.010396611861331295 0.0035582152987351456 0 0.0088668231440676027 0.0047179244457374462 0 0.0087403402872923714 0.0022325219531669194 0 0.010847072295361556 0.0017120712660286964 0 0.010396611861331295 0.0035582152987351456 0 0.0087403402872923714 0.0022325219531669194 0 0.00054477410812045284 0.0041627505987803298 0 -0.00086191400189705757 0.0045784144568058998 0 -0.00095053048413036296 0.0059504448597523943 0 0.00054477410812045284 0.0041627505987803298 0 -0.0014314333740192717 0.0062379576630127416 0 0.00098870249428971435 0.0065623894122292265 0 -0.00038847566058539774 0.0054192881655977312 0 -0.0012062784437813551 0.0063503684619401618 0 -0.0020627464501180946 0.0052416669728546699 0 -0.00086191400189705757 0.0045784144568058998 0 -0.0010497082795761028 0.0041136116950537443 0 -0.0020627464501180946 0.0052416669728546699 0 -0.0013734265373046004 0.0054076163278251902 0 -0.0016274852797563276 0.0058551758718514207 0 -0.0020627464501180946 0.0052416669728546699 0 -0.00086191400189705757 0.0045784144568058998 0 -0.0013734265373046004 0.0054076163278251902 0 -0.00086191400189705757 0.0045784144568058998 0 -0.0013734265373046004 0.0054076163278251902 0 -0.00095053048413036296 0.0059504448597523943 0 -0.0019572460444283631 0.0065117045543345549 0 -0.0023810643866560848 0.0078159347566373917 0 -0.00095053048413036296 0.0059504448597523943 0 -0.0024724729015209645 0.0078689209201665816 0 -0.0012062784437813551 0.0063503684619401618 0 -0.0019572460444283631 0.0065117045543345549 0 -0.00095053048413036296 0.0059504448597523943 0 -0.0016274852797563276 0.0058551758718514207 0 -0.0013734265373046004 0.0054076163278251902 0 -0.00095053048413036296 0.0059504448597523943 0 -0.0016274852797563276 0.0058551758718514207 0 -0.0020627464501180946 0.0052416669728546699 0 -0.0019572460444283631 0.0065117045543345549 0 -0.0016274852797563276 0.0058551758718514207 0 -0.00058115811415592714 0.0076702228956087486 0 -0.0014314333740192717 0.0062379576630127416 0 0.00098870249428971435 0.0065623894122292265 0 0.0024282148686655693 0.0084216309724207076 0 0.00098870249428971435 0.0065623894122292265 0 0.0032098724301987394 0.0062294617458028582 0 0.00098870249428971435 0.0065623894122292265 0 0.0032098724301987394 0.0062294617458028582 0 0.0020879688484221897 0.0045063079935842463 0 0.0038717490324126202 0.0042745964481349834 0 0.0032098724301987394 0.0062294617458028582 0 0.0020879688484221897 0.0045063079935842463 0 0.00054477410812045284 0.0041627505987803298 0 0.00098870249428971435 0.0065623894122292265 0 0.0020879688484221897 0.0045063079935842463 0 0.00054477410812045284 0.0041627505987803298 0 0.0020879688484221897 0.0045063079935842463 0 0.0010143694923247504 0.0030353754138700783 0 0.0020879688484221897 0.0045063079935842463 0 0.0010143694923247504 0.0030353754138700783 0 0.0026062750411112411 0.0029286206209072556 0 0.0010143694923247504 0.0030353754138700783 0 0.0026062750411112411 0.0029286206209072556 0 0.0018470770822988155 0.0019758626520142877 0 0.0038717490324126202 0.0042745964481349834 0 0.0020879688484221897 0.0045063079935842463 0 0.0026062750411112411 0.0029286206209072556 0 0.0038717490324126202 0.0042745964481349834 0 0.0041181388471319925 0.0025321963300026415 0 0.0026062750411112411 0.0029286206209072556 0 0.0029464633318619605 0.0017575790319775671 0 0.0020057769134439007 0.00073718160613108863 0 0.0042353509642765984 0.00075481682362061979 0 0.0041181388471319925 0.0025321963300026415 0 0.0026062750411112411 0.0029286206209072556 0 0.0029464633318619605 0.0017575790319775671 0 0.0026062750411112411 0.0029286206209072556 0 0.0029464633318619605 0.0017575790319775671 0 0.0018470770822988155 0.0019758626520142877 0 0.0029464633318619605 0.0017575790319775671 0 0.0018470770822988155 0.0019758626520142877 0 0.0020057769134439007 0.00073718160613108863 0 0.0010143694923247504 0.0030353754138700783 0 0.0018470770822988155 0.0019758626520142877 0 0.00075484681651345081 0.0016848291089339551 0 0.0048484986405526202 0.00093919720621425673 0 0.0094342334964405486 -0.0015635754718525802 0 0.0018470770822988155 0.0019758626520142877 0 0.00075484681651345081 0.0016848291089339551 0 0.0020057769134439007 0.00073718160613108863 0 0.017503197437719074 -0.0086482874835702907 0 0.017263321354731912 -0.0069286305870724227 0 0.015729985573664357 -0.0057696109998010845 0 0.01038043403720343 -0.0017465461404065135 0 0.013840884887843519 -0.0026604278586700647 0 0.0010143694923247504 0.0030353754138700783 0 0.00075484681651345081 0.0016848291089339551 0 -0.00041260662813231541 0.0025901919256163925 0 -0.00041260662813231541 0.0025901919256163925 0 -0.0010296068270837368 0.0030131988217471464 0 0.00036510590434841951 0.00047199484864006598 0 0.001018846601367923 0.0016133077248701832 0 -0.00041260662813231541 0.0025901919256163925 0 0.00036510590434841951 0.00047199484864006598 0 0.0048484986405526202 0.00093919720621425673 0 0.0034629349829858871 0.0016923382988504711 0 0.00054477410812045284 0.0041627505987803298 0 -0.00086191400189705757 0.0045784144568058998 0 -0.00022073681007865487 0.0036182120545040011 0 0.0010143694923247504 0.0030353754138700783 0 -0.00041260662813231541 0.0025901919256163925 0 -0.00022073681007865487 0.0036182120545040011 0 -0.00041260662813231541 0.0025901919256163925 0 -0.00022073681007865487 0.0036182120545040011 0 -0.0010296068270837368 0.0030131988217471464 0 -0.00086191400189705757 0.0045784144568058998 0 -0.00022073681007865487 0.0036182120545040011 0 -0.0010497082795761028 0.0041136116950537443 0 0.00054477410812045284 0.0041627505987803298 0 0.0010143694923247504 0.0030353754138700783 0 -0.00022073681007865487 0.0036182120545040011 0 0.0088560684909943562 -0.0010232232529862053 0 0.01038043403720343 -0.0017465461404065135 0 0.018701782824313763 -0.0091766599330609638 0 0.018928805691472348 -0.00994956173682837 0 0.017503197437719074 -0.0086482874835702907 0 -0.0020627464501180946 0.0052416669728546699 0 -0.0010497082795761028 0.0041136116950537443 0 -0.0010296068270837368 0.0030131988217471464 0 -0.00022073681007865487 0.0036182120545040011 0 -0.0010497082795761028 0.0041136116950537443 0 -0.0010296068270837368 0.0030131988217471464 0 0.018701782824313763 -0.0091766599330609638 0 0.017503197437719074 -0.0086482874835702907 0 0.018447758619558715 -0.0078660662426255582 0 0.017503197437719074 -0.0086482874835702907 0 0.018447758619558715 -0.0078660662426255582 0 0.017263321354731912 -0.0069286305870724227 0 0.019182922799936206 -0.0069306650391959632 0 0.018460687873809441 -0.0068037931821448216 0 0.018953735276573114 -0.0054738326440475415 0 0.017263321354731912 -0.0069286305870724227 0 0.018460687873809441 -0.0068037931821448216 0 0.018953735276573114 -0.0054738326440475415 0 0.019182922799936206 -0.0069306650391959632 0 0.018447758619558715 -0.0078660662426255582 0 0.018460687873809441 -0.0068037931821448216 0 0.018447758619558715 -0.0078660662426255582 0 0.017263321354731912 -0.0069286305870724227 0 0.018460687873809441 -0.0068037931821448216 0 0.017263321354731912 -0.0069286305870724227 0 0.015729985573664357 -0.0057696109998010845 0 0.018953735276573114 -0.0054738326440475415 0 0.013840884887843519 -0.0026604278586700647 0 0.019624992039379317 -0.0037592450832100751 0 0.022669516431725475 -0.0049940542366212126 0 0.022702130266317753 -0.0049437464170069617 0 0.022675317304685139 -0.0050528984603533588 0 0.022689286723158595 -0.0050571360300184194 0 0.022669516431725475 -0.0049940542366212126 0 0.022675317304685139 -0.0050528984603533588 0 0.022669516431725475 -0.0049940542366212126 0 0.022690544611226656 -0.0049785621731755422 0 0.022650357235015448 -0.0049266410523188349 0 0.022689286723158595 -0.0050571360300184194 0 0.022690544611226656 -0.0049785621731755422 0 0.022745729643070027 -0.0049897894315068169 0 0.022689286723158595 -0.0050571360300184194 0 0.022669516431725475 -0.0049940542366212126 0 0.022690544611226656 -0.0049785621731755422 0 0.022669516431725475 -0.0049940542366212126 0 0.022865190724323858 -0.0049983804024491185 0 0.022618426156344174 -0.0049357597014128901 0 0.023265714053938444 -0.0050712998336998145 0 0.023338185066019108 -0.0050675509890681265 0 0.022669516431725475 -0.0049940542366212126 0 0.022702130266317753 -0.0049437464170069617 0 0.022865190724323858 -0.0049983804024491185 0 0.022702130266317753 -0.0049437464170069617 0 0.022687957279969095 -0.0048311339889047528 0 0.022675317304685139 -0.0050528984603533588 0 0.022702130266317753 -0.0049437464170069617 0 0.022687957279969095 -0.0048311339889047528 0 0.022865190724323858 -0.0049983804024491185 0 0.022384967767233852 -0.0038543943472035928 0 0.023428769794765825 -0.00378233592454603 0 0.023552703715937099 -0.004544756047055099 0 0.001018846601367923 0.0016133077248701832 0 0.00036510590434841951 0.00047199484864006598 0 0.0024838107168396908 0.0006090486316807902 0 0.013840884887843519 -0.0026604278586700647 0 0.0094342334964405486 -0.0015635754718525802 0 0.0094342334964405486 -0.0015635754718525802 0 0.006216497795887432 -0.0012822592969877022 0 0.0017264515077251969 0.00056258148242229963 0 0.0042353509642765984 0.00075481682362061979 0 0.0042545512017041686 -0.0012086909290537518 0 0.023428769794765825 -0.00378233592454603 0 0.023552703715937099 -0.004544756047055099 0 0.024619974453756611 -0.0047403463697253722 0 0.0094342334964405486 -0.0015635754718525802 0 0.013603785620719849 -0.0031743638402707765 0 0.023552703715937099 -0.004544756047055099 0 0.024111174569246097 -0.0051733884718646239 0 0.024619974453756611 -0.0047403463697253722 0 0.023552703715937099 -0.004544756047055099 0 0.023129046040154914 -0.0051439288997729843 0 0.024111174569246097 -0.0051733884718646239 0 0.013840884887843519 -0.0026604278586700647 0 0.017628119885756136 -0.0056659650318278583 0 0.022687957279969095 -0.0048311339889047528 0 0.022865190724323858 -0.0049983804024491185 0 0.023129046040154914 -0.0051439288997729843 0 0.022865190724323858 -0.0049983804024491185 0 0.023129046040154914 -0.0051439288997729843 0 0.02271407307071523 -0.005425618982335928 0 0.022384967767233852 -0.0038543943472035928 0 0.023552703715937099 -0.004544756047055099 0 0.023129046040154914 -0.0051439288997729843 0 0.023129046040154914 -0.0051439288997729843 0 0.023026369298857218 -0.0056576732123462667 0 0.02271407307071523 -0.005425618982335928 0 0.023129046040154914 -0.0051439288997729843 0 0.023026369298857218 -0.0056576732123462667 0 0.023573616462170932 -0.005522566856953395 0 0.023026369298857218 -0.0056576732123462667 0 0.023573616462170932 -0.005522566856953395 0 0.023223358745758742 -0.0060425765606318717 0 0.023129046040154914 -0.0051439288997729843 0 0.024111174569246097 -0.0051733884718646239 0 0.023573616462170932 -0.005522566856953395 0 0.023573616462170932 -0.005522566856953395 0 0.024053055172238578 -0.0058660410968518874 0 0.023223358745758742 -0.0060425765606318717 0 0.024111174569246097 -0.0051733884718646239 0 0.023573616462170932 -0.005522566856953395 0 0.024053055172238578 -0.0058660410968518874 0 0.024111174569246097 -0.0051733884718646239 0 0.024053055172238578 -0.0058660410968518874 0 0.024749031956260631 -0.0054082543183823998 0 0.024183899964288165 -0.0049043652117215543 0 0.023787279052948397 -0.0049450020229085487 0 0.025145730853378737 -0.0053811785898094933 0 0.025140807039090666 -0.005147709311287431 0 0.02555036249863437 -0.0051784442461323358 0 0.025140807039090666 -0.005147709311287431 0 0.02555036249863437 -0.0051784442461323358 0 0.025284654384904327 -0.0049399503738453239 0 0.024183899964288165 -0.0049043652117215543 0 0.024347814961989473 -0.0046826231910977257 0 0.025145730853378737 -0.0053811785898094933 0 0.025140807039090666 -0.005147709311287431 0 0.024891916897278182 -0.0053048372539534622 0 0.024021826324361638 -0.0048408289472651389 0 0.024028712723011863 -0.0048120729236181469 0 0.023932938528053744 -0.0048356691575300844 0 0.023787279052948397 -0.0049450020229085487 0 0.023667195573498213 -0.0047976133231573482 0 0.023026369298857218 -0.0056576732123462667 0 0.023223358745758742 -0.0060425765606318717 0 0.022503629382389111 -0.0062023954387287299 0 0.024124891864829388 -0.0047890642244802027 0 0.024021826324361638 -0.0048408289472651389 0 0.024028712723011863 -0.0048120729236181469 0 0.024347814961989473 -0.0046826231910977257 0 0.024058185124575159 -0.0044915426171368896 0 0.024021826324361638 -0.0048408289472651389 0 0.023932938528053744 -0.0048356691575300844 0 0.023919169591150157 -0.0048930549548841431 0 0.022524376761483566 -0.0046755487097474005 0 0.022692369163462508 -0.0046998830443939774 0 0.022624974729882473 -0.0048235979642500528 0 0.023667195573498213 -0.0047976133231573482 0 0.024058185124575159 -0.0044915426171368896 0 0.022524376761483566 -0.0046755487097474005 0 0.022780092259079853 -0.004440536876516233 0 0.022692369163462508 -0.0046998830443939774 0 0.02349141986716223 -0.0041851619210726424 0 0.023549430430390563 -0.0041667875177757762 0 0.023497733166327153 -0.0041576862920447598 0 0.023667195573498213 -0.0047976133231573482 0 0.02341582802961371 -0.0046210048093347639 0 0.022780092259079853 -0.004440536876516233 0 0.022692369163462508 -0.0046998830443939774 0 0.022909717840677572 -0.0046929551820656563 0 0.022692369163462508 -0.0046998830443939774 0 0.022720491006632589 -0.0048616571491512748 0 0.022624974729882473 -0.0048235979642500528 0 0.022720491006632589 -0.0048616571491512748 0 0.022650357235015448 -0.0049266410523188349 0 0.022624974729882473 -0.0048235979642500528 0 0.022692369163462508 -0.0046998830443939774 0 0.022720491006632589 -0.0048616571491512748 0 0.022909717840677572 -0.0046929551820656563 0 0.022690544611226656 -0.0049785621731755422 0 0.022720491006632589 -0.0048616571491512748 0 0.022745729643070027 -0.0049897894315068169 0 0.022690544611226656 -0.0049785621731755422 0 0.022720491006632589 -0.0048616571491512748 0 0.022650357235015448 -0.0049266410523188349 0 0.023667195573498213 -0.0047976133231573482 0 0.023338185066019108 -0.0050675509890681265 0 0.023026369298857218 -0.0056576732123462667 0 0.022503629382389111 -0.0062023954387287299 0 0.02271407307071523 -0.005425618982335928 0 0.022669516431725475 -0.0049940542366212126 0 0.022650357235015448 -0.0049266410523188349 0 0.022618426156344174 -0.0049357597014128901 0 0.022650357235015448 -0.0049266410523188349 0 0.022618426156344174 -0.0049357597014128901 0 0.022624974729882473 -0.0048235979642500528 0 0.022524376761483566 -0.0046755487097474005 0 0.022618426156344174 -0.0049357597014128901 0 0.022624974729882473 -0.0048235979642500528 0 0.010232898840175452 -0.00024013586279907266 0 0.010043232824427357 -0.0023729572496884494 0 0.0082088656972323319 -0.001730601727923426 0 0.010232898840175452 -0.00024013586279907266 0 0.0076302097537177078 0.00035717787364702584 0 0.0082088656972323319 -0.001730601727923426 0 0.010232898840175452 -0.00024013586279907266 0 0.0087403402872923714 0.0022325219531669194 0 0.0076302097537177078 0.00035717787364702584 0 0.0076302097537177078 0.00035717787364702584 0 0.0082088656972323319 -0.001730601727923426 0 0.0062308559202684825 -0.0010321937422482401 0 0.0082088656972323319 -0.001730601727923426 0 0.0062308559202684825 -0.0010321937422482401 0 0.0067575597845850963 -0.0030072879118131376 0 0.0062308559202684825 -0.0010321937422482401 0 0.0042545512017041686 -0.0012086909290537518 0 0.0067575597845850963 -0.0030072879118131376 0 0.024619974453756611 -0.0047403463697253722 0 0.024700705312180757 -0.0051258705739936038 0 0.024910914280978944 -0.0053687748457567179 0 0.013603785620719849 -0.0031743638402707765 0 0.015747098749856858 -0.0039459291357382045 0 0.0062308559202684825 -0.0010321937422482401 0 0.0056685281196042327 0.00039663297173920007 0 0.0042545512017041686 -0.0012086909290537518 0 0.0076302097537177078 0.00035717787364702584 0 0.0062308559202684825 -0.0010321937422482401 0 0.0056685281196042327 0.00039663297173920007 0 0.0056685281196042327 0.00039663297173920007 0 0.0042353509642765984 0.00075481682362061979 0 0.0042545512017041686 -0.0012086909290537518 0 0.024111174569246097 -0.0051733884718646239 0 0.024619974453756611 -0.0047403463697253722 0 0.024700705312180757 -0.0051258705739936038 0 0.024111174569246097 -0.0051733884718646239 0 0.024700705312180757 -0.0051258705739936038 0 0.024749031956260631 -0.0054082543183823998 0 0.024700705312180757 -0.0051258705739936038 0 0.024749031956260631 -0.0054082543183823998 0 0.024792584160561484 -0.005346679128420957 0 0.024749031956260631 -0.0054082543183823998 0 0.024891916897278182 -0.0053048372539534622 0 0.024792584160561484 -0.005346679128420957 0 0.024183899964288165 -0.0049043652117215543 0 0.024262133933739806 -0.0049273725133574236 0 0.025145730853378737 -0.0053811785898094933 0 0.024749031956260631 -0.0054082543183823998 0 0.024891916897278182 -0.0053048372539534622 0 0.024891916897278182 -0.0053048372539534622 0 0.024844425681395929 -0.0051731836778645271 0 0.024792584160561484 -0.005346679128420957 0 0.025140807039090666 -0.005147709311287431 0 0.024891916897278182 -0.0053048372539534622 0 0.024844425681395929 -0.0051731836778645271 0 0.025140807039090666 -0.005147709311287431 0 0.024844425681395929 -0.0051731836778645271 0 0.025010439495071837 -0.0049977949606621165 0 0.025644706027686062 -0.0048124688477750848 0 0.025893617844558764 -0.0044629133573956788 0 0.024844425681395929 -0.0051731836778645271 0 0.024792584160561484 -0.005346679128420957 0 0.02459851020922019 -0.0050849774403032618 0 0.024700705312180757 -0.0051258705739936038 0 0.024910914280978944 -0.0053687748457567179 0 0.024792584160561484 -0.005346679128420957 0 0.024910914280978944 -0.0053687748457567179 0 0.024792584160561484 -0.005346679128420957 0 0.024915389738035535 -0.0052694503094622668 0 0.015747098749856858 -0.0039459291357382045 0 0.017503734993087914 -0.0043427345791939714 0 0.0082088656972323319 -0.001730601727923426 0 0.0067575597845850963 -0.0030072879118131376 0 0.0093085657861267136 -0.0047830986371983795 0 0.024910914280978944 -0.0053687748457567179 0 0.024744777486713766 -0.0053232440262140851 0 0.024915389738035535 -0.0052694503094622668 0 0.011081225575990127 -0.0035477964160654262 0 0.010043232824427357 -0.0023729572496884494 0 0.0093085657861267136 -0.0047830986371983795 0 0.010043232824427357 -0.0023729572496884494 0 0.0082088656972323319 -0.001730601727923426 0 0.0093085657861267136 -0.0047830986371983795 0 0.024683268196829717 -0.0050283350439945503 0 0.024773451841756545 -0.0050543695982040145 0 0.024749584127627278 -0.0049436028483355945 0 0.024773451841756545 -0.0050543695982040145 0 0.02480095045722077 -0.0049804068644677098 0 0.024749584127627278 -0.0049436028483355945 0 0.024683268196829717 -0.0050283350439945503 0 0.024773451841756545 -0.0050543695982040145 0 0.024749884077026121 -0.0051657583614518575 0 0.024635617701766227 -0.0051492886073639639 0 0.024683268196829717 -0.0050283350439945503 0 0.024749884077026121 -0.0051657583614518575 0 0.024635617701766227 -0.0051492886073639639 0 0.024744777486713766 -0.0053232440262140851 0 0.024749884077026121 -0.0051657583614518575 0 0.024744777486713766 -0.0053232440262140851 0 0.024749884077026121 -0.0051657583614518575 0 0.024915389738035535 -0.0052694503094622668 0 0.024773451841756545 -0.0050543695982040145 0 0.024749884077026121 -0.0051657583614518575 0 0.024915389738035535 -0.0052694503094622668 0 0.0267260116118062 -0.0029176887845821621 0 0.025893617844558764 -0.0044629133573956788 0 0.024773451841756545 -0.0050543695982040145 0 0.024870121068844883 -0.0050175815271924582 0 0.024915389738035535 -0.0052694503094622668 0 0.024310307785394853 -0.0044707588007059955 0 0.024501944815555614 -0.0046217675221889298 0 0.02459851020922019 -0.0050849774403032618 0 0.024773451841756545 -0.0050543695982040145 0 0.024870121068844883 -0.0050175815271924582 0 0.02480095045722077 -0.0049804068644677098 0 0.024310307785394853 -0.0044707588007059955 0 0.024388077713908874 -0.004454205560367022 0 0.024422989963818212 -0.0045081515685313099 0 0.024310307785394853 -0.0044707588007059955 0 0.024388077713908874 -0.004454205560367022 0 0.024437723397846618 -0.0043442595776211302 0 0.024388077713908874 -0.004454205560367022 0 0.024480726386948971 -0.0044719127163310108 0 0.024437723397846618 -0.0043442595776211302 0 0.024388077713908874 -0.004454205560367022 0 0.024480726386948971 -0.0044719127163310108 0 0.024422989963818212 -0.0045081515685313099 0 0.024310307785394853 -0.0044707588007059955 0 0.024422989963818212 -0.0045081515685313099 0 0.024501944815555614 -0.0046217675221889298 0 0.024480726386948971 -0.0044719127163310108 0 0.024422989963818212 -0.0045081515685313099 0 0.024501944815555614 -0.0046217675221889298 0 0.024584292749348247 -0.0045268389425726788 0 0.024586365966609694 -0.0043940048262056074 0 0.024802708173995297 -0.0044289036213072275 0 0.024480726386948971 -0.0044719127163310108 0 0.024584292749348247 -0.0045268389425726788 0 0.024501944815555614 -0.0046217675221889298 0 0.024480726386948971 -0.0044719127163310108 0 0.024584292749348247 -0.0045268389425726788 0 0.024586365966609694 -0.0043940048262056074 0 0.024480726386948971 -0.0044719127163310108 0 0.024586365966609694 -0.0043940048262056074 0 0.024437723397846618 -0.0043442595776211302 0 0.024802708173995297 -0.0044289036213072275 0 0.024716392382546162 -0.0046233174684032711 0 0.024940774546970242 -0.0046277063383564718 0 0.024584292749348247 -0.0045268389425726788 0 0.024802708173995297 -0.0044289036213072275 0 0.024716392382546162 -0.0046233174684032711 0 0.024716392382546162 -0.0046233174684032711 0 0.024776632480620685 -0.0049137401728615703 0 0.024940774546970242 -0.0046277063383564718 0 0.024584292749348247 -0.0045268389425726788 0 0.024716392382546162 -0.0046233174684032711 0 0.024501944815555614 -0.0046217675221889298 0 0.024716392382546162 -0.0046233174684032711 0 0.024501944815555614 -0.0046217675221889298 0 0.024776632480620685 -0.0049137401728615703 0 0.024844425681395929 -0.0051731836778645271 0 0.02459851020922019 -0.0050849774403032618 0 0.024776632480620685 -0.0049137401728615703 0 0.024501944815555614 -0.0046217675221889298 0 0.02459851020922019 -0.0050849774403032618 0 0.024776632480620685 -0.0049137401728615703 0 0.024776632480620685 -0.0049137401728615703 0 0.025024386651624944 -0.0048029269533539027 0 0.024940774546970242 -0.0046277063383564718 0 0.024776632480620685 -0.0049137401728615703 0 0.025010439495071837 -0.0049977949606621165 0 0.025024386651624944 -0.0048029269533539027 0 0.024844425681395929 -0.0051731836778645271 0 0.024776632480620685 -0.0049137401728615703 0 0.025010439495071837 -0.0049977949606621165 0 0.025010439495071837 -0.0049977949606621165 0 0.025024386651624944 -0.0048029269533539027 0 0.025284654384904327 -0.0049399503738453239 0 0.025358801506885829 -0.0044106809687246137 0 0.025545896751293845 -0.0040772954052936969 0 0.025024386651624944 -0.0048029269533539027 0 0.025152712878539939 -0.0044547084466760884 0 0.025549118075804445 -0.0041928188353027402 0 0.025024386651624944 -0.0048029269533539027 0 0.024940774546970242 -0.0046277063383564718 0 0.025152712878539939 -0.0044547084466760884 0 0.024802708173995297 -0.0044289036213072275 0 0.024940774546970242 -0.0046277063383564718 0 0.025152712878539939 -0.0044547084466760884 0 0.025152712878539939 -0.0044547084466760884 0 0.025445967407918321 -0.0039310843956782502 0 0.025549118075804445 -0.0041928188353027402 0 0.025152712878539939 -0.0044547084466760884 0 0.024956202060792274 -0.0041671550259680034 0 0.02528735085272496 -0.0038862269205479577 0 0.025452957766736145 -0.0040674054753611815 0 0.025553174396629449 -0.0037833068079150974 0 0.024802708173995297 -0.0044289036213072275 0 0.025152712878539939 -0.0044547084466760884 0 0.024956202060792274 -0.0041671550259680034 0 0.024956202060792274 -0.0041671550259680034 0 0.02528735085272496 -0.0038862269205479577 0 0.024877816525175973 -0.0038811977767355672 0 0.025423425051638537 -0.0033079655412019127 0 0.02528735085272496 -0.0038862269205479577 0 0.025059068819112532 -0.0035666214495622467 0 0.02528735085272496 -0.0038862269205479577 0 0.025059068819112532 -0.0035666214495622467 0 0.024877816525175973 -0.0038811977767355672 0 0.025059068819112532 -0.0035666214495622467 0 0.024877816525175973 -0.0038811977767355672 0 0.024604026703022537 -0.0036079512767262789 0 0.024877816525175973 -0.0038811977767355672 0 0.024604026703022537 -0.0036079512767262789 0 0.024536414524287543 -0.0039834100151178971 0 0.024536414524287543 -0.0039834100151178971 0 0.02466628768454945 -0.0041875065453128423 0 0.02438800699583215 -0.0041970440487660039 0 0.024956202060792274 -0.0041671550259680034 0 0.024877816525175973 -0.0038811977767355672 0 0.02466628768454945 -0.0041875065453128423 0 0.024877816525175973 -0.0038811977767355672 0 0.024536414524287543 -0.0039834100151178971 0 0.02466628768454945 -0.0041875065453128423 0 0.024586365966609694 -0.0043940048262056074 0 0.024802708173995297 -0.0044289036213072275 0 0.02466628768454945 -0.0041875065453128423 0 0.024802708173995297 -0.0044289036213072275 0 0.024956202060792274 -0.0041671550259680034 0 0.02466628768454945 -0.0041875065453128423 0 0.024586365966609694 -0.0043940048262056074 0 0.02466628768454945 -0.0041875065453128423 0 0.024437723397846618 -0.0043442595776211302 0 0.02466628768454945 -0.0041875065453128423 0 0.02438800699583215 -0.0041970440487660039 0 0.024437723397846618 -0.0043442595776211302 0 0.026732938502401351 -0.0024238960327487074 0 0.026823508871865256 -0.0026766909855630854 0 0.026875851417208284 -0.0026288075881771497 0 0.0267260116118062 -0.0029176887845821621 0 0.027155294695626914 -0.0017526800943896443 0 0.024310307785394853 -0.0044707588007059955 0 0.02438800699583215 -0.0041970440487660039 0 0.024147503657558446 -0.0040401948112866858 0 0.024310307785394853 -0.0044707588007059955 0 0.02438800699583215 -0.0041970440487660039 0 0.024437723397846618 -0.0043442595776211302 0 0.0267260116118062 -0.0029176887845821621 0 0.026995068409384454 -0.0022045877647342634 0 0.024870121068844883 -0.0050175815271924582 0 0.02480095045722077 -0.0049804068644677098 0 0.024799626351684936 -0.0048987557647422074 0 0.027155294695626914 -0.0017526800943896443 0 0.026995068409384454 -0.0022045877647342634 0 0.024536414524287543 -0.0039834100151178971 0 0.02438800699583215 -0.0041970440487660039 0 0.024147503657558446 -0.0040401948112866858 0 0.029904232485614496 0.0020400867737341028 0 0.029536272340672996 0.0031193985123952419 0 0.029393702294000647 0.0023633717582954754 0 0.028754947519965775 0.002427032837993089 0 0.029536272340672996 0.0031193985123952419 0 0.029393702294000647 0.0023633717582954754 0 0.024604026703022537 -0.0036079512767262789 0 0.024536414524287543 -0.0039834100151178971 0 0.024147503657558446 -0.0040401948112866858 0 0.026995160082055148 -0.001228362981733229 0 0.027155294695626914 -0.0017526800943896443 0 0.029904232485614496 0.0020400867737341028 0 0.029598019645691229 0.0028995697671432563 0 0.030050200906873333 0.0025391492510337078 0 0.027337819961984467 0.00024097326455468454 0 0.027155294695626914 -0.0017526800943896443 0 0.027432165691499637 -0.0011060794328445174 0 0.026995068409384454 -0.0022045877647342634 0 0.030411025397533063 0.0020503250329592902 0 0.030155044345844477 0.0020636760906533754 0 0.030050200906873333 0.0025391492510337078 0 0.02788373241113087 -1.4791488031365242e-05 0 0.027432165691499637 -0.0011060794328445174 0 0.024631438750089135 -0.0048705597683549751 0 0.024726767744940932 -0.0047594753399733507 0 0.024727218613998 -0.0048525303048467449 0 0.024631438750089135 -0.0048705597683549751 0 0.024727218613998 -0.0048525303048467449 0 0.024749584127627278 -0.0049436028483355945 0 0.024631438750089135 -0.0048705597683549751 0 0.024683268196829717 -0.0050283350439945503 0 0.024749584127627278 -0.0049436028483355945 0 0.024727218613998 -0.0048525303048467449 0 0.024812257224354355 -0.0048874635441084344 0 0.024749584127627278 -0.0049436028483355945 0 0.029598019645691229 0.0028995697671432563 0 0.030050200906873333 0.0025391492510337078 0 0.029717643643382804 0.0030085891160506685 0 0.024726767744940932 -0.0047594753399733507 0 0.024727218613998 -0.0048525303048467449 0 0.024812257224354355 -0.0048874635441084344 0 0.02480095045722077 -0.0049804068644677098 0 0.024799626351684936 -0.0048987557647422074 0 0.024749584127627278 -0.0049436028483355945 0 0.026995068409384454 -0.0022045877647342634 0 0.026752058679610457 -0.0024448154468087692 0 0.025751823022536997 -0.0047343237455852189 0 0.025950062293481319 -0.0045903780080383287 0 0.025793106864551881 -0.0044265109357312414 0 0.024802705624208058 -0.0042073340136265722 0 0.024058185124575159 -0.0044915426171368896 0 0.025751823022536997 -0.0047343237455852189 0 0.025536851191917925 -0.0046878168439275355 0 0.025793106864551881 -0.0044265109357312414 0 0.025751823022536997 -0.0047343237455852189 0 0.025950062293481319 -0.0045903780080383287 0 0.025851635615638358 -0.0050159279123525016 0 0.023626651368239715 -0.0039850921120977191 0 0.023715342976519466 -0.0040138833350669197 0 0.023699591688149394 -0.0040627544094088168 0 0.023626651368239715 -0.0039850921120977191 0 0.023715342976519466 -0.0040138833350669197 0 0.023768260625364631 -0.0039339191671410667 0 0.023549430430390563 -0.0041667875177757762 0 0.023519320406136614 -0.0041420336889221527 0 0.023497733166327153 -0.0041576862920447598 0 0.023626651368239715 -0.0039850921120977191 0 0.023699591688149394 -0.0040627544094088168 0 0.023608552167626862 -0.0041111510228753756 0 0.023856481729646752 -0.0043932272188100243 0 0.024058185124575159 -0.0044915426171368896 0 0.025751823022536997 -0.0047343237455852189 0 0.025851635615638358 -0.0050159279123525016 0 0.025610659572992182 -0.0049307316813763033 0 0.02555036249863437 -0.0051784442461323358 0 0.025851635615638358 -0.0050159279123525016 0 0.025610659572992182 -0.0049307316813763033 0 0.025610659572992182 -0.0049307316813763033 0 0.025284654384904327 -0.0049399503738453239 0 0.025536851191917925 -0.0046878168439275355 0 0.02555036249863437 -0.0051784442461323358 0 0.025610659572992182 -0.0049307316813763033 0 0.025284654384904327 -0.0049399503738453239 0 0.025024386651624944 -0.0048029269533539027 0 0.025284654384904327 -0.0049399503738453239 0 0.025469270734292747 -0.0045022549093672237 0 0.025140807039090666 -0.005147709311287431 0 0.025010439495071837 -0.0049977949606621165 0 0.025284654384904327 -0.0049399503738453239 0 0.025470287672223826 -0.0045412605822014165 0 0.025595328360222123 -0.0043600869805775497 0 0.025024386651624944 -0.0048029269533539027 0 0.025469270734292747 -0.0045022549093672237 0 0.025401322894529076 -0.0040496723727630971 0 0.025284654384904327 -0.0049399503738453239 0 0.025469270734292747 -0.0045022549093672237 0 0.025919042925916336 -0.0045115103948229641 0 0.025751823022536997 -0.0047343237455852189 0 0.025610659572992182 -0.0049307316813763033 0 0.025536851191917925 -0.0046878168439275355 0 0.025469270734292747 -0.0045022549093672237 0 0.025919042925916336 -0.0045115103948229641 0 0.025769843403495227 -0.0041659748589778682 0 0.025595328360222123 -0.0043600869805775497 0 0.025736326932716713 -0.00400445009105175 0 0.025769843403495227 -0.0041659748589778682 0 0.025946562985960115 -0.0038305095961166462 0 0.026419440842631259 -0.0040057779103017249 0 0.025919042925916336 -0.0045115103948229641 0 0.025769843403495227 -0.0041659748589778682 0 0.026419440842631259 -0.0040057779103017249 0 0.025769843403495227 -0.0041659748589778682 0 0.025401322894529076 -0.0040496723727630971 0 0.025946562985960115 -0.0038305095961166462 0 0.025469270734292747 -0.0045022549093672237 0 0.025769843403495227 -0.0041659748589778682 0 0.025401322894529076 -0.0040496723727630971 0 0.025988287281880428 -0.0035599175455101779 0 0.025683177284236469 -0.0034089705691900934 0 0.025445967407918321 -0.0039310843956782502 0 0.025850085844737129 -0.0035546851141241512 0 0.025545896751293845 -0.0040772954052936969 0 0.025887449908068627 -0.0033688175343607896 0 0.025401322894529076 -0.0040496723727630971 0 0.025946562985960115 -0.0038305095961166462 0 0.025988287281880428 -0.0035599175455101779 0 0.025445967407918321 -0.0039310843956782502 0 0.025549118075804445 -0.0041928188353027402 0 0.025804756121492689 -0.0031149876397448279 0 0.025553174396629449 -0.0037833068079150974 0 0.025887449908068627 -0.0033688175343607896 0 0.025946562985960115 -0.0038305095961166462 0 0.026081100402962264 -0.0035243964855898782 0 0.025946562985960115 -0.0038305095961166462 0 0.026321128046054167 -0.0036021062530322218 0 0.026419440842631259 -0.0040057779103017249 0 0.025946562985960115 -0.0038305095961166462 0 0.026081100402962264 -0.0035243964855898782 0 0.026321128046054167 -0.0036021062530322218 0 0.026201660616114661 -0.0033712491513434597 0 0.026081100402962264 -0.0035243964855898782 0 0.026321128046054167 -0.0036021062530322218 0 0.025736326932716713 -0.00400445009105175 0 0.025604519159430055 -0.0036666053417464977 0 0.026321128046054167 -0.0036021062530322218 0 0.026419440842631259 -0.0040057779103017249 0 0.026769661643423925 -0.0035586965621188758 0 0.026410090096443375 -0.0032678516599582213 0 0.026321128046054167 -0.0036021062530322218 0 0.026769661643423925 -0.0035586965621188758 0 0.025950062293481319 -0.0045903780080383287 0 0.025793106864551881 -0.0044265109357312414 0 0.026049482530738025 -0.004165683293888214 0 0.023626651368239715 -0.0039850921120977191 0 0.023687492649443746 -0.0037161879588040285 0 0.023768260625364631 -0.0039339191671410667 0 0.024802705624208058 -0.0042073340136265722 0 0.025604519159430055 -0.0036666053417464977 0 0.023687492649443746 -0.0037161879588040285 0 0.02396519675171872 -0.0038060195316882558 0 0.024166600193759793 -0.0036294306098756694 0 0.02396519675171872 -0.0038060195316882558 0 0.024166600193759793 -0.0036294306098756694 0 0.024132031572496052 -0.0037471316388774812 0 0.024345075162904621 -0.0035328404457222302 0 0.024166600193759793 -0.0036294306098756694 0 0.024132031572496052 -0.0037471316388774812 0 0.02396519675171872 -0.0038060195316882558 0 0.023897488061450173 -0.003927858786991179 0 0.024132031572496052 -0.0037471316388774812 0 0.023687492649443746 -0.0037161879588040285 0 0.02396519675171872 -0.0038060195316882558 0 0.023768260625364631 -0.0039339191671410667 0 0.02396519675171872 -0.0038060195316882558 0 0.023897488061450173 -0.003927858786991179 0 0.023768260625364631 -0.0039339191671410667 0 0.023856481729646752 -0.0043932272188100243 0 0.023826466623608353 -0.0043478532567471284 0 0.023897488061450173 -0.003927858786991179 0 0.023768260625364631 -0.0039339191671410667 0 0.023710352086248415 -0.0040482317046605376 0 0.023715342976519466 -0.0040138833350669197 0 0.023699591688149394 -0.0040627544094088168 0 0.023710352086248415 -0.0040482317046605376 0 0.023715342976519466 -0.0040138833350669197 0 0.023768260625364631 -0.0039339191671410667 0 0.023710352086248415 -0.0040482317046605376 0 0.023897488061450173 -0.003927858786991179 0 0.023710352086248415 -0.0040482317046605376 0 0.023795331121284617 -0.0040614821868814027 0 0.023710352086248415 -0.0040482317046605376 0 0.023795331121284617 -0.0040614821868814027 0 0.023501782952216096 -0.0042063132319423244 0 0.023795331121284617 -0.0040614821868814027 0 0.023501782952216096 -0.0042063132319423244 0 0.023791151604416257 -0.0042111258603918771 0 0.023549430430390563 -0.0041667875177757762 0 0.023501782952216096 -0.0042063132319423244 0 0.023571303869463326 -0.0041634680505841567 0 0.023519320406136614 -0.0041420336889221527 0 0.023710352086248415 -0.0040482317046605376 0 0.023571303869463326 -0.0041634680505841567 0 0.023710352086248415 -0.0040482317046605376 0 0.023501782952216096 -0.0042063132319423244 0 0.023571303869463326 -0.0041634680505841567 0 0.02341582802961371 -0.0046210048093347639 0 0.023445408640436375 -0.0045411495997090051 0 0.023549430430390563 -0.0041667875177757762 0 0.023519320406136614 -0.0041420336889221527 0 0.023571303869463326 -0.0041634680505841567 0 0.024011908729606082 -0.0041690648834725834 0 0.023791151604416257 -0.0042111258603918771 0 0.023884573379546952 -0.0043923761157410989 0 0.024011908729606082 -0.0041690648834725834 0 0.023791151604416257 -0.0042111258603918771 0 0.024068999360462816 -0.003952914722621226 0 0.023795331121284617 -0.0040614821868814027 0 0.023791151604416257 -0.0042111258603918771 0 0.024068999360462816 -0.003952914722621226 0 0.023897488061450173 -0.003927858786991179 0 0.023795331121284617 -0.0040614821868814027 0 0.024068999360462816 -0.003952914722621226 0 0.024011908729606082 -0.0041690648834725834 0 0.024068999360462816 -0.003952914722621226 0 0.024108351823294672 -0.0040401387270751965 0 0.024181601134744112 -0.0039426496783678995 0 0.024227608598889561 -0.0039148797762009503 0 0.024068999360462816 -0.003952914722621226 0 0.024152940475956414 -0.0040151488998489884 0 0.024108351823294672 -0.0040401387270751965 0 0.024068999360462816 -0.003952914722621226 0 0.024132031572496052 -0.0037471316388774812 0 0.024354130307993316 -0.0036431337970277296 0 0.023897488061450173 -0.003927858786991179 0 0.024068999360462816 -0.003952914722621226 0 0.024132031572496052 -0.0037471316388774812 0 0.024345075162904621 -0.0035328404457222302 0 0.024132031572496052 -0.0037471316388774812 0 0.024354130307993316 -0.0036431337970277296 0 0.024270977299066389 -0.0039290792816930355 0 0.024227608598889561 -0.0039148797762009503 0 0.02418285909609641 -0.0041149498543601561 0 0.024152940475956414 -0.0040151488998489884 0 0.024161975842689639 -0.0040534310535161088 0 0.024161975842689639 -0.0040534310535161088 0 0.024165869755510692 -0.0040286455150776567 0 0.024222044709953865 -0.0040071967230402138 0 0.024152940475956414 -0.0040151488998489884 0 0.024165869755510692 -0.0040286455150776567 0 0.024108351823294672 -0.0040401387270751965 0 0.024152940475956414 -0.0040151488998489884 0 0.024161975842689639 -0.0040534310535161088 0 0.024165869755510692 -0.0040286455150776567 0 0.024012438302102621 -0.004128607114662221 0 0.024081185564670288 -0.0040520891353100913 0 0.023962497220886607 -0.0040478827427603298 0 0.024108849592575518 -0.0041386722003351611 0 0.024161975842689639 -0.0040534310535161088 0 0.024092494304021536 -0.0040916246196581645 0 0.024012438302102621 -0.004128607114662221 0 0.024092494304021536 -0.0040916246196581645 0 0.024081185564670288 -0.0040520891353100913 0 0.024161975842689639 -0.0040534310535161088 0 0.024092494304021536 -0.0040916246196581645 0 0.024081185564670288 -0.0040520891353100913 0 0.024161975842689639 -0.0040534310535161088 0 0.024081185564670288 -0.0040520891353100913 0 0.024222044709953865 -0.0040071967230402138 0 0.024081185564670288 -0.0040520891353100913 0 0.024056823400334385 -0.0039851287679752026 0 0.024222044709953865 -0.0040071967230402138 0 0.024081185564670288 -0.0040520891353100913 0 0.024005971426676761 -0.0040056390210274273 0 0.023962497220886607 -0.0040478827427603298 0 0.024056823400334385 -0.0039851287679752026 0 0.024005971426676761 -0.0040056390210274273 0 0.023974390288682229 -0.0039319940459877608 0 0.024081185564670288 -0.0040520891353100913 0 0.024056823400334385 -0.0039851287679752026 0 0.024005971426676761 -0.0040056390210274273 0 0.023931489747695333 -0.0039793554403903739 0 0.024005971426676761 -0.0040056390210274273 0 0.023974390288682229 -0.0039319940459877608 0 0.023931489747695333 -0.0039793554403903739 0 0.024005971426676761 -0.0040056390210274273 0 0.023962497220886607 -0.0040478827427603298 0 0.022744861845109519 -0.0033684274371877272 0 0.024025784432527328 -0.0033273172394512338 0 0.023566466478156353 -0.0038439902852013125 0 0.021784998274932469 -0.0057473686021801392 0 0.021909777203461898 -0.0056061125613362196 0 0.02398245578014065 -0.0037535736448185385 0 0.023566466478156353 -0.0038439902852013125 0 0.023974390288682229 -0.0039319940459877608 0 0.024056823400334385 -0.0039851287679752026 0 0.02398245578014065 -0.0037535736448185385 0 0.023974390288682229 -0.0039319940459877608 0 0.024222044709953865 -0.0040071967230402138 0 0.024308164808631905 -0.0041308393016270288 0 0.024250541372193655 -0.0041606045112628411 0 0.021784998274932469 -0.0057473686021801392 0 0.022625731449165236 -0.0056486282125130186 0 0.024056823400334385 -0.0039851287679752026 0 0.02398245578014065 -0.0037535736448185385 0 0.024222044709953865 -0.0040071967230402138 0 0.024429605964616494 -0.0040858242972115991 0 0.024222044709953865 -0.0040071967230402138 0 0.024308164808631905 -0.0041308393016270288 0 0.021784998274932469 -0.0057473686021801392 0 0.022457981376039386 -0.0063672456143161853 0 0.024429605964616494 -0.0040858242972115991 0 0.024308164808631905 -0.0041308393016270288 0 0.024337424064450365 -0.0042535163962030449 0 0.024308164808631905 -0.0041308393016270288 0 0.024250541372193655 -0.0041606045112628411 0 0.024337424064450365 -0.0042535163962030449 0 0.020965617559773518 -0.010085717397657321 0 0.020727507553528174 -0.0095776893470250722 0 0.021051964601189067 -0.0093864635797580431 0 0.020965617559773518 -0.010085717397657321 0 0.021051964601189067 -0.0093864635797580431 0 0.021555085565268497 -0.0094027013372655552 0 0.020727507553528174 -0.0095776893470250722 0 0.020720861909882884 -0.0092977265238803619 0 0.021051964601189067 -0.0093864635797580431 0 0.024108351823294672 -0.0040401387270751965 0 0.024180928177304328 -0.0040849275758733867 0 0.024153703044150005 -0.0041938472863286133 0 0.024165869755510692 -0.0040286455150776567 0 0.024108351823294672 -0.0040401387270751965 0 0.024180928177304328 -0.0040849275758733867 0 0.024165869755510692 -0.0040286455150776567 0 0.024222044709953865 -0.0040071967230402138 0 0.024180928177304328 -0.0040849275758733867 0 0.024222044709953865 -0.0040071967230402138 0 0.024180928177304328 -0.0040849275758733867 0 0.024250541372193655 -0.0041606045112628411 0 0.024250541372193655 -0.0041606045112628411 0 0.024153703044150005 -0.0041938472863286133 0 0.024254756345652558 -0.0043112161612373478 0 0.024180928177304328 -0.0040849275758733867 0 0.024250541372193655 -0.0041606045112628411 0 0.024153703044150005 -0.0041938472863286133 0 0.024250541372193655 -0.0041606045112628411 0 0.024254756345652558 -0.0043112161612373478 0 0.024337424064450365 -0.0042535163962030449 0 0.024011908729606082 -0.0041690648834725834 0 0.024153703044150005 -0.0041938472863286133 0 0.024079085252236468 -0.0043249238883161208 0 0.024011908729606082 -0.0041690648834725834 0 0.024108351823294672 -0.0040401387270751965 0 0.024153703044150005 -0.0041938472863286133 0 0.024153703044150005 -0.0041938472863286133 0 0.024079085252236468 -0.0043249238883161208 0 0.024254756345652558 -0.0043112161612373478 0 0.024079085252236468 -0.0043249238883161208 0 0.024254756345652558 -0.0043112161612373478 0 0.024065429324471265 -0.0046369263385850632 0 0.024052236892360961 -0.0045114694888997407 0 0.023858169652454388 -0.0046890040910225472 0 0.024254756345652558 -0.0043112161612373478 0 0.024299831099824729 -0.0045255902642606788 0 0.024337424064450365 -0.0042535163962030449 0 0.0229316388977307 -0.006515777051360601 0 0.022457981376039386 -0.0063672456143161853 0 0.022149137034379981 -0.0087247009850499949 0 0.021555085565268497 -0.0094027013372655552 0 0.021642633708238875 -0.0088237410494552467 0 0.022149137034379981 -0.0087247009850499949 0 0.021798080094457002 -0.0084071558240510873 0 0.022147268206144165 -0.0081613158570613513 0 0.022149137034379981 -0.0087247009850499949 0 0.021798080094457002 -0.0084071558240510873 0 0.021642633708238875 -0.0088237410494552467 0 0.024254756345652558 -0.0043112161612373478 0 0.024299831099824729 -0.0045255902642606788 0 0.024010877933376463 -0.0045657143325380095 0 0.024299831099824729 -0.0045255902642606788 0 0.024010877933376463 -0.0045657143325380095 0 0.02409263663178603 -0.0051116138193302886 0 0.02085149670015423 -0.0090429398816914714 0 0.020720861909882884 -0.0092977265238803619 0 0.021051964601189067 -0.0093864635797580431 0 0.02085149670015423 -0.0090429398816914714 0 0.021285606858279068 -0.0089894598788492711 0 0.020998924530991385 -0.0087134763379906766 0 0.02085149670015423 -0.0090429398816914714 0 0.021051964601189067 -0.0093864635797580431 0 0.021285606858279068 -0.0089894598788492711 0 0.021285606858279068 -0.0089894598788492711 0 0.021555085565268497 -0.0094027013372655552 0 0.021642633708238875 -0.0088237410494552467 0 0.021051964601189067 -0.0093864635797580431 0 0.021285606858279068 -0.0089894598788492711 0 0.021555085565268497 -0.0094027013372655552 0 0.021798080094457002 -0.0084071558240510873 0 0.021425378739636385 -0.0085928735435372421 0 0.021482339546840323 -0.0082187621887812676 0 0.021798080094457002 -0.0084071558240510873 0 0.021642633708238875 -0.0088237410494552467 0 0.021425378739636385 -0.0085928735435372421 0 0.021285606858279068 -0.0089894598788492711 0 0.021425378739636385 -0.0085928735435372421 0 0.020998924530991385 -0.0087134763379906766 0 0.021285606858279068 -0.0089894598788492711 0 0.021642633708238875 -0.0088237410494552467 0 0.021425378739636385 -0.0085928735435372421 0 0.021425378739636385 -0.0085928735435372421 0 0.020998924530991385 -0.0087134763379906766 0 0.021101750572014508 -0.0082802245454847868 0 0.020669989067896608 -0.0085128639119885011 0 0.020998924530991385 -0.0087134763379906766 0 0.021101750572014508 -0.0082802245454847868 0 0.020682245766254725 -0.0088325530309017672 0 0.02085149670015423 -0.0090429398816914714 0 0.020998924530991385 -0.0087134763379906766 0 0.020669989067896608 -0.0085128639119885011 0 0.020682245766254725 -0.0088325530309017672 0 0.020998924530991385 -0.0087134763379906766 0 0.020707560387253177 -0.0079562122857811321 0 0.020669989067896608 -0.0085128639119885011 0 0.021101750572014508 -0.0082802245454847868 0 0.020707560387253177 -0.0079562122857811321 0 0.021101750572014508 -0.0082802245454847868 0 0.021330232333102599 -0.0078584135471160988 0 0.021101750572014508 -0.0082802245454847868 0 0.021482339546840323 -0.0082187621887812676 0 0.021330232333102599 -0.0078584135471160988 0 0.021425378739636385 -0.0085928735435372421 0 0.021101750572014508 -0.0082802245454847868 0 0.021482339546840323 -0.0082187621887812676 0 0.021798080094457002 -0.0084071558240510873 0 0.021482339546840323 -0.0082187621887812676 0 0.021756937320874432 -0.0079555070029614892 0 0.021482339546840323 -0.0082187621887812676 0 0.021330232333102599 -0.0078584135471160988 0 0.021756937320874432 -0.0079555070029614892 0 0.021283278628056002 -0.0072183373801743911 0 0.021659444826074997 -0.0075034799947061399 0 0.021330232333102599 -0.0078584135471160988 0 0.021659444826074997 -0.0075034799947061399 0 0.021330232333102599 -0.0078584135471160988 0 0.021756937320874432 -0.0079555070029614892 0 0.01228521531480632 -0.0070156119254272866 0 0.012293340938465172 -0.006583525863246213 0 0.020707560387253177 -0.0079562122857811321 0 0.021283278628056002 -0.0072183373801743911 0 0.021330232333102599 -0.0078584135471160988 0 0.0039886027331635793 -0.0066904387474336739 0 0.0039075585507505018 -0.0065062745894703461 0 0.003750605883867227 -0.0068637990976069532 0 0.0229316388977307 -0.006515777051360601 0 0.02314560098364624 -0.0066570391469870831 0 0.022149137034379981 -0.0087247009850499949 0 0.022756894569923997 -0.0080407208476315235 0 0.022147268206144165 -0.0081613158570613513 0 0.022756894569923997 -0.0080407208476315235 0 0.022147268206144165 -0.0081613158570613513 0 0.022257074153085206 -0.0076831226385264701 0 0.021798080094457002 -0.0084071558240510873 0 0.022147268206144165 -0.0081613158570613513 0 0.021756937320874432 -0.0079555070029614892 0 0.022147268206144165 -0.0081613158570613513 0 0.021756937320874432 -0.0079555070029614892 0 0.022257074153085206 -0.0076831226385264701 0 0.022098535326723484 -0.0071482675821019099 0 0.021659444826074997 -0.0075034799947061399 0 0.022257074153085206 -0.0076831226385264701 0 0.021659444826074997 -0.0075034799947061399 0 0.021756937320874432 -0.0079555070029614892 0 0.022257074153085206 -0.0076831226385264701 0 0.022756894569923997 -0.0080407208476315235 0 0.022257074153085206 -0.0076831226385264701 0 0.022786758072897102 -0.0075542263339603696 0 0.022511009970569765 -0.0073333342027300024 0 0.022098535326723484 -0.0071482675821019099 0 0.022257074153085206 -0.0076831226385264701 0 0.022511009970569765 -0.0073333342027300024 0 0.022257074153085206 -0.0076831226385264701 0 0.022786758072897102 -0.0075542263339603696 0 0.022511009970569765 -0.0073333342027300024 0 0.022989919647198129 -0.0073091926915457156 0 0.022786758072897102 -0.0075542263339603696 0 0.022974326906682215 -0.0070827624788215443 0 0.02314560098364624 -0.0066570391469870831 0 0.023302935686819071 -0.0072181967201290212 0 0.022989919647198129 -0.0073091926915457156 0 0.022786758072897102 -0.0075542263339603696 0 0.023302935686819071 -0.0072181967201290212 0 0.022756894569923997 -0.0080407208476315235 0 0.022786758072897102 -0.0075542263339603696 0 0.023577111875879745 -0.0062879460876157037 0 0.02409263663178603 -0.0051116138193302886 0 0.023342071711280259 -0.0056622160861060167 0 0.02409263663178603 -0.0051116138193302886 0 0.023344891840647898 -0.0050796776500902918 0 0.023342071711280259 -0.0056622160861060167 0 0.023858169652454388 -0.0046890040910225472 0 0.02335996257317427 -0.0051140854882720053 0 0.024010877933376463 -0.0045657143325380095 0 0.02409263663178603 -0.0051116138193302886 0 0.023344891840647898 -0.0050796776500902918 0 0.023694674496825684 -0.0050581503125892721 0 0.022409204114023612 -0.0055870097251833088 0 0.022963146652871157 -0.0050579558829532455 0 0.023694674496825684 -0.0050581503125892721 0 0.022963146652871157 -0.0050579558829532455 0 0.023347128400952381 -0.004745250135533805 0 0.023694674496825684 -0.0050581503125892721 0 0.022409204114023612 -0.0055870097251833088 0 0.022005593568182626 -0.0059675335913373113 0 0.02335996257317427 -0.0051140854882720053 0 0.0228877221655382 -0.0055015697388884083 0 0.023344891840647898 -0.0050796776500902918 0 0.023342071711280259 -0.0056622160861060167 0 0.022814891153263003 -0.0060165390823518107 0 0.023344891840647898 -0.0050796776500902918 0 0.022814891153263003 -0.0060165390823518107 0 0.022005593568182626 -0.0059675335913373113 0 0.023342071711280259 -0.0056622160861060167 0 0.02317071176469393 -0.0061475906789734535 0 0.022814891153263003 -0.0060165390823518107 0 0.023577111875879745 -0.0062879460876157037 0 0.023342071711280259 -0.0056622160861060167 0 0.02317071176469393 -0.0061475906789734535 0 0.022822251581959781 -0.0067067057751866235 0 0.02317071176469393 -0.0061475906789734535 0 0.022814891153263003 -0.0060165390823518107 0 0.022290004901774192 -0.0064924482916648551 0 0.022591462290338635 -0.0065499525954385062 0 0.022814891153263003 -0.0060165390823518107 0 0.022409204114023612 -0.0055870097251833088 0 0.022005593568182626 -0.0059675335913373113 0 0.020343454412048281 -0.0062947489693737811 0 0.022290004901774192 -0.0064924482916648551 0 0.022814891153263003 -0.0060165390823518107 0 0.022005593568182626 -0.0059675335913373113 0 0.021680760654097256 -0.0066767691895890649 0 0.022005593568182626 -0.0059675335913373113 0 0.020343454412048281 -0.0062947489693737811 0 0.021068283313126043 -0.0041129920133072149 0 0.019624992039379317 -0.0037592450832100751 0 0.022409204114023612 -0.0055870097251833088 0 0.022675317304685139 -0.0050528984603533588 0 0.022655402304192378 -0.005193200788118281 0 0.022409204114023612 -0.0055870097251833088 0 0.018953735276573114 -0.0054738326440475415 0 0.020343454412048281 -0.0062947489693737811 0 0.019182922799936206 -0.0069306650391959632 0 0.018953735276573114 -0.0054738326440475415 0 0.020343454412048281 -0.0062947489693737811 0 0.022655402304192378 -0.005193200788118281 0 0.022745729643070027 -0.0049897894315068169 0 0.022980450297497564 -0.0048461346037287894 0 0.022689286723158595 -0.0050571360300184194 0 0.022675317304685139 -0.0050528984603533588 0 0.022655402304192378 -0.005193200788118281 0 0.022689286723158595 -0.0050571360300184194 0 0.022655402304192378 -0.005193200788118281 0 0.022745729643070027 -0.0049897894315068169 0 0.022409204114023612 -0.0055870097251833088 0 0.022655402304192378 -0.005193200788118281 0 0.022963146652871157 -0.0050579558829532455 0 0.022655402304192378 -0.005193200788118281 0 0.022963146652871157 -0.0050579558829532455 0 0.022980450297497564 -0.0048461346037287894 0 0.022980450297497564 -0.0048461346037287894 0 0.022909717840677572 -0.0046929551820656563 0 0.023338554011003803 -0.0045218564303370814 0 0.022963146652871157 -0.0050579558829532455 0 0.022980450297497564 -0.0048461346037287894 0 0.023347128400952381 -0.004745250135533805 0 0.022980450297497564 -0.0048461346037287894 0 0.023338554011003803 -0.0045218564303370814 0 0.023347128400952381 -0.004745250135533805 0 0.022720491006632589 -0.0048616571491512748 0 0.022745729643070027 -0.0049897894315068169 0 0.02283292896021346 -0.0048466097447229222 0 0.022745729643070027 -0.0049897894315068169 0 0.022980450297497564 -0.0048461346037287894 0 0.02283292896021346 -0.0048466097447229222 0 0.022980450297497564 -0.0048461346037287894 0 0.02283292896021346 -0.0048466097447229222 0 0.022909717840677572 -0.0046929551820656563 0 0.022720491006632589 -0.0048616571491512748 0 0.02283292896021346 -0.0048466097447229222 0 0.022909717840677572 -0.0046929551820656563 0 0.022780092259079853 -0.004440536876516233 0 0.023501782952216096 -0.0042063132319423244 0 0.022909717840677572 -0.0046929551820656563 0 0.023501782952216096 -0.0042063132319423244 0 0.022909717840677572 -0.0046929551820656563 0 0.023338554011003803 -0.0045218564303370814 0 0.023501782952216096 -0.0042063132319423244 0 0.023791151604416257 -0.0042111258603918771 0 0.023338554011003803 -0.0045218564303370814 0 0.023791151604416257 -0.0042111258603918771 0 0.023611410957235356 -0.0044947190767345123 0 0.023884573379546952 -0.0043923761157410989 0 0.023791151604416257 -0.0042111258603918771 0 0.023338554011003803 -0.0045218564303370814 0 0.023611410957235356 -0.0044947190767345123 0 0.023611410957235356 -0.0044947190767345123 0 0.023884573379546952 -0.0043923761157410989 0 0.02373357230410891 -0.0046411622438924521 0 0.024079085252236468 -0.0043249238883161208 0 0.024065429324471265 -0.0046369263385850632 0 0.023884573379546952 -0.0043923761157410989 0 0.024011908729606082 -0.0041690648834725834 0 0.024079085252236468 -0.0043249238883161208 0 0.023884573379546952 -0.0043923761157410989 0 0.024065429324471265 -0.0046369263385850632 0 0.023694674496825684 -0.0050581503125892721 0 0.02373357230410891 -0.0046411622438924521 0 0.024065429324471265 -0.0046369263385850632 0 0.023884573379546952 -0.0043923761157410989 0 0.02373357230410891 -0.0046411622438924521 0 0.023694674496825684 -0.0050581503125892721 0 0.023347128400952381 -0.004745250135533805 0 0.02373357230410891 -0.0046411622438924521 0 0.023611410957235356 -0.0044947190767345123 0 0.023347128400952381 -0.004745250135533805 0 0.02373357230410891 -0.0046411622438924521 0 0.023338554011003803 -0.0045218564303370814 0 0.023611410957235356 -0.0044947190767345123 0 0.023347128400952381 -0.004745250135533805 0 
</DataArray>
</PointData>
<CellData Scalars="region_id,cross_section_updated," Vectors="" Tensors="stress,">
<DataArray type="Float64" Name="region_id" format="ascii">
5 5 5 5 5 6 5 5 5 5 5 5 5 6 5 5 5 5 6 5 5 6 5 5 5 5 6 5 5 5 5 6 5 5 5 5 5 5 5 5 5 5 5 5 5 6 5 5 6 5 5 5 5 5 6 5 5 5 5 5 5 5 6 5 5 5 5 6 5 5 5 5 5 5 5 5 5 6 5 5 6 5 5 6 5 5 5 5 6 5 5 5 5 5 5 5 6 6 6 5 5 6 5 5 5 5 5 6 5 5 5 5 5 5 5 5 5 5 5 5 5 6 5 5 5 6 5 5 5 5 5 5 6 5 5 5 5 5 5 5 5 5 5 5 5 5 5 5 5 5 5 5 5 5 5 5 5 5 6 5 5 5 6 5 5 6 5 5 5 5 5 5 5 5 5 5 5 6 5 5 5 5 5 5 5 5 6 5 5 5 5 5 5 5 5 6 5 5 5 5 5 5 5 5 5 6 5 5 5 5 5 5 5 5 5 5 5 5 5 5 5 5 5 5 5 5 5 5 5 6 5 5 5 6 5 6 5 6 5 5 6 5 5 5 6 5 6 5 6 5 6 6 5 6 5 5 6 5 6 5 5 5 6 5 6 6 5 5 6 5 5 5 6 5 6 6 6 5 6 5 5 5 6 5 6 6 6 5 5 6 6 5 5 5 5 6 5 6 5 5 6 5 5 5 6 5 6 6 6 5 5 5 6 5 6 6 6 6 5 5 5 6 6 5 5 6 6 6 5 6 5 5 5 5 6 5 5 5 5 5 5 5 6 5 5 5 5 5 5 6 6 5 5 5 6 5 5 5 6 5 6 5 6 6 5 5 5 5 6 5 5 6 5 5 5 5 6 5 6 5 5 5 5 5 6 6 5 5 5 5 5 5 5 5 6 5 5 5 6 5 5 6 5 6 5 5 5 5 5 5 5 5 5 5 5 6 5 6 5 6 5 5 5 6 5 6 5 6 5 5 5 5 5 5 6 5 6 5 5 5 6 5 5 5 6 5 6 6 5 5 5 5 6 5 5 5 5 6 6 5 5 6 5 6 5 6 6 5 5 5 6 5 5 5 5 6 5 5 5 5 5 5 5 5 5 5 5 6 5 5 5 5 6 5 5 5 6 5 6 6 6 5 5 5 6 6 5 6 5 5 6 5 5 5 5 6 5 5 5 5 5 5 5 5 5 5 5 6 6 5 5 6 5 5 5 6 5 5 5 5 5 5 6 5 5 5 6 5 5 5 6 5 5 5 5 5 5 5 5 5 5 5 6 5 5 5 6 5 5 5 5 5 5 5 6 5 5 5 5 5 6 5 5 5 5 5 5 5 5 5 5 5 5 5 5 5 5 5 5 5 6 5 5 5 5 6 5 5 6 5 5 5 5 5 5 5 6 5 5 5 5 5 5 5 5 6 5 6 5 5 6 5 5 5 6 5 5 6 5 5 5 6 5 6 5 5 6 5 6 5 5 5 5 5 5 5 5 5 5 5 5 5 5 5 5 5 5 5 5 5 5 6 5 6 5 6 5 5 5 5 5 5 5 5 5 5 5 5 5 5 5 6 5 5 5 5 5 5 5 5 5 6 5 5 5 5 5 5 5 5 5 5 5 5 5 5 5 5 5 5 5 5 5 5 5 5 5 5 5 5 5 6 5 5 6 5 5 5 6 6 5 6 5 5 5 5 5 6 5 5 5 5 5 6 5 5 5 5 5 5 5 5 5 5 5 5 5 5 5 5 5 5 5 5 5 5 5 5 5 5 5 5 5 5 5 5 5 5 5 5 5 5 5 5 5 5 5 5 5 5 5 5 5 6 5 5 5 5 5 5 5 5 5 5 5 5 5 5 5 6 5 5 5 5 6 5 5 5 5 5 5 5 5 5 5 5 5 5 5 5 5 5 5 5 5 5 5 5 5 5 5 5 6 5 5 6 5 6 6 6 6 5 5 6 5 5 5 5 5 5 5 5 5 5 5 5 5 5 5 5 5 6 5 5 6 5 6 5 5 5 5 6 5 6 5 5 5 5 6 5 5 5 6 5 5 5 5 5 6 5 6 5 5 6 6 5 6 5 5 5 5 5 5 5 5 5 5 5 6 5 5 5 6 5 5 5 6 5 5 6 6 6 5 5 5 5 5 5 5 5 5 5 5 6 5 5 5 5 5 5 5 5 6 6 6 5 5 5 5 5 5 5 5 6 6 5 5 5 6 5 5 6 5 5 5 5 5 5 5 5 5 5 5 6 5 5 5 5 5 5 5 5 6 5 5 5 5 5 5 5 5 5 5 6 5 6 6 6 5 5 5 5 5 5 5 6 6 5 6 5 5 5 5 5 6 5 6 6 5 5 5 6 5 6 5 5 5 5 6 5 5 5 5 5 5 5 5 5 5 5 5 5 5 5 5 5 6 5 5 5 6 5 5 5 5 5 6 5 5 5 5 5 5 6 5 6 5 5 5 5 5 5 5 5 6 5 5 5 6 5 5 5 5 5 5 5 5 5 5 5 5 5 5 5 5 5 5 5 5 5 5 5 5 5 6 6 6 5 5 5 5 6 5 5 5 5 6 5 5 5 5 5 5 5 6 5 5 5 5 5 5 5 5 6 5 5 5 5 5 5 5 5 5 5 5 5 6 5 5 5 5 5 5 6 5 5 5 5 5 5 5 5 6 5 5 5 6 5 5 5 5 5 5 5 5 5 5 5 5 6 5 5 5 5 5 5 5 5 5 5 5 5 5 5 5 5 5 5 5 5 5 5 5 5 5 5 5 5 5 5 5 5 5 5 5 5 5 5 5 5 5 5 5 5 5 5 5 6 5 5 5 5 5 5 5 5 5 5 5 5 5 5 5 5 5 5 5 5 5 5 5 5 6 5 5 5 5 5 5 5 5 5 5 6 5 5 6 5 5 5 5 5 5 5 5 5 6 5 6 5 5 5 5 6 5 5 6 5 6 5 5 5 5 5 6 5 5 5 5 5 5 5 5 6 5 5 5 5 5 5 5 5 5 5 5 5 5 5 6 5 6 6 5 5 5 5 5 6 5 5 5 5 5 5 5 5 5 5 5 5 5 5 5 6 5 5 5 5 5 5 5 5 5 5 5 5 5 5 5 5 6 5 5 5 5 5 6 6 5 5 6 5 5 5 5 5 5 5 5 5 5 6 5 5 5 5 5 5 5 5 5 6 5 6 5 5 5 5 5 6 5 5 5 5 6 5 5 5 6 5 5 5 6 5 5 6 5 5 5 5 5 5 5 5 5 5 5 5 5 5 5 5 6 5 5 5 5 5 5 5 6 5 5 5 5 5 5 5 5 5 5 5 5 5 5 5 5 5 5 5 5 5 5 5 5 5 5 5 6 5 5 5 5 6 5 5 5 6 5 5 5 5 5 5 5 5 5 6 5 6 5 5 5 5 5 5 5 5 5 5 5 5 5 5 5 5 5 5 6 6 5 5 5 6 5 5 6 5 5 6 5 5 5 6 5 5 6 5 5 5 5 5 5 5 5 5 5 5 5 5 5 5 5 5 5 5 5 6 5 6 5 5 5 5 5 5 5 5 5 5 5 6 5 6 5 5 5 6 5 5 5 5 5 6 5 5 5 5 5 5 6 5 5 5 5 5 5 5 5 5 5 5 6 5 5 5 5 5 5 5 5 6 5 5 5 6 5 5 6 5 5 5 5 5 6 5 5 5 5 5 5 5 5 5 6 5 5 6 5 6 5 6 6 6 5 6 5 5 5 5 5 5 6 5 5 5 5 5 5 6 5 5 5 5 5 5 5 6 5 5 5 5 6 5 5 5 5 5 6 5 6 5 5 5 5 5 5 5 5 5 5 6 5 5 5 5 5 5 5 6 5 5 5 5 5 5 5 6 5 6 5 5 5 5 5 5 5 5 6 5 5 5 6 6 5 5 5 5 5 6 6 5 6 5 5 6 5 5 6 5 5 5 5 5 5 5 5 6 5 5 5 5 5 6 5 5 5 5 6 5 5 6 5 5 5 5 5 5 5 5 5 5 5 5 5 5 5 5 5 5 5 5 5 5 5 5 5 5 5 5 5 5 5 5 5 5 5 5 5 5 5 5 5 6 5 5 6 5 5 5 5 5 6 5 5 5 5 6 5 5 5 5 5 5 5 5 5 5 5 5 5 5 5 5 5 5 5 5 5 5 5 5 6 5 5 5 6 5 5 5 5 5 5 6 5 5 5 5 5 5 5 5 5 5 5 6 5 6 6 5 5 6 5 5 5 5 5 5 5 5 5 5 5 6 5 5 6 5 5 5 5 5 5 5 5 5 5 5 5 5 5 5 6 5 5 5 5 5 5 5 6 5 6 5 5 5 5 6 5 6 5 5 5 5 5 5 5 5 5 6 5 5 5 5 5 5 5 5 5 5 5 5 5 5 5 5 5 6 5 5 5 5 5 5 5 5 5 5 5 5 5 5 5 5 5 5 5 5 5 5 5 5 5 6 6 5 5 5 5 5 5 5 5 5 5 5 6 5 5 5 5 6 5 5 5 5 6 5 5 5 5 5 5 5 5 6 5 5 5 5 5 5 5 5 5 6 5 5 5 5 5 5 5 5 5 5 5 5 5 5 5 5 5 5 5 5 6 5 5 5 5 5 5 5 5 5 5 5 5 5 5 6 5 6 5 5 5 5 5 5 5 5 6 5 5 6 5 5 5 5 5 5 5 5 5 5 5 5 5 5 5 5 5 5 5 5 5 5 5 5 5 5 5 5 5 5 5 5 5 5 5 5 6 5 5 6 5 5 5 5 6 5 6 5 5 6 5 6 5 5 5 5 5 6 5 5 5 5 5 5 5 5 5 5 5 5 6 5 5 5 6 5 5 5 5 5 5 5 5 5 6 5 5 5 5 6 6 5 5 5 5 5 5 5 5 6 5 5 5 5 5 6 5 5 5 6 5 5 5 6 5 5 5 5 6 5 5 5 5 5 5 5 5 5 5 5 5 5 5 6 5 5 5 5 5 5 6 5 6 6 5 6 5 6 5 5 5 5 6 5 5 5 5 6 5 5 5 5 5 5 5 5 5 6 5 5 5 5 5 5 5 5 5 5 5 5 5 5 6 5 5 5 6 5 5 5 6 5 6 5 5 5 5 5 5 5 5 5 5 5 5 5 5 5 5 6 5 5 5 5 5 5 6 5 5 5 5 5 5 5 5 5 5 5 5 5 5 5 5 5 5 6 5 5 5 5 5 5 5 5 5 5 5 5 5 5 5 5 5 5 5 5 5 5 5 5 5 5 5 5 5 5 5 5 5 5 6 5 5 5 5 6 5 5 5 5 5 5 5 6 5 5 5 5 5 5 5 5 5 6 5 5 6 5 5 5 5 5 6 5 5 5 6 5 5 6 5 5 5 5 5 5 5 5 5 5 5 5 5 5 5 5 5 5 5 5 6 5 5 5 5 5 5 5 5 5 5 6 6 5 6 5 5 5 5 5 6 5 5 5 5 6 5 5 5 5 5 6 5 6 5 5 6 5 5 5 5 5 5 5 5 6 5 5 5 5 5 5 6 5 5 5 5 5 5 6 5 5 5 5 6 5 5 6 5 6 5 5 6 5 5 5 5 5 5 6 5 5 5 5 6 5 5 5 5 5 5 5 5 6 6 5 5 5 5 5 5 5 5 6 5 5 5 5 5 5 6 5 5 5 5 5 5 5 6 5 5 5 6 5 5 5 5 5 5 5 5 5 5 5 5 6 5 5 5 5 6 5 5 6 5 5 5 5 6 5 5 5 6 6 5 5 5 6 5 5 5 6 5 5 5 5 5 5 5 5 5 6 5 5 5 6 5 5 5 5 5 5 5 5 5 5 5 5 6 5 6 5 5 6 5 5 6 5 5 5 5 5 5 5 6 5 5 5 5 5 6 5 6 5 5 5 6 6 5 6 6 5 6 5 5 5 5 5 5 6 5 6 5 5 5 5 5 5 5 5 5 5 5 5 5 6 5 5 6 5 6 5 5 6 5 5 5 6 6 5 5 6 5 5 5 5 5 5 5 5 5 5 5 5 5 5 5 5 5 5 5 5 5 5 5 6 6 5 6 5 6 5 5 6 6 5 5 6 5 5 6 5 5 6 5 6 5 5 5 5 6 5 5 5 5 6 5 6 6 5 6 5 5 6 6 5 5 5 6 5 5 5 5 6 6 5 5 5 5 5 6 5 5 5 5 5 5 5 5 5 5 5 6 5 6 5 6 5 5 6 5 6 5 5 5 5 5 5 5 5 6 5 5 6 5 5 5 5 6 5 5 5 5 5 5 5 5 5 5 5 5 6 5 5 5 5 5 5 5 5 5 5 5 6 5 5 5 5 5 5 6 5 6 5 5 6 5 5 5 5 5 5 5 5 5 5 5 5 5 5 5 5 5 6 6 5 5 5 6 5 5 6 5 5 5 5 5 5 5 5 5 5 5 5 5 5 5 5 5 5 5 5 5 5 5 5 5 6 6 5 5 5 5 5 5 5 5 5 5 5 6 5 5 5 5 5 5 5 5 5 5 5 5 5 5 5 5 5 5 5 5 5 5 5 5 5 5 5 5 5 5 5 5 5 6 5 5 5 5 5 6 5 5 6 5 5 6 6 5 5 5 5 5 5 5 5 5 5 5 5 5 6 5 5 6 5 5 5 5 5 5 6 5 5 6 5 5 5 5 5 5 5 5 5 5 5 5 5 6 5 5 5 5 5 5 5 6 5 5 5 5 5 5 5 5 5 5 5 5 6 5 5 6 5 5 5 5 5 5 5 5 5 5 5 5 5 5 5 5 5 5 5 5 6 5 5 6 5 6 5 5 5 6 5 5 6 5 6 5 5 5 6 5 5 5 5 6 5 5 5 5 5 5 5 6 5 5 5 6 5 5 5 5 5 5 5 5 5 5 5 5 6 5 5 5 5 5 5 5 5 6 5 5 5 5 5 5 5 5 5 5 5 6 5 5 5 5 5 5 5 5 5 5 5 5 5 5 5 5 5 5 5 6 6 5 5 5 6 5 5 5 5 5 5 5 5 5 5 5 5 6 5 5 5 5 5 5 5 5 5 6 5 5 5 5 5 5 5 5 5 5 5 5 5 5 5 5 6 5 6 5 5 5 5 5 6 5 5 5 5 6 5 5 5 6 5 5 5 6 5 5 5 5 5 5 5 5 5 6 5 5 5 6 5 5 6 5 5 5 5 5 5 6 5 5 5 5 5 5 5 5 6 5 5 5 6 5 5 5 5 5 5 5 5 5 5 5 5 5 5 5 5 5 5 5 5 5 5 5 5 5 5 5 6 5 5 5 5 5 5 5 6 5 5 5 5 5 5 5 5 5 5 5 5 5 5 5 5 5 5 5 5 5 5 5 5 5 6 5 6 5 5 5 5 5 5 6 5 5 5 6 5 5 6 5 5 5 5 5 5 5 5 5 5 5 5 6 5 5 5 5 5 6 5 5 5 5 5 5 5 5 5 5 5 5 5 6 5 5 5 6 5 5 5 5 5 5 5 5 5 5 5 5 6 6 5 5 5 5 6 5 5 5 5 5 5 5 5 5 6 6 5 5 5 5 5 6 5 5 5 5 5 6 5 5 5 5 5 6 5 6 5 5 5 5 6 5 6 5 6 6 5 5 5 5 5 5 5 6 6 5 5 5 5 5 5 6 6 6 5 6 6 5 5 5 6 5 5 5 5 5 6 6 6 5 6 5 5 5 6 5 6 6 5 5 5 5 5 5 5 6 6 5 5 6 6 6 5 5 5 5 5 5 5 5 5 5 5 5 5 5 5 5 5 5 5 5 5 5 5 5 5 5 5 5 5 5 5 5 5 5 5 5 5 5 5 5 6 5 5 5 5 5 5 5 5 5 5 6 5 5 5 5 5 5 6 5 5 6 5 5 5 5 5 5 5 5 5 5 5 5 5 6 5 6 5 5 5 5 6 5 5 5 6 5 5 6 5 5 5 6 5 5 6 5 5 5 5 5 6 5 5 5 5 5 5 5 6 5 5 5 5 5 5 5 6 5 5 6 5 5 5 5 6 5 6 5 5 5 5 5 6 5 5 5 5 6 5 5 5 5 5 5 6 6 5 5 5 5 5 6 5 5 6 5 5 5 5 5 5 5 5 5 5 6 5 5 5 5 5 5 5 5 5 5 5 5 5 5 5 5 5 5 6 5 5 5 5 5 5 6 5 5 5 5 5 5 5 6 6 5 5 5 5 6 5 5 5 5 5 5 5 6 5 5 6 5 6 6 6 5 5 5 5 5 5 6 5 5 5 5 5 6 5 5 5 5 6 5 5 5 6 5 5 5 6 5 5 5 5 5 5 5 5 5 5 5 5 5 5 5 5 5 5 5 5 5 5 5 5 5 6 5 5 5 5 5 5 5 6 5 6 5 5 5 5 5 5 6 5 5 6 5 5 5 6 5 5 6 5 5 5 5 5 6 5 5 5 6 6 5 5 5 5 5 5 5 5 5 5 5 5 6 5 5 5 5 5 5 5 5 5 6 5 5 5 5 5 6 6 5 5 5 5 5 5 5 5 5 6 5 5 5 5 5 5 5 5 6 5 5 5 5 5 5 5 5 5 5 5 5 5 5 5 5 5 5 6 5 5 5 5 6 5 6 5 6 5 5 5 5 5 5 5 5 5 5 5 5 5 5 5 5 5 6 5 5 5 5 5 6 5 5 5 6 6 5 5 5 5 5 6 5 5 5 5 6 5 5 5 5 5 5 5 5 6 5 5 5 5 5 5 5 6 5 5 5 5 5 5 5 5 5 6 5 5 5 5 5 5 5 5 5 5 5 5 5 5 5 5 5 5 6 5 5 5 5 5 5 5 5 5 5 5 5 5 6 5 5 5 5 5 5 6 5 5 6 5 5 6 5 5 5 5 5 5 5 5 5 5 5 5 5 5 5 5 5 5 5 5 5 5 5 5 5 5 6 5 6 5 6 6 5 5 5 6 5 5 5 5 5 5 5 5 5 6 6 5 6 5 5 5 5 5 5 5 5 5 5 5 5 5 5 6 5 6 6 5 6 5 5 5 5 5 5 5 5 5 6 6 5 5 5 5 5 5 5 5 5 5 5 5 5 5 5 5 5 5 5 5 5 5 6 5 5 5 5 5 6 5 5 5 5 5 6 5 5 5 6 5 5 5 5 5 5 5 5 5 6 5 5 5 5 6 5 5 5 5 5 5 6 5 5 5 5 5 5 5 6 5 5 5 5 6 5 5 5 5 5 5 5 5 5 5 6 5 5 5 5 6 5 5 5 6 5 5 5 5 5 6 5 5 5 5 5 5 5 5 5 5 5 5 5 5 6 6 5 5 6 5 5 5 5 5 5 5 6 5 5 5 5 5 5 6 5 5 5 5 5 5 5 5 5 5 5 5 5 5 5 5 5 5 5 5 5 5 5 6 5 5 5 5 5 5 5 5 6 5 5 5 5 6 5 5 5 5 5 6 5 6 5 6 5 5 5 5 5 5 5 6 5 5 5 6 5 5 5 5 5 6 5 5 5 5 5 6 5 6 5 5 6 5 6 5 5 5 5 5 6 5 5 5 6 5 5 5 5 5 5 5 5 5 5 6 5 5 5 5 5 5 5 5 5 5 5 5 5 5 5 5 5 5 5 5 5 5 6 5 5 5 5 5 5 5 5 5 5 5 5 5 5 5 5 5 5 6 5 5 5 6 5 5 5 5 5 5 6 5 5 5 6 6 5 6 5 6 6 5 6 5 5 6 5 5 6 6 5 5 5 5 5 5 5 5 6 5 6 5 5 5 5 5 5 5 5 5 5 5 5 5 5 5 5 5 5 5 5 5 5 6 5 5 5 5 5 5 5 5 6 5 5 6 5 5 6 6 5 5 6 5 5 5 5 5 5 5 5 5 5 5 5 5 5 5 5 5 5 5 5 5 5 5 5 5 5 5 5 5 5 5 5 5 5 5 5 5 5 5 6 5 6 5 5 5 5 5 5 5 5 5 5 5 5 5 5 5 5 5 5 5 5 5 5 5 5 5 5 5 5 5 5 5 5 5 5 5 5 5 5 5 5 6 5 5 6 5 5 5 5 5 6 5 6 5 5 6 5 5 5 5 5 5 6 5 5 5 5 5 5 5 5 5 5 5 6 5 5 6 6 5 6 5 5 6 5 5 5 5 6 5 5 5 5 5 5 5 5 5 6 5 6 5 5 5 5 5 5 5 6 5 6 5 5 5 5 5 5 5 5 5 6 5 6 5 5 5 5 5 5 5 5 5 5 6 5 5 5 6 5 5 6 5 5 6 5 5 5 5 6 5 5 5 6 5 5 5 5 5 5 5 5 5 5 5 5 5 5 6 5 5 5 5 5 5 6 5 6 5 6 5 5 5 6 5 5 5 5 5 5 5 5 6 5 5 5 5 5 6 5 5 6 5 5 5 5 5 5 5 5 5 6 5 5 5 6 5 5 5 5 5 5 6 5 5 5 5 5 5 5 5 5 5 5 5 5 5 5 5 5 5 5 5 5 5 5 5 5 5 5 5 5 5 5 6 5 5 5 5 5 6 5 5 6 6 5 5 5 5 6 5 5 5 5 5 6 5 5 5 5 5 5 5 5 5 5 5 5 5 5 5 5 6 5 5 5 5 5 5 5 5 6 6 5 5 5 5 5 5 6 5 5 5 5 6 5 5 5 5 5 5 5 5 5 5 5 5 5 5 5 5 5 5 5 5 5 5 5 5 6 5 5 6 5 5 5 5 5 5 5 5 5 5 5 5 5 5 5 5 5 5 5 5 5 5 5 5 5 5 5 6 5 6 5 5 5 5 5 6 5 5 5 5 5 5 5 5 5 5 5 5 5 5 5 5 5 5 5 5 6 6 5 6 5 5 5 5 5 5 5 5 5 5 5 5 5 5 5 5 6 5 5 5 6 5 5 5 5 5 5 5 5 5 5 5 5 5 6 5 5 5 5 5 5 5 5 5 5 5 5 5 5 5 5 5 5 5 5 5 5 6 5 5 5 5 5 5 5 5 5 5 5 5 5 6 5 6 5 5 6 6 5 5 5 5 5 5 5 5 5 5 5 5 5 5 5 5 5 5 5 5 6 5 5 6 5 5 5 6 5 5 5 5 5 5 6 5 5 5 6 5 5 5 5 5 5 5 5 6 5 5 6 5 5 6 5 6 5 5 5 5 6 6 5 5 6 6 5 5 6 5 5 5 5 6 5 5 6 6 5 6 5 5 5 5 5 5 5 5 5 5 5 5 5 5 5 5 5 5 5 5 6 5 5 5 5 6 5 5 5 5 6 6 5 5 5 5 5 5 5 5 5 5 5 5 6 5 5 5 6 5 5 5 5 5 5 5 6 5 5 5 6 5 5 6 6 5 5 5 6 5 5 5 6 5 5 5 5 5 5 5 5 5 5 5 5 5 5 5 5 5 5 6 5 5 5 5 5 5 5 5 5 5 5 5 5 5 5 5 5 5 6 6 5 5 5 5 5 6 6 5 6 5 5 5 5 5 5 5 5 5 6 5 5 5 6 5 5 5 5 5 5 5 5 5 5 5 5 5 5 6 5 5 5 5 5 5 5 6 5 5 6 5 5 5 5 5 5 6 5 5 5 5 6 5 5 5 5 5 5 6 5 5 5 5 5 5 5 5 6 6 5 5 5 6 6 5 5 5 5 5 6 5 5 5 5 5 5 6 5 5 5 5 6 5 5 5 5 5 6 5 5 5 5 6 5 5 5 5 5 5 5 5 5 5 5 5 5 5 5 5 5 5 5 5 5 5 5 5 5 6 5 5 5 5 6 5 6 5 6 5 5 6 5 5 6 5 5 6 5 5 5 5 5 5 6 5 5 6 5 6 6 6 5 5 6 5 6 6 5 5 5 6 5 6 5 5 5 5 5 5 6 5 5 5 6 5 5 5 5 5 5 5 6 5 5 5 6 5 6 6 5 5 5 5 5 5 5 6 5 5 5 5 5 5 5 5 6 6 5 5 5 5 6 5 5 6 5 5 5 6 5 5 5 6 6 5 5 5 5 6 5 5 5 5 5 6 6 5 5 5 5 5 5 5 5 5 5 5 5 5 5 5 5 5 5 5 5 5 5 5 5 5 5 5 5 5 5 5 6 5 5 5 6 5 5 5 5 5 5 5 5 5 5 5 5 5 5 5 6 5 6 6 5 5 6 5 5 5 5 5 5 5 5 5 5 5 5 5 5 5 5 5 5 5 5 5 5 5 6 5 5 6 6 5 5 5 5 5 5 5 6 5 5 5 6 5 5 5 5 6 6 5 5 5 5 5 5 5 6 5 5 5 5 6 5 5 5 5 6 5 5 5 5 5 5 5 5 5 5 5 5 5 5 5 5 5 5 5 6 5 5 5 5 5 5 5 5 5 5 5 5 5 5 5 5 6 5 5 5 6 5 5 5 5 5 5 5 5 5 6 5 5 5 5 5 5 5 5 5 5 5 5 5 5 5 5 5 5 5 5 5 6 5 5 5 5 5 5 5 5 5 5 5 5 5 5 5 5 5 6 5 5 5 5 5 6 5 5 5 5 5 5 5 5 5 5 5 5 5 5 5 5 5 5 5 5 5 5 5 5 5 5 5 6 5 5 6 5 5 5 6 5 5 5 5 5 5 5 5 5 5 5 5 5 5 5 6 5 6 5 5 5 5 5 5 5 5 5 6 5 5 5 5 5 5 5 5 5 6 6 5 5 5 5 5 5 5 5 5 5 5 5 5 5 5 5 5 5 5 5 5 5 5 5 5 5 5 5 5 5 5 5 5 5 5 5 5 5 5 5 5 5 5 5 5 5 5 5 5 5 5 5 5 5 5 5 5 5 5 5 5 5 5 5 5 5 5 5 5 5 5 6 5 5 5 5 5 5 6 5 5 5 5 5 5 5 5 5 6 5 6 5 5 5 5 5 5 5 5 5 5 5 5 5 5 5 5 5 5 5 5 5 5 5 5 5 5 5 5 5 5 5 5 5 5 6 5 5 5 6 6 5 5 5 5 5 5 5 5 5 5 5 5 5 5 5 5 5 5 5 5 5 5 6 6 5 5 5 5 5 5 5 5 6 5 5 5 5 5 5 6 5 5 5 5 5 6 5 5 5 5 6 5 5 5 6 5 5 5 6 5 5 6 5 5 5 5 5 5 5 5 5 5 5 5 5 6 5 5 5 5 5 5 5 5 6 5 5 5 5 5 5 5 5 5 5 5 6 5 5 5 6 5 5 5 5 6 5 5 5 5 5 5 5 5 6 5 6 5 5 6 5 5 5 5 5 6 5 5 5 5 5 5 5 5 5 5 5 5 6 5 5 5 5 5 5 5 5 5 6 5 5 5 5 5 5 6 5 5 5 5 5 5 5 6 5 5 5 5 5 6 5 5 5 5 5 5 5 5 5 5 5 5 5 5 5 5 5 5 5 5 5 5 5 5 5 5 5 5 5 5 5 5 5 5 5 5 5 5 5 5 5 5 5 5 5 5 5 6 5 6 5 5 5 5 5 5 5 5 5 5 5 5 5 5 6 5 5 5 5 5 5 5 5 5 5 5 5 5 5 5 6 5 5 6 5 6 5 5 5 5 5 6 5 5 5 5 5 5 5 5 5 5 5 5 5 5 5 5 5 5 5 5 6 5 5 5 5 5 5 5 5 5 5 5 6 5 6 5 5 6 5 6 5 5 5 5 5 5 5 6 5 6 5 5 5 5 6 5 5 5 5 6 6 5 5 6 5 5 5 5 5 5 5 5 5 5 5 5 5 5 5 5 6 5 5 5 5 5 5 5 5 5 5 5 5 5 5 6 5 6 5 5 5 5 5 5 5 6 5 6 5 5 5 5 5 5 5 5 5 6 6 5 5 5 6 5 5 5 5 6 5 6 5 5 6 5 6 6 6 5 5 6 5 5 5 6 6 6 5 5 5 5 5 5 5 5 5 5 5 6 5 5 5 5 5 5 6 5 5 5 6 5 5 5 5 5 5 5 5 6 5 5 5 6 5 5 5 5 5 5 5 5 5 5 5 5 5 5 5 5 5 5 5 5 5 5 5 5 5 5 5 5 5 5 5 5 5 5 5 5 5 5 5 5 5 5 5 5 5 5 5 5 5 5 5 5 5 5 5 5 5 5 5 5 6 5 5 5 5 5 6 5 5 5 5 6 5 5 5 6 5 5 5 5 5 5 5 5 5 5 5 5 5 5 5 5 5 5 5 5 5 5 5 5 5 5 5 5 5 5 5 5 5 5 5 5 5 5 5 5 6 5 5 6 5 5 5 5 5 5 5 6 5 5 5 5 5 5 5 5 5 5 5 6 5 5 6 5 6 5 5 5 6 5 5 5 5 5 5 5 5 6 5 5 5 5 6 5 5 5 5 6 5 6 5 5 5 5 5 5 5 5 5 5 5 5 6 5 6 5 5 5 5 5 5 5 5 5 5 5 5 5 6 5 5 5 5 5 5 5 5 5 6 5 5 5 6 5 5 5 5 5 5 5 5 5 5 5 5 5 5 5 5 5 5 5 5 5 5 5 5 5 5 5 5 5 5 5 5 5 5 5 6 5 5 6 5 5 5 5 6 5 5 5 5 5 5 5 5 5 5 5 5 5 5 5 6 5 5 5 5 5 5 5 5 5 6 5 6 5 5 5 5 5 5 5 6 5 5 5 5 5 5 5 5 5 5 5 5 5 5 6 5 5 5 5 5 5 5 5 5 5 5 6 5 5 5 5 5 5 5 5 5 5 5 5 5 5 5 5 5 5 5 5 5 5 5 6 5 6 5 5 5 5 5 5 6 5 6 5 5 5 6 5 5 5 6 5 5 5 6 5 5 6 5 5 5 5 5 5 5 6 5 5 5 5 5 5 5 6 5 5 5 5 5 5 5 5 5 5 5 5 5 6 5 5 5 5 5 5 5 5 6 5 5 5 5 5 5 5 5 5 5 5 5 5 5 5 5 5 5 5 5 6 5 5 5 5 5 5 5 5 5 5 5 5 5 5 5 5 5 5 5 5 5 5 5 5 5 5 5 5 5 5 5 5 5 5 5 5 5 5 5 5 5 5 5 5 5 5 5 5 5 5 6 5 6 5 5 5 6 5 5 6 6 5 6 5 5 5 5 5 5 5 5 5 5 5 5 5 5 5 5 5 5 5 5 5 5 5 5 5 5 5 5 5 5 5 5 5 5 5 6 5 5 5 5 6 5 5 6 5 5 5 6 5 5 5 5 6 5 6 6 5 5 5 5 6 5 5 5 6 5 5 5 6 5 5 5 5 5 5 6 5 5 5 5 5 5 5 5 5 5 5 5 5 5 5 5 5 5 5 5 6 5 5 5 5 5 5 5 5 5 5 5 5 5 5 5 5 5 5 6 5 5 6 5 5 6 5 5 5 5 5 5 5 5 5 5 5 6 5 5 5 5 6 5 5 5 5 6 5 5 5 6 5 5 5 5 5 5 5 5 5 5 5 5 5 5 5 5 5 5 5 5 5 5 5 5 5 6 5 5 5 5 5 5 5 5 6 5 5 5 6 5 5 5 5 5 5 5 5 5 5 5 5 5 5 5 5 5 5 5 5 5 5 5 5 6 5 5 5 6 5 5 5 5 5 5 5 5 6 5 5 6 5 5 5 5 6 5 5 5 5 5 5 5 6 5 6 5 5 6 5 5 6 6 5 5 5 5 5 5 5 5 5 5 5 5 5 5 5 5 5 5 5 5 5 6 5 5 5 5 6 5 5 5 5 5 5 5 5 5 5 5 5 5 6 5 5 6 5 5 5 5 5 5 5 5 5 5 5 5 5 5 5 5 5 5 5 5 5 5 5 5 5 5 5 5 5 5 5 5 5 5 5 5 5 5 5 5 5 5 5 5 5 5 5 5 5 5 5 5 5 5 5 5 5 5 5 5 5 5 5 5 5 5 5 5 5 5 5 5 5 5 5 5 5 5 5 5 5 5 5 5 5 5 5 5 5 5 5 5 5 5 5 5 5 5 5 5 5 5 5 5 5 5 5 5 5 5 5 5 5 5 5 5 5 5 5 5 5 5 5 5 5 5 5 5 6 5 5 5 5 5 5 5 6 5 5 5 5 5 5 5 5 5 6 5 6 5 5 5 6 5 5 6 5 5 5 5 5 5 5 5 5 5 5 5 5 5 5 5 5 5 5 5 5 5 5 5 5 5 5 5 5 5 5 5 5 5 5 5 5 6 5 5 6 6 5 5 6 5 5 6 5 5 5 6 5 5 5 5 5 5 5 5 5 6 5 5 5 5 5 5 6 5 5 5 5 5 5 5 5 5 5 5 5 5 5 5 5 5 5 5 5 5 5 5 5 5 5 5 5 5 5 5 6 5 5 5 5 5 5 5 5 5 5 5 5 5 5 5 5 5 5 5 5 5 5 5 5 5 5 5 5 5 5 5 5 5 5 5 5 5 5 5 5 5 5 5 5 5 5 6 5 6 5 5 5 5 6 5 5 5 5 6 5 5 5 5 6 5 5 5 5 5 5 5 5 6 5 5 6 5 6 5 5 5 5 6 5 5 6 6 5 5 5 5 5 5 6 5 5 5 5 5 5 5 5 5 5 6 6 5 5 5 5 5 6 5 5 6 5 5 5 5 6 5 5 6 5 5 5 5 5 5 5 5 5 5 5 5 5 5 5 5 5 5 5 5 5 5 5 5 5 5 5 5 5 6 5 6 5 5 5 5 5 5 5 5 5 5 5 5 5 6 5 5 5 5 6 6 5 5 5 5 5 5 5 5 5 5 5 5 5 5 5 5 5 5 5 5 5 5 5 5 5 5 5 5 5 5 5 5 5 5 5 5 5 5 5 5 5 5 6 5 5 5 6 5 5 5 5 5 5 5 5 5 5 5 5 5 5 5 5 5 5 5 5 6 5 5 6 5 5 5 5 5 5 5 5 5 6 5 5 5 5 5 6 5 5 5 5 5 6 5 6 5 5 5 5 5 5 5 5 5 5 5 5 5 6 5 5 5 6 6 5 5 5 5 5 5 5 5 6 5 5 6 5 5 6 6 5 5 5 5 5 6 5 5 5 5 5 5 5 6 5 5 6 6 5 5 5 5 5 5 6 6 5 5 5 6 5 5 5 5 5 5 5 6 5 5 5 5 5 5 5 5 5 5 5 5 5 5 5 5 5 5 5 5 5 5 5 5 5 5 6 5 5 5 5 5 5 5 6 5 5 5 5 5 5 5 5 5 5 5 6 5 5 5 5 5 5 5 5 6 5 5 5 5 5 5 5 5 5 5 5 5 5 5 5 5 6 5 5 5 6 5 5 5 5 5 6 5 5 5 5 5 5 5 5 5 5 5 5 5 5 6 5 5 5 5 6 5 5 6 5 5 5 5 5 6 5 5 5 5 5 5 5 5 5 5 5 5 5 5 6 5 6 5 5 5 6 5 6 5 6 5 5 5 5 5 5 6 6 5 5 5 5 5 5 6 5 6 5 5 5 5 5 5 5 5 5 5 5 5 5 5 5 5 5 6 5 5 5 6 6 5 5 5 5 5 6 5 5 6 6 5 5 5 5 5 5 5 5 5 5 5 5 5 5 5 5 5 5 5 5 5 5 5 5 5 5 5 5 5 5 5 5 5 5 5 5 5 5 5 5 5 5 5 5 6 5 5 6 6 6 5 5 5 5 5 5 6 5 5 5 5 5 5 5 5 5 6 5 5 5 6 5 5 5 5 5 5 5 5 5 5 5 5 5 5 5 5 5 5 5 5 6 5 5 5 5 6 5 5 5 5 5 5 5 5 5 5 5 5 5 5 5 5 5 5 5 5 5 5 5 5 5 5 5 5 5 5 5 5 5 5 6 5 6 5 5 5 5 5 5 5 5 6 5 5 5 6 5 6 5 5 5 5 5 5 5 5 6 5 5 5 5 6 5 5 5 5 6 5 5 5 5 5 5 5 6 5 5 5 5 6 5 5 5 5 5 5 5 5 5 5 5 5 5 5 5 5 5 5 5 5 5 5 5 5 5 5 5 5 5 5 5 5 5 5 5 5 5 5 5 5 5 5 5 5 5 5 6 5 5 5 5 6 6 5 5 6 6 5 5 5 5 5 5 5 5 5 5 5 5 5 5 5 5 5 5 5 6 5 5 5 6 6 5 5 5 5 5 5 5 5 5 5 5 5 5 5 5 5 5 5 5 5 5 5 5 5 5 5 5 6 5 5 5 5 5 5 5 6 5 5 5 5 5 5 5 5 5 5 5 5 5 5 5 6 5 5 5 5 5 5 5 5 6 5 6 6 5 5 5 5 5 5 5 5 5 5 5 5 6 5 5 5 5 5 5 5 5 5 5 5 5 5 5 5 5 5 5 6 5 5 5 6 5 5 5 5 5 5 5 5 6 5 5 5 5 5 5 5 5 5 5 5 5 5 5 5 6 5 5 5 6 5 5 5 5 5 5 5 5 5 5 5 5 5 5 5 5 5 5 5 5 5 5 5 5 5 5 5 5 5 5 5 5 5 6 5 6 5 5 5 5 5 5 5 5 6 5 5 5 5 5 5 5 5 5 6 5 5 6 5 5 5 5 5 6 5 5 5 5 6 5 5 5 5 6 5 5 5 6 5 6 5 5 6 5 5 5 5 5 5 5 5 5 5 5 5 5 5 6 5 5 6 5 6 5 5 5 6 5 5 6 5 5 5 5 6 5 6 5 5 5 5 5 5 6 5 6 5 5 5 5 5 6 5 5 5 5 6 5 5 5 5 5 5 6 5 5 5 5 5 5 5 5 5 5 5 5 5 5 5 5 5 5 5 5 5 5 5 5 5 5 5 5 5 5 5 5 5 6 6 5 5 5 5 5 5 5 5 5 5 6 5 5 6 6 5 6 5 5 5 5 5 5 5 6 5 5 5 5 5 5 5 5 5 5 5 5 6 5 5 5 5 6 5 5 5 5 5 5 5 5 5 5 5 5 6 5 5 5 5 5 5 5 5 5 5 5 5 5 5 5 5 5 6 5 5 5 5 5 6 5 5 5 6 5 5 5 5 5 5 6 5 6 5 5 5 6 5 5 5 5 5 5 5 5 5 6 5 5 6 5 5 5 5 5 5 5 6 5 5 5 5 5 5 5 5 5 5 5 5 5 6 5 5 6 5 5 5 5 5 5 6 5 5 5 5 5 5 6 5 5 5 5 5 5 5 6 5 5 5 5 5 5 5 5 5 5 5 5 5 5 5 5 5 5 5 5 5 5 6 5 5 5 5 5 5 5 5 5 5 6 5 5 5 5 6 6 5 5 5 5 6 5 5 5 5 5 5 5 5 5 6 5 5 5 5 5 5 5 5 5 5 5 6 5 5 5 6 5 5 5 6 5 5 5 5 5 5 5 5 5 5 5 5 6 5 5 5 5 5 6 5 5 6 5 5 5 5 5 5 5 5 5 5 5 5 5 5 6 5 5 5 5 5 5 5 6 5 5 5 6 5 5 5 5 5 6 5 5 5 5 5 5 5 5 5 6 5 5 5 5 5 5 5 5 6 5 5 5 5 5 6 5 5 5 5 5 5 5 6 5 5 5 5 5 5 5 5 5 5 5 5 5 5 5 5 5 5 5 5 5 5 5 5 5 5 5 5 5 5 5 5 5 5 5 5 5 5 5 5 5 5 5 5 5 5 5 5 6 5 5 5 5 5 5 5 6 5 5 5 5 5 5 5 5 5 5 5 5 5 5 5 5 5 5 5 5 5 5 6 6 5 5 6 6 5 5 5 5 5 5 5 6 5 5 5 5 5 5 5 5 5 5 5 5 5 5 6 5 5 5 5 5 5 5 5 6 5 5 6 5 5 5 6 5 5 5 5 5 5 5 5 5 5 5 5 5 5 5 5 5 5 5 5 5 5 5 5 5 5 5 5 6 5 5 5 5 5 5 5 5 6 5 5 5 5 5 5 6 6 5 5 5 5 6 5 5 6 5 5 6 5 5 5 5 5 5 6 5 5 5 5 5 5 5 5 6 5 5 5 5 5 5 5 5 5 5 5 6 5 5 6 5 5 5 5 5 5 5 6 5 5 5 6 5 6 5 6 5 5 5 5 5 5 5 5 5 5 5 5 5 5 5 5 5 6 5 6 5 5 5 5 5 5 5 5 5 5 6 5 5 5 5 5 5 5 6 5 5 5 6 5 6 6 5 5 6 5 5 5 5 6 5 5 5 6 5 5 5 6 5 6 6 5 5 5 5 5 5 6 5 5 5 5 5 5 5 5 6 6 6 5 6 5 5 6 6 5 5 6 5 5 5 5 5 5 5 5 5 5 5 6 5 5 5 5 5 5 5 5 5 5 5 5 5 6 6 5 5 5 5 6 5 5 5 6 5 5 5 5 5 6 6 5 5 5 6 5 5 5 5 5 5 5 5 5 5 5 5 5 5 5 6 5 5 5 6 5 5 5 6 5 5 5 5 5 5 6 5 5 5 5 5 6 5 5 5 5 5 5 5 5 6 5 5 5 5 5 5 5 5 5 6 5 5 5 5 6 5 6 5 5 6 5 6 5 5 5 5 5 5 6 5 6 6 5 5 5 5 5 5 5 5 6 5 6 5 6 5 6 5 5 5 5 5 5 5 5 5 5 5 6 5 5 5 6 5 5 5 5 5 5 5 5 6 5 5 5 5 5 5 5 5 5 6 5 5 5 5 6 5 5 6 5 5 5 5 5 5 5 5 5 6 5 5 5 6 5 5 5 5 5 5 5 5 5 5 5 5 5 5 5 5 5 5 5 6 5 5 5 5 5 5 5 5 5 5 6 5 5 5 5 5 5 5 5 5 5 5 5 5 5 5 5 5 5 5 5 5 5 5 5 5 5 5 5 5 5 5 5 5 5 5 5 5 5 5 5 5 5 5 5 5 6 6 5 5 5 5 5 5 5 5 5 5 5 5 5 6 6 5 5 5 6 5 5 6 5 5 5 6 5 5 5 6 5 5 5 5 5 5 5 5 6 5 5 6 5 6 6 5 5 5 5 5 5 6 5 6 6 6 5 5 6 5 5 6 6 5 5 5 5 5 5 5 5 5 5 5 5 5 5 5 5 5 5 5 5 5 6 5 5 5 5 5 5 5 5 5 6 5 5 5 5 5 5 5 6 6 5 5 5 5 5 5 5 5 5 5 5 5 5 5 5 5 5 5 5 5 5 5 5 6 5 6 5 5 5 5 5 5 5 6 5 5 5 6 6 5 5 6 5 5 5 5 6 5 5 5 6 5 5 5 6 5 5 5 5 5 5 5 5 5 6 6 5 5 5 5 5 6 5 5 6 6 6 5 5 5 5 5 6 5 5 5 5 5 5 5 5 5 6 5 6 5 5 5 5 5 5 5 5 5 5 5 5 5 5 5 5 5 5 5 5 5 5 5 5 6 5 5 5 5 6 6 5 5 5 6 5 5 5 5 5 5 5 5 5 5 5 5 5 5 5 5 6 5 5 5 6 5 5 6 5 5 5 5 5 5 5 5 5 5 5 5 5 6 5 5 6 5 5 5 6 5 6 5 6 5 6 6 6 5 5 5 5 5 5 5 5 6 5 5 5 5 5 5 5 5 6 5 5 6 5 5 5 5 5 5 5 5 5 5 5 5 5 5 5 5 5 5 5 5 5 6 5 5 5 5 5 5 5 5 5 5 6 5 6 5 5 6 5 6 5 6 5 5 6 5 6 5 5 6 5 5 5 6 5 5 5 5 5 5 5 5 5 5 5 5 5 5 5 5 5 5 5 5 5 5 5 5 5 5 5 5 5 5 5 5 5 5 5 5 5 5 5 5 5 5 5 5 5 5 5 5 5 5 5 5 5 5 5 5 5 5 5 5 5 6 5 5 6 5 5 5 5 5 5 6 6 5 5 5 5 5 5 5 5 5 5 5 5 5 5 5 5 5 5 6 5 5 5 6 5 5 5 5 5 5 5 5 5 5 5 5 5 5 5 5 6 5 5 5 5 5 5 5 6 5 5 5 5 5 5 5 5 6 5 6 5 5 5 5 5 5 5 5 5 5 5 5 5 5 5 5 6 5 5 5 5 5 5 5 6 5 5 5 5 6 5 5 5 5 5 5 5 6 5 5 6 6 5 5 6 5 5 5 5 5 5 6 5 5 5 5 5 5 5 5 5 6 5 5 6 5 5 6 5 5 6 5 5 5 5 5 6 5 5 5 5 5 5 5 5 6 5 5 5 5 5 5 5 6 5 5 5 5 5 5 5 5 5 5 5 5 6 5 5 5 5 5 5 5 6 6 5 6 5 6 5 5 5 5 5 5 5 5 5 5 5 5 5 5 5 6 5 6 5 5 5 5 5 5 5 5 6 5 6 5 6 5 6 5 6 5 5 6 5 5 5 5 5 6 5 5 5 5 5 5 5 5 6 5 5 5 5 5 6 5 5 6 5 6 6 5 5 5 5 5 5 5 5 6 5 5 5 5 5 5 5 5 5 5 5 5 5 6 5 5 5 5 5 5 5 6 5 5 5 6 5 5 5 5 5 5 5 5 5 5 5 5 5 5 5 5 5 6 5 5 5 5 5 5 5 6 5 5 6 5 5 5 5 5 5 5 5 5 5 5 5 5 5 5 6 5 5 5 5 6 5 5 5 5 5 5 5 5 5 5 5 5 5 5 5 5 5 5 5 5 5 5 5 5 5 6 5 5 5 5 5 5 6 5 5 5 5 5 5 5 5 5 6 6 5 5 5 6 5 6 5 5 5 5 5 5 5 5 5 5 5 5 5 5 5 6 5 5 5 5 5 5 5 5 5 5 5 5 6 6 5 5 5 5 5 5 5 5 6 5 5 6 5 5 6 6 5 5 5 5 5 5 5 6 5 5 5 5 5 5 5 5 5 6 5 5 5 6 5 5 5 5 5 6 5 5 5 5 5 5 5 5 5 5 5 5 6 5 5 5 6 5 5 5 6 5 5 5 5 5 5 5 5 5 5 5 5 5 5 5 5 5 5 5 5 5 5 5 5 5 5 5 5 5 5 5 5 6 5 5 5 5 5 5 5 5 5 5 5 5 5 5 5 5 5 5 5 5 5 5 5 5 6 5 6 5 5 6 5 5 5 5 5 5 5 5 5 6 5 5 5 5 5 5 5 5 5 5 5 5 5 5 6 5 5 5 5 6 5 5 5 6 5 5 5 5 5 5 5 5 5 5 5 5 5 5 5 5 5 5 5 5 5 5 5 5 5 5 5 5 5 5 5 5 5 5 5 5 5 5 5 5 5 5 5 5 5 5 5 5 5 5 5 5 5 5 5 5 5 5 5 5 5 5 5 5 5 5 5 5 5 5 5 5 5 5 5 5 5 5 5 5 5 5 5 5 5 5 5 5 5 5 5 5 5 5 5 5 5 5 5 5 5 5 5 5 5 5 5 5 5 5 5 5 5 5 5 5 5 5 5 5 5 5 5 5 5 5 5 5 5 5 5 5 5 5 5 5 5 5 5 5 5 5 5 5 5 5 5 5 5 5 5 5 5 5 5 5 5 5 5 5 5 5 5 5 5 5 5 5 5 5 5 5 5 5 5 5 5 5 5 5 5 5 5 5 5 5 5 5 5 6 5 5 5 5 5 5 5 5 5 5 5 5 5 5 5 5 6 5 5 5 5 5 5 5 5 6 5 5 5 5 6 5 5 5 5 5 5 5 5 5 5 5 5 5 5 5 5 5 5 5 5 5 5 6 5 5 5 5 5 5 5 5 5 5 5 5 5 6 6 5 5 5 5 5 6 5 6 5 5 5 5 5 5 5 5 5 5 5 6 5 5 5 5 5 5 5 6 5 5 5 5 5 5 5 5 5 5 5 5 5 5 5 6 6 5 5 5 5 5 5 5 5 5 5 5 5 6 5 5 5 5 5 5 5 5 5 5 5 5 5 5 5 5 6 5 5 5 5 5 5 5 6 5 5 5 5 5 5 5 5 5 5 6 6 5 5 5 5 5 5 5 5 5 5 5 5 5 5 5 5 5 5 5 5 5 5 5 5 5 5 5 5 5 5 6 5 5 5 5 5 6 5 5 5 5 5 5 5 5 5 5 6 5 5 5 5 6 5 5 5 5 5 5 5 5 5 5 6 5 6 5 5 5 5 5 5 5 5 5 5 5 5 5 5 5 5 5 5 5 5 5 5 5 5 5 5 5 5 5 5 5 6 5 5 5 5 5 6 5 5 5 5 5 5 5 5 5 5 5 5 5 5 5 5 5 5 6 5 5 6 5 5 5 6 5 5 5 5 5 6 5 5 5 5 5 5 5 5 5 5 6 5 5 5 5 5 5 6 5 5 5 5 5 6 6 5 5 6 5 5 6 5 5 5 5 5 5 5 5 5 5 6 5 5 6 5 5 6 5 5 6 5 5 6 5 5 6 5 5 5 5 5 5 6 5 5 5 5 5 5 5 5 5 5 5 6 5 5 5 5 5 5 5 6 5 5 5 5 6 5 5 5 6 5 5 5 5 5 5 5 5 5 5 5 6 5 5 5 5 5 5 5 5 5 5 5 5 5 5 5 5 5 5 5 5 5 5 5 5 6 5 5 5 5 5 6 5 5 5 5 5 5 5 5 5 5 5 5 5 5 6 5 5 6 5 6 5 5 5 5 6 5 6 6 5 6 5 5 5 5 5 5 5 6 5 6 5 5 5 5 5 5 6 5 5 5 5 5 5 6 5 5 5 5 6 5 5 5 5 5 6 5 5 6 5 5 5 5 6 5 5 5 5 6 5 5 5 5 5 5 6 5 5 5 5 5 5 5 5 5 6 5 5 5 5 5 5 6 5 5 5 5 6 5 5 5 5 5 5 5 5 5 5 5 5 5 5 5 5 6 5 5 5 6 5 5 6 5 5 5 5 5 5 5 5 5 5 5 5 5 5 5 5 6 5 6 5 5 5 5 5 5 5 5 5 5 5 5 5 5 5 5 5 5 5 5 5 5 5 5 5 5 6 5 5 6 5 5 5 5 5 5 5 5 5 5 6 5 5 5 5 6 5 5 5 5 6 5 5 5 5 5 5 5 5 5 6 5 5 5 5 5 5 5 5 5 5 5 5 5 5 5 5 5 5 5 5 5 5 5 5 5 5 5 5 
</DataArray>
<DataArray type="Float64" Name="stress" NumberOfComponents="9" format="ascii">
1159898666.430954 -121825835.28522773 0 -121825835.28522773 -190983.1915321585 0 0 0 0 1963767558.1521492 -232273759.8971082 0 -232273759.8971082 -75988373.623317912 0 0 0 0 2202055133.0853615 -354451881.1202786 0 -354451881.1202786 -190798214.08823273 0 0 0 0 1866809541.1169014 -436042172.54103374 0 -436042172.54103374 43913912.578299128 0 0 0 0 1508478441.4380875 -619358775.89593673 0 -619358775.89593673 39767014.145907566 0 0 0 0 683293.96116869152 -30474.337058580015 0 -30474.337058580015 -3759.2904088553842 0 0 0 0 24606482.462463379 99221723.255531594 0 99221723.255531594 144919249.47237352 0 0 0 0 485702956.51319885 149015733.04075313 0 149015733.04075313 59754583.787818514 0 0 0 0 1304275143.023941 -106173856.62565467 0 -106173856.62565467 -20802774.490859002 0 0 0 0 993247290.06909943 -557941705.38893485 0 -557941705.38893485 298224604.61085677 0 0 0 0 106306028.21281433 -55246348.808085918 0 -55246348.808085918 180048637.48762941 0 0 0 0 501671324.12330627 -333553402.64990854 0 -333553402.64990854 105678417.32131535 0 0 0 0 1004459.6000518799 -229379.03660204133 0 -229379.03660204133 -462.52475222852229 0 0 0 0 617241.38033720106 217389.08781144209 0 217389.08781144209 87412.525692038369 0 0 0 0 1146201.1848049164 -509432.4525842368 0 -509432.4525842368 -568498.61811648286 0 0 0 0 509914.22583007812 -693833.93280468625 0 -693833.93280468625 -624.60844026463644 0 0 0 0 1051255.8865585327 -295439.91435339412 0 -295439.91435339412 -209331.75832875306 0 0 0 0 1582117.8052978516 -75424.465290198859 0 -75424.465290198859 -268663.87907051388 0 0 0 0 941555.42083511502 260880.49038670771 0 260880.49038670771 -49457.719851786023 0 0 0 0 1162315.2625274658 -367848.11803924979 0 -367848.11803924979 -125903.8476250571 0 0 0 0 952011.01647186279 -156731.90698491264 0 -156731.90698491264 -333259.98624494998 0 0 0 0 932437.92217040434 -226047.91983159538 0 -226047.91983159538 -89439.120085888251 0 0 0 0 -2293178.6684188843 3535347.4604047835 0 3535347.4604047835 -3317055.8591982722 0 0 0 0 -4948109.8430480957 4670325.0383862853 0 4670325.0383862853 2370036.3290007114 0 0 0 0 -3229343.0741577148 61247.577219128609 0 61247.577219128609 -322382.83738231659 0 0 0 0 -2959827.6333084106 518900.54016970098 0 518900.54016970098 12848537.679682434 0 0 0 0 1392323.6791040506 -13223.072510078549 0 -13223.072510078549 248943.58696004935 0 0 0 0 -23287219.953048706 8392427.6885190904 0 8392427.6885190904 10394427.19554662 0 0 0 0 3161710.9348602295 -1148634.8477066755 0 -1148634.8477066755 491967.93919169903 0 0 0 0 -3923354.3063201904 -1190690.8476145864 0 -1190690.8476145864 4748706.6576339006 0 0 0 0 3357591.878616333 -10410917.498812437 0 -10410917.498812437 -28384712.453164741 0 0 0 0 1591002.6171681248 -3299.9943678369746 0 -3299.9943678369746 -60067.632541648469 0 0 0 0 122562479.26281738 -86665525.912589982 0 -86665525.912589982 62308878.401548088 0 0 0 0 -64160935.260864258 -32618823.315369368 0 -32618823.315369368 93145053.584454864 0 0 0 0 -29445580.876689911 9406716.4493951574 0 9406716.4493951574 27346759.223961771 0 0 0 0 66862808.026031494 -71865409.978163913 0 -71865409.978163913 14412148.251577243 0 0 0 0 -6850739.9924954772 -12170834.905046368 0 -12170834.905046368 113962477.19560841 0 0 0 0 -317970.21180152893 117060413.06460197 0 117060413.06460197 121985857.94482055 0 0 0 0 -46030950.302124023 88718457.687135786 0 88718457.687135786 23750158.902582347 0 0 0 0 -56001028.765289307 15698520.31490159 0 15698520.31490159 37222585.048688591 0 0 0 0 -6749827.2979533672 11696423.19237956 0 11696423.19237956 18396126.03236711 0 0 0 0 -78255279.735198975 18134704.361024737 0 18134704.361024737 78260739.411784768 0 0 0 0 -66673697.651550293 -3117624.6781928837 0 -3117624.6781928837 15040809.444307983 0 0 0 0 -83641610.950874329 47311555.225692816 0 47311555.225692816 14782451.337724268 0 0 0 0 -3635384.0326538086 30467953.667200156 0 30467953.667200156 -39230952.112698942 0 0 0 0 353547.20106909703 145345.36410263181 0 145345.36410263181 19781.012269986884 0 0 0 0 -83115744.277084351 84673427.289794654 0 84673427.289794654 -68708739.289811015 0 0 0 0 23241570.885433197 -451310.13585992344 0 -451310.13585992344 -15062945.332162872 0 0 0 0 356516.06188153476 66805.658653246239 0 66805.658653246239 -80630.813455713505 0 0 0 0 -184375688.23985291 54919704.321329281 0 54919704.321329281 2874142.2274445295 0 0 0 0 -55800119.662986755 1729715.383816652 0 1729715.383816652 -60662655.409944952 0 0 0 0 -185147652.0723877 51169958.336852491 0 51169958.336852491 -6738627.9081757963 0 0 0 0 -45841545.126464844 85341093.725678325 0 85341093.725678325 -57378497.040960409 0 0 0 0 -22114517.214004517 28433463.655188024 0 28433463.655188024 6291028.1895556375 0 0 0 0 633686.61982421018 1355194.7322147246 0 1355194.7322147246 597456.00476185954 0 0 0 0 -17548199.632087708 26766128.877698213 0 26766128.877698213 -4432271.3071922064 0 0 0 0 33288233.566459656 41864103.762641758 0 41864103.762641758 -22605890.487464845 0 0 0 0 36364635.028189659 14175223.807343511 0 14175223.807343511 -129986383.01937103 0 0 0 0 -31962941.258504868 70667644.668509156 0 70667644.668509156 -34494102.548575759 0 0 0 0 -5539872.0430908203 89112007.271151751 0 89112007.271151751 -21662335.830622375 0 0 0 0 14731846.545684814 10942533.273074429 0 10942533.273074429 -1266066.9930964112 0 0 0 0 108762.75030899048 -4776197.9733211696 0 -4776197.9733211696 830825.11474299431 0 0 0 0 1311260.363115577 -107070.89210585505 0 -107070.89210585505 615255.8199595008 0 0 0 0 11299000.111297607 3011027.8517105952 0 3011027.8517105952 1764442.2199506201 0 0 0 0 11179576.239528656 4088653.872600086 0 4088653.872600086 -3399279.4387014806 0 0 0 0 -3750136.2974243164 9443147.682813026 0 9443147.682813026 -1765409.9523156583 0 0 0 0 3894504.2600402832 2981648.3573897183 0 2981648.3573897183 3826810.6316812038 0 0 0 0 2083665.2553003076 -742615.09324542806 0 -742615.09324542806 -586391.05486624711 0 0 0 0 5591395.9317016602 1369012.783056125 0 1369012.783056125 -3967147.4853193834 0 0 0 0 -1203694.8310623169 6149784.5201801211 0 6149784.5201801211 1945275.8400648534 0 0 0 0 7624976.2265167236 5526324.9218704365 0 5526324.9218704365 3152991.7468764633 0 0 0 0 12256201.890457153 5849206.134124741 0 5849206.134124741 2874503.0123473704 0 0 0 0 12955916.015256882 -2006063.2844647318 0 -2006063.2844647318 2807726.0413483381 0 0 0 0 14843381.643745422 3798257.0743513703 0 3798257.0743513703 1186676.25132972 0 0 0 0 12277153.478782654 -5277232.3158031479 0 -5277232.3158031479 -119026.84108418226 0 0 0 0 16991369.677814484 1635609.1807944626 0 1635609.1807944626 -808498.93016135693 0 0 0 0 4001496.5668869019 3927889.4873341024 0 3927889.4873341024 7484152.4429027736 0 0 0 0 3280325.9675076995 -399826.3789838925 0 -399826.3789838925 -480196.74611015758 0 0 0 0 2052756.0284061432 234136.10660791397 0 234136.10660791397 444921.17438149452 0 0 0 0 2136163.6171112061 372957.36626809835 0 372957.36626809835 356450.40496826172 0 0 0 0 1598956.7201371267 95637.479342879829 0 95637.479342879829 1388540.300511614 0 0 0 0 7566004.3426589966 659869.00669947267 0 659869.00669947267 -4338138.6270022392 0 0 0 0 6334051.5051670074 1347447.3985048868 0 1347447.3985048868 -533112.87583053112 0 0 0 0 3879383.3504106551 -1063092.51252326 0 -1063092.51252326 25107.217134881008 0 0 0 0 5549778.4332046509 -4941868.9594995975 0 -4941868.9594995975 800273.36681467295 0 0 0 0 3116434.9223632812 644875.70563983917 0 644875.70563983917 364119.62070035934 0 0 0 0 -1228574.0525436401 19176527.08249177 0 19176527.08249177 -6882839.2675156593 0 0 0 0 12578171.010177612 1310825.062861681 0 1310825.062861681 -9884479.0389287472 0 0 0 0 1794607.9079802204 1424269.8736749906 0 1424269.8736749906 333683.89031234413 0 0 0 0 2188909.0637741089 -250519.8518333137 0 -250519.8518333137 952910.40100777149 0 0 0 0 6850388.0004196167 4976325.050776422 0 4976325.050776422 -13700381.39049013 0 0 0 0 8105959.395401001 9073.3544642031193 0 9073.3544642031193 -728134.55640286207 0 0 0 0 7651508.994102478 -20270341.562889487 0 -20270341.562889487 -22003602.668666862 0 0 0 0 8541018.2895202637 -14930309.084357381 0 -14930309.084357381 10045336.050356805 0 0 0 0 1018908265.9130554 -694588009.95341325 0 -694588009.95341325 423095741.14887512 0 0 0 0 9906446.9027080536 2601451.0386969149 0 2601451.0386969149 -14354718.184112072 0 0 0 0 4142735.6114992369 782669.64313399745 0 782669.64313399745 -381343.38466562564 0 0 0 0 104460.13277096301 -42435.472817938775 0 -42435.472817938775 3820.0842378332745 0 0 0 0 77778.655684816651 -2112919.9488178864 0 -2112919.9488178864 -1034325.3252010522 0 0 0 0 13635535.308929443 -8888868.1498833299 0 -8888868.1498833299 -7077885.6738725901 0 0 0 0 9396241.0625 -124964.89629244804 0 -124964.89629244804 -2242422.9831926823 0 0 0 0 202433.37759632431 -2214461.8108311146 0 -2214461.8108311146 -356670.58250711078 0 0 0 0 6966898.9087600708 -8182240.8350436464 0 -8182240.8350436464 -1972007.9006487392 0 0 0 0 2457800.2917022705 -13694035.223989274 0 -13694035.223989274 709942.84266933799 0 0 0 0 4653251.356590271 -31243565.89284955 0 -31243565.89284955 88966898.513654411 0 0 0 0 2299365.192565918 -9725667.7505888231 0 -9725667.7505888231 14526967.569122121 0 0 0 0 8220225.5913467407 -13560377.024408817 0 -13560377.024408817 -8038871.575050354 0 0 0 0 1795711.8341708966 -10086.681163758971 0 -10086.681163758971 19728.681590443288 0 0 0 0 644432198.52503204 751602403.62305295 0 751602403.62305295 815520518.93876505 0 0 0 0 2201618899.5198212 -1661217585.1016285 0 -1661217585.1016285 1112250449.5348451 0 0 0 0 1047304794.8010311 -694787921.00274277 0 -694787921.00274277 303298825.46123326 0 0 0 0 1456320556.8530121 -960593160.06769216 0 -960593160.06769216 265230959.64407828 0 0 0 0 2206313595.1554699 -854639346.17221045 0 -854639346.17221045 -95655621.420390964 0 0 0 0 1020142154.653141 -495901831.17035973 0 -495901831.17035973 101567331.74562138 0 0 0 0 1096731749.7852478 -765163367.28586912 0 -765163367.28586912 178149031.85487536 0 0 0 0 1179165815.4157972 -331647669.60630304 0 -331647669.60630304 -22274369.573936403 0 0 0 0 327992172.78509521 -89966335.462331563 0 -89966335.462331563 -20676257.305452488 0 0 0 0 95427869.904359818 -194313695.3368291 0 -194313695.3368291 -27801330.175817847 0 0 0 0 129372457.0475769 164414475.90230441 0 164414475.90230441 -54660154.121107876 0 0 0 0 -26033813.702026367 81430397.188236713 0 81430397.188236713 -216920238.95355701 0 0 0 0 378277480.84274292 40475415.415653527 0 40475415.415653527 -306672904.25250757 0 0 0 0 760591.75313230604 -796073.69616833981 0 -796073.69616833981 -459192.72136317496 0 0 0 0 133684864.847229 -330670836.38922429 0 -330670836.38922429 212543059.20431346 0 0 0 0 260531130.01055908 -131531606.02580547 0 -131531606.02580547 6683534.3134694099 0 0 0 0 956717734.8818512 -580906595.63157225 0 -580906595.63157225 -7884519.9764588475 0 0 0 0 2067106.296849994 1057023.753402302 0 1057023.753402302 -344625.19870615721 0 0 0 0 -153136808.1681757 -86299985.301637799 0 -86299985.301637799 225254207.25722647 0 0 0 0 -5818370.0129165649 15192116.488073081 0 15192116.488073081 -8845264.0874689668 0 0 0 0 6937593.1849112511 9322749.6799924895 0 9322749.6799924895 -7196483.9282711148 0 0 0 0 6966876.1701202393 9540094.1247692406 0 9540094.1247692406 -26839701.16045405 0 0 0 0 7393300.6867446899 30947825.711837761 0 30947825.711837761 -172294.80617509782 0 0 0 0 -4941883.1475639343 14180357.244412955 0 14180357.244412955 -9657711.6370813996 0 0 0 0 623978.9182311974 182244.36612206325 0 182244.36612206325 -73416.050981287888 0 0 0 0 -71508093.450340271 21941648.223821662 0 21941648.223821662 27941545.395008266 0 0 0 0 98683757.560065269 152223914.82430339 0 152223914.82430339 172655874.5677917 0 0 0 0 164969155.47746468 78436680.139599413 0 78436680.139599413 14080114.097893655 0 0 0 0 187663676.98652935 225966174.2102997 0 225966174.2102997 64171913.456367843 0 0 0 0 72303963.537315369 27740912.218859557 0 27740912.218859557 116791.88177609807 0 0 0 0 -7720532.214881897 63695886.720344178 0 63695886.720344178 38936651.496856391 0 0 0 0 29385695.433490753 16989913.849064454 0 16989913.849064454 3285400.7582935765 0 0 0 0 37414694.869064331 13384818.036276219 0 13384818.036276219 10215198.249872401 0 0 0 0 23230740.137809753 21066693.953752216 0 21066693.953752216 32734310.432983004 0 0 0 0 51275449.932281494 10162672.931001717 0 10162672.931001717 -9438.8636984057775 0 0 0 0 61328100.562240601 27693336.971142706 0 27693336.971142706 30505213.235687513 0 0 0 0 53694105.711746216 -9072453.937173849 0 -9072453.937173849 26529409.572617859 0 0 0 0 87550241.070281982 -7729558.4283417277 0 -7729558.4283417277 7794383.8620102853 0 0 0 0 36943668.061218262 19600987.072227649 0 19600987.072227649 38776232.138264224 0 0 0 0 28028523.762931824 979639.2446394749 0 979639.2446394749 7415781.3676031902 0 0 0 0 28282231.172981262 -13164672.466451254 0 -13164672.466451254 -31478739.341237396 0 0 0 0 21185379.696563721 1400851.6461720318 0 1400851.6461720318 -18047156.983853415 0 0 0 0 45564564.804428101 1375052.9657111578 0 1375052.9657111578 -20232422.409609005 0 0 0 0 23629798.420063019 13531508.608334545 0 13531508.608334545 -14786655.694687843 0 0 0 0 25603405.342712402 23650473.804201417 0 23650473.804201417 7149979.3606829681 0 0 0 0 13522906.982452393 19894688.065214701 0 19894688.065214701 -18202360.048176713 0 0 0 0 14034414.095234752 -7550078.0337174609 0 -7550078.0337174609 -28231926.919676155 0 0 0 0 12201095.385437012 -795974.85439291596 0 -795974.85439291596 -35135758.843815178 0 0 0 0 11810907.410476685 -3678326.20692195 0 -3678326.20692195 -16533479.015826955 0 0 0 0 -1218793.1018218994 -14432940.550282195 0 -14432940.550282195 -23853350.287522808 0 0 0 0 335787.11342452466 218471.60149423033 0 218471.60149423033 126765.4231760462 0 0 0 0 1033931.4291534424 7788388.0649205893 0 7788388.0649205893 855766.84397074115 0 0 0 0 -17811738.492519379 -37134877.697334491 0 -37134877.697334491 -24522780.228187591 0 0 0 0 -6042480.337638855 9006227.6265187226 0 9006227.6265187226 -6113918.7461737096 0 0 0 0 642997.86528574675 386669.79904938303 0 386669.79904938303 101546.56076330598 0 0 0 0 -3189971.8165092468 3961776.1582060456 0 3961776.1582060456 -6756954.1938297749 0 0 0 0 937734.37043762207 15657226.240070462 0 15657226.240070462 -6723607.2402633429 0 0 0 0 662217.30088313948 313000.74456059001 0 313000.74456059001 -347571.00025647966 0 0 0 0 -29376248.136550903 -22417935.837086208 0 -22417935.837086208 -4332389.0734954476 0 0 0 0 226510.58480072021 3857127.4302280843 0 3857127.4302280843 -11640847.486101389 0 0 0 0 -1472871.5848617554 8400283.1120864302 0 8400283.1120864302 -12908982.365503311 0 0 0 0 15727698.033172607 -1793285.5874010623 0 -1793285.5874010623 -16302316.814614296 0 0 0 0 9357302.8536071777 8940179.6873588562 0 8940179.6873588562 -27444087.980655074 0 0 0 0 26375662.875839233 -39161979.619419858 0 -39161979.619419858 -47459783.919616282 0 0 0 0 -21974085.147464752 -39752651.789243042 0 -39752651.789243042 -27922504.235327601 0 0 0 0 8391001.0088806152 -21992448.358863935 0 -21992448.358863935 -25263230.949024066 0 0 0 0 16568722.727706909 -30602297.718358144 0 -30602297.718358144 -33404148.621341571 0 0 0 0 49801933.373443604 94008.344604771584 0 94008.344604771584 -29982322.157101937 0 0 0 0 -6153222.5893707275 -22448685.284826122 0 -22448685.284826122 110338442.64110991 0 0 0 0 69583.253525134176 -38868.891823048238 0 -38868.891823048238 -9194.1770740542852 0 0 0 0 18802163.395599365 12562846.348994706 0 12562846.348994706 -1825462.8095959183 0 0 0 0 -13228337.158416748 91599849.977669328 0 91599849.977669328 22174815.850963414 0 0 0 0 5956320.3732299805 -832238.96148297656 0 -832238.96148297656 11366.817673950027 0 0 0 0 25284599.473144531 3938932.4230920244 0 3938932.4230920244 -335560.97698726552 0 0 0 0 41977782.658889771 14582091.37984913 0 14582091.37984913 -5959838.8699761257 0 0 0 0 -5120914.4845123291 2828069.0725509748 0 2828069.0725509748 2896400.258632699 0 0 0 0 -5180171.0073769987 -5253134.9839298539 0 -5253134.9839298539 -940609.79503722908 0 0 0 0 1795510.6162796021 759403.24355451146 0 759403.24355451146 1047696.8495050821 0 0 0 0 288869.76542667672 -92684.934513802174 0 -92684.934513802174 -31846.060358329625 0 0 0 0 687851.27076721191 -1225513.2567303309 0 -1225513.2567303309 -6602064.417123423 0 0 0 0 -6493120.2263336182 -37119237.835416876 0 -37119237.835416876 49927150.835151263 0 0 0 0 21948293.69367981 -76566912.114177689 0 -76566912.114177689 -137041799.41779739 0 0 0 0 15261672.533340454 -55607404.945927747 0 -55607404.945927747 -10503462.009619955 0 0 0 0 363437.63389968872 -700652.59411753144 0 -700652.59411753144 -1038451.2662444866 0 0 0 0 -1164708.7925109863 -1739863.7190259716 0 -1739863.7190259716 -1674.7666657642744 0 0 0 0 210992.11981964111 -1363897.5157964397 0 -1363897.5157964397 -1198529.4992409497 0 0 0 0 736584.20809936523 -646966.37822897371 0 -646966.37822897371 -1263656.0200493387 0 0 0 0 588646.3793903999 -107433.80772922235 0 -107433.80772922235 -43842.746687788123 0 0 0 0 -449638.31941604614 -10169431.380772054 0 -10169431.380772054 5804748.1388790011 0 0 0 0 26035607.64100647 -1312456.9811843634 0 -1312456.9811843634 -3950308.4216486216 0 0 0 0 28051258.629302979 -3875029.4422699213 0 -3875029.4422699213 786144.21461498737 0 0 0 0 11750724.075164795 -11413900.195813745 0 -11413900.195813745 -9204272.5651397705 0 0 0 0 9354335.731842041 -5163494.5466136932 0 -5163494.5466136932 -4399356.9615047574 0 0 0 0 8660136.7926330566 -8532547.5255115032 0 -8532547.5255115032 -6929575.7191725969 0 0 0 0 -24509.572875976562 -3152553.4723985195 0 -3152553.4723985195 -10133772.055566192 0 0 0 0 30698146.807159424 16252816.004068255 0 16252816.004068255 7825589.8721939325 0 0 0 0 3583321.1994476318 -12691705.746574163 0 -12691705.746574163 -8935441.5709991157 0 0 0 0 123554.70446821302 106001.36972084455 0 106001.36972084455 105506.58964210574 0 0 0 0 9776571.6979064941 6664597.279130578 0 6664597.279130578 9095855.6071876287 0 0 0 0 2325192.6639709473 80167.931530237198 0 80167.931530237198 -6003072.6302936077 0 0 0 0 10409004.295303345 1832959.625770539 0 1832959.625770539 2367773.0979883671 0 0 0 0 7666633.8204040527 7673132.0939984322 0 7673132.0939984322 -971477.56038427353 0 0 0 0 6539611.5270233154 6529608.2822489738 0 6529608.2822489738 1415384.5796887875 0 0 0 0 9511154.5992584229 7769542.9878213406 0 7769542.9878213406 1273684.2555127144 0 0 0 0 13756784.548530579 4875000.7878990173 0 4875000.7878990173 -1502016.7760190964 0 0 0 0 9324498.9041290283 -729669.35590863228 0 -729669.35590863228 -1234902.9247894883 0 0 0 0 6239087.739692688 -6566220.7075874805 0 -6566220.7075874805 2855427.5698354244 0 0 0 0 22468886.157424927 3157407.9213768244 0 3157407.9213768244 -109664.09589368105 0 0 0 0 5205539.7820053101 1279572.4362623692 0 1279572.4362623692 -592940.23592472076 0 0 0 0 5948929.7961578369 24207.804646015167 0 24207.804646015167 -2373993.6959702969 0 0 0 0 6461112.2641296387 2729412.6101257801 0 2729412.6101257801 301357.52903079987 0 0 0 0 5112896.3937110901 3557842.2308847308 0 3557842.2308847308 911958.97819924355 0 0 0 0 9838536.4413909912 3529672.5830171108 0 3529672.5830171108 -1565798.2099199295 0 0 0 0 7617610.3167648315 3368646.2144614458 0 3368646.2144614458 -95284.479900360107 0 0 0 0 8189509.3046112061 2479687.8496650457 0 2479687.8496650457 1138024.4308657646 0 0 0 0 7326468.8103179932 2766679.9801359177 0 2766679.9801359177 -1337782.1612773538 0 0 0 0 5230194.7178268433 722717.48827767372 0 722717.48827767372 -1021906.4563088417 0 0 0 0 5224032.6468505859 496139.94832611084 0 496139.94832611084 -1409697.4224493504 0 0 0 0 5812428.3038330078 2998775.1509211063 0 2998775.1509211063 3455654.568833828 0 0 0 0 10989105.739898682 3595438.8430228233 0 3595438.8430228233 -80028.68358451128 0 0 0 0 9225810.1593551636 21529.892944514751 0 21529.892944514751 277373.17374229431 0 0 0 0 -156932.73028732464 409285.5875722752 0 409285.5875722752 186604.13630751404 0 0 0 0 5023725.1901016235 -318252.42993664742 0 -318252.42993664742 -36869.477232933044 0 0 0 0 2113218.7736740112 4604457.1447475553 0 4604457.1447475553 2732559.280477047 0 0 0 0 1990666.145652771 -1925823.0795125961 0 -1925823.0795125961 -783440.40198564529 0 0 0 0 1633863.6435860023 -51091.642066722736 0 -51091.642066722736 1028580.7000952781 0 0 0 0 3159284.4924087524 753933.4200950861 0 753933.4200950861 262822.83462500572 0 0 0 0 13351.462031550705 104974.1804058938 0 104974.1804058938 255758.68793668735 0 0 0 0 8141486.1347198486 8259889.3249468803 0 8259889.3249468803 9406275.8516730648 0 0 0 0 1739151.534809636 717272.73031271063 0 717272.73031271063 981165.07551646244 0 0 0 0 4141121.3727111816 2860811.2162097991 0 2860811.2162097991 2938681.0524795651 0 0 0 0 4565255.1471710205 3269183.0072916746 0 3269183.0072916746 2901965.4152398407 0 0 0 0 3192080.6702299267 -191355.28431851452 0 -191355.28431851452 529570.83057833172 0 0 0 0 4746527.6998519897 2595726.9335742593 0 2595726.9335742593 502483.85655045509 0 0 0 0 2065755.6351203918 400936.97700726986 0 400936.97700726986 37761.515797615051 0 0 0 0 1695211.4108276367 295844.5719909668 0 295844.5719909668 524522.11130523682 0 0 0 0 2506494.5831085909 -51747.391177225858 0 -51747.391177225858 349806.2939074249 0 0 0 0 -112108.10229492188 556733.12359428406 0 556733.12359428406 -242892.00492972136 0 0 0 0 618583.11781901494 411009.95978619275 0 411009.95978619275 2008569.7850523286 0 0 0 0 244713.66430664062 73663.71342086792 0 73663.71342086792 -14193.3619582057 0 0 0 0 920880.19118323177 103402.92478088639 0 103402.92478088639 1765209.2094262254 0 0 0 0 2300562.1592407227 204566.19693756104 0 204566.19693756104 105444.57988739014 0 0 0 0 1856572.3308720514 1010856.9585055523 0 1010856.9585055523 1316905.0790826986 0 0 0 0 2509437.452460438 390052.98759916535 0 390052.98759916535 353150.17944155983 0 0 0 0 1877385.0774154663 273650.06555092335 0 273650.06555092335 -42901.939102649689 0 0 0 0 1012316.6398178339 497196.91905539017 0 497196.91905539017 1166374.0024357862 0 0 0 0 1344043.0966720581 353709.99700927734 0 353709.99700927734 681549.1226940155 0 0 0 0 1488960.5875320435 490560.09977769852 0 490560.09977769852 704244.38996067643 0 0 0 0 1697094.4702581502 -270727.03009577608 0 -270727.03009577608 1850267.6727897965 0 0 0 0 1495574.607925415 361704.77887046337 0 361704.77887046337 667636.96147012711 0 0 0 0 954321.93967895955 -307802.62492827279 0 -307802.62492827279 1224970.3681048113 0 0 0 0 1295553.0243835449 32283.3815574646 0 32283.3815574646 391668.55888748169 0 0 0 0 329558.5233001709 -162389.05962085724 0 -162389.05962085724 1175439.173660934 0 0 0 0 500477.21547317505 81857.362725019455 0 81857.362725019455 1131110.2069616318 0 0 0 0 1911155.2000638545 1105840.2114204876 0 1105840.2114204876 1484172.8545337245 0 0 0 0 807807.4309463501 199123.57783091068 0 199123.57783091068 685871.62621831894 0 0 0 0 2106102.521886535 887409.72265971266 0 887409.72265971266 882317.3603992865 0 0 0 0 704206.76883409545 268984.03883283958 0 268984.03883283958 901285.24013898137 0 0 0 0 951788.82725524902 440816.06117463112 0 440816.06117463112 787423.89131832123 0 0 0 0 1093440.4298248291 368828.0486497879 0 368828.0486497879 452819.5606136322 0 0 0 0 765093.56517594308 175904.25351048284 0 175904.25351048284 276177.08860491018 0 0 0 0 1118865.9775848389 444556.5150026083 0 444556.5150026083 513101.10746479034 0 0 0 0 751037.93557739258 329704.97695112228 0 329704.97695112228 246807.66999816895 0 0 0 0 864890.12744903564 458576.44040632248 0 458576.44040632248 252445.72944445908 0 0 0 0 1922718.1732145753 772405.86980553158 0 772405.86980553158 556490.34500824683 0 0 0 0 895611.37339782715 276022.694409132 0 276022.694409132 547039.38804292679 0 0 0 0 2181423.3534767972 836757.26907463931 0 836757.26907463931 521146.01490248402 0 0 0 0 1317743.3044461934 928969.56609013863 0 928969.56609013863 446438.39953528694 0 0 0 0 1640501.9281125283 738105.35427511856 0 738105.35427511856 177672.10201399145 0 0 0 0 209747.70529174805 396803.12637519836 0 396803.12637519836 37472.670602321625 0 0 0 0 357445.95719080046 431536.62126269471 0 431536.62126269471 615768.74913472042 0 0 0 0 6402976.8072814941 3201020.0400801897 0 3201020.0400801897 2831555.4160476923 0 0 0 0 715466.11168479919 417958.8636482358 0 417958.8636482358 157780.09369587898 0 0 0 0 691264.50092315674 189794.00047504902 0 189794.00047504902 186332.80084681511 0 0 0 0 474025.63664628379 218173.55840747803 0 218173.55840747803 94835.721519071318 0 0 0 0 2530322.4767456055 1673901.9498231411 0 1673901.9498231411 1073135.4255785942 0 0 0 0 1688369.1995618073 999225.80311516114 0 999225.80311516114 291623.3732459069 0 0 0 0 1749724.6149056032 558709.15245883632 0 558709.15245883632 182247.5019113718 0 0 0 0 1069296.1611801218 740785.44751162641 0 740785.44751162641 448409.55874834338 0 0 0 0 5137362.8468475342 1902933.0570704043 0 1902933.0570704043 184265.2197212521 0 0 0 0 4629773.7788352966 3445676.8907669634 0 3445676.8907669634 2186704.1798455715 0 0 0 0 1881655.2613238506 820769.61907057627 0 820769.61907057627 -72087.179717671097 0 0 0 0 2058754.1702268682 1041839.4657072828 0 1041839.4657072828 132572.43370643089 0 0 0 0 4018128.2942123413 -2502905.3638940081 0 -2502905.3638940081 -16402658.081537187 0 0 0 0 903661.25813293457 730983.75771856308 0 730983.75771856308 -12199.300211191177 0 0 0 0 1839639.8267059326 674330.27618642896 0 674330.27618642896 798614.74900177121 0 0 0 0 31576.397872924805 12853765.532367691 0 12853765.532367691 -17476824.654198602 0 0 0 0 2843782.3807286397 1388842.2114386754 0 1388842.2114386754 320627.12844248384 0 0 0 0 1378235.1551895142 2069985.7856974602 0 2069985.7856974602 378164.33416938782 0 0 0 0 577840.56037925836 525092.98683295399 0 525092.98683295399 -118647.62272710612 0 0 0 0 3451373.8385324478 -3102753.5194852892 0 -3102753.5194852892 -11167301.431385711 0 0 0 0 1119005.6048278809 1994702.9295613766 0 1994702.9295613766 764226.77216815948 0 0 0 0 1610567.0720986014 960533.42442512885 0 960533.42442512885 549399.62287492957 0 0 0 0 1086735.5654640198 2099464.0538514853 0 2099464.0538514853 964051.98134994507 0 0 0 0 1303523.0680923462 1316438.2461919785 0 1316438.2461919785 843266.86455345154 0 0 0 0 954795.04601287842 876245.89900779724 0 876245.89900779724 208734.79244661331 0 0 0 0 1146920.3689196948 918699.93544353638 0 918699.93544353638 518092.34004446806 0 0 0 0 980501.44696044922 584448.95006752014 0 584448.95006752014 600254.43024134636 0 0 0 0 1786983.3492029179 1216522.9528714633 0 1216522.9528714633 908847.8139647909 0 0 0 0 1320781.2512431182 903952.98689581919 0 903952.98689581919 710236.11874282581 0 0 0 0 1838986.4366351701 1208009.1513901465 0 1208009.1513901465 560508.60965859564 0 0 0 0 657294.68896484375 496333.089656353 0 496333.089656353 236296.36142921448 0 0 0 0 603318.46859741211 62928.030022621155 0 62928.030022621155 600886.69648933411 0 0 0 0 1401070.1754455566 1057966.0583438873 0 1057966.0583438873 269182.71895372868 0 0 0 0 331106.62114738673 637514.60102033929 0 637514.60102033929 1281913.0437565669 0 0 0 0 369098.73741149902 737310.04284667969 0 737310.04284667969 293105.40412521362 0 0 0 0 1479420.7681433959 1046202.0388510842 0 1046202.0388510842 976435.05510340771 0 0 0 0 1350410.9026439704 1059818.513431536 0 1059818.513431536 1428248.2734801918 0 0 0 0 192246.71099029109 33755.009254941717 0 33755.009254941717 3053222.2723217006 0 0 0 0 920586.59302846715 1379.7916466635652 0 1379.7916466635652 891346.28638557205 0 0 0 0 807056.88940429688 1030739.4375209808 0 1030739.4375209808 1109072.4738473892 0 0 0 0 106236.27572631836 476974.91103076935 0 476974.91103076935 1570558.0490465164 0 0 0 0 1452569.2291259766 1855262.8838691711 0 1855262.8838691711 834289.85013198853 0 0 0 0 2237139.3503753473 1848267.5524649341 0 1848267.5524649341 367909.52330795815 0 0 0 0 -96402.406421394087 110345.61294014938 0 110345.61294014938 128787.4424218135 0 0 0 0 288609.78784179688 129332.36960983276 0 129332.36960983276 1746555.7194519043 0 0 0 0 -422815.64743804932 649153.27061843872 0 649153.27061843872 486601.08081054688 0 0 0 0 676071.22003081907 1340533.4619486704 0 1340533.4619486704 931183.91448156396 0 0 0 0 762594.23553933459 621872.6380648911 0 621872.6380648911 966215.39426157763 0 0 0 0 49520.835946027189 273912.46756827855 0 273912.46756827855 3271836.8861785047 0 0 0 0 75378.215927124023 2319806.773103714 0 2319806.773103714 3219709.9581489563 0 0 0 0 -73204.599382024258 1143660.6620354517 0 1143660.6620354517 2833666.5082633235 0 0 0 0 408480.24018859863 1354519.1386919022 0 1354519.1386919022 2188554.1424293518 0 0 0 0 27686.747985839844 1009816.975777626 0 1009816.975777626 -684130.27601242065 0 0 0 0 939024.22514343262 3206737.8103733063 0 3206737.8103733063 4121164.2326583862 0 0 0 0 2776822.8558177948 4323553.1792709827 0 4323553.1792709827 3053648.7116966248 0 0 0 0 -45302.706123504788 294874.52784583904 0 294874.52784583904 283067.70559100248 0 0 0 0 -2738445.3495025635 1134526.8799448013 0 1134526.8799448013 3388776.2147369385 0 0 0 0 -2000097.8800506592 2103395.8970756531 0 2103395.8970756531 3745773.6016731262 0 0 0 0 -1505049.1979522705 1201440.2627620697 0 1201440.2627620697 5053045.018409729 0 0 0 0 -449844.953125 798248.54186630249 0 798248.54186630249 5782936.6116008759 0 0 0 0 -434984.9714050293 1337272.9252910614 0 1337272.9252910614 3626040.8062171936 0 0 0 0 1482077.5281219482 4858003.6428565979 0 4858003.6428565979 -250507.20528030396 0 0 0 0 -1442738.9610366821 2830423.3720493317 0 2830423.3720493317 8904834.5389213562 0 0 0 0 868293.46450958401 1920156.2097758669 0 1920156.2097758669 1857757.8997766851 0 0 0 0 -528511.64242553711 1863392.8678560257 0 1863392.8678560257 968746.56432151794 0 0 0 0 -1235530.1346511841 3032696.8224897385 0 3032696.8224897385 3955789.8808631897 0 0 0 0 -1068268.7561798096 2470292.8798036575 0 2470292.8798036575 2852626.9388751984 0 0 0 0 -92675.885498046875 1846304.853521347 0 1846304.853521347 2717924.6069946289 0 0 0 0 -1111888.806640625 2091713.1154785156 0 2091713.1154785156 971635.02071380615 0 0 0 0 2820250.7189941406 296781.44092941284 0 296781.44092941284 -689116.78114318848 0 0 0 0 2958660.6974960612 1823114.7001144495 0 1823114.7001144495 -67750.73322601174 0 0 0 0 35355.444198288023 18148.986126746051 0 18148.986126746051 -7240.9424650222063 0 0 0 0 1193238.6007385254 2421920.8533430099 0 2421920.8533430099 786468.35517692566 0 0 0 0 593985.60424041748 4418364.258428812 0 4418364.258428812 1906040.9467439651 0 0 0 0 1721719.1376638412 -1286447.1743015945 0 -1286447.1743015945 -2149222.1852378845 0 0 0 0 816023.57275110483 2188913.5959451972 0 2188913.5959451972 1886932.8118656566 0 0 0 0 1539631.9163818359 2516275.8939023018 0 2516275.8939023018 1553282.3005928099 0 0 0 0 2764768.861328125 9242129.7828235626 0 9242129.7828235626 5386492.2148132324 0 0 0 0 3569635.5686645508 1880370.2671051025 0 1880370.2671051025 -2180004.3971939087 0 0 0 0 -50878.291379030328 679989.64786165953 0 679989.64786165953 258533.95357090887 0 0 0 0 -205292.92421340942 997018.52538728714 0 997018.52538728714 4216865.1255187988 0 0 0 0 44176.393981136382 1705759.4391648478 0 1705759.4391648478 2195312.480383975 0 0 0 0 -6594027.7858123779 -5096370.6079950333 0 -5096370.6079950333 -572516.78586578369 0 0 0 0 -3285284.8700097296 716566.26357889967 0 716566.26357889967 1832568.5867810908 0 0 0 0 1586580.8055505576 3889294.7448148616 0 3889294.7448148616 775547.03141688928 0 0 0 0 -32981625.236564636 -1216778.598110199 0 -1216778.598110199 15472083.385814667 0 0 0 0 -58792607.990333557 6790564.8709058762 0 6790564.8709058762 15248431.079057693 0 0 0 0 -10936469.603744507 20243692.984746933 0 20243692.984746933 -10751896.697280884 0 0 0 0 -13826985.213226318 -42889542.164093018 0 -42889542.164093018 -56810108.677019119 0 0 0 0 -79030.842338295653 832049.80421694904 0 832049.80421694904 875989.06438673579 0 0 0 0 -12090272.985618591 63004096.069046974 0 63004096.069046974 -74468420.293773651 0 0 0 0 11040073.298225403 12760921.328774452 0 12760921.328774452 -26948730.557859421 0 0 0 0 2874711.7069662642 3489587.5665553939 0 3489587.5665553939 278409.97935680929 0 0 0 0 2504882.9404335022 2387505.6278119087 0 2387505.6278119087 608937.5610666275 0 0 0 0 1738442.4200134277 2290552.1996631622 0 2290552.1996631622 604574.18222492933 0 0 0 0 -111693528.90917587 -12695011.52188462 0 -12695011.52188462 -2146812.8525292873 0 0 0 0 -139047226.98786354 -57945273.411240339 0 -57945273.411240339 46378438.492118835 0 0 0 0 581478.64852519985 443945.80072483979 0 443945.80072483979 73980.145637269598 0 0 0 0 -285692946.76594543 -35148977.517003059 0 -35148977.517003059 16305272.120040894 0 0 0 0 -281874.93771173246 -50844.647447464988 0 -50844.647447464988 102620.09368371172 0 0 0 0 1643250.6466827393 2342884.4156012535 0 2342884.4156012535 595718.83454275131 0 0 0 0 1634989.1724700928 2318525.7735967636 0 2318525.7735967636 646961.04589080811 0 0 0 0 1123134.3649339676 2241936.598231256 0 2241936.598231256 685045.6784620285 0 0 0 0 1817767.207901001 2034633.2042934895 0 2034633.2042934895 -197879.38352584839 0 0 0 0 2209861.4038085938 2382592.8205404282 0 2382592.8205404282 -850536.02278327942 0 0 0 0 3513128.4998281142 3922443.0913266297 0 3922443.0913266297 -178016.26933638193 0 0 0 0 2798538.3633864373 2172631.9066904443 0 2172631.9066904443 531681.78402384138 0 0 0 0 2090845.0941619873 2558133.9720444679 0 2558133.9720444679 -174180.2970533371 0 0 0 0 -130769889.91636658 36410156.763422966 0 36410156.763422966 59457377.016822815 0 0 0 0 -785077799.73365021 -146027904.01517487 0 -146027904.01517487 290620763.38827515 0 0 0 0 -286398758.26585388 -35624322.427843094 0 -35624322.427843094 185144436.21932602 0 0 0 0 -560463259.81993103 -21379266.130002975 0 -21379266.130002975 223356052.86289215 0 0 0 0 -189224117.75239563 -143796342.13100052 0 -143796342.13100052 44958389.961029053 0 0 0 0 -724449807.0460434 147975795.60990715 0 147975795.60990715 172223945.48027802 0 0 0 0 1928758.3753662109 -7158035.100276947 0 -7158035.100276947 8965984.3123054504 0 0 0 0 -78153.135629251599 89620.095663132146 0 89620.095663132146 -112089.38922877796 0 0 0 0 -355116155.81958008 96345355.595787048 0 96345355.595787048 293016606.25350952 0 0 0 0 1532497.1151640415 38639912.371575393 0 38639912.371575393 6453226.8439064026 0 0 0 0 -27338300.652305603 -34750099.874072075 0 -34750099.874072075 -99025465.150985241 0 0 0 0 -330061.72677717544 735123.73395708948 0 735123.73395708948 479140.25537168328 0 0 0 0 -26301686.234512329 -41218138.102239609 0 -41218138.102239609 -78401959.710569382 0 0 0 0 -44656567.703018188 -12264316.786445618 0 -12264316.786445618 41212407.863349915 0 0 0 0 -659645.88745183218 -742304.22024279274 0 -742304.22024279274 3024680.7738585696 0 0 0 0 -46619679.784194946 -40598240.386875153 0 -40598240.386875153 -25169381.554756165 0 0 0 0 -11689.414291094989 22244.960287656868 0 22244.960287656868 85090.140792755643 0 0 0 0 -362749315.37445068 -135977421.98757553 0 -135977421.98757553 -192383018.15696335 0 0 0 0 -629894125.87123108 -276853099.26309013 0 -276853099.26309013 77830848.306678772 0 0 0 0 -592352746.24220276 -137229820.64993525 0 -137229820.64993525 244860492.33786774 0 0 0 0 -265225277.20710754 47001681.563800812 0 47001681.563800812 43422910.026548386 0 0 0 0 -223212611.62688065 -35680168.798697472 0 -35680168.798697472 189008345.78350067 0 0 0 0 -291612205.6498642 175032622.62501335 0 175032622.62501335 -21616787.751358032 0 0 0 0 -144084802.97091293 269503266.0782032 0 269503266.0782032 161576697.88250351 0 0 0 0 -257090837.46327209 121601997.58991909 0 121601997.58991909 35542696.086486816 0 0 0 0 -107764079.5506897 154642594.45617008 0 154642594.45617008 -244789637.74287987 0 0 0 0 -108789415.5222702 245628265.76848316 0 245628265.76848316 -138024788.95138168 0 0 0 0 -225771588.1973114 201009788.79333878 0 201009788.79333878 53342638.408646107 0 0 0 0 -1159292.8663847465 865611.27496913914 0 865611.27496913914 3226600.5323140975 0 0 0 0 -729799.32537841797 1885023.8760032654 0 1885023.8760032654 -83421.578371822834 0 0 0 0 -468786.94107489893 2406800.2691716589 0 2406800.2691716589 1079644.7386584394 0 0 0 0 17538483.024291992 -14898090.65209198 0 -14898090.65209198 -46240651.044631958 0 0 0 0 -1202618.555698894 2413042.9019375779 0 2413042.9019375779 1133462.7554792818 0 0 0 0 -257392476.54832649 104685203.72094679 0 104685203.72094679 -81182758.236263275 0 0 0 0 -344585992.00833893 111909677.05521488 0 111909677.05521488 24443355.262996674 0 0 0 0 3507577.6986598969 15518131.005218506 0 15518131.005218506 15336.852714538574 0 0 0 0 -655831.29373297887 1804219.5256698448 0 1804219.5256698448 -13868.656832659617 0 0 0 0 -39308.73876953125 349222.96687316895 0 349222.96687316895 1919317.9962234497 0 0 0 0 -101896.549302903 -172039.65939845238 0 -172039.65939845238 194618.24140123185 0 0 0 0 -1177173.8137283325 1537723.5972938538 0 1537723.5972938538 1821187.074657917 0 0 0 0 -109387.91680400446 1246808.0806165654 0 1246808.0806165654 1573701.1991293309 0 0 0 0 -1268428.2271118164 891483.43815612793 0 891483.43815612793 2153956.3821939826 0 0 0 0 -571112.04697418213 1317201.0078439713 0 1317201.0078439713 1044123.9166717529 0 0 0 0 -771690.51140594482 768860.07765007019 0 768860.07765007019 1308235.1834031641 0 0 0 0 -180201.20091247559 312419.18121910095 0 312419.18121910095 1467016.7159659863 0 0 0 0 273145.98977661133 327644.75573730469 0 327644.75573730469 1241823.2775020599 0 0 0 0 -475753.99533843994 128198.52755451202 0 128198.52755451202 1485106.5961341858 0 0 0 0 508750.69546562037 495729.64256328344 0 495729.64256328344 1139454.2218131013 0 0 0 0 -106449.20315551758 -124592.41086864471 0 -124592.41086864471 1038333.5109996796 0 0 0 0 409228.97625126131 393304.23570313863 0 393304.23570313863 1972709.1954742256 0 0 0 0 -3765333.6314315796 -2424394.0011844635 0 -2424394.0011844635 5496016.4303455353 0 0 0 0 -2472265.7055568695 1793808.8002768755 0 1793808.8002768755 3221089.1619949341 0 0 0 0 -569199.48160552979 969694.38290882111 0 969694.38290882111 1070121.0580869913 0 0 0 0 526574.17996404553 306683.01820014231 0 306683.01820014231 1238785.6229457147 0 0 0 0 -1093254.8798065186 404200.5760679245 0 404200.5760679245 1706666.8066549301 0 0 0 0 -1511749.0307159424 1844353.4777259827 0 1844353.4777259827 2691451.6138596535 0 0 0 0 1346558.2900772095 964859.96588993073 0 964859.96588993073 298928.48592758179 0 0 0 0 756389.96836720034 321475.62127284519 0 321475.62127284519 1450982.3593789376 0 0 0 0 -589291.97869873047 564952.6236076355 0 564952.6236076355 757114.07187652588 0 0 0 0 -339111.77388576046 930075.68375519291 0 930075.68375519291 1756891.873245867 0 0 0 0 -858465.50234397128 371633.03860560618 0 371633.03860560618 2972187.2512506982 0 0 0 0 1452376.6287078857 -75557.095142364502 0 -75557.095142364502 618309.26903247833 0 0 0 0 -1093625.2964096069 -1542960.6369628906 0 -1542960.6369628906 3346382.5019798279 0 0 0 0 -2497866.0234298706 -1952093.3380360603 0 -1952093.3380360603 2971569.342590332 0 0 0 0 3930631.4425811768 -3906532.3903160095 0 -3906532.3903160095 9456933.5480766296 0 0 0 0 -1103082.9375552749 -216676.59638337232 0 -216676.59638337232 3610324.2537432574 0 0 0 0 1411803.8391723633 -6117744.2409706116 0 -6117744.2409706116 13294421.678772926 0 0 0 0 3952104.6269989014 -4859752.8138160706 0 -4859752.8138160706 7678429.7026405334 0 0 0 0 3894266.9233417511 -4273881.9521327019 0 -4273881.9521327019 1817701.7502288818 0 0 0 0 4037426.8350830078 -2164782.9930415154 0 -2164782.9930415154 2930863.0446443558 0 0 0 0 -757285.79673133604 -1695251.3674292052 0 -1695251.3674292052 2667662.9638719894 0 0 0 0 -1852.4430801570415 -2148880.3213678421 0 -2148880.3213678421 3307469.4870833741 0 0 0 0 -1330894.8332672119 -634054.67873382568 0 -634054.67873382568 1079422.7767486572 0 0 0 0 -2559278.0240707397 -683506.60205078125 0 -683506.60205078125 1823320.7464103699 0 0 0 0 -127162.43449438363 -1501209.8100246903 0 -1501209.8100246903 3793100.706284862 0 0 0 0 -399150.79873657227 -52962.830196380615 0 -52962.830196380615 155473.7290802002 0 0 0 0 47225.515913990093 168857.64650900103 0 168857.64650900103 615912.62577444036 0 0 0 0 2224386.5928382874 -3407486.6358914375 0 -3407486.6358914375 3124499.0493488312 0 0 0 0 2802914.6647295468 -2030937.2468980872 0 -2030937.2468980872 1847468.6933890642 0 0 0 0 2699135.5772615448 -2956640.4833608707 0 -2956640.4833608707 1570752.7738588706 0 0 0 0 5007847.6412849426 -3345227.0848665237 0 -3345227.0848665237 1337840.9243192673 0 0 0 0 4667534.7753210068 -4463961.1554480791 0 -4463961.1554480791 5834267.6886310577 0 0 0 0 310928.8897819519 3725832.2630040646 0 3725832.2630040646 4712904.6380434036 0 0 0 0 -579695.83110255934 229054.18024998624 0 229054.18024998624 837655.7905063387 0 0 0 0 6458032.1778182983 -153207.51164865494 0 -153207.51164865494 1093459.4107745886 0 0 0 0 -1722672.1320228577 1733788.5198522806 0 1733788.5198522806 7853520.0281629562 0 0 0 0 -3320358.9225177765 -975927.44804418087 0 -975927.44804418087 8237090.2130012512 0 0 0 0 10337252.45790863 -750317.16598844528 0 -750317.16598844528 1443462.8215074539 0 0 0 0 1081278.9768102914 -80615.679565268569 0 -80615.679565268569 1720597.115554342 0 0 0 0 242215.10771179199 -1776967.9858858585 0 -1776967.9858858585 1357022.9008483887 0 0 0 0 4802000.4912872314 -2629096.2329106331 0 -2629096.2329106331 1150485.6729297638 0 0 0 0 5745659.7211303711 -810145.33753395081 0 -810145.33753395081 -571702.38115805387 0 0 0 0 2669400.3353633881 -538080.2415869236 0 -538080.2415869236 738643.2621383667 0 0 0 0 7335399.4784545898 2057842.9757471085 0 2057842.9757471085 2503769.7074174881 0 0 0 0 5958440.8463287354 -354678.41582584381 0 -354678.41582584381 636576.8855946064 0 0 0 0 4851892.8903999329 2002085.2796726227 0 2002085.2796726227 6780392.5259876251 0 0 0 0 5506524.301071167 833544.30899620056 0 833544.30899620056 4177523.5641136169 0 0 0 0 5050858.0510063171 -1001493.5629850626 0 -1001493.5629850626 2042302.8250007629 0 0 0 0 3174275.0894927979 -1035241.6161203384 0 -1035241.6161203384 3187441.1891460419 0 0 0 0 4817128.5441894531 -611330.70855808258 0 -611330.70855808258 1614761.1174488068 0 0 0 0 526334.10725288652 148540.56401093584 0 148540.56401093584 -39054.95476654591 0 0 0 0 4172992.342880249 -501226.63906145096 0 -501226.63906145096 2349327.467446804 0 0 0 0 2126448.8681030273 -1388262.6240644455 0 -1388262.6240644455 -1253800.9587701857 0 0 0 0 4156847.3594360352 -265761.81220054626 0 -265761.81220054626 2216389.9813117981 0 0 0 0 4014901.296672821 3747859.2585369349 0 3747859.2585369349 560489.43996810913 0 0 0 0 2069232.9436375797 173540.32156975102 0 173540.32156975102 1345958.381099167 0 0 0 0 33796.34814453125 512318.70705032349 0 512318.70705032349 -273655.20655822754 0 0 0 0 1536683.8024902344 -140422.89104747772 0 -140422.89104747772 707004.92766189575 0 0 0 0 6531098.8471412659 3614474.3483932614 0 3614474.3483932614 228915.43032073975 0 0 0 0 2442861.7125628628 455017.86926308367 0 455017.86926308367 849784.44638153235 0 0 0 0 4948314.088470459 393726.52329063416 0 393726.52329063416 -473715.35371017456 0 0 0 0 2329460.1471232949 -440862.37843385898 0 -440862.37843385898 109489.0633173876 0 0 0 0 4880934.5950762248 331119.68194102962 0 331119.68194102962 -321912.5148824139 0 0 0 0 125773.59470482869 66509.541717692278 0 66509.541717692278 -37898.329879810801 0 0 0 0 2199163.056350708 -1894840.5568571091 0 -1894840.5568571091 -1063749.2521253824 0 0 0 0 3910048.7209281921 -885625.64179444313 0 -885625.64179444313 722302.60320091248 0 0 0 0 4171505.44917202 -1239181.5425572991 0 -1239181.5425572991 456778.0686674118 0 0 0 0 3058382.3277615905 -1994607.3412136212 0 -1994607.3412136212 694302.05117986631 0 0 0 0 6053798.8481593961 -1691226.2374998117 0 -1691226.2374998117 777005.03604475921 0 0 0 0 2467495.0082740784 -2171445.183208704 0 -2171445.183208704 1714895.3137378693 0 0 0 0 5002210.3503909707 -2608472.8021259438 0 -2608472.8021259438 1556541.8261433365 0 0 0 0 -380754.75929069519 -9891734.7354769707 0 -9891734.7354769707 4074340.6342906952 0 0 0 0 5042874.7252693176 -3205728.7354769707 0 -3205728.7354769707 1885755.9883856773 0 0 0 0 831558.7448373083 -3061607.8837160948 0 -3061607.8837160948 529129.67530999403 0 0 0 0 2474694.5593223572 -10287218.958170891 0 -10287218.958170891 3771899.8685011864 0 0 0 0 4918919.5945682526 -27427406.104966044 0 -27427406.104966044 -12046667.789876223 0 0 0 0 3878629.2147865295 -16738742.091365576 0 -16738742.091365576 -35459116.663146079 0 0 0 0 -6686607.5932312012 -23625000.907828629 0 -23625000.907828629 -7732619.3350350857 0 0 0 0 3576964.9100381508 -3315570.1120195594 0 -3315570.1120195594 1364483.7558349916 0 0 0 0 1778074.461057663 -31461029.420785815 0 -31461029.420785815 -4162218.6162035465 0 0 0 0 8455139.5996332169 -17971971.7404145 0 -17971971.7404145 -6357855.45185709 0 0 0 0 -21376282.037750721 -16933542.4648083 0 -16933542.4648083 21830836.920961857 0 0 0 0 -7468510.0152378082 -70219000.671088845 0 -70219000.671088845 41804000.965313673 0 0 0 0 -76843059.136726379 -72744026.975180387 0 -72744026.975180387 49320123.528270483 0 0 0 0 31102788.259735107 -21369084.716929913 0 -21369084.716929913 37182155.744194359 0 0 0 0 -89360594.660179138 -10497552.128850341 0 -10497552.128850341 45297805.516289234 0 0 0 0 -42862656.427762985 30063723.611558378 0 30063723.611558378 -5351032.9275076389 0 0 0 0 -28672296.783136368 -16386889.104827404 0 -16386889.104827404 23921410.458955169 0 0 0 0 1110274.1679115295 -5420876.5732479095 0 -5420876.5732479095 381838.31224060059 0 0 0 0 -21934839.13911438 -9561887.8094465733 0 -9561887.8094465733 4203623.6133280993 0 0 0 0 2566151.0786091038 -3555760.4407231798 0 -3555760.4407231798 2056235.2402518843 0 0 0 0 1548306.8140761983 -2318404.2831222117 0 -2318404.2831222117 1193106.8279652637 0 0 0 0 -15953560.722866058 4098162.6906662583 0 4098162.6906662583 7008434.3476457894 0 0 0 0 449677.109375 -3102018.5195214748 0 -3102018.5195214748 1506444.9995183945 0 0 0 0 -2545376.6412214413 -1460936.2433624724 0 -1460936.2433624724 2732640.5489758924 0 0 0 0 -3649692.6989097595 -3103027.3785171509 0 -3103027.3785171509 2693637.1397246122 0 0 0 0 496976.81077098846 -3509727.8291949332 0 -3509727.8291949332 1253793.501906395 0 0 0 0 -7641126.8584289551 -2595306.1923322678 0 -2595306.1923322678 2852405.642074585 0 0 0 0 340818.14758312982 -208737.19421534333 0 -208737.19421534333 123678.85043831868 0 0 0 0 143836.75550365448 -4060898.9321582913 0 -4060898.9321582913 2772759.4328670502 0 0 0 0 340051.28002643585 -5396431.3410039544 0 -5396431.3410039544 956379.98551559448 0 0 0 0 859549.24925613403 -2835983.7322702408 0 -2835983.7322702408 2975557.3699092865 0 0 0 0 -119051.02689361572 -4849035.9259572029 0 -4849035.9259572029 1720625.2795599699 0 0 0 0 1661940.0766801834 -3336018.9251570702 0 -3336018.9251570702 1224632.7358207703 0 0 0 0 2039523.2874879837 -1811278.1968514919 0 -1811278.1968514919 3004493.440038681 0 0 0 0 345596.15405411925 -2674566.5681290049 0 -2674566.5681290049 4053642.3967427788 0 0 0 0 3438613.3055000305 -2747653.7317800522 0 -2747653.7317800522 2505430.0889139175 0 0 0 0 -14934888.844276428 12643495.070035934 0 12643495.070035934 6606970.1298065186 0 0 0 0 -13311182.277435303 12198029.367076874 0 12198029.367076874 2714720.0701828003 0 0 0 0 -2816520.3876671568 1712527.8992729783 0 1712527.8992729783 170268.72860302776 0 0 0 0 -13390166.837348938 10776973.246488571 0 10776973.246488571 8154296.431312561 0 0 0 0 -2636269.7386169434 -134772.32072639465 0 -134772.32072639465 1291909.7880401611 0 0 0 0 28865348.864578247 5860596.1077766418 0 5860596.1077766418 -8758589.191034317 0 0 0 0 -429631.73785180785 -470071.04771675356 0 -470071.04771675356 1894497.2171289818 0 0 0 0 21661444.013378143 -18395239.862984657 0 -18395239.862984657 -27201363.45300293 0 0 0 0 -12454298.434936523 9561323.5108032227 0 9561323.5108032227 10546548.427368164 0 0 0 0 -8958572.2174682617 6787029.1432800293 0 6787029.1432800293 11508937.327018738 0 0 0 0 -5572429.7699279785 6228983.5066223145 0 6228983.5066223145 5826789.4452896118 0 0 0 0 -2223164.2229309082 314720.87061309814 0 314720.87061309814 13240697.758565903 0 0 0 0 5651154.3419494629 6246192.4461193085 0 6246192.4461193085 4456955.4185752869 0 0 0 0 -9419303.5579833984 3355408.8370628357 0 3355408.8370628357 11598375.769134521 0 0 0 0 14018578.11366272 -1529854.3469467163 0 -1529854.3469467163 4774303.7876338959 0 0 0 0 -14685514.502914429 6219213.7186717987 0 6219213.7186717987 12705018.265501022 0 0 0 0 -15779539.775512695 -7210914.4896068573 0 -7210914.4896068573 3332821.1158065796 0 0 0 0 -39103403.294244766 3056761.9938703775 0 3056761.9938703775 14207431.088493347 0 0 0 0 894042.4337381809 -3571370.6862077378 0 -3571370.6862077378 2825369.1220664438 0 0 0 0 -9248699.9540100098 3294760.0907175541 0 3294760.0907175541 -2714453.4433174133 0 0 0 0 2848581.7369003296 -2947257.1007637978 0 -2947257.1007637978 56399.912561416626 0 0 0 0 -15541492.953613281 -1270151.2967615128 0 -1270151.2967615128 -3876354.6366863251 0 0 0 0 2436224.0966842896 -3993916.1599499844 0 -3993916.1599499844 1473107.3745123888 0 0 0 0 -32599369.642982483 -10903163.787775993 0 -10903163.787775993 12548174.06210041 0 0 0 0 -4043865.960357666 1987214.1748857498 0 1987214.1748857498 13705673.298140526 0 0 0 0 -20002242.148750305 -11710520.795466423 0 -11710520.795466423 27851156.364329338 0 0 0 0 -15718063.150260925 -1242262.0483541489 0 -1242262.0483541489 19593603.75548172 0 0 0 0 279576.14287185669 3787133.0736570358 0 3787133.0736570358 3288997.8233528137 0 0 0 0 -2186875.2911682129 -1440496.3515434265 0 -1440496.3515434265 19763231.648647785 0 0 0 0 -2980316.0851364136 11548793.963527918 0 11548793.963527918 28007364.320545197 0 0 0 0 445746.39614647068 -50528.682665625587 0 -50528.682665625587 -541666.35759833734 0 0 0 0 15588303.675643921 31992577.896253824 0 31992577.896253824 65310656.269237518 0 0 0 0 -69732819.916145325 -211360857.67738438 0 -211360857.67738438 6513440.0500330925 0 0 0 0 10269061.942558289 -29781339.436466217 0 -29781339.436466217 -39073807.992490768 0 0 0 0 -188725404.95969391 -88285316.949607849 0 -88285316.949607849 28946644.811717987 0 0 0 0 16492649.871852875 22408051.881194293 0 22408051.881194293 11519519.540187836 0 0 0 0 55993.07806315273 92258.073890473694 0 92258.073890473694 -382721.47464199271 0 0 0 0 -154320845.96565247 -11691572.192483902 0 -11691572.192483902 26934702.849472046 0 0 0 0 -145189150.0064621 -24622634.24323082 0 -24622634.24323082 -2607863.1497650146 0 0 0 0 -243209799.56149292 23464831.372322083 0 23464831.372322083 13296564.104530334 0 0 0 0 -142415318.65734863 27314036.963394165 0 27314036.963394165 4574995.8619537354 0 0 0 0 -116265597.65203857 28590139.368911743 0 28590139.368911743 340489.62780380249 0 0 0 0 -226887380.3548584 85854862.768548965 0 85854862.768548965 12611773.18788147 0 0 0 0 -19917748.263946533 -24567689.620422363 0 -24567689.620422363 -3552845.5893287659 0 0 0 0 -101074725.80173492 380213.03449630737 0 380213.03449630737 -2341638.0522232056 0 0 0 0 -11912692.838653564 -2264201.6126232147 0 -2264201.6126232147 5119038.4245300293 0 0 0 0 -24579821.461746216 -20294862.469535828 0 -20294862.469535828 -7820593.0783224106 0 0 0 0 -45480800.374481201 31821917.734580994 0 31821917.734580994 -12363444.971389771 0 0 0 0 -121694053.64257812 62574363.886707306 0 62574363.886707306 10156804.99659729 0 0 0 0 -341418401.70446777 100663577.45677567 0 100663577.45677567 -110558333.81794739 0 0 0 0 -111753614.83363342 -38842032.17568779 0 -38842032.17568779 -17257447.131422043 0 0 0 0 -361596535.43367863 34362973.529296637 0 34362973.529296637 -56354879.217819214 0 0 0 0 -303791131.09716797 55091494.569709778 0 55091494.569709778 47400039.063674927 0 0 0 0 -265632509.14826012 -213801209.76092219 0 -213801209.76092219 -184247554.24112701 0 0 0 0 -16254958.61233902 -10393951.557431459 0 -10393951.557431459 13435743.965802073 0 0 0 0 4547109.9741439819 60086767.368275136 0 60086767.368275136 -55745524.276067942 0 0 0 0 5314029.5235602353 1852381.0685747615 0 1852381.0685747615 1035322.3512591834 0 0 0 0 -9444094.4216079712 12953915.276043557 0 12953915.276043557 -4946523.2865105271 0 0 0 0 10096601.640817642 -179232770.62023574 0 -179232770.62023574 142195081.06674528 0 0 0 0 -131535404.83838844 119437707.4342382 0 119437707.4342382 223028070.46336651 0 0 0 0 -181540081.1845932 87256806.509710312 0 87256806.509710312 202844080.20424628 0 0 0 0 3790023.8933521714 1574438.552022456 0 1574438.552022456 1114515.8938149053 0 0 0 0 -13668924.590257645 222557601.7710278 0 222557601.7710278 79159528.11396122 0 0 0 0 100903814.75563049 -253943897.01394624 0 -253943897.01394624 207683615.51266348 0 0 0 0 1393182.5889160261 671127.66298967274 0 671127.66298967274 1027131.1655894845 0 0 0 0 2200794438.2130661 -633215025.18204677 0 -633215025.18204677 -119172635.30573265 0 0 0 0 1392138290.3852806 -960990889.23145127 0 -960990889.23145127 594754422.41893303 0 0 0 0 1428141568.6367931 -289993235.65707272 0 -289993235.65707272 -265892024.90429449 0 0 0 0 45713000.944786072 -39153034.883553267 0 -39153034.883553267 429573.55599498749 0 0 0 0 703334435.38296509 -47329559.447090611 0 -47329559.447090611 27044759.771850228 0 0 0 0 1377819186.6064711 -586249501.19064391 0 -586249501.19064391 47176286.057255089 0 0 0 0 -71535878.482894897 78433849.275258809 0 78433849.275258809 181920033.70425561 0 0 0 0 467856.27382243657 -48690.270386576653 0 -48690.270386576653 -113629.45532426775 0 0 0 0 1298480978.7758179 -55055397.410032123 0 -55055397.410032123 -167432034.93839425 0 0 0 0 1359601383.1841888 267906361.70650685 0 267906361.70650685 -409232863.18860596 0 0 0 0 2206084981.9905014 -150282182.93856707 0 -150282182.93856707 -465499495.02386808 0 0 0 0 2200460943.955328 828481336.05090702 0 828481336.05090702 -393446563.44318366 0 0 0 0 1480140521.0994644 299016329.88692451 0 299016329.88692451 -402342978.71403503 0 0 0 0 243308370.83885193 68700316.945426092 0 68700316.945426092 54141465.328056388 0 0 0 0 249856113.82060623 60594274.800479412 0 60594274.800479412 16336090.337120999 0 0 0 0 1003371568.8626862 830793501.34807873 0 830793501.34807873 308206239.56360662 0 0 0 0 -137345.34535547905 -555449.23572848551 0 -555449.23572848551 84931.960490597368 0 0 0 0 9044320.8891716003 -9562568.2579242587 0 -9562568.2579242587 8341082.3766798973 0 0 0 0 1304613.4860160868 -554468.8316504769 0 -554468.8316504769 -312944.56237822032 0 0 0 0 8021948.1708259583 -1189631.4795920551 0 -1189631.4795920551 9195195.2388769388 0 0 0 0 -1363841.9344177246 -2947131.9227023125 0 -2947131.9227023125 7456912.9467394352 0 0 0 0 4704394.2192830313 -1212579.1272427507 0 -1212579.1272427507 -429949.27242026251 0 0 0 0 3996325.0654411316 753402.98767364025 0 753402.98767364025 3998478.4848499298 0 0 0 0 976522.26100158691 1338994.2708030939 0 1338994.2708030939 5452509.6468258873 0 0 0 0 3116270.6959838867 1022229.9847413301 0 1022229.9847413301 2829301.240947485 0 0 0 0 4197449.1648192927 359401.87349530857 0 359401.87349530857 289737.57654420868 0 0 0 0 2244179.3630905151 4009098.7567705512 0 4009098.7567705512 -64688.965163052082 0 0 0 0 3921494.1879882812 24216431.462592721 0 24216431.462592721 -75436137.557505131 0 0 0 0 7107560.1665622108 1368339.6632128861 0 1368339.6632128861 596178.29590054927 0 0 0 0 255219.40203857422 1596865.4693006873 0 1596865.4693006873 4763593.0198280513 0 0 0 0 2452153.3993854523 198039.30773931742 0 198039.30773931742 194678.57687330246 0 0 0 0 3373521.052734375 -1280399.224211216 0 -1280399.224211216 -2163799.6734107807 0 0 0 0 5311618.6210614787 1410056.6323582847 0 1410056.6323582847 367535.40300872701 0 0 0 0 2508638.987487793 270192.4728076458 0 270192.4728076458 281982.54734716937 0 0 0 0 4303570.4377899934 946466.15462746657 0 946466.15462746657 1425982.4879895314 0 0 0 0 13878354.117507935 -7218544.5516738892 0 -7218544.5516738892 -16876028.351246834 0 0 0 0 28094066.538612366 16533299.115505219 0 16533299.115505219 -78066630.282865524 0 0 0 0 304572.98428393435 116956.58385760058 0 116956.58385760058 25208.704087153543 0 0 0 0 10296666.773427963 -2931200.5902869701 0 -2931200.5902869701 -10356472.554843903 0 0 0 0 6403707.9267724389 1741828.4281666414 0 1741828.4281666414 1051775.6154361977 0 0 0 0 13515137.769256592 -1975057.6234960556 0 -1975057.6234960556 -19819756.559582233 0 0 0 0 5896906.1702270508 -9255419.1203947067 0 -9255419.1203947067 -5158361.709854126 0 0 0 0 9262400.1571083069 -14585828.092585802 0 -14585828.092585802 3241257.5235214233 0 0 0 0 11117350.933069229 -12146373.835365772 0 -12146373.835365772 -20299218.042650223 0 0 0 0 3678424.3139677048 -10430717.416877747 0 -10430717.416877747 -5192062.7188711166 0 0 0 0 10027644.244194031 -13759721.764631987 0 -13759721.764631987 -3654471.6203632355 0 0 0 0 13226812.621307373 -21068729.27014637 0 -21068729.27014637 3385023.7211165428 0 0 0 0 8227545.8864593506 -20509598.328927994 0 -20509598.328927994 -21036495.742959023 0 0 0 0 14606255.180201292 -7987603.3285314441 0 -7987603.3285314441 -5057910.6779317856 0 0 0 0 5531450.477191925 -16393808.067600965 0 -16393808.067600965 10457290.254151106 0 0 0 0 4708495.645866394 -22559613.073312044 0 -22559613.073312044 62646556.441478729 0 0 0 0 3184234.3665962219 -17702743.472011089 0 -17702743.472011089 22457589.638379097 0 0 0 0 2478992.5649270974 -7997573.678868778 0 -7997573.678868778 2111540.3999633789 0 0 0 0 -8430885.0821800232 -49608392.230985165 0 -49608392.230985165 8021804.3049864769 0 0 0 0 73930766.982757568 80112409.149787188 0 80112409.149787188 -152704675.03664756 0 0 0 0 38877178.667087555 -3462337.2131180763 0 -3462337.2131180763 -94296624.059580803 0 0 0 0 50809369.166378021 35600203.706284761 0 35600203.706284761 71455579.409691095 0 0 0 0 26167494.750404358 -33529334.292072535 0 -33529334.292072535 16281896.37461853 0 0 0 0 146441892.80779076 19366874.799449801 0 19366874.799449801 17272565.92810607 0 0 0 0 87169549.322953224 17516658.157197595 0 17516658.157197595 -24646792.050743103 0 0 0 0 74252397.361409664 89447408.907449931 0 89447408.907449931 99162632.371620893 0 0 0 0 192445097.40452576 138049416.49129033 0 138049416.49129033 40294771.219018936 0 0 0 0 326137.35791801196 -223511.21820922103 0 -223511.21820922103 37853.79641280201 0 0 0 0 38688580.313007355 188013412.31199339 0 188013412.31199339 291669947.54226243 0 0 0 0 94404.079645901918 -673034.99326733546 0 -673034.99326733546 556159.88052813965 0 0 0 0 30021909.72542572 -6238441.6192333698 0 -6238441.6192333698 -81080653.887118578 0 0 0 0 -24842.688164722174 -39547.915579399152 0 -39547.915579399152 224559.18045942148 0 0 0 0 53533107.342967987 65683346.448681355 0 65683346.448681355 -76451096.032373428 0 0 0 0 -9979413.2717113495 -4176041.4214578271 0 -4176041.4214578271 -9262319.6409282684 0 0 0 0 39366963.832580566 57863078.461543322 0 57863078.461543322 41356751.189144135 0 0 0 0 80551286.310394287 3105220.8761646748 0 3105220.8761646748 -14103412.281194866 0 0 0 0 49568518.66897583 -45254905.703945994 0 -45254905.703945994 7986147.3618056774 0 0 0 0 53914968.317602396 17924487.389569521 0 17924487.389569521 27501212.992990017 0 0 0 0 48924914.814792633 -14872108.322610497 0 -14872108.322610497 35714213.467258573 0 0 0 0 154093997.76716995 73266830.008390665 0 73266830.008390665 18049727.91949451 0 0 0 0 99452039.04875946 -488368.43804335594 0 -488368.43804335594 25111853.93777442 0 0 0 0 299478219.8228302 -847758.16497224569 0 -847758.16497224569 42003251.394177556 0 0 0 0 196117953.64801407 224575329.42396015 0 224575329.42396015 240007827.71149623 0 0 0 0 158179356.31499481 46202452.845419943 0 46202452.845419943 48251778.440158963 0 0 0 0 134396990.50366497 -72903640.461662009 0 -72903640.461662009 14002083.168825626 0 0 0 0 56622548.16758728 -67408332.874483347 0 -67408332.874483347 76724010.973952055 0 0 0 0 116688207.31560135 97944101.29651922 0 97944101.29651922 66225058.141294956 0 0 0 0 172663.47464422276 -91746.478961743414 0 -91746.478961743414 18524.445868296316 0 0 0 0 68582664.345703125 81375925.574265599 0 81375925.574265599 83688068.271419913 0 0 0 0 456810040.22229958 451559253.88421524 0 451559253.88421524 369303991.60240138 0 0 0 0 843883046.27583313 403812662.55131727 0 403812662.55131727 192570071.32267961 0 0 0 0 363383073.99301147 530842311.23126602 0 530842311.23126602 386854638.64045745 0 0 0 0 373519211.0977478 286720451.6283254 0 286720451.6283254 173151432.33701396 0 0 0 0 278753690.6029892 355853133.48851049 0 355853133.48851049 115410595.51593709 0 0 0 0 329770451.29898453 252161125.67144597 0 252161125.67144597 303112709.27766293 0 0 0 0 73737876.480646133 -76261159.171622753 0 -76261159.171622753 214116946.10498619 0 0 0 0 228196310.68554306 180099951.07247913 0 180099951.07247913 84496019.544938087 0 0 0 0 238929.05236640666 -191096.1105136862 0 -191096.1105136862 -51959.306573831593 0 0 0 0 237134371.38238144 234852705.86312115 0 234852705.86312115 145440827.16542783 0 0 0 0 -233379612.0667305 -82064071.367955923 0 -82064071.367955923 302978933.39613914 0 0 0 0 -124171400.15221405 -103387428.25018835 0 -103387428.25018835 261261002.63446939 0 0 0 0 520926849.7795105 1188964727.8588662 0 1188964727.8588662 1965310016.9140894 0 0 0 0 100362358.25580025 155617217.46373704 0 155617217.46373704 468745177.06805301 0 0 0 0 546785416.8400116 866606490.79456639 0 866606490.79456639 827661253.48755956 0 0 0 0 1367193321.1179619 911933249.15409696 0 911933249.15409696 81498448.514062852 0 0 0 0 2200217693.9447556 1355143826.0829163 0 1355143826.0829163 305884979.139947 0 0 0 0 2205692202.2103577 759264786.93024909 0 759264786.93024909 -196707154.526171 0 0 0 0 1320449852.7595482 702962303.17271399 0 702962303.17271399 150688212.35036397 0 0 0 0 1004902951.9596519 689019827.53106177 0 689019827.53106177 173183854.63839903 0 0 0 0 1575349460.2751637 434564522.70685482 0 434564522.70685482 -199443786.65360957 0 0 0 0 2204081767.0547485 -10310534.046985522 0 -10310534.046985522 -390394870.37162787 0 0 0 0 1402640231.2832718 349712297.44572353 0 349712297.44572353 -196096013.5449298 0 0 0 0 1230014701.5853338 68785494.228896022 0 68785494.228896022 -102604838.45758051 0 0 0 0 1114310080.9328804 61376460.938157439 0 61376460.938157439 -101658391.20625506 0 0 0 0 1228991307.3638954 -159654601.59881324 0 -159654601.59881324 -407246926.23177761 0 0 0 0 438874388.45542526 169442294.54854655 0 169442294.54854655 262720558.30739728 0 0 0 0 687595122.72986984 355689065.21239793 0 355689065.21239793 184141599.01419497 0 0 0 0 805371893.42656517 -215151499.62628543 0 -215151499.62628543 -71801935.934478641 0 0 0 0 272964072.10439682 175585344.21041295 0 175585344.21041295 263905213.73151478 0 0 0 0 89496307.28437829 388032703.26317233 0 388032703.26317233 -286693283.00273192 0 0 0 0 164336628.51664805 -167742525.08170748 0 -167742525.08170748 20589944.690920472 0 0 0 0 496492966.18230057 5909151.1745819598 0 5909151.1745819598 -243594622.10148337 0 0 0 0 2204812127.4972935 -475754844.23126006 0 -475754844.23126006 -459324534.41494995 0 0 0 0 754240099.58332062 -803415853.22294712 0 -803415853.22294712 242285867.07310158 0 0 0 0 1190393524.3041992 -492514616.25081378 0 -492514616.25081378 -345837281.44855583 0 0 0 0 2201783718.7111263 -1276370461.1004784 0 -1276370461.1004784 46781885.454299137 0 0 0 0 54636406.491840363 -1109432322.358953 0 -1109432322.358953 1785217998.391742 0 0 0 0 574262.65689809434 -119378.76015361911 0 -119378.76015361911 265759.6691535273 0 0 0 0 2195344690.1211624 -22250.728187515364 0 -22250.728187515364 -661270.27511354291 0 0 0 0 48103529.331848145 1106831449.7682142 0 1106831449.7682142 1379778095.9901114 0 0 0 0 1650121.5541927991 -718834.75451222865 0 -718834.75451222865 235257.73711730237 0 0 0 0 -36754011.611934662 6078712.5869284868 0 6078712.5869284868 -86117.414841882885 0 0 0 0 -36562824.852500916 -9929534.9408221245 0 -9929534.9408221245 -656882.23234158754 0 0 0 0 198128100.36418819 -175804201.47882473 0 -175804201.47882473 195410408.34419921 0 0 0 0 2795193.1983662043 -757733.50988735212 0 -757733.50988735212 270013.45741784561 0 0 0 0 1048912.0333331367 -886954.79152667988 0 -886954.79152667988 18613.544432179653 0 0 0 0 639657995.394804 -274877040.73892814 0 -274877040.73892814 89600242.84817344 0 0 0 0 1057648.1744992314 242007.01521954685 0 242007.01521954685 505351.55231069319 0 0 0 0 -136266747.9623642 82073266.110713303 0 82073266.110713303 -30150528.172726035 0 0 0 0 -171331396.01702785 33498240.221228778 0 33498240.221228778 107744162.81723571 0 0 0 0 -135435791.58450317 -22119242.089680672 0 -22119242.089680672 45598425.080557823 0 0 0 0 -36519405.545410156 -10892478.172751367 0 -10892478.172751367 20483545.34920615 0 0 0 0 -36891749.500845432 7343217.7842282951 0 7343217.7842282951 21473337.262183905 0 0 0 0 3024553.7057458367 -756358.59298949596 0 -756358.59298949596 152120.82952368876 0 0 0 0 83764033.365810394 -226499499.65517876 0 -226499499.65517876 43992885.816133939 0 0 0 0 -110705515.45699596 -68081349.694653437 0 -68081349.694653437 -21576329.755381584 0 0 0 0 -100049815.82503128 -101956942.00730944 0 -101956942.00730944 -102011273.47148925 0 0 0 0 -117067429.14205933 -54275152.396367252 0 -54275152.396367252 69742131.449405313 0 0 0 0 -119265317.31908417 -216422032.59907305 0 -216422032.59907305 -120517507.397976 0 0 0 0 3096399.3282913091 -342257.06101607089 0 -342257.06101607089 -72281.060412347084 0 0 0 0 -93261803.378982544 60765496.727792755 0 60765496.727792755 107844413.4647631 0 0 0 0 1870843218.3254108 158533493.55904338 0 158533493.55904338 -189082795.22518167 0 0 0 0 328339940.85254097 -157975051.69555774 0 -157975051.69555774 -74921100.265074402 0 0 0 0 1714999290.1435528 841772463.70511818 0 841772463.70511818 242006166.38366762 0 0 0 0 2202075702.9341369 1014130698.0084432 0 1014130698.0084432 -182748020.33603799 0 0 0 0 922334518.7437439 1522035199.2275112 0 1522035199.2275112 784333896.89485049 0 0 0 0 1282799442.0212941 373904538.71184891 0 373904538.71184891 -51365999.860544547 0 0 0 0 153602657.19116211 390080035.69774139 0 390080035.69774139 104841382.98247072 0 0 0 0 128398278.9862175 -132944546.00212622 0 -132944546.00212622 296962449.67444128 0 0 0 0 375216121.13109779 -112238225.05315307 0 -112238225.05315307 -31324311.312883198 0 0 0 0 135783740.34464264 -79621727.884904116 0 -79621727.884904116 16188065.15382421 0 0 0 0 292743518.9436326 181438302.44840848 0 181438302.44840848 73753846.200243652 0 0 0 0 671661148.20436287 -30863366.435564846 0 -30863366.435564846 186519961.66047418 0 0 0 0 37007793.460399628 41008504.034517422 0 41008504.034517422 31483868.692710161 0 0 0 0 231122125.98536301 -50295329.537678599 0 -50295329.537678599 -244884665.81744242 0 0 0 0 110111942.37841797 -42515097.727287889 0 -42515097.727287889 -49661114.600102246 0 0 0 0 61828095.474533081 -168088648.38616621 0 -168088648.38616621 15818266.792436779 0 0 0 0 163322006.14338303 -122272487.55747464 0 -122272487.55747464 -185757893.88010192 0 0 0 0 64191239.163238525 -78726914.341472864 0 -78726914.341472864 -201646977.60259366 0 0 0 0 10731677.241477966 -155764534.86880994 0 -155764534.86880994 -155475442.84417638 0 0 0 0 32997793.616981506 -149338972.38281548 0 -149338972.38281548 -238606597.12865043 0 0 0 0 -33407675.31627655 -107693813.77076325 0 -107693813.77076325 -173087395.45785987 0 0 0 0 -5506954.5669403076 -172438538.97330046 0 -172438538.97330046 -181481076.07030758 0 0 0 0 8934983.0847129822 -185359846.98473969 0 -185359846.98473969 -46879560.725060582 0 0 0 0 66271364.52923584 -121483632.24547783 0 -121483632.24547783 -155728731.85389814 0 0 0 0 -155646808.46001434 -100751668.86047614 0 -100751668.86047614 -140708887.11668813 0 0 0 0 -79606295.521203995 -182520557.48004794 0 -182520557.48004794 -55160636.256202668 0 0 0 0 -112866141.85763168 -83823633.74341327 0 -83823633.74341327 125386211.1423347 0 0 0 0 -24022673.535346985 -150208001.20750153 0 -150208001.20750153 -61060515.790392563 0 0 0 0 41075083.264684677 -178617086.11542141 0 -178617086.11542141 131907751.06625009 0 0 0 0 -20583828.26802063 -86680112.610850275 0 -86680112.610850275 9574688.8017308116 0 0 0 0 15610482.917686462 6608133.1554306746 0 6608133.1554306746 241017061.5621959 0 0 0 0 -18997849.009656906 -97506301.626050204 0 -97506301.626050204 113440561.50878167 0 0 0 0 -137563066.99420547 -32344645.214027047 0 -32344645.214027047 243100509.0722754 0 0 0 0 -101573925.21383476 17909951.133934379 0 17909951.133934379 -1338225.4617116451 0 0 0 0 -46005105.642520905 116371884.72671854 0 116371884.72671854 148962967.9037354 0 0 0 0 29474967.46746254 -19054249.541717887 0 -19054249.541717887 236135779.22610259 0 0 0 0 453789184.89549255 95770906.458653092 0 95770906.458653092 449954400.29046488 0 0 0 0 382445822.04410362 205187815.76782572 0 205187815.76782572 311528244.20279479 0 0 0 0 769525713.147789 432235691.58463955 0 432235691.58463955 254773228.65560579 0 0 0 0 101914714.18993187 -96031026.237375557 0 -96031026.237375557 352325022.28721428 0 0 0 0 379761868.6030159 45582127.154150486 0 45582127.154150486 243388709.33083165 0 0 0 0 612987438.60317707 555938493.81212449 0 555938493.81212449 1430228187.63381 0 0 0 0 745376714.05698776 313493607.22672844 0 313493607.22672844 408840438.53446579 0 0 0 0 290013004.33644962 199893517.02535874 0 199893517.02535874 707623822.25835848 0 0 0 0 1272228276.3596458 878335048.07537246 0 878335048.07537246 395220991.08566141 0 0 0 0 631313147.27390289 418555702.48379707 0 418555702.48379707 588334895.54993677 0 0 0 0 1316157388.4816628 305194887.85193753 0 305194887.85193753 335019973.0249424 0 0 0 0 1449074197.1078291 742464940.47225738 0 742464940.47225738 -179756184.11327648 0 0 0 0 76342.795931901783 176833.04615508905 0 176833.04615508905 609048.86513628368 0 0 0 0 81767022.20009613 243481021.27387714 0 243481021.27387714 535435287.38799 0 0 0 0 1357705462.7330151 112439347.51733744 0 112439347.51733744 -95940283.269052029 0 0 0 0 800722765.98318577 -22474520.482556403 0 -22474520.482556403 -128419171.2874918 0 0 0 0 846581107.39095688 420241649.1185472 0 420241649.1185472 45729436.171586514 0 0 0 0 1134927133.3645735 637104517.96266997 0 637104517.96266997 200601648.61343193 0 0 0 0 795751354.77166367 318591790.0190928 0 318591790.0190928 556089140.1854043 0 0 0 0 464158031.90130234 261586729.20670259 0 261586729.20670259 173947207.27270937 0 0 0 0 843947281.05834365 456542573.46279287 0 456542573.46279287 -143083515.41399908 0 0 0 0 783194524.54857635 590432661.67239904 0 590432661.67239904 126909569.12398836 0 0 0 0 875267555.15759277 587972819.42138004 0 587972819.42138004 -74649731.661050931 0 0 0 0 682642894.63040543 291996631.45876503 0 291996631.45876503 -35445069.263323784 0 0 0 0 285796354.74189568 116726551.73249489 0 116726551.73249489 14594830.797629833 0 0 0 0 159598313.3293457 44287117.723667741 0 44287117.723667741 -8932588.9970815182 0 0 0 0 604461156.85157776 375161521.21670318 0 375161521.21670318 -106334017.00607634 0 0 0 0 912593019.9586792 487355203.24313617 0 487355203.24313617 -91918076.127058029 0 0 0 0 1064378.72165782 717430.99495488149 0 717430.99495488149 603344.34346635244 0 0 0 0 -208896554.04830933 337548190.85840535 0 337548190.85840535 -120830696.04522687 0 0 0 0 -83983536.930458069 -38310067.369545341 0 -38310067.369545341 -44917008.417143583 0 0 0 0 459319987.21337128 279945092.94357145 0 279945092.94357145 107296004.1852954 0 0 0 0 780245885.76784134 272268332.03046143 0 272268332.03046143 -409298996.45229399 0 0 0 0 501875.8401715178 398330.62528257305 0 398330.62528257305 298504.51454233017 0 0 0 0 179595262.66756821 -21422059.970724672 0 -21422059.970724672 -56436674.574824318 0 0 0 0 -235875734.80611706 392773581.93645567 0 392773581.93645567 518387878.75926304 0 0 0 0 474230617.43424225 513384441.58238965 0 513384441.58238965 408579496.57155561 0 0 0 0 173782029.3632946 405793730.98818076 0 405793730.98818076 426993515.4287824 0 0 0 0 348519096.79573059 121276057.80580443 0 121276057.80580443 58631686.638187289 0 0 0 0 194214869.1229248 169936959.09363437 0 169936959.09363437 50913552.582255363 0 0 0 0 6887977.4406356812 58273144.961643577 0 58273144.961643577 101474473.4525553 0 0 0 0 532754210.77655411 59407486.993320808 0 59407486.993320808 147852592.28691816 0 0 0 0 502781377.9775753 442556060.66112489 0 442556060.66112489 360870478.79172093 0 0 0 0 293151754.59455872 125244204.31029731 0 125244204.31029731 351900220.79215562 0 0 0 0 679008275.43076515 372538638.31448042 0 372538638.31448042 169520755.59122992 0 0 0 0 264112266.16364288 136059575.79113835 0 136059575.79113835 182775330.21683198 0 0 0 0 227874575.37693119 -30289526.513670087 0 -30289526.513670087 32989873.816752195 0 0 0 0 91341291.453903198 47057014.794922233 0 47057014.794922233 161839046.69175714 0 0 0 0 136974219.15312195 27487103.268934965 0 27487103.268934965 42101947.641455173 0 0 0 0 4756637.3738937378 20480436.691427946 0 20480436.691427946 -35217410.969030738 0 0 0 0 41537842.691768646 -48479156.024513721 0 -48479156.024513721 55039735.070462227 0 0 0 0 -67252005.52076292 577940.53574747592 0 577940.53574747592 -39603761.774101019 0 0 0 0 -275948272.86138916 67267663.204289198 0 67267663.204289198 -15704893.939847946 0 0 0 0 -94184862.466842651 23142401.886903286 0 23142401.886903286 -73750234.43718648 0 0 0 0 -288105944.48423767 -62734623.579860449 0 -62734623.579860449 -47304253.702635527 0 0 0 0 -84223777.915139198 -43097926.084344387 0 -43097926.084344387 -28805556.511623859 0 0 0 0 -119605715.54821777 71706432.587920666 0 71706432.587920666 2514728.3517311215 0 0 0 0 -109294653.68676853 10377105.649498552 0 10377105.649498552 -130367107.86597037 0 0 0 0 78155666.013710022 99034049.869365692 0 99034049.869365692 -9742952.3533536792 0 0 0 0 -205311757.3805542 2391935.7724865079 0 2391935.7724865079 114378328.69762826 0 0 0 0 -41718300.174659729 138252076.28257167 0 138252076.28257167 90759071.674141645 0 0 0 0 397338.59989288542 558108.20055638487 0 558108.20055638487 1344344.8118728367 0 0 0 0 18614846.6782341 20162232.759143054 0 20162232.759143054 -23662911.305874109 0 0 0 0 -227108682.87979889 122301205.64154464 0 122301205.64154464 58913865.375655234 0 0 0 0 1616527.2258565612 628533.65278783115 0 628533.65278783115 373314.88481637603 0 0 0 0 -612358.69705581665 198734.27491593361 0 198734.27491593361 475640.84224939346 0 0 0 0 1592482.7976920307 -1085577.6602314962 0 -1085577.6602314962 859015.93028998631 0 0 0 0 1071026.5454504453 -633299.28141193325 0 -633299.28141193325 708297.70963580697 0 0 0 0 -924017.0373334866 1014414.4579484011 0 1014414.4579484011 433390.41891449079 0 0 0 0 1525130.7217001542 -1490479.1989910305 0 -1490479.1989910305 1176557.3023493153 0 0 0 0 354345.52546691895 1054843.0565642118 0 1054843.0565642118 -1680341.9038207531 0 0 0 0 -1236031.5259885788 5333117.4842583984 0 5333117.4842583984 -12142624.223792434 0 0 0 0 143588.12040752638 370979.71127575077 0 370979.71127575077 -154401.02503882139 0 0 0 0 -414870976.01685333 29495230.025888681 0 29495230.025888681 30102586.447649956 0 0 0 0 3986917.9724884033 -3608510.3468875885 0 -3608510.3468875885 -15550.058093070984 0 0 0 0 3324757.9973907471 -2296553.9104385376 0 -2296553.9104385376 687895.87195396423 0 0 0 0 -1324478.3536186218 -3995037.7426729202 0 -3995037.7426729202 956352.75464820862 0 0 0 0 1482253.6208057404 -3777973.0767436028 0 -3777973.0767436028 -213214.65357780457 0 0 0 0 1544407.1877574921 -3579234.5958271027 0 -3579234.5958271027 -9682.3464813232422 0 0 0 0 31093.134719848633 -3056345.8807287216 0 -3056345.8807287216 1283666.3797292709 0 0 0 0 640674.89241790771 -4227517.2753458023 0 -4227517.2753458023 79644.456043243408 0 0 0 0 603213.78196716309 -4853313.1385083199 0 -4853313.1385083199 -901451.21948432922 0 0 0 0 1622899.4018287659 -3417060.0661764145 0 -3417060.0661764145 70749.721780776978 0 0 0 0 1745386.125289917 -3547128.9846258163 0 -3547128.9846258163 -139493.03468990326 0 0 0 0 1877893.2095947266 -3659834.7000494003 0 -3659834.7000494003 -602631.22050666809 0 0 0 0 1965995.2427139282 -3713750.1629095078 0 -3713750.1629095078 -997531.02755129337 0 0 0 0 3221056.3842086792 -2802915.2121171951 0 -2802915.2121171951 328925.23109555244 0 0 0 0 -714310.97524261475 -2047435.8477373123 0 -2047435.8477373123 -1720185.3943958282 0 0 0 0 3486518.6808929443 -2825773.6016607285 0 -2825773.6016607285 -615356.63877010345 0 0 0 0 3417149.021774292 -2754542.3154144287 0 -2754542.3154144287 -641462.84606170654 0 0 0 0 2966918.8403629158 -971454.9579192712 0 -971454.9579192712 402704.32577479025 0 0 0 0 4145531.2021713257 -2241890.3581523895 0 -2241890.3581523895 -468243.58053040504 0 0 0 0 -487644.52113342285 -2260026.5135407448 0 -2260026.5135407448 -2238967.0120544434 0 0 0 0 3603111.7252196874 -2130114.8614501893 0 -2130114.8614501893 425823.22354373109 0 0 0 0 1991734.5208091736 -7782266.5591783524 0 -7782266.5591783524 -3573176.1206852198 0 0 0 0 1712587.6261932198 -3847991.6752497745 0 -3847991.6752497745 386181.86424054718 0 0 0 0 6882475.2857913971 7714312.8259959221 0 7714312.8259959221 2641851.1239208579 0 0 0 0 2185437.9605102539 -4661122.5045890808 0 -4661122.5045890808 -333444.91623306274 0 0 0 0 4448039.8008728027 -3581475.1791963577 0 -3581475.1791963577 -882589.75770378113 0 0 0 0 17109712.413024902 4613454.6178092957 0 4613454.6178092957 6259743.8025436401 0 0 0 0 6265290.0165748289 -1004540.6395431277 0 -1004540.6395431277 -772737.46726340801 0 0 0 0 18343350.426492691 -4973547.836648941 0 -4973547.836648941 -491419.87163543701 0 0 0 0 1348466.191822527 1243292.1184491187 0 1243292.1184491187 466213.0635860546 0 0 0 0 5123675.4082374573 -819016.97482013702 0 -819016.97482013702 -863494.06060218811 0 0 0 0 -3847231.4652709961 12299662.283946037 0 12299662.283946037 4607201.6021995544 0 0 0 0 1945930.6106710434 161601.24088025093 0 161601.24088025093 399451.36431884766 0 0 0 0 2508587.1870384216 2048709.6963453293 0 2048709.6963453293 2090092.304848671 0 0 0 0 1134800.6645218637 90838.520208097994 0 90838.520208097994 -617465.01154559688 0 0 0 0 862399.33254241943 -1019445.3900051117 0 -1019445.3900051117 2215152.6887900531 0 0 0 0 2039230.3666000366 718112.94010257721 0 718112.94010257721 -2288201.5834827423 0 0 0 0 636864.36907577515 387559.79235029221 0 387559.79235029221 372771.27245861292 0 0 0 0 1400862.195827974 -68357.773513654713 0 -68357.773513654713 637958.6619441628 0 0 0 0 1281413.9685001373 560591.3742890358 0 560591.3742890358 158394.79212665558 0 0 0 0 13161228.09513855 -6884914.2831121683 0 -6884914.2831121683 1920600.4045886993 0 0 0 0 9027148.7211875916 1877329.979571104 0 1877329.979571104 472588.12984204292 0 0 0 0 958104.72756958008 -670801.58615684509 0 -670801.58615684509 1878690.6143226624 0 0 0 0 24993.132415771484 447865.04388237 0 447865.04388237 -238646.37144443393 0 0 0 0 466233.43166894559 666900.63244674576 0 666900.63244674576 753118.74055452854 0 0 0 0 92147086.795459747 172069054.85589129 0 172069054.85589129 -125860067.365484 0 0 0 0 76159.103921253234 380124.1733689867 0 380124.1733689867 1531365.1895213281 0 0 0 0 -147772162.96985626 175093179.66859376 0 175093179.66859376 -29945022.892435312 0 0 0 0 41528072.555957794 -14085105.088728428 0 -14085105.088728428 -57760345.22431922 0 0 0 0 1413860.332103997 127488.15446400736 0 127488.15446400736 77017.978074811632 0 0 0 0 874855.62001631968 571983.68278714456 0 571983.68278714456 1012294.2524529221 0 0 0 0 888230.514087677 187894.84835767746 0 187894.84835767746 1329704.680929184 0 0 0 0 956713.46083876211 400561.42194614734 0 400561.42194614734 900171.78349935147 0 0 0 0 556229.13865661621 251023.14529895782 0 251023.14529895782 378105.5899605751 0 0 0 0 887579.38463401794 290266.01272845268 0 290266.01272845268 355202.38543701172 0 0 0 0 -13547757.960771561 -22033112.407278895 0 -22033112.407278895 19396949.307375908 0 0 0 0 2960780.9703903198 -53906085.833318233 0 -53906085.833318233 -91705576.216881752 0 0 0 0 -10570248.879753113 -35572970.884436607 0 -35572970.884436607 58657853.932180405 0 0 0 0 -1594630.1958732605 -20246991.412624359 0 -20246991.412624359 354975.97656726837 0 0 0 0 -9475476.1469497681 -29851833.16879797 0 -29851833.16879797 -1771601.4239447117 0 0 0 0 -3588425.1518783569 -28622854.305053234 0 -28622854.305053234 -34684645.270021439 0 0 0 0 -13502230.779075623 -19931765.41604805 0 -19931765.41604805 -8544872.1359481812 0 0 0 0 -5179852.0192565918 -23198404.591048241 0 -23198404.591048241 -9522502.6085447073 0 0 0 0 -9727426.4547348022 -29662177.721682549 0 -29662177.721682549 8235555.4348545074 0 0 0 0 4073796.3097432274 -4714032.1155943004 0 -4714032.1155943004 748320.16329581849 0 0 0 0 -18308048.343139648 -22296421.29442215 0 -22296421.29442215 312039.93289864063 0 0 0 0 -20014031.863286018 -13009193.985935688 0 -13009193.985935688 -764638.44367599487 0 0 0 0 -1848888.3432722092 -6675864.1366553307 0 -6675864.1366553307 -1090611.4777011871 0 0 0 0 5185245.423365267 -4058927.1333216392 0 -4058927.1333216392 -629445.93070870312 0 0 0 0 679435.70874786377 -4253373.9116005898 0 -4253373.9116005898 -849445.70298969746 0 0 0 0 -1104425.7796401978 -6241720.6924982071 0 -6241720.6924982071 -1064642.6034002304 0 0 0 0 47967.625926971436 -4682648.3244298697 0 -4682648.3244298697 1981157.1014099121 0 0 0 0 2507696.5996883698 -4307136.1787606552 0 -4307136.1787606552 88182.436056645791 0 0 0 0 6981030.1742935181 -738114.53440189362 0 -738114.53440189362 -3333073.7632145286 0 0 0 0 -5899498.8924217224 -14706214.177571535 0 -14706214.177571535 3024503.3067159653 0 0 0 0 7634642.4842869844 -3604996.0077944212 0 -3604996.0077944212 -1031801.6418750314 0 0 0 0 353101.48939271644 -3972708.5862115594 0 -3972708.5862115594 -384130.32487370598 0 0 0 0 32999.610548261553 -654551.61461072229 0 -654551.61461072229 -47746.368629221775 0 0 0 0 -667407.76456069946 -9433443.0913364887 0 -9433443.0913364887 -3705934.5281624794 0 0 0 0 3860047.3358917236 -18402522.688348219 0 -18402522.688348219 -5836814.0677864132 0 0 0 0 36797220.424072266 -38640895.417948246 0 -38640895.417948246 -9350284.7069199085 0 0 0 0 19825381.107791901 -29266348.406241417 0 -29266348.406241417 -14524765.272689342 0 0 0 0 -20850715.436426163 -52640574.376992345 0 -52640574.376992345 -9300878.697306633 0 0 0 0 -4436688.2551574707 -17294057.863961697 0 -17294057.863961697 22473383.285312653 0 0 0 0 22561449.462284088 -11184413.182411781 0 -11184413.182411781 -8442654.1125776395 0 0 0 0 15684391.839447021 -14828554.207528591 0 -14828554.207528591 -11647142.385019302 0 0 0 0 27184063.493881226 -14105363.271951437 0 -14105363.271951437 -16924367.90492034 0 0 0 0 28213640.400218964 -9666074.2188897133 0 -9666074.2188897133 -16110922.980724335 0 0 0 0 45703540.214607239 14129393.600617886 0 14129393.600617886 -3432799.8707237244 0 0 0 0 2118932.4453827608 418220.46675357781 0 418220.46675357781 82457.772950063692 0 0 0 0 28980093.443589687 -11291237.016396409 0 -11291237.016396409 -13774569.310705081 0 0 0 0 29334967.574508667 -14500927.122555673 0 -14500927.122555673 -17819477.463640153 0 0 0 0 31177673.243795395 -16425935.362617865 0 -16425935.362617865 -15890966.059727907 0 0 0 0 7713165.7430076599 -15903392.412188247 0 -15903392.412188247 -10761191.77627784 0 0 0 0 21452711.000518799 -20673441.92131424 0 -20673441.92131424 -17606212.291489124 0 0 0 0 25733462.90970993 -13930220.650616564 0 -13930220.650616564 -12866494.813858837 0 0 0 0 35759803.759552002 -28176315.027669907 0 -28176315.027669907 -18541544.288002968 0 0 0 0 4622666.884223938 1949413.9934229851 0 1949413.9934229851 -3966208.7269258499 0 0 0 0 8995055.192922039 -3001118.4263858106 0 -3001118.4263858106 -1748793.6415822699 0 0 0 0 4805527.6114152148 -3049776.3150640191 0 -3049776.3150640191 1592.8610339893494 0 0 0 0 12047101.675209424 -2143837.5197173413 0 -2143837.5197173413 -2730885.5226339931 0 0 0 0 3772319.4288406372 -6772272.9840145111 0 -6772272.9840145111 -5067189.1566963196 0 0 0 0 24630926.464878082 -81702179.256415844 0 -81702179.256415844 -26994744.820605993 0 0 0 0 144764854.44775009 63092668.040619135 0 63092668.040619135 21261557.023915529 0 0 0 0 -95860422.021421432 -10037854.740373135 0 -10037854.740373135 -38401705.45876956 0 0 0 0 62388358.102674484 80947943.943090916 0 80947943.943090916 -26664387.046319962 0 0 0 0 -58757073.818807602 15110347.43194294 0 15110347.43194294 47452124.428313017 0 0 0 0 3575834.1553611755 -9075762.633831501 0 -9075762.633831501 -4375183.8887428045 0 0 0 0 72799193.027744293 -37663933.239701271 0 -37663933.239701271 -52040388.115321159 0 0 0 0 6059115.3641098682 -1962374.8243004049 0 -1962374.8243004049 -830812.40206981427 0 0 0 0 156778.57671006676 448939.76656565676 0 448939.76656565676 -2318.8364226587582 0 0 0 0 -3347093.7506961823 33658777.473764896 0 33658777.473764896 220187.58243561536 0 0 0 0 2254908.3430595398 662950.1796836853 0 662950.1796836853 25172582.462539673 0 0 0 0 17892097.179138184 -275314.93560409546 0 -275314.93560409546 -2099137.5298538208 0 0 0 0 573044.08412773535 1245736.5124889237 0 1245736.5124889237 -182069.3732729808 0 0 0 0 -31587288.444519281 -5174865.9975205064 0 -5174865.9975205064 -36502473.594781876 0 0 0 0 -42062522.404056549 -128987801.57580137 0 -128987801.57580137 -91802781.355576038 0 0 0 0 1792044.0663251081 318471.13384466409 0 318471.13384466409 -676024.82952572918 0 0 0 0 86282229.233493328 20733326.379160166 0 20733326.379160166 4210086.2066268921 0 0 0 0 249536992.55304909 50878541.628849834 0 50878541.628849834 24220829.580701679 0 0 0 0 35427715.268759727 53651746.123709023 0 53651746.123709023 85656970.17040062 0 0 0 0 81735496.5092206 -73442095.81855756 0 -73442095.81855756 -35313890.730408669 0 0 0 0 112623339.99428797 77291669.301638037 0 77291669.301638037 198328198.39475924 0 0 0 0 395137638.0008812 280543995.05657983 0 280543995.05657983 126533370.74943706 0 0 0 0 96581100.82224369 144641132.97704226 0 144641132.97704226 87970298.565146685 0 0 0 0 146756664.383003 -9166213.6217223257 0 -9166213.6217223257 -64964255.771499753 0 0 0 0 -28128998.463700294 -87813568.625789642 0 -87813568.625789642 -29056125.298352242 0 0 0 0 -60118462.179292679 -66803345.912887812 0 -66803345.912887812 32944055.117851257 0 0 0 0 -93039860.812026799 -147994351.54201931 0 -147994351.54201931 -11273634.16742754 0 0 0 0 684034.37710161926 77663.177970532095 0 77663.177970532095 -328043.42204210279 0 0 0 0 21000861.917230606 -9289426.6041579247 0 -9289426.6041579247 -46545781.585803747 0 0 0 0 79431052.063307762 -71212060.008860588 0 -71212060.008860588 10567545.694682121 0 0 0 0 -76957226.985603333 -2935209.5804526806 0 -2935209.5804526806 16739072.967743874 0 0 0 0 -12844074.280705452 7101866.9814184904 0 7101866.9814184904 -2573252.0264472961 0 0 0 0 -4773870.1495904922 -10013989.67470777 0 -10013989.67470777 23778330.14428997 0 0 0 0 12647845.077079773 8037907.3535301685 0 8037907.3535301685 27514958.693098247 0 0 0 0 30774408.138536453 -6824823.4331189394 0 -6824823.4331189394 22081575.667330265 0 0 0 0 10597111.371137619 8613831.468110472 0 8613831.468110472 41209210.931832314 0 0 0 0 359751.7822852789 67304.148342202068 0 67304.148342202068 -271001.95820902591 0 0 0 0 37318300.94258976 43083445.18879199 0 43083445.18879199 16245231.325811684 0 0 0 0 -13485917.683866501 15651157.441722095 0 15651157.441722095 10032966.119576052 0 0 0 0 32435787.316025734 7216422.1146818399 0 7216422.1146818399 -3976085.6393309832 0 0 0 0 -9253129.0574903488 -4775181.8764730692 0 -4775181.8764730692 3604114.0321063995 0 0 0 0 7765328.6555643082 20216526.248235941 0 20216526.248235941 8645200.7050457001 0 0 0 0 -21728732.484706879 1809275.5244164467 0 1809275.5244164467 8535153.7332882583 0 0 0 0 -52937948.394783974 -21036198.705447361 0 -21036198.705447361 -1601621.6784858704 0 0 0 0 -27954318.730418205 14537670.332586288 0 14537670.332586288 8871158.2451426983 0 0 0 0 -9844579.6376533508 -259669.78340774775 0 -259669.78340774775 -22024005.704431295 0 0 0 0 -38251544.819283485 -24036519.734291434 0 -24036519.734291434 -10759726.044118166 0 0 0 0 270727.82786166715 -336000.84178770491 0 -336000.84178770491 -105297.56713320539 0 0 0 0 4168193.2595500946 647305.06858634949 0 647305.06858634949 -281025.79103469849 0 0 0 0 7203879.0619237134 -1223275.3926197351 0 -1223275.3926197351 716776.34660976275 0 0 0 0 4978912.231127956 1264711.556137024 0 1264711.556137024 160044.1959468727 0 0 0 0 6226276.7932906952 1638277.5047885249 0 1638277.5047885249 -467261.41837029823 0 0 0 0 -54219011.893785477 -12051905.837420464 0 -12051905.837420464 8765855.7957115173 0 0 0 0 -72165604.682910919 -378062.96396046877 0 -378062.96396046877 1775135.7024717331 0 0 0 0 2699033.0654120445 -1069914.0061991289 0 -1069914.0061991289 -1916248.3968310356 0 0 0 0 -50064836.8032341 -14464728.86120224 0 -14464728.86120224 15435924.5938133 0 0 0 0 -48498176.26431942 -11255960.20055449 0 -11255960.20055449 -8562915.0706176758 0 0 0 0 3322872.3619384766 -85852.367561340332 0 -85852.367561340332 -836934.64308929443 0 0 0 0 -86976575.192715645 -44056254.392696381 0 -44056254.392696381 1084550.0292577744 0 0 0 0 7833632.9401752334 -1429260.7172107194 0 -1429260.7172107194 -16526.125973100075 0 0 0 0 10150916.006828886 -2117794.0966985039 0 -2117794.0966985039 -2462739.6254962794 0 0 0 0 21156432.650856018 -8233408.3271942139 0 -8233408.3271942139 -3786487.6223659515 0 0 0 0 8441696.8457388803 653351.01891355542 0 653351.01891355542 -544280.63526993291 0 0 0 0 63807405.003650665 319392440.60307217 0 319392440.60307217 392099236.52263808 0 0 0 0 3134809.1198787689 306154294.68118525 0 306154294.68118525 509142753.94995499 0 0 0 0 257513010.39638138 813210218.04084027 0 813210218.04084027 1260676070.556632 0 0 0 0 1385350384.3129768 255760235.98009884 0 255760235.98009884 411851910.16870689 0 0 0 0 -108211950.38925934 -68052433.145065308 0 -68052433.145065308 572989603.78881598 0 0 0 0 -3167.4834875867236 31582.991145360749 0 31582.991145360749 951649.20476466801 0 0 0 0 1503832979.6335125 274774275.82845104 0 274774275.82845104 51530691.992630005 0 0 0 0 -64426.733172895387 126546.57379468891 0 126546.57379468891 72934.02196353316 0 0 0 0 1391421.501296836 1454133.776378741 0 1454133.776378741 -88594.084150917653 0 0 0 0 1187185.9111709595 -168615.19619035721 0 -168615.19619035721 -790521.38088560104 0 0 0 0 160432273.17382622 -29685341.285788774 0 -29685341.285788774 -164179414.35682106 0 0 0 0 106571623.81340599 98737580.658284903 0 98737580.658284903 -71057024.52178216 0 0 0 0 2284653.6484114723 1223412.6831801184 0 1223412.6831801184 -344311.74685647408 0 0 0 0 2247594.5897865295 -1974872.5817656517 0 -1974872.5817656517 -4311321.2642307281 0 0 0 0 2953781.7530813385 1103982.3649511682 0 1103982.3649511682 -582490.08460779209 0 0 0 0 17306054.492324829 435916.7160077095 0 435916.7160077095 -2756886.2735853195 0 0 0 0 81200392.353843689 -46161330.580989838 0 -46161330.580989838 -169137636.78678417 0 0 0 0 4344524.9424285889 4563284.3745746613 0 4563284.3745746613 -2567889.4831790924 0 0 0 0 2266249.6014251709 4940492.4798612595 0 4940492.4798612595 -2451655.128610611 0 0 0 0 396038.38497159071 17766.25357511919 0 17766.25357511919 -241442.96737161116 0 0 0 0 -2163421.1466217041 562388.15161800385 0 562388.15161800385 -1030600.4531450272 0 0 0 0 -7984848.9520053864 -46563440.150054693 0 -46563440.150054693 16565670.947095871 0 0 0 0 110168643.09184265 121303274.67725039 0 121303274.67725039 78965567.587871432 0 0 0 0 97158882.080392838 -35233317.882532358 0 -35233317.882532358 -40722752.421280384 0 0 0 0 -12742163.366029143 86273949.722468451 0 86273949.722468451 133561378.32461262 0 0 0 0 280177461.06886864 393669884.16667271 0 393669884.16667271 292912039.76438874 0 0 0 0 205935932.7077713 238840119.69072318 0 238840119.69072318 225828811.46396989 0 0 0 0 199184780.6027019 80867912.442697436 0 80867912.442697436 89482654.396450996 0 0 0 0 486944455.4215641 101926818.78379405 0 101926818.78379405 279605146.6617294 0 0 0 0 690640273.24253082 601427145.75885499 0 601427145.75885499 222490901.86732841 0 0 0 0 188834839.71791267 695110311.11037815 0 695110311.11037815 458821400.16664362 0 0 0 0 251214689.60281563 643841171.66754603 0 643841171.66754603 515430331.93693018 0 0 0 0 188105883.37475777 488014529.50347543 0 488014529.50347543 197948255.87181967 0 0 0 0 542099756.6318512 552806634.04841256 0 552806634.04841256 210682980.49046141 0 0 0 0 368714188.75696564 478006730.00769579 0 478006730.00769579 368323202.93409961 0 0 0 0 338858442.07922173 123802661.39484346 0 123802661.39484346 -379313867.56292295 0 0 0 0 -104750133.73353577 247619667.44110525 0 247619667.44110525 187032348.63837874 0 0 0 0 1436882.0714909164 589896.06915410154 0 589896.06915410154 235010.12731870462 0 0 0 0 -54221622.578783035 8754667.5545805693 0 8754667.5545805693 1126965.1828007698 0 0 0 0 43361864.941970825 315857335.30829024 0 315857335.30829024 -460310048.47727084 0 0 0 0 -34525376.462631226 -41949697.081694722 0 -41949697.081694722 -39453434.671360731 0 0 0 0 3454879.2473301506 -9592.0613369102357 0 -9592.0613369102357 -329793.90537959081 0 0 0 0 -38994556.985819817 119639078.13148475 0 119639078.13148475 -276140293.76061076 0 0 0 0 287235254.86824322 105418688.57695568 0 105418688.57695568 -37522303.391704321 0 0 0 0 -54835179.262203217 -71944706.088748097 0 -71944706.088748097 81721045.538919687 0 0 0 0 -54977652.832969666 26889091.503694355 0 26889091.503694355 93521079.203098774 0 0 0 0 374169294.01722527 -57800383.840513468 0 -57800383.840513468 -15974140.628621578 0 0 0 0 464966.15588187799 484765.16633583826 0 484765.16633583826 240336.50342288768 0 0 0 0 820196607.4201746 436797843.72524554 0 436797843.72524554 107649696.55396342 0 0 0 0 441746071.43035507 549784734.43403375 0 549784734.43403375 525063328.77161074 0 0 0 0 335100851.91737175 351672237.75442511 0 351672237.75442511 158186566.67959547 0 0 0 0 644507381.68117905 523317846.94708866 0 523317846.94708866 224557691.47178388 0 0 0 0 367862535.55759716 515628879.69173527 0 515628879.69173527 444918592.57559013 0 0 0 0 201702081.09962654 125966502.41922355 0 125966502.41922355 59385298.232982755 0 0 0 0 2505313.8960941555 39836.629521485447 0 39836.629521485447 -238746.06886462535 0 0 0 0 155158475.90342522 -32078322.719628692 0 -32078322.719628692 -506434426.0060336 0 0 0 0 990402.60549175832 70819.19239580346 0 70819.19239580346 -88639.204699440976 0 0 0 0 -14446844.953816652 -272362597.31423801 0 -272362597.31423801 -243793729.4931972 0 0 0 0 627539667.34543037 771164435.73822308 0 771164435.73822308 664149938.90913463 0 0 0 0 343021337.94933796 -248576893.43534923 0 -248576893.43534923 -280513502.33896327 0 0 0 0 139340336.61974239 -93312785.205799818 0 -93312785.205799818 -306769118.85677534 0 0 0 0 28793528.096650124 17551360.449939907 0 17551360.449939907 -232375130.24839115 0 0 0 0 -50665343.873966694 -66548145.698010325 0 -66548145.698010325 -313382406.74569833 0 0 0 0 61404243.664427757 11660712.216011822 0 11660712.216011822 -417267062.85837531 0 0 0 0 39789035.321034431 -42123433.561747909 0 -42123433.561747909 -320491815.50982594 0 0 0 0 613971.85730639473 512155.29365282319 0 512155.29365282319 -362378.63646966207 0 0 0 0 3695577.1645183042 -2314033.0594836697 0 -2314033.0594836697 -11850520.890435696 0 0 0 0 -28320814.028317928 -5803230.9312713146 0 -5803230.9312713146 18605442.136544228 0 0 0 0 4183934.946370244 23886362.383628681 0 23886362.383628681 22333376.476632833 0 0 0 0 4353323.7302484019 134229.88705390022 0 134229.88705390022 1006580.826770083 0 0 0 0 -9730413.4146928787 -1797154.4144746661 0 -1797154.4144746661 17146282.988368273 0 0 0 0 -44912872.25669384 -78485311.643891335 0 -78485311.643891335 -34638093.777926207 0 0 0 0 -55440360.379439354 39947717.827629447 0 39947717.827629447 257621695.99546242 0 0 0 0 682979720.10807896 14757133.601382017 0 14757133.601382017 206432418.43062699 0 0 0 0 168751513.97174215 49258607.428379774 0 49258607.428379774 276418448.46974134 0 0 0 0 -62960113.387911797 -174403492.3462007 0 -174403492.3462007 -12261508.665646672 0 0 0 0 146744936.00451851 129662953.79604578 0 129662953.79604578 -10650116.339582324 0 0 0 0 491502539.91588402 264196181.02278495 0 264196181.02278495 72302623.454625815 0 0 0 0 204021387.79141617 82454546.226165593 0 82454546.226165593 41195435.28921628 0 0 0 0 1025439819.3056974 476245695.15033841 0 476245695.15033841 208458475.7241559 0 0 0 0 446682699.14596272 264399692.47954559 0 264399692.47954559 159900720.6069994 0 0 0 0 500472358.97409368 492928405.67302984 0 492928405.67302984 249923825.19046116 0 0 0 0 721980703.05267048 65019202.943592995 0 65019202.943592995 -168020503.93263745 0 0 0 0 272197380.90377331 250119295.16260111 0 250119295.16260111 -1958378.7710931301 0 0 0 0 257965029.57626534 384936886.77416027 0 384936886.77416027 69248370.017257214 0 0 0 0 208382989.87815285 177617166.58304524 0 177617166.58304524 521303299.83890963 0 0 0 0 226788345.6023767 176797750.6424982 0 176797750.6424982 83058269.990855217 0 0 0 0 119848927.14306355 223680292.25356221 0 223680292.25356221 206094287.532938 0 0 0 0 105747745.51892567 147113211.33051288 0 147113211.33051288 39021819.957548141 0 0 0 0 325766283.25676823 227237754.8319242 0 227237754.8319242 -29409629.638909101 0 0 0 0 109524023.51701832 161912668.35200453 0 161912668.35200453 58290341.493706942 0 0 0 0 137896221.43940938 63285961.656740516 0 63285961.656740516 -3671472.9906487465 0 0 0 0 52845107.685645103 45911261.954937696 0 45911261.954937696 17641135.254758596 0 0 0 0 -51960902.928194046 -19893456.201147377 0 -19893456.201147377 37761228.359066963 0 0 0 0 -8084076.4607839584 127445831.32927299 0 127445831.32927299 177593758.38530588 0 0 0 0 418392.87343792245 1488042.6624018231 0 1488042.6624018231 183539.79868792067 0 0 0 0 733697.99016452301 491674.34343559935 0 491674.34343559935 -316825.378899517 0 0 0 0 1058692.5705841398 2261823.8478233139 0 2261823.8478233139 4545167.2208894733 0 0 0 0 106063.27514743805 11304636.111644745 0 11304636.111644745 26516040.109527588 0 0 0 0 6210972.2839987278 -256342.27519130707 0 -256342.27519130707 -681345.54753112793 0 0 0 0 366059403.18349004 947608.32434274256 0 947608.32434274256 87569633.021746159 0 0 0 0 14272640.324430466 -30593205.697120667 0 -30593205.697120667 -108036935.34901237 0 0 0 0 339377.51414765388 -736941.56239228474 0 -736941.56239228474 -1307424.3489898653 0 0 0 0 1020782449.3301363 -70253631.85951364 0 -70253631.85951364 -155993329.64042735 0 0 0 0 961060463.84971809 85997969.429816246 0 85997969.429816246 -179302301.36197186 0 0 0 0 407829626.97953606 -505447517.20341039 0 -505447517.20341039 709852281.66606331 0 0 0 0 494512691.88889349 -39093954.308808342 0 -39093954.308808342 -102043872.03321934 0 0 0 0 1009877.0442450354 85055.960873441378 0 85055.960873441378 -3122074.64367902 0 0 0 0 301715482.25444269 -18097738.524831727 0 -18097738.524831727 -102400078.56487608 0 0 0 0 282348516.06836259 170173120.86413467 0 170173120.86413467 -104184751.98584986 0 0 0 0 471072088.26547134 162635940.51714236 0 162635940.51714236 -109450167.71928883 0 0 0 0 581979550.46139145 142159415.91360188 0 142159415.91360188 -138990786.23652315 0 0 0 0 447344143.32397747 399816631.24088359 0 399816631.24088359 -127568752.87508583 0 0 0 0 302084375.46056223 306140504.72601986 0 306140504.72601986 -73571785.979740858 0 0 0 0 274273867.01610637 327420459.86305714 0 327420459.86305714 -76554314.484580517 0 0 0 0 808904.96086773882 52916.291875687835 0 52916.291875687835 -97413.753905988226 0 0 0 0 934502390.30872631 -259409074.20145822 0 -259409074.20145822 -564135793.41388869 0 0 0 0 384083784.94434071 430419438.4364897 0 430419438.4364897 -150427845.7787044 0 0 0 0 759608113.40954781 326119263.73720503 0 326119263.73720503 -159101439.12226534 0 0 0 0 52925583.860123634 400816562.71750575 0 400816562.71750575 -12403325.150186539 0 0 0 0 -28310218.045557022 3168595.4081185013 0 3168595.4081185013 -255896339.53529668 0 0 0 0 242339742.02320433 -128336254.12246709 0 -128336254.12246709 -236984955.23820806 0 0 0 0 378104634.95805836 288981704.67025292 0 288981704.67025292 -91222365.101222992 0 0 0 0 223199913.50404549 12489263.296175718 0 12489263.296175718 -551151230.64230382 0 0 0 0 1399209.785914961 199818.74780104455 0 199818.74780104455 -149863.89603083511 0 0 0 0 187747372.15320802 377922279.66089571 0 377922279.66089571 -531464444.91340852 0 0 0 0 27036814.441786289 102867527.36364497 0 102867527.36364497 -154485304.0267725 0 0 0 0 -33426412.68994379 342522370.38283986 0 342522370.38283986 268185773.75886637 0 0 0 0 206675809.48056078 119281932.72158575 0 119281932.72158575 312773329.816984 0 0 0 0 417902752.23048186 -57119164.429617465 0 -57119164.429617465 87900235.926056504 0 0 0 0 672166021.70934868 -58995113.303377002 0 -58995113.303377002 425206767.43722242 0 0 0 0 786550405.60993147 177192642.95735407 0 177192642.95735407 229758166.52746838 0 0 0 0 -228545964.53681779 171324994.76115808 0 171324994.76115808 27563298.787244618 0 0 0 0 558056221.11957216 -412691478.0494749 0 -412691478.0494749 -363588490.65819502 0 0 0 0 907884236.5594492 -147053493.74886584 0 -147053493.74886584 65620804.125815272 0 0 0 0 998667545.41478157 -120530348.9977141 0 -120530348.9977141 -171075570.89731097 0 0 0 0 973456792.76745176 -457097222.99241251 0 -457097222.99241251 128423819.9995366 0 0 0 0 175406.04642998826 268958.91367680248 0 268958.91367680248 1147746.106317197 0 0 0 0 1734184212.305815 -301786234.83076417 0 -301786234.83076417 171170714.64135316 0 0 0 0 980094349.33008194 -329142405.10991478 0 -329142405.10991478 -105463497.6517756 0 0 0 0 898663946.08769894 -498972214.0284059 0 -498972214.0284059 339121777.97507298 0 0 0 0 894684927.50360394 -305010606.83932054 0 -305010606.83932054 320316464.48310095 0 0 0 0 163120723.39320707 -202477505.43907112 0 -202477505.43907112 267426151.2401762 0 0 0 0 76879717.558279514 -164848659.45520413 0 -164848659.45520413 -105799428.81683266 0 0 0 0 -113263.25510980791 -458718.61006821081 0 -458718.61006821081 273705.75146597577 0 0 0 0 118229304.69037652 -197006876.1022625 0 -197006876.1022625 416599266.62034082 0 0 0 0 56983438.2219944 -99523467.147665977 0 -99523467.147665977 171429430.44113636 0 0 0 0 85586792.671388626 -172723005.0834918 0 -172723005.0834918 288480124.11014366 0 0 0 0 113003119.35613441 -143760186.93699455 0 -143760186.93699455 221441363.00440788 0 0 0 0 150395886.93085098 -182611702.64995956 0 -182611702.64995956 173875819.48704147 0 0 0 0 144668101.21769524 -129505082.5405302 0 -129505082.5405302 48500783.464738846 0 0 0 0 181863097.3650322 -166829682.10856628 0 -166829682.10856628 28210734.522397995 0 0 0 0 166762670.45048428 -193590267.90091276 0 -193590267.90091276 83798441.159351349 0 0 0 0 698089.69591369946 -545616.70581442001 0 -545616.70581442001 -414368.68386390316 0 0 0 0 -51995830.307668209 63971793.964014053 0 63971793.964014053 59557706.9506073 0 0 0 0 1065571.3909745142 1550218.4974855185 0 1550218.4974855185 -1134501.868432045 0 0 0 0 918773028.33318996 -202604535.36716437 0 -202604535.36716437 -316627080.91968268 0 0 0 0 626513.48302478064 1206733.0987576004 0 1206733.0987576004 3121308.6928252522 0 0 0 0 96335363.285664558 136041101.66495705 0 136041101.66495705 -7122748.9640250206 0 0 0 0 458702508.88205147 75000922.039103568 0 75000922.039103568 -134677286.76698816 0 0 0 0 111454890.80897474 122214350.11124814 0 122214350.11124814 255761820.94182622 0 0 0 0 86133415.780935287 30834937.68419686 0 30834937.68419686 -27185628.925823092 0 0 0 0 -3534068.0207343102 59319152.202979743 0 59319152.202979743 -27169801.518779516 0 0 0 0 182262687.36818123 8849907.9897809029 0 8849907.9897809029 -232618405.55013281 0 0 0 0 116026492.93886518 -61326166.999539465 0 -61326166.999539465 -170158548.76664591 0 0 0 0 170288364.16293049 -41312013.610120773 0 -41312013.610120773 -256790496.56246471 0 0 0 0 121993293.2862097 -208440492.36917651 0 -208440492.36917651 -156996844.22968054 0 0 0 0 108897522.92852354 -210784032.85006857 0 -210784032.85006857 -154722163.92022818 0 0 0 0 41103087.244653702 -30489600.853793561 0 -30489600.853793561 -283176737.08341515 0 0 0 0 304258341.875844 -250068708.43117934 0 -250068708.43117934 -226053505.55200821 0 0 0 0 598088.44943231368 108976.60491205408 0 108976.60491205408 -50594.742101417418 0 0 0 0 55302051.711204767 339890472.5423969 0 339890472.5423969 219792237.99465537 0 0 0 0 -79419496.919115186 217374505.09575808 0 217374505.09575808 216236489.75313377 0 0 0 0 -37967948.42295599 224315704.22646022 0 224315704.22646022 216858897.44091797 0 0 0 0 374708117.84102917 44932748.988732219 0 44932748.988732219 77345656.559336349 0 0 0 0 155134315.57517195 -150658378.37493408 0 -150658378.37493408 201104310.05380988 0 0 0 0 110194081.55742788 -57555042.429304123 0 -57555042.429304123 11391060.587891579 0 0 0 0 55502263.044585228 53130629.918001235 0 53130629.918001235 -74292357.299791604 0 0 0 0 216101481.46452045 -50714020.549572587 0 -50714020.549572587 -61942604.141258404 0 0 0 0 41287241.740352154 73004497.016203761 0 73004497.016203761 3972495.0372672081 0 0 0 0 117492234.50657511 -38071771.957724154 0 -38071771.957724154 56174131.157626271 0 0 0 0 23374193.199623823 68254664.358465597 0 68254664.358465597 -28070142.837958336 0 0 0 0 12831583.330236435 88830878.276256323 0 88830878.276256323 55343813.579924814 0 0 0 0 3934339.3163094521 104325691.35726918 0 104325691.35726918 -5440805.4453604221 0 0 0 0 4406808.696205616 110369954.14124086 0 110369954.14124086 -166613481.17102671 0 0 0 0 -40298908.856091499 85275829.841434717 0 85275829.841434717 -30045076.4481837 0 0 0 0 18448862.151126623 84623917.88091743 0 84623917.88091743 -163426504.5033679 0 0 0 0 179743285.91186047 185513590.8254458 0 185513590.8254458 -33103527.330444217 0 0 0 0 47569442.225380898 77295350.73325634 0 77295350.73325634 4931141.5562193394 0 0 0 0 96373406.520578384 74221967.183058858 0 74221967.183058858 20182783.106908545 0 0 0 0 46679776.122113228 93184967.003472328 0 93184967.003472328 -129496731.82779789 0 0 0 0 -2845052.9646577835 88012109.283758342 0 88012109.283758342 -34025419.552158654 0 0 0 0 43341593.251404762 117456269.76467127 0 117456269.76467127 -34237196.464278936 0 0 0 0 48396276.948727608 104690889.0066793 0 104690889.0066793 -14784566.399546981 0 0 0 0 135474869.90012074 117771489.05593526 0 117771489.05593526 -36536416.731499434 0 0 0 0 168755732.95588636 25383890.404955089 0 25383890.404955089 -102814955.3938818 0 0 0 0 92843874.487396717 116129606.97808433 0 116129606.97808433 -26782630.484164238 0 0 0 0 47313595.051733017 72891414.904872358 0 72891414.904872358 -67760546.939259052 0 0 0 0 -23585251.058358669 105752744.75180066 0 105752744.75180066 -82899289.488537014 0 0 0 0 23470147.328164101 -31343655.204230666 0 -31343655.204230666 -132606848.68416178 0 0 0 0 468778411.31216717 -229185557.16624153 0 -229185557.16624153 -143612908.2838015 0 0 0 0 482994260.50472355 -208605115.27077568 0 -208605115.27077568 -257374482.44588661 0 0 0 0 359113556.1592989 -162027671.02525121 0 -162027671.02525121 -183192949.69485748 0 0 0 0 578496190.21567225 -162241059.83569962 0 -162241059.83569962 -363928988.13554823 0 0 0 0 540811120.48174429 -59307037.302140176 0 -59307037.302140176 -252453368.65864134 0 0 0 0 182707699.11375999 41313313.897338152 0 41313313.897338152 -101210894.12683171 0 0 0 0 193954528.57601357 30355812.754666805 0 30355812.754666805 -111165049.85072255 0 0 0 0 207163667.99161673 45508396.008852124 0 45508396.008852124 -110532380.56903815 0 0 0 0 2089105727.2629128 276558221.69472671 0 276558221.69472671 56794795.378190055 0 0 0 0 661150866.79717922 6297763.5225388408 0 6297763.5225388408 -105087405.02869356 0 0 0 0 168733169.8747921 -164749241.75494182 0 -164749241.75494182 -154828281.31346887 0 0 0 0 542179285.46138096 -270037597.57211661 0 -270037597.57211661 -193610246.8542015 0 0 0 0 573895822.85507679 -223685067.30622888 0 -223685067.30622888 -270038180.38166624 0 0 0 0 529775791.83288002 -222492967.2647742 0 -222492967.2647742 -367638545.86087549 0 0 0 0 569386889.92552161 -300685116.44049013 0 -300685116.44049013 -432709011.93160164 0 0 0 0 2821990200.4006495 316443874.16885144 0 316443874.16885144 34802955.824795865 0 0 0 0 -239200139.52327013 -623665483.94219446 0 -623665483.94219446 -162662574.58527878 0 0 0 0 2206021358.8704443 -771496783.23060405 0 -771496783.23060405 -152634586.411612 0 0 0 0 499012.99857552687 -284454.61988255975 0 -284454.61988255975 -83041.104651060945 0 0 0 0 529455522.6714077 -827256524.97913349 0 -827256524.97913349 -581484449.37099791 0 0 0 0 1647387523.7218313 -530935535.51163667 0 -530935535.51163667 -517576491.79213053 0 0 0 0 1896560270.3456659 -428403275.63936567 0 -428403275.63936567 -524348198.63614327 0 0 0 0 1517397635.5904684 -738135478.9628967 0 -738135478.9628967 -587772598.18570173 0 0 0 0 1624588913.2353687 -286344879.61563104 0 -286344879.61563104 -409700405.14152157 0 0 0 0 851185766.04050827 -255647766.76710024 0 -255647766.76710024 -409324681.9322868 0 0 0 0 796045055.46788251 -296900980.98529375 0 -296900980.98529375 -432601300.31022573 0 0 0 0 761657593.21141052 -64759015.640385628 0 -64759015.640385628 -312671475.82383901 0 0 0 0 1026766785.5257192 -40911056.16565904 0 -40911056.16565904 -263514080.66710055 0 0 0 0 1065601182.8262978 1226779.7570553124 0 1226779.7570553124 -309461417.81117153 0 0 0 0 1491017256.3224373 -99856359.367749929 0 -99856359.367749929 -312639668.82232255 0 0 0 0 2204299086.2398953 -181544148.44580927 0 -181544148.44580927 -629077629.21087253 0 0 0 0 417150831.00577545 84513245.529593229 0 84513245.529593229 -104874122.49757016 0 0 0 0 304177857.64507866 73901266.308301449 0 73901266.308301449 -80924908.124050975 0 0 0 0 425701153.30969524 92991559.372205913 0 92991559.372205913 -136432741.18377972 0 0 0 0 633314472.75201797 -35196159.074120522 0 -35196159.074120522 -263500410.24069896 0 0 0 0 630876491.18697262 -39072460.825523853 0 -39072460.825523853 -259439907.22822905 0 0 0 0 587636437.29662323 73781206.986270785 0 73781206.986270785 -138012910.53717873 0 0 0 0 594886293.98909378 149643193.30189535 0 149643193.30189535 -126546697.22606568 0 0 0 0 680175491.60416126 190565497.90826976 0 190565497.90826976 -136008191.1257689 0 0 0 0 594715530.48018265 170959821.64391866 0 170959821.64391866 -112938803.12515733 0 0 0 0 415866469.59809303 197074410.34806415 0 197074410.34806415 -106208905.96052361 0 0 0 0 254695113.61890221 290106228.93267286 0 290106228.93267286 78072755.73963201 0 0 0 0 393107076.68745899 690793586.2740531 0 690793586.2740531 187990697.57332414 0 0 0 0 578829.22722639656 209870.68168590474 0 209870.68168590474 60546.03768598118 0 0 0 0 62690408.672575474 -26375871.231599212 0 -26375871.231599212 -76666414.622100174 0 0 0 0 99519555.116995811 107134976.07875252 0 107134976.07875252 -370275179.01728356 0 0 0 0 1734178943.6834383 35582823.979627848 0 35582823.979627848 -317391469.54324985 0 0 0 0 964096820.42794418 313530111.1854552 0 313530111.1854552 -239900328.08105665 0 0 0 0 1708458467.1122036 325816016.43860805 0 325816016.43860805 -256561253.58507872 0 0 0 0 1555572428.972311 -30321109.892709523 0 -30321109.892709523 -302515206.8094424 0 0 0 0 2204183754.6426659 369532702.52196193 0 369532702.52196193 -57202866.051091664 0 0 0 0 1765379526.7663136 505407837.884242 0 505407837.884242 -86354171.165675178 0 0 0 0 1779369022.1267262 468065454.48688692 0 468065454.48688692 -117208975.96207073 0 0 0 0 1485563738.2353058 885576805.74880469 0 885576805.74880469 349419957.16833574 0 0 0 0 911440.70756870415 6454.0032356008887 0 6454.0032356008887 -59191.805053761535 0 0 0 0 2124457606.5990667 407980102.81901538 0 407980102.81901538 -197714842.68266609 0 0 0 0 2205451024.5516376 619593910.91690421 0 619593910.91690421 326177522.79182601 0 0 0 0 1360222.124183367 189519.08767085063 0 189519.08767085063 -24502.10375463144 0 0 0 0 -29804644.288383484 5335471.4730011597 0 5335471.4730011597 17077351.23630593 0 0 0 0 -115896044.06375074 77436245.634653747 0 77436245.634653747 -20222502.810223147 0 0 0 0 812565061.92571068 -206163334.43668729 0 -206163334.43668729 -18360493.25634554 0 0 0 0 -176952230.86785316 4746885.4117897302 0 4746885.4117897302 239497043.8291353 0 0 0 0 263375107.54068375 305596588.34781635 0 305596588.34781635 171196520.76833037 0 0 0 0 113591773.83390808 -254464748.56905276 0 -254464748.56905276 111099574.2816885 0 0 0 0 -52393541.64867878 44390506.322222427 0 44390506.322222427 -37077302.451723367 0 0 0 0 -14063327.273794174 -86236327.147014394 0 -86236327.147014394 -102605979.52299598 0 0 0 0 -8025195.1059989929 -2472761.3569766283 0 -2472761.3569766283 3869889.4325799346 0 0 0 0 1930201.6065611523 -182542.598064697 0 -182542.598064697 -149591.54664815991 0 0 0 0 6059273.6448974609 3722505.9435625821 0 3722505.9435625821 -9976871.957390666 0 0 0 0 2252471.0011572051 -318735.11590345239 0 -318735.11590345239 -311576.27855256258 0 0 0 0 -12553095.604232788 -124792359.05492783 0 -124792359.05492783 -285367597.23436439 0 0 0 0 -10475925.040170193 -11689418.999524761 0 -11689418.999524761 -8509435.7794893011 0 0 0 0 30607664.847089767 -13034285.989340998 0 -13034285.989340998 -272708535.38650763 0 0 0 0 -855727.97674560547 -1409536.2130090594 0 -1409536.2130090594 -1683971.193647176 0 0 0 0 2025330.2639042309 -781141.80539653299 0 -781141.80539653299 -565671.75574472756 0 0 0 0 -12513850.916237831 -34624142.42237702 0 -34624142.42237702 -241663033.13549358 0 0 0 0 -123936723.71214294 -19865856.194039822 0 -19865856.194039822 -178367353.53848076 0 0 0 0 4055308.5744968941 266981.83935935603 0 266981.83935935603 -1228155.6450863103 0 0 0 0 792820.03938293457 -658939.12217903137 0 -658939.12217903137 -5379024.8324241638 0 0 0 0 3853777.1990818153 1777895.5604041587 0 1777895.5604041587 -1395009.0903706227 0 0 0 0 8406114.0321960449 -183651683.19295835 0 -183651683.19295835 -290681701.2268877 0 0 0 0 -122485218.45312881 -103968098.64593738 0 -103968098.64593738 -260027091.99505901 0 0 0 0 -41766971.703704834 -87112929.563689232 0 -87112929.563689232 -281663197.13407612 0 0 0 0 -33998052.451980591 -189531303.22084332 0 -189531303.22084332 -280150189.94694805 0 0 0 0 -110153494.78173065 -69542110.126481295 0 -69542110.126481295 -257524076.33028221 0 0 0 0 4106465.9765304569 720435.36564006796 0 720435.36564006796 -1013353.1197986393 0 0 0 0 -89241691.872543335 -104415185.76090384 0 -104415185.76090384 -282046840.93000698 0 0 0 0 -13438980.467033386 -116631750.96697974 0 -116631750.96697974 -255419761.32709354 0 0 0 0 11931563.382194519 -135611972.83909667 0 -135611972.83909667 -273634032.65286493 0 0 0 0 -32819940.160022736 -163955835.81691837 0 -163955835.81691837 -235941406.08965921 0 0 0 0 69811341.473121643 -119966268.95707893 0 -119966268.95707893 -258621567.63873577 0 0 0 0 81315732.32522583 72079956.15587759 0 72079956.15587759 -513316890.49772549 0 0 0 0 74942208.280387878 -149066846.83477867 0 -149066846.83477867 -249626256.47387695 0 0 0 0 145655509.91530228 -12550440.960915089 0 -12550440.960915089 -521439339.20397711 0 0 0 0 2619883.6635946399 -809109.49036300927 0 -809109.49036300927 -519872.68091389205 0 0 0 0 26682529.114349365 -43689227.453737259 0 -43689227.453737259 -336858292.99676466 0 0 0 0 133456806.10103989 -70846352.439819694 0 -70846352.439819694 -381105682.63635254 0 0 0 0 39071222.716308594 20123982.218472481 0 20123982.218472481 -401112195.85258341 0 0 0 0 -137101974.60186768 19287802.888010025 0 19287802.888010025 -272174774.80469513 0 0 0 0 -15925863.997451782 -34906002.440441132 0 -34906002.440441132 -320381607.75928783 0 0 0 0 -61391654.952087402 22119710.127049446 0 22119710.127049446 -369896553.30098104 0 0 0 0 -116694545.04171753 68929104.499468803 0 68929104.499468803 -335284241.71604538 0 0 0 0 48814168.200976372 -41913869.942666143 0 -41913869.942666143 -344506433.32948494 0 0 0 0 27875901.007911682 -123162985.7018714 0 -123162985.7018714 -404136147.34611702 0 0 0 0 65507894.942993164 -8209159.2499129772 0 -8209159.2499129772 -250396080.06798932 0 0 0 0 3896013.0760698318 -8790775.2730096132 0 -8790775.2730096132 -6545871.1113688946 0 0 0 0 -11859271.167449951 28260003.55792439 0 28260003.55792439 14647904.483630896 0 0 0 0 -1772314.8037567139 7682802.5751423836 0 7682802.5751423836 -2980870.1502554417 0 0 0 0 18787654.662591934 3177656.3381845951 0 3177656.3381845951 -18202058.059893966 0 0 0 0 4436983.3690415546 299128.02739523211 0 299128.02739523211 -595517.6191080201 0 0 0 0 -2931107.1224164963 2991075.1493766308 0 2991075.1493766308 -1684501.5923985243 0 0 0 0 3921805.6301578511 -1681593.7036676484 0 -1681593.7036676484 -710070.06399189867 0 0 0 0 1820443.8224076126 1520941.9223778499 0 1520941.9223778499 -1281236.1636295265 0 0 0 0 -6480452.0310649872 -51257729.41697523 0 -51257729.41697523 -241634495.35410702 0 0 0 0 11445150.295229912 -48476509.746440351 0 -48476509.746440351 -263313355.19460571 0 0 0 0 8401374.7505102158 -53991831.518991649 0 -53991831.518991649 -243119240.58021066 0 0 0 0 -33311048.225268126 -172557429.65098533 0 -172557429.65098533 -565071573.83907068 0 0 0 0 -4814472.4386825562 129080754.2907033 0 129080754.2907033 -455087372.6130119 0 0 0 0 405701.86615995131 421170.47882376058 0 421170.47882376058 -282592.02191787167 0 0 0 0 4835592.9865999222 46036836.715534866 0 46036836.715534866 -358604808.41740417 0 0 0 0 -103636728.5490222 122872863.58524764 0 122872863.58524764 -286367082.61814308 0 0 0 0 -93287579.683813095 45419429.730538845 0 45419429.730538845 -165681205.85608461 0 0 0 0 30741191.815225601 53236183.466884077 0 53236183.466884077 -273484286.65407538 0 0 0 0 -15141523.151591539 45600123.477500737 0 45600123.477500737 -167435790.76741946 0 0 0 0 50620930.942995548 34753776.902106233 0 34753776.902106233 -209773580.99900723 0 0 0 0 26118268.633956909 33283441.970957518 0 33283441.970957518 -126032421.04542944 0 0 0 0 37158273.466668129 71432443.954304904 0 71432443.954304904 -77230215.781861842 0 0 0 0 104307477.18109465 78083426.814655349 0 78083426.814655349 -133239455.33436072 0 0 0 0 22954847.067700386 -24026717.052254274 0 -24026717.052254274 -188804358.31788826 0 0 0 0 43263127.996874809 -35262991.752419442 0 -35262991.752419442 -255270058.91372246 0 0 0 0 20283285.209760666 -19331322.995899856 0 -19331322.995899856 -184178638.01385039 0 0 0 0 31530917.810174942 -25771123.550788462 0 -25771123.550788462 -242554942.467529 0 0 0 0 183527212.00534582 -23732674.314965248 0 -23732674.314965248 -510500518.19898796 0 0 0 0 121648697.02466011 50574272.829177856 0 50574272.829177856 -445394480.38344383 0 0 0 0 837093.60245662462 -707215.59442886058 0 -707215.59442886058 583502.43342195428 0 0 0 0 -329273270.89116096 -263257107.73782206 0 -263257107.73782206 -272034786.09232879 0 0 0 0 -143311463.15805244 -646148006.44032931 0 -646148006.44032931 -568552017.92249107 0 0 0 0 214898286.76979828 -136956218.62636757 0 -136956218.62636757 -357858852.48933029 0 0 0 0 112807077.73048782 -110794088.8775959 0 -110794088.8775959 -263998908.28444862 0 0 0 0 88939425.511685133 -334114057.72797662 0 -334114057.72797662 -323735324.04829788 0 0 0 0 272757967.16007614 -294193931.92020798 0 -294193931.92020798 -489570597.73914242 0 0 0 0 273340796.03730774 -173718632.01699066 0 -173718632.01699066 -241302753.8490963 0 0 0 0 161644653.6721096 -195512044.78332043 0 -195512044.78332043 -147198293.01448059 0 0 0 0 230342133.64151764 -44613797.264722824 0 -44613797.264722824 -48856253.289684296 0 0 0 0 125443948.9614718 -51226935.682577848 0 -51226935.682577848 88576946.40914917 0 0 0 0 213950829.07100677 -166799708.76814651 0 -166799708.76814651 -299309603.80341721 0 0 0 0 -184905931.95152473 251546042.08521175 0 251546042.08521175 164280997.13091564 0 0 0 0 -162428833.18610477 92618087.719470978 0 92618087.719470978 241126084.68531704 0 0 0 0 -87735812.049717724 101111324.60003757 0 101111324.60003757 183342742.69516945 0 0 0 0 32366500.217117369 176633657.75085929 0 176633657.75085929 -381927549.7994318 0 0 0 0 -137506443.29660463 282499330.15424323 0 282499330.15424323 -62664604.364168644 0 0 0 0 -260253.24420854548 971835.33081601583 0 971835.33081601583 -63673.578559030779 0 0 0 0 486948257.686028 -103136202.17409611 0 -103136202.17409611 -406277614.57008553 0 0 0 0 -144469848.61308193 -130632442.9802624 0 -130632442.9802624 -128088554.90750456 0 0 0 0 20383163.169516087 13230648.936360121 0 13230648.936360121 -451403426.54298782 0 0 0 0 39355047.703464746 18496499.757846832 0 18496499.757846832 -401992130.93016821 0 0 0 0 -4980290.2106697559 17801955.063841522 0 17801955.063841522 -71478545.184932709 0 0 0 0 3548846.9159078882 -2752627.7711666012 0 -2752627.7711666012 2052678.9776135555 0 0 0 0 379383.88300017826 -18965.134233436082 0 -18965.134233436082 122623.35646750382 0 0 0 0 5193050.3295459747 106846177.83856249 0 106846177.83856249 8258608.2298772875 0 0 0 0 445944796.52593613 -131188350.16272545 0 -131188350.16272545 9735678.1771354675 0 0 0 0 2474516.9772553067 -1825135.3963221549 0 -1825135.3963221549 1272915.7470778108 0 0 0 0 86809117.958144188 -53979890.092945218 0 -53979890.092945218 -507251807.82178402 0 0 0 0 322699296.86938477 410925940.6759882 0 410925940.6759882 278312991.55243206 0 0 0 0 497774626.7841568 632607406.51935005 0 632607406.51935005 522604404.71097565 0 0 0 0 416734784.1985321 380424215.17863894 0 380424215.17863894 258918238.67878723 0 0 0 0 890506264.65121841 488802298.5070076 0 488802298.5070076 283225264.49416304 0 0 0 0 197237463.20527649 131387667.17872143 0 131387667.17872143 118557935.9815768 0 0 0 0 177669797.37696075 142584604.1757679 0 142584604.1757679 117410012.36814338 0 0 0 0 -132322077.78969836 -1480415.2939355671 0 -1480415.2939355671 58279597.160140991 0 0 0 0 189052885.74080658 106267649.60918427 0 106267649.60918427 125656978.03942156 0 0 0 0 -161033485.7828722 221391447.25646448 0 221391447.25646448 -310031696.24843216 0 0 0 0 172982.33895621914 -5350.8617396606132 0 -5350.8617396606132 -57040.471054940019 0 0 0 0 -141157374.22908783 82915003.878712654 0 82915003.878712654 -11943.445497512817 0 0 0 0 242066897.98614502 81398103.438249588 0 81398103.438249588 136983912.59230709 0 0 0 0 -53637557.239665985 -140345017.07237625 0 -140345017.07237625 477123718.04402161 0 0 0 0 -119308152.08618546 9890070.8133907318 0 9890070.8133907318 133501547.3892498 0 0 0 0 230036289.26181388 -61875181.519352704 0 -61875181.519352704 67325578.540208817 0 0 0 0 242091051.27254486 159766470.52044487 0 159766470.52044487 81098492.584719658 0 0 0 0 344663460.23712349 266635428.340801 0 266635428.340801 195361753.32501793 0 0 0 0 465085504.22528076 114104050.24291229 0 114104050.24291229 -65417186.125671387 0 0 0 0 594060060.36616516 387067226.34361553 0 387067226.34361553 -175803153.69795704 0 0 0 0 589734.85799591523 -132227.22392972792 0 -132227.22392972792 -85424.801233513281 0 0 0 0 754446103.7914772 462408147.08001232 0 462408147.08001232 15236174.426651001 0 0 0 0 7464791.4718088042 7809724.2077317983 0 7809724.2077317983 2185470.8900845172 0 0 0 0 5058545.3868026733 18952089.22598958 0 18952089.22598958 -16939836.198046684 0 0 0 0 8729474.7272005081 10704594.893399358 0 10704594.893399358 -9306736.7712402344 0 0 0 0 10513504.584205627 22264407.058781624 0 22264407.058781624 -22736760.399234772 0 0 0 0 5875094.2943191528 76005473.729444504 0 76005473.729444504 -78420666.583101273 0 0 0 0 -3561202.2668952942 40091867.232224464 0 40091867.232224464 -34926923.055992126 0 0 0 0 1970623.9904300077 423654.93604526017 0 423654.93604526017 -97020.50726036774 0 0 0 0 20259942.345445633 -3715573.1562380791 0 -3715573.1562380791 6484796.2967596054 0 0 0 0 45622187.75535202 37635621.962728977 0 37635621.962728977 -45649115.647544384 0 0 0 0 43442603.758434296 9591339.7638068199 0 9591339.7638068199 -29053421.348398328 0 0 0 0 -48407054.03223896 38924117.755931377 0 38924117.755931377 8042931.4448013306 0 0 0 0 7254233.3226507977 8265781.4404202215 0 8265781.4404202215 2070485.2749315414 0 0 0 0 -44344652.838602066 25778401.242061615 0 25778401.242061615 13303239.524265289 0 0 0 0 -41570993.489217758 36769670.124645233 0 36769670.124645233 16980921.743198395 0 0 0 0 -45890472.301704407 21119668.130455017 0 21119668.130455017 -10233523.13706398 0 0 0 0 6620681.8236445989 1376425.902186485 0 1376425.902186485 -478420.1196852033 0 0 0 0 428533059.13096619 -174381977.45301342 0 -174381977.45301342 -197756063.83139801 0 0 0 0 21425857.57950592 7385435.1534719467 0 7385435.1534719467 12748080.494805336 0 0 0 0 26378307.125032425 6451194.5415821075 0 6451194.5415821075 -5345383.9907073975 0 0 0 0 6264864.9369231323 9681947.4401992578 0 9681947.4401992578 -204122.50777521776 0 0 0 0 -32666015.138860703 45633311.578927517 0 45633311.578927517 -191222215.38303232 0 0 0 0 64613370.625549316 216946758.05092287 0 216946758.05092287 62463503.338461876 0 0 0 0 7614569.8633559216 723330.96614412265 0 723330.96614412265 -1035555.4859622456 0 0 0 0 -88297025.825344086 1851988.5912151337 0 1851988.5912151337 8610804.3925266266 0 0 0 0 -64196177.087188721 32285611.617092133 0 32285611.617092133 8321955.5365066528 0 0 0 0 -7972867.391494751 29409419.195095062 0 29409419.195095062 -3668913.2935943604 0 0 0 0 977454535.01015091 920909174.62210655 0 920909174.62210655 301405441.25361395 0 0 0 0 201226272.81115341 -735696388.23184013 0 -735696388.23184013 -904141369.58639145 0 0 0 0 1606222437.9703445 574727292.15970612 0 574727292.15970612 -169560755.44777679 0 0 0 0 1496357589.768425 74079951.670614243 0 74079951.670614243 30950397.714511871 0 0 0 0 745882415.06509781 93393004.399758339 0 93393004.399758339 235393484.16212845 0 0 0 0 1570635916.4607773 -698902957.28880882 0 -698902957.28880882 411212879.84886169 0 0 0 0 2043124801.2603531 -152661573.14473534 0 -152661573.14473534 -101307185.54766464 0 0 0 0 554369424.63718414 174144638.20543385 0 174144638.20543385 42811958.107801437 0 0 0 0 1276760994.6638794 619211251.59349442 0 619211251.59349442 20059170.043394089 0 0 0 0 611914431.84958458 310110811.53687811 0 310110811.53687811 -2783185.131937027 0 0 0 0 -231705757.27916527 -201140682.63287282 0 -201140682.63287282 253623323.48671722 0 0 0 0 205219981.55254173 386214102.57767916 0 386214102.57767916 108468178.83238631 0 0 0 0 -100757499.46325684 -316958878.92448711 0 -316958878.92448711 -9103735.6497077942 0 0 0 0 193325.88813389745 -81337.589588579722 0 -81337.589588579722 72142.260631955694 0 0 0 0 567561921.78829193 156162916.45183372 0 156162916.45183372 47973507.529907227 0 0 0 0 -108519369.49744415 219252418.16253662 0 219252418.16253662 117325115.15694237 0 0 0 0 31700964.716796875 -75705685.618013382 0 -75705685.618013382 -256867514.09769821 0 0 0 0 95517576.296401978 -19965069.194808006 0 -19965069.194808006 165053928.90508938 0 0 0 0 205718844.56724548 -284538982.01644897 0 -284538982.01644897 120624628.2285862 0 0 0 0 285720466.74673772 -132579584.56758088 0 -132579584.56758088 81397202.485046387 0 0 0 0 282984526.32095337 -162833841.47772026 0 -162833841.47772026 504457760.33213806 0 0 0 0 3009650.6223704661 1461036.4628483267 0 1461036.4628483267 -587238.30617191829 0 0 0 0 490494942.78607178 115652083.89770126 0 115652083.89770126 -255993224.30929947 0 0 0 0 -33516153.637432098 27302470.908191204 0 27302470.908191204 -128666309.29914218 0 0 0 0 544009171.53341293 144182786.66231465 0 144182786.66231465 -101345486.57652283 0 0 0 0 60366946.581132889 -87189499.4670434 0 -87189499.4670434 -225783911.48630404 0 0 0 0 57478857.667572021 -129416272.7121892 0 -129416272.7121892 -145637227.10349655 0 0 0 0 588890475.03043556 18205603.788150787 0 18205603.788150787 -338855817.29953384 0 0 0 0 624490167.19395161 -131907419.48194635 0 -131907419.48194635 -482874791.67150116 0 0 0 0 617788879.29836488 20863369.755471885 0 20863369.755471885 -557358738.46614838 0 0 0 0 498211551.62217712 -270911705.72318268 0 -270911705.72318268 -633991401.58300018 0 0 0 0 893345123.62511826 -76503056.751571655 0 -76503056.751571655 -769870897.8216095 0 0 0 0 267597519.23687744 -297841904.86806488 0 -297841904.86806488 1424000119.1659775 0 0 0 0 1237099079.6313171 552995559.63537788 0 552995559.63537788 -101588345.35888672 0 0 0 0 477411549.33001709 402071958.64333725 0 402071958.64333725 213375384.63242149 0 0 0 0 286747523.12434006 -394490607.09957504 0 -394490607.09957504 -615606302.86671829 0 0 0 0 681020744.9319458 -338465979.46562195 0 -338465979.46562195 -1022102533.9282274 0 0 0 0 454877759.90466309 -185123037.0398674 0 -185123037.0398674 -406719746.62627411 0 0 0 0 239673367.11713219 -208271754.55021191 0 -208271754.55021191 -184551338.59819412 0 0 0 0 347469526.51239777 -243863802.61507988 0 -243863802.61507988 -396180837.55794334 0 0 0 0 420795922.43712997 -111132484.69287872 0 -111132484.69287872 -174663390.52876663 0 0 0 0 304687754.32274246 -150835950.17540145 0 -150835950.17540145 -142501851.3335762 0 0 0 0 316981245.22558975 -186071441.16396332 0 -186071441.16396332 -205180397.29922104 0 0 0 0 254596015.64411926 -194904983.14689684 0 -194904983.14689684 -41083942.903408051 0 0 0 0 258466551.57307243 -175361852.36252308 0 -175361852.36252308 2207993.3271389008 0 0 0 0 291491483.77370453 -134367033.40313053 0 -134367033.40313053 -85986366.108985901 0 0 0 0 374810801.76019859 -86911206.292634964 0 -86911206.292634964 -58976852.715354919 0 0 0 0 340973992.71981621 14470436.01236558 0 14470436.01236558 66555715.620874405 0 0 0 0 133518025.5592289 -45448057.379085541 0 -45448057.379085541 49986380.516732216 0 0 0 0 3215562.0298083876 8319064.971111577 0 8319064.971111577 4683369.058163641 0 0 0 0 5225746.6074037552 22041179.181901932 0 22041179.181901932 5909967.6972579956 0 0 0 0 184600718.19658184 -167340584.37265348 0 -167340584.37265348 77871772.375011444 0 0 0 0 168095761.80217361 -111829797.46112633 0 -111829797.46112633 10286398.14632988 0 0 0 0 -10795531.535057068 -5352996.2007913589 0 -5352996.2007913589 -8649958.6696160436 0 0 0 0 2201798.0188339595 259931.19999553822 0 259931.19999553822 -278523.90934134368 0 0 0 0 -828645.50868988037 36810427.22851181 0 36810427.22851181 -10262950.213817596 0 0 0 0 49820571.574123383 16097269.886561871 0 16097269.886561871 -2847028.6896269321 0 0 0 0 5404325.4614906311 20672688.516321182 0 20672688.516321182 13411982.871482849 0 0 0 0 3278071.0114318551 8057579.728108013 0 8057579.728108013 -6574625.2140572127 0 0 0 0 33990907.749721527 -21244116.406422615 0 -21244116.406422615 -19370514.244180679 0 0 0 0 -197359629.88170433 35978218.67053318 0 35978218.67053318 29977515.82011795 0 0 0 0 -160083151.1451416 110357301.39161491 0 110357301.39161491 21209429.777278423 0 0 0 0 -154865370.00171661 -32058713.858728409 0 -32058713.858728409 22685375.678024292 0 0 0 0 -41244522.533805847 -77788484.260822296 0 -77788484.260822296 -53965261.286029816 0 0 0 0 18676986.281593323 -11954003.771549225 0 -11954003.771549225 -84484607.22903347 0 0 0 0 51373489.169372559 40022644.095306396 0 40022644.095306396 14779493.947753906 0 0 0 0 -40444620.436256409 81311894.020059586 0 81311894.020059586 14378080.063602448 0 0 0 0 29005245.563924789 48124983.666782379 0 48124983.666782379 36658364.63445282 0 0 0 0 959997.97281279508 6107330.2165476531 0 6107330.2165476531 -6535042.3476597518 0 0 0 0 64152373.667922974 89234903.953475952 0 89234903.953475952 110802333.62026215 0 0 0 0 178625.47791745234 81256.191051253583 0 81256.191051253583 -302173.49303979706 0 0 0 0 -4146147.8324356079 -30207064.618361473 0 -30207064.618361473 4861883.1266174316 0 0 0 0 -15169363.211017609 -33845467.089559555 0 -33845467.089559555 13182513.304740906 0 0 0 0 -2126052.3032798767 -25788756.489374638 0 -25788756.489374638 10146077.185070038 0 0 0 0 -10690800.882972717 -26571205.775300026 0 -26571205.775300026 22771447.847999573 0 0 0 0 8678142.2918243408 22889259.152072906 0 22889259.152072906 41589319.875622749 0 0 0 0 19801845.125703812 16054371.533917904 0 16054371.533917904 7241557.2265930176 0 0 0 0 -104326.14578151703 19796667.365530014 0 19796667.365530014 26714104.531066895 0 0 0 0 -656288.68512153625 -3024128.7850017548 0 -3024128.7850017548 -10440401.384151459 0 0 0 0 -14750295.138624191 3837128.8408069611 0 3837128.8408069611 12403439.123695374 0 0 0 0 -9431763.019071579 -1568189.0842785835 0 -1568189.0842785835 17037720.963859558 0 0 0 0 -3698073.0974831581 24976968.877631187 0 24976968.877631187 46032076.695899963 0 0 0 0 -6068779.7495746613 42704015.021213531 0 42704015.021213531 39440421.735450745 0 0 0 0 -37539246.90606308 -17199144.660625458 0 -17199144.660625458 25880578.996459961 0 0 0 0 28441624.181152344 31861709.168697357 0 31861709.168697357 11811359.084377289 0 0 0 0 19804084.677722931 60990043.166347504 0 60990043.166347504 122589749.36524963 0 0 0 0 52455346.987480164 29492949.938232422 0 29492949.938232422 36745465.747612 0 0 0 0 65104373.667053223 83775997.497947693 0 83775997.497947693 90083872.492858887 0 0 0 0 87680504.711360931 129513185.87216949 0 129513185.87216949 126172687.99865723 0 0 0 0 -653462.62542230543 294646.05938774371 0 294646.05938774371 832621.31327699125 0 0 0 0 2959442.736823983 4908142.4295106577 0 4908142.4295106577 3181547.4363504332 0 0 0 0 43576477.482225418 -17966696.905063629 0 -17966696.905063629 92535429.725097656 0 0 0 0 -9228014.6946601868 3555533.0008773804 0 3555533.0008773804 9052300.7930984497 0 0 0 0 -12776366.347735167 6854193.3535461426 0 6854193.3535461426 9414008.713180542 0 0 0 0 1588083.0963436607 2828823.3793103392 0 2828823.3793103392 110690.08903382719 0 0 0 0 -11284542.170942307 -5300496.5570011139 0 -5300496.5570011139 1510460.5546236038 0 0 0 0 62106624.188570023 -56442538.415277481 0 -56442538.415277481 915174.95018196106 0 0 0 0 540159.5857213221 1505601.7267823073 0 1505601.7267823073 2901868.9784524236 0 0 0 0 451068810.92262745 147983430.94653511 0 147983430.94653511 67335239.323770523 0 0 0 0 637646892.58688164 334796638.82566643 0 334796638.82566643 -106862197.85550117 0 0 0 0 3635788.466171023 379770.5649411222 0 379770.5649411222 494845.28209133213 0 0 0 0 614136637.52964401 127095420.10237885 0 127095420.10237885 33064926.793924332 0 0 0 0 1201309232.3492756 161685324.9214592 0 161685324.9214592 305178312.72310066 0 0 0 0 1214180140.1911087 266511332.54761314 0 266511332.54761314 -115741775.12342072 0 0 0 0 -70006.882834772638 650361.04608785128 0 650361.04608785128 61459.596374355257 0 0 0 0 1368757100.6986523 1043894770.0766783 0 1043894770.0766783 352721117.66646576 0 0 0 0 727031268.31002498 -234587186.62551546 0 -234587186.62551546 1679275630.2230225 0 0 0 0 1056625.6174298562 -84605.981840439141 0 -84605.981840439141 402929.67574193748 0 0 0 0 126188378.07187843 -519017512.89068317 0 -519017512.89068317 992102405.99090195 0 0 0 0 124746707.39464188 -89346496.42500782 0 -89346496.42500782 108903703.44017029 0 0 0 0 83721732.954692364 -113447835.68391562 0 -113447835.68391562 100973075.40249634 0 0 0 0 135556232.8129487 -192594113.49486589 0 -192594113.49486589 256070442.52053452 0 0 0 0 375772991.58864594 -315854274.49950218 0 -315854274.49950218 77640478.844734192 0 0 0 0 461448621.8481102 -163524392.89517498 0 -163524392.89517498 -124695099.8010273 0 0 0 0 1261730396.363615 -716979767.33982468 0 -716979767.33982468 -61284133.260780334 0 0 0 0 1478956234.5872352 -195432800.3836422 0 -195432800.3836422 -505657977.39498901 0 0 0 0 872074399.08555913 210914590.55850196 0 210914590.55850196 -603756966.81090164 0 0 0 0 713517419.49189377 -331950184.67824173 0 -331950184.67824173 -139298871.58164549 0 0 0 0 385984640.6337471 201164200.23326302 0 201164200.23326302 23322832.352435112 0 0 0 0 490278088.46779156 274879362.94633579 0 274879362.94633579 -206867344.80952835 0 0 0 0 370214213.76511633 -53054190.908222556 0 -53054190.908222556 -113407198.82141495 0 0 0 0 277667771.96497345 -208384075.33599472 0 -208384075.33599472 -64616706.860383987 0 0 0 0 327917159.50637436 -116707473.93743896 0 -116707473.93743896 -93824901.60349369 0 0 0 0 172883301.38367558 -185096259.50376844 0 -185096259.50376844 -122238468.42380142 0 0 0 0 304915280.31754112 -91367874.912698746 0 -91367874.912698746 -116945173.90436554 0 0 0 0 -173140607.01658094 120188508.39900875 0 120188508.39900875 238845365.09697533 0 0 0 0 -11058612.730018556 -115727860.5690279 0 -115727860.5690279 345569455.05245638 0 0 0 0 657055728.50267124 260703492.2676506 0 260703492.2676506 -315476529.0715847 0 0 0 0 -300760.43834553228 1498440.9498129205 0 1498440.9498129205 -51279.704999522306 0 0 0 0 -425046556.82897472 510543785.93433571 0 510543785.93433571 287777958.699543 0 0 0 0 404773.37897707708 -322551.86498156306 0 -322551.86498156306 -473216.47729400266 0 0 0 0 -399021530.06581211 881552150.62433898 0 881552150.62433898 -301866954.26013565 0 0 0 0 -583795438.83292484 143264963.10459995 0 143264963.10459995 186243207.99617386 0 0 0 0 60164680.887062877 284125349.00988805 0 284125349.00988805 -491387179.9461174 0 0 0 0 916470966.59101808 352730171.9115696 0 352730171.9115696 47567207.243637085 0 0 0 0 72699406.000657082 -107782069.39831352 0 -107782069.39831352 138528579.05078459 0 0 0 0 -27044944.133323193 121100199.24691296 0 121100199.24691296 476935124.32159805 0 0 0 0 196581462.38155079 -73152315.992897034 0 -73152315.992897034 469258279.69999123 0 0 0 0 -64665204.082973003 -20815606.964759827 0 -20815606.964759827 51970075.431508064 0 0 0 0 -331776958.62632656 99973043.400629997 0 99973043.400629997 242022183.8894577 0 0 0 0 2962171.712628901 -15776560.47410202 0 -15776560.47410202 58539019.487295151 0 0 0 0 -266426627.7915802 182882548.55049133 0 182882548.55049133 -160716979.35568523 0 0 0 0 297402.43869289337 -1617571.0497302033 0 -1617571.0497302033 -595292.28094120231 0 0 0 0 -640617024.25753927 535661823.47193146 0 535661823.47193146 -110637697.96042228 0 0 0 0 65916.871947609354 -4061688.948839508 0 -4061688.948839508 46744.277837940492 0 0 0 0 1545265.4826412201 -12555994.007452011 0 -12555994.007452011 4152250.6309685707 0 0 0 0 22540291.200248718 84380045.036391735 0 84380045.036391735 116016091.77955246 0 0 0 0 204544932.22331619 174470773.26457834 0 174470773.26457834 156255582.4618175 0 0 0 0 1026545.5119439806 -1943417.8062435118 0 -1943417.8062435118 4664893.5144136958 0 0 0 0 -8822794.567483902 -15093355.902592659 0 -15093355.902592659 11229288.71713829 0 0 0 0 7950774.8741588593 -607247.99870204926 0 -607247.99870204926 6460803.43795228 0 0 0 0 -2557703.4391212463 14749694.219484329 0 14749694.219484329 27226412.950895309 0 0 0 0 25117723.756314278 27645986.398774147 0 27645986.398774147 8592577.2527399063 0 0 0 0 12057255.202810287 11410513.6860919 0 11410513.6860919 -565724.62043952942 0 0 0 0 -243574.33050429635 68823.107224836946 0 68823.107224836946 933820.37243068265 0 0 0 0 6160403.7117978334 45883095.291148186 0 45883095.291148186 92904349.286100388 0 0 0 0 -29131764.568975449 63617775.382510185 0 63617775.382510185 84636271.737328053 0 0 0 0 -28954963.549706459 55856885.660809517 0 55856885.660809517 150790439.43814516 0 0 0 0 -3931781.1858314574 24700308.114912033 0 24700308.114912033 56694933.09343338 0 0 0 0 -18932835.664454281 4904939.8006563187 0 4904939.8006563187 108192710.22890091 0 0 0 0 2083588.4081065059 3724.2263188362122 0 3724.2263188362122 -746125.15526485443 0 0 0 0 443870.17448290798 989642.69442472886 0 989642.69442472886 860398.06107878243 0 0 0 0 105633030.99925613 -24400263.247672081 0 -24400263.247672081 -23695227.100402832 0 0 0 0 -10215973.506513834 -78957386.674282134 0 -78957386.674282134 171249611.23890686 0 0 0 0 -2581353.1250972748 -36947671.525073528 0 -36947671.525073528 114918102.74879265 0 0 0 0 58760335.59107399 -130965484.81983849 0 -130965484.81983849 188969902.15987968 0 0 0 0 5117638.3994693756 -64029376.564227104 0 -64029376.564227104 259072990.72429657 0 0 0 0 -16624660.571585655 -92973100.697737813 0 -92973100.697737813 282871137.23803043 0 0 0 0 -33914147.410179138 -46388894.369039059 0 -46388894.369039059 187538940.86399531 0 0 0 0 -52274900.955713272 -30933153.98433876 0 -30933153.98433876 185446198.00923443 0 0 0 0 -47918227.019296646 -59537222.380893707 0 -59537222.380893707 229058177.79109287 0 0 0 0 -8324785.3305635452 -59760830.365870953 0 -59760830.365870953 98883947.946341515 0 0 0 0 924795.40207099915 -12741237.661531448 0 -12741237.661531448 71851230.873356819 0 0 0 0 1664216.9945613854 1778829.8829777739 0 1778829.8829777739 1343745.2003315534 0 0 0 0 -354126.42193984985 -22778530.892869949 0 -22778530.892869949 63091620.894893646 0 0 0 0 -7978089.7480144501 23176952.038526535 0 23176952.038526535 120429904.55638933 0 0 0 0 -51514058.244409204 -12798793.271196082 0 -12798793.271196082 173025849.08364391 0 0 0 0 -99756186.626237869 1570509.3450495005 0 1570509.3450495005 217946711.76252961 0 0 0 0 -87680223.382829666 37509416.840299726 0 37509416.840299726 203425735.461797 0 0 0 0 18572788.507390976 73813475.193936348 0 73813475.193936348 140201853.56394386 0 0 0 0 -8828814.7381980419 13974693.238506049 0 13974693.238506049 53952000.909849167 0 0 0 0 -19827166.1039114 -6956903.6130599976 0 -6956903.6130599976 9200181.3859348297 0 0 0 0 993770.29268223047 -10757.412438075989 0 -10757.412438075989 3153474.6209920575 0 0 0 0 2740233.7100582123 6981862.0977268219 0 6981862.0977268219 53950774.925610162 0 0 0 0 -1935600.8268985748 4332893.9908313751 0 4332893.9908313751 45414691.225282669 0 0 0 0 -959642.27526664734 11014852.284522057 0 11014852.284522057 84078482.827937126 0 0 0 0 -1279078.2274323546 2494705.1347909472 0 2494705.1347909472 3469132.4239097089 0 0 0 0 137251.7196521759 5166108.3395047188 0 5166108.3395047188 4139311.4093673229 0 0 0 0 1766158.7505159378 7196676.7420246601 0 7196676.7420246601 2195578.9823951721 0 0 0 0 2387392.3922873191 2850157.8742789319 0 2850157.8742789319 2225205.5285241259 0 0 0 0 7740024.5391902924 9302287.4597156048 0 9302287.4597156048 25085367.067180634 0 0 0 0 2367755.41226542 3655333.3082337379 0 3655333.3082337379 -691152.1589345932 0 0 0 0 3781502.5973906182 4747124.2845606804 0 4747124.2845606804 -2835639.9528870583 0 0 0 0 8280489.9281204045 7637741.5369210243 0 7637741.5369210243 1811542.3703808784 0 0 0 0 2761380.4821462631 138679.828799963 0 138679.828799963 2563319.7462449074 0 0 0 0 943494.54947089439 739839.05479664332 0 739839.05479664332 -308.08911448344588 0 0 0 0 4436004.2036749125 537221.48015388846 0 537221.48015388846 -325126.94396495819 0 0 0 0 8667606.7445820626 -154292.68697039783 0 -154292.68697039783 -780600.13853645325 0 0 0 0 4593470.9670686722 -2111768.3851060867 0 -2111768.3851060867 758476.70487976074 0 0 0 0 2553110.5588427782 1142152.8867778778 0 1142152.8867778778 -894968.35830831528 0 0 0 0 1313909.4413719475 948095.62417674065 0 948095.62417674065 -520148.08351898193 0 0 0 0 3243176.5239534527 267292.94258403778 0 267292.94258403778 -1183072.1071376801 0 0 0 0 4620259.8503026962 7515551.1598124504 0 7515551.1598124504 669471.65943431854 0 0 0 0 26382972.367248014 18557515.416636944 0 18557515.416636944 8530690.2262482643 0 0 0 0 27838232.406910822 5839279.9285386801 0 5839279.9285386801 1521259.063044548 0 0 0 0 -283121.97250285186 -249339.63961158041 0 -249339.63961158041 167588.32166458038 0 0 0 0 -101664.42065596581 -1973298.846698761 0 -1973298.846698761 -823661.38740539551 0 0 0 0 -11164321.08429414 -10280635.122758865 0 -10280635.122758865 2449397.8352345228 0 0 0 0 1525328.8165971364 1328322.5925608191 0 1328322.5925608191 2731656.0343030151 0 0 0 0 175538.69169855118 847675.82513785362 0 847675.82513785362 -311870.01846885681 0 0 0 0 1195798.8026649274 1585045.755434134 0 1585045.755434134 1407483.0337296873 0 0 0 0 32673.772555351257 1067995.8970394135 0 1067995.8970394135 162443.66204833984 0 0 0 0 1212114.663747286 1839450.9239105196 0 1839450.9239105196 2048604.7503388773 0 0 0 0 1650093.668105833 1502364.3356450181 0 1502364.3356450181 -110159.11025529262 0 0 0 0 528516.55237426795 513428.45440632029 0 513428.45440632029 -220184.9689234884 0 0 0 0 2853894.8043348789 1362813.9525299072 0 1362813.9525299072 -38404.764373779297 0 0 0 0 87826.306544922889 168597.08171704301 0 168597.08171704301 201844.44403166114 0 0 0 0 -2612230.1499748677 1173440.5291949511 0 1173440.5291949511 8124334.8842806816 0 0 0 0 8371731.2711154222 1872928.4345211983 0 1872928.4345211983 7903379.4011869431 0 0 0 0 4693056.0573206246 7779400.1292533875 0 7779400.1292533875 2162986.4322786331 0 0 0 0 17995427.23879455 11778217.171293497 0 11778217.171293497 974930.56353855133 0 0 0 0 6517785.7815369666 19017777.253889322 0 19017777.253889322 2525159.445400238 0 0 0 0 30898269.077699393 -1541982.2156767845 0 -1541982.2156767845 -2697688.5465335846 0 0 0 0 -1764725.1394405323 3378389.3674291633 0 3378389.3674291633 2695211.323052051 0 0 0 0 32148918.217193604 35193376.844074249 0 35193376.844074249 12794991.243007183 0 0 0 0 34309248.765516281 39362523.410896301 0 39362523.410896301 9621231.2230839729 0 0 0 0 34375632.224653721 38935182.674441576 0 38935182.674441576 4583194.1134300232 0 0 0 0 10751872.442508698 43124974.173638344 0 43124974.173638344 21108741.925654888 0 0 0 0 39349185.306386471 32453514.428416371 0 32453514.428416371 -31809937.128629684 0 0 0 0 32247193.520318985 34297710.636996269 0 34297710.636996269 7868166.0293257236 0 0 0 0 1038803.5082650818 -305518.71688764892 0 -305518.71688764892 -652096.79695120943 0 0 0 0 26908776.80903244 -9588660.1355065107 0 -9588660.1355065107 6666353.8497968316 0 0 0 0 83476539.285109043 -43831990.802173942 0 -43831990.802173942 19646928.488313913 0 0 0 0 39604418.018119812 3318106.0031648874 0 3318106.0031648874 1353099.1889865398 0 0 0 0 24785918.263412476 8584361.2106112242 0 8584361.2106112242 2216506.5163327008 0 0 0 0 42242107.909885406 19725293.937325478 0 19725293.937325478 -2063969.4498608112 0 0 0 0 61202061.192218781 13980012.323868752 0 13980012.323868752 -1035579.2416238785 0 0 0 0 346023.7855348736 -5593661.5798358917 0 -5593661.5798358917 16143911.467892647 0 0 0 0 -559261.82954877429 4352782.5033579962 0 4352782.5033579962 1457443.6140900436 0 0 0 0 42487530.296622276 21750082.842431307 0 21750082.842431307 8166946.8422613144 0 0 0 0 18140918.589736938 13203303.716818079 0 13203303.716818079 4611043.7964873202 0 0 0 0 28989009.6361866 20545104.745204628 0 20545104.745204628 9419117.9817113876 0 0 0 0 19929408.796094596 2965713.3647782803 0 2965713.3647782803 -6149842.2905015945 0 0 0 0 4350722.9910402475 4939113.078062145 0 4939113.078062145 -1449757.6259496412 0 0 0 0 15396529.717380881 -176105.57913208008 0 -176105.57913208008 -4998034.622502327 0 0 0 0 24542062.716676712 19113855.009114459 0 19113855.009114459 -7013976.3105970491 0 0 0 0 19288734.622206867 302813.82195663452 0 302813.82195663452 -9783333.4962720871 0 0 0 0 -10321539.444849014 909979.49370992184 0 909979.49370992184 15442549.667752504 0 0 0 0 6143032.7846995145 10466331.757004261 0 10466331.757004261 15030545.587526321 0 0 0 0 2362835.2636049385 633306.81282950868 0 633306.81282950868 2291688.1149381693 0 0 0 0 15948701.855674431 13595657.08971262 0 13595657.08971262 -5572276.3603178263 0 0 0 0 -411061.57008543494 -420712.08497148228 0 -420712.08497148228 194595.77531145723 0 0 0 0 27374736.523795605 80996904.263636351 0 80996904.263636351 -47821389.694326878 0 0 0 0 29472070.155720174 162368982.74957052 0 162368982.74957052 -196020682.60305119 0 0 0 0 19075998.753748894 72126861.015708447 0 72126861.015708447 -4673172.9318082333 0 0 0 0 -39995782.3881253 147788375.40136075 0 147788375.40136075 28794192.895324707 0 0 0 0 31090162.014324188 26303111.558534145 0 26303111.558534145 27615479.477599144 0 0 0 0 27137876.488040924 75493805.322527885 0 75493805.322527885 12765431.281939983 0 0 0 0 11058676.292207718 47657744.132436752 0 47657744.132436752 75651205.85457015 0 0 0 0 30319804.266490102 14732495.057846785 0 14732495.057846785 -76715478.89900732 0 0 0 0 -11405760.496700287 75233051.290784121 0 75233051.290784121 -55728519.131340742 0 0 0 0 29610284.617646456 17188072.570100367 0 17188072.570100367 -66037904.53483057 0 0 0 0 2389331.4238823741 -919471.05071602843 0 -919471.05071602843 -1037576.1486818586 0 0 0 0 15995595.995604515 22456266.699599266 0 22456266.699599266 -67736497.91530329 0 0 0 0 18800501.691105843 9736894.5123396516 0 9736894.5123396516 -55727770.486236989 0 0 0 0 41832733.847293615 4901823.2431969643 0 4901823.2431969643 -68348889.489489555 0 0 0 0 42566155.421565056 -11484832.802440882 0 -11484832.802440882 -139717484.68121099 0 0 0 0 43758666.976878971 -16300350.004310876 0 -16300350.004310876 -146050515.09521198 0 0 0 0 -25262840.728975296 -52860745.489077151 0 -52860745.489077151 -43716297.573395789 0 0 0 0 1656316.740170002 -2119185.3431656659 0 -2119185.3431656659 -3415724.0263066292 0 0 0 0 4168914.0659497469 -3791084.2210624767 0 -3791084.2210624767 3278043.2349946564 0 0 0 0 -6863705.7001476288 -18336075.344093084 0 -18336075.344093084 -10798251.551181316 0 0 0 0 -10869666.647289276 -19834253.790774822 0 -19834253.790774822 -4541271.5587747097 0 0 0 0 -2420642.8449783325 -1063495.9563045502 0 -1063495.9563045502 5422972.3202047348 0 0 0 0 5856253.6413536072 -5625649.3929331303 0 -5625649.3929331303 -3540601.8493499756 0 0 0 0 -7822464.2115306854 -7599959.428391695 0 -7599959.428391695 3142866.7108039856 0 0 0 0 -6543656.2217254639 -12010946.278636932 0 -12010946.278636932 -756188.40642642975 0 0 0 0 8451192.5066223145 -14460822.272512436 0 -14460822.272512436 -21152286.918178558 0 0 0 0 332536.27885484602 -165973.23287975369 0 -165973.23287975369 -60095.86105046561 0 0 0 0 3289553.4399704933 -17352548.112162303 0 -17352548.112162303 -20553358.206969857 0 0 0 0 4227525.2470428571 -1924992.6678565685 0 -1924992.6678565685 -1176346.6863409544 0 0 0 0 16618832.779271126 -8849880.2568306923 0 -8849880.2568306923 3664543.6238253117 0 0 0 0 36095885.551833153 -22725702.471238434 0 -22725702.471238434 6660673.4620810747 0 0 0 0 20644217.497187614 -1596047.8764452934 0 -1596047.8764452934 -14305500.194566727 0 0 0 0 25066972.320946693 -10447711.274379015 0 -10447711.274379015 -7758202.1340246201 0 0 0 0 14355902.755207062 -4474788.5722851753 0 -4474788.5722851753 -1969229.8464932442 0 0 0 0 18018849.563782692 -9809095.1693446636 0 -9809095.1693446636 57080.749234199524 0 0 0 0 15422496.669307709 -7184848.6837463379 0 -7184848.6837463379 11301.338668838143 0 0 0 0 18012850.299485207 -7150906.593927145 0 -7150906.593927145 -2422209.2845001221 0 0 0 0 7502492.8652539654 -408990.12483610585 0 -408990.12483610585 1087104.8291928051 0 0 0 0 4188401.7015075684 -4403586.6391029358 0 -4403586.6391029358 -1302440.9287686348 0 0 0 0 30043490.08455658 20918506.825863957 0 20918506.825863957 -13829613.155073404 0 0 0 0 12454766.360946655 2364128.8556033373 0 2364128.8556033373 -8619950.5113857985 0 0 0 0 16110211.585874001 2055341.6374709271 0 2055341.6374709271 692017.09344624961 0 0 0 0 3275016.8706593234 1500533.3265573625 0 1500533.3265573625 -1672001.562124345 0 0 0 0 31084656.409042358 -9035112.9734110832 0 -9035112.9734110832 -47704438.449693561 0 0 0 0 16276593.134971619 -1333398.7872487903 0 -1333398.7872487903 -38126132.779445887 0 0 0 0 18412102.440139771 7378886.079637289 0 7378886.079637289 -19511916.343946218 0 0 0 0 7154383.2961578369 30825735.537909746 0 30825735.537909746 -50232492.35100913 0 0 0 0 -7597729.3888244629 10948553.423991442 0 10948553.423991442 -2140640.5473153591 0 0 0 0 5154752.1186335851 941930.84203279344 0 941930.84203279344 1841735.4185511414 0 0 0 0 1259087.1586842192 347992.96327556297 0 347992.96327556297 -526059.6596107136 0 0 0 0 66929726.471996307 122361494.74458845 0 122361494.74458845 127541549.09862089 0 0 0 0 3179682.3293073587 1127443.0849872069 0 1127443.0849872069 475514.59877239424 0 0 0 0 -12334287.640991211 2210070.1158981323 0 2210070.1158981323 19367008.353899956 0 0 0 0 6169711.3732976913 9447860.2773593068 0 9447860.2773593068 12097979.297980309 0 0 0 0 1170186.6104924269 815392.37938758405 0 815392.37938758405 662369.92068181117 0 0 0 0 3247574.9133224487 1029897.5902938843 0 1029897.5902938843 4149303.064704895 0 0 0 0 1689217.3575954437 -4592226.937489748 0 -4592226.937489748 3866259.0450973511 0 0 0 0 10680231.957893047 -1895891.2640745942 0 -1895891.2640745942 1565717.554820105 0 0 0 0 4174291.7817077637 -5504000.0783958435 0 -5504000.0783958435 -342544.99555969238 0 0 0 0 -2347665.3695144653 -4192741.5084171295 0 -4192741.5084171295 4917422.9533500671 0 0 0 0 1022269.6785583496 -7758268.3138198853 0 -7758268.3138198853 1376346.5733957291 0 0 0 0 1065296.1182022095 -7534050.4445911646 0 -7534050.4445911646 1639620.7341918945 0 0 0 0 4226776.1954231262 -3699920.1615104675 0 -3699920.1615104675 2362537.7223137617 0 0 0 0 1716618.2029809952 -2016180.9550127983 0 -2016180.9550127983 6420570.1125831604 0 0 0 0 1417082.8246841431 -2426642.4798183441 0 -2426642.4798183441 7024446.0449371338 0 0 0 0 23112056.077049255 1798553.8783864975 0 1798553.8783864975 -4850917.2968924046 0 0 0 0 10605174.980539354 -2123002.722113708 0 -2123002.722113708 -2226076.6900269175 0 0 0 0 23910597.140341759 4368307.3969228864 0 4368307.3969228864 -13782187.893159866 0 0 0 0 27238963.596313477 -3442751.8255887032 0 -3442751.8255887032 -11575414.912219226 0 0 0 0 24129934.600654602 2602393.967874527 0 2602393.967874527 -10626772.737824202 0 0 0 0 3539790.7612552643 -1102536.5181523263 0 -1102536.5181523263 -2061998.4454299212 0 0 0 0 12516761.863620758 19075265.10876229 0 19075265.10876229 -5800519.4176211543 0 0 0 0 15507358.920868209 -1876601.5210513326 0 -1876601.5210513326 -1675824.0132964789 0 0 0 0 12998866.270904005 4888479.0250124931 0 4888479.0250124931 5983253.4752101898 0 0 0 0 10629944.439876556 17523760.76433304 0 17523760.76433304 -9639601.2346483469 0 0 0 0 23259726.176420212 23915266.556011438 0 23915266.556011438 -33692674.835245132 0 0 0 0 31723337.723415375 15564901.990730524 0 15564901.990730524 -11860243.279864073 0 0 0 0 21115192.914672837 5828005.8625822542 0 5828005.8625822542 -1404195.681807664 0 0 0 0 18949847.337963104 12918379.745201468 0 12918379.745201468 -17225892.789880991 0 0 0 0 20981591.443908691 6024842.9394865036 0 6024842.9394865036 -774861.7404487133 0 0 0 0 19006641.967078004 4000740.6189272534 0 4000740.6189272534 -484348.34915438364 0 0 0 0 33836784.649744034 12682717.238706589 0 12682717.238706589 -34648031.792973042 0 0 0 0 14055610.113418579 6982613.6461515427 0 6982613.6461515427 -8710505.7456947565 0 0 0 0 22226205.416309357 -116004.53935003281 0 -116004.53935003281 -21085102.188793004 0 0 0 0 41933146.08633408 11628364.131695079 0 11628364.131695079 -14129725.134528995 0 0 0 0 42422562.830210671 -11592150.820104526 0 -11592150.820104526 -8010660.9035561085 0 0 0 0 16546479.676628113 6389491.199359417 0 6389491.199359417 -12493705.984057903 0 0 0 0 -13101943.105766296 14327057.397215009 0 14327057.397215009 -17893993.279055119 0 0 0 0 16077475.248503685 17098357.657384783 0 17098357.657384783 -18066884.888209105 0 0 0 0 14700466.442047119 1753914.6440284252 0 1753914.6440284252 -29918011.610519439 0 0 0 0 9063691.3681640625 27186694.862737894 0 27186694.862737894 -40145737.160049915 0 0 0 0 22287731.059677124 24076937.175940752 0 24076937.175940752 -43733115.279898912 0 0 0 0 -2642512.6368331909 38080277.144504309 0 38080277.144504309 -91963886.013252258 0 0 0 0 -16319042.70526123 26873753.336093903 0 26873753.336093903 -42790744.421817064 0 0 0 0 56221691.418798447 44652858.850349844 0 44652858.850349844 -121677315.27585936 0 0 0 0 28916960.767738342 10768661.343336105 0 10768661.343336105 -26115012.870837688 0 0 0 0 28231248.753904343 8791746.4867136478 0 8791746.4867136478 -25404257.818175316 0 0 0 0 29474337.488830566 3111614.263563633 0 3111614.263563633 -13996973.687996626 0 0 0 0 46942018.390342712 3927409.0372614861 0 3927409.0372614861 -36161117.185644627 0 0 0 0 23564987.517959595 18439468.048523068 0 18439468.048523068 -31850148.553516865 0 0 0 0 38962224.453666687 16346782.86175938 0 16346782.86175938 -55378893.570847631 0 0 0 0 73434220.256362915 -3471336.5220484734 0 -3471336.5220484734 -57118291.717652619 0 0 0 0 66914678.010383606 -22794477.496590376 0 -22794477.496590376 -36643487.185541391 0 0 0 0 45252801.603561401 -11238563.347511053 0 -11238563.347511053 -41236899.205678523 0 0 0 0 39061544.949478149 -23120082.251758099 0 -23120082.251758099 -27629748.207919598 0 0 0 0 42281988.795654297 -18610978.74298203 0 -18610978.74298203 -24514174.200296521 0 0 0 0 31912068.570667267 -14429712.60523513 0 -14429712.60523513 -22792943.090982437 0 0 0 0 32101320.020431519 -9858823.8734707832 0 -9858823.8734707832 -20259133.936158657 0 0 0 0 40654265.248947144 -4551688.7492690086 0 -4551688.7492690086 -30013932.245349407 0 0 0 0 34590958.429367065 -5570480.7112255096 0 -5570480.7112255096 -23752421.301961899 0 0 0 0 27982907.811798096 -6717.7980936765671 0 -6717.7980936765671 -19619570.555906296 0 0 0 0 26480443.334533691 -5867700.3924717903 0 -5867700.3924717903 -15252567.294905663 0 0 0 0 82526310.622688293 -49818657.581618309 0 -49818657.581618309 -41621706.190825462 0 0 0 0 70936780.108413696 -46188512.445514679 0 -46188512.445514679 -56669605.162586212 0 0 0 0 83303954.711883545 -14876356.25916338 0 -14876356.25916338 -10561572.433599472 0 0 0 0 39582530.824586868 -34195170.15340966 0 -34195170.15340966 -22052626.7315135 0 0 0 0 50289362.132514954 -32524134.319486976 0 -32524134.319486976 -22353208.514333248 0 0 0 0 63608134.499591827 -9291612.8667778373 0 -9291612.8667778373 -56540342.133051395 0 0 0 0 149954744.09371185 -32424430.795028687 0 -32424430.795028687 -51117974.22578311 0 0 0 0 153589467.60643005 -29034556.501322269 0 -29034556.501322269 -31378022.901796341 0 0 0 0 92742907.397382736 -22531779.083975315 0 -22531779.083975315 -1085850.369597435 0 0 0 0 -417889.77388000488 -4803012.4990665913 0 -4803012.4990665913 -18475880.563423157 0 0 0 0 854193.11214200314 -1049306.8711255956 0 -1049306.8711255956 -1001818.0842808206 0 0 0 0 160710291.79262161 -14314009.492795944 0 -14314009.492795944 -6349233.9164803028 0 0 0 0 151417255.55544233 -68827196.883986264 0 -68827196.883986264 19484381.984007835 0 0 0 0 -271730.58427056484 12429.229538702406 0 12429.229538702406 402549.38382618362 0 0 0 0 -40561192.90965271 118684432.09101534 0 118684432.09101534 -152656156.96014547 0 0 0 0 -55156117.496748924 43995415.916839302 0 43995415.916839302 -80436055.253076553 0 0 0 0 -14370850.660255432 6382650.403055042 0 6382650.403055042 -57202036.575511932 0 0 0 0 -23508501.547096252 36992354.161118984 0 36992354.161118984 -103065236.91053772 0 0 0 0 -29553263.089557648 38936841.039890051 0 38936841.039890051 -65076566.501096725 0 0 0 0 -592015.10572164878 904175.57726345723 0 904175.57726345723 952528.31899086549 0 0 0 0 -61067946.127910614 52335250.070191503 0 52335250.070191503 -60224793.654496193 0 0 0 0 -39587761.615531921 77084315.316791058 0 77084315.316791058 -101122816.82707727 0 0 0 0 27798478.536523819 -16354096.497641921 0 -16354096.497641921 -13922867.31433773 0 0 0 0 30600332.565071106 -45519094.813066483 0 -45519094.813066483 654862.99450016022 0 0 0 0 822276.70775241312 -1384319.4942542054 0 -1384319.4942542054 -996568.8389632632 0 0 0 0 -38688701.811279297 -20588409.197843552 0 -20588409.197843552 2195692.6592783928 0 0 0 0 107227612.76287842 -36992261.39966917 0 -36992261.39966917 -11037684.303560257 0 0 0 0 245556341.47433853 3094537.5227136612 0 3094537.5227136612 -18458307.80311203 0 0 0 0 82006064.126771927 -68906260.991073132 0 -68906260.991073132 20481968.998071671 0 0 0 0 36624924.87575531 -10771131.267234802 0 -10771131.267234802 11780752.939704895 0 0 0 0 160091412.10658669 198384856.32923791 0 198384856.32923791 105810927.44008923 0 0 0 0 133254305.23414993 131486215.26734972 0 131486215.26734972 22980261.491703033 0 0 0 0 114777929.04839683 236649297.89682275 0 236649297.89682275 191031085.65388966 0 0 0 0 36176432.633849144 17446400.870612979 0 17446400.870612979 -58253625.771111965 0 0 0 0 78945141.930809021 2762946.1119842529 0 2762946.1119842529 -65092673.663747311 0 0 0 0 10609327.736930847 111669559.60578787 0 111669559.60578787 68104713.798685312 0 0 0 0 55438217.338897705 -13120677.812123537 0 -13120677.812123537 -42306941.435432911 0 0 0 0 54101974.156402588 14357488.471178532 0 14357488.471178532 -70106032.22416687 0 0 0 0 31386507.39358902 -493405.13037085533 0 -493405.13037085533 -48829253.241250515 0 0 0 0 29234495.500339508 4358385.5187339187 0 4358385.5187339187 -58498969.562592983 0 0 0 0 377128.95890808105 5561974.2326221466 0 5561974.2326221466 -48294723.70237112 0 0 0 0 7818339.7023696899 21536762.88247633 0 21536762.88247633 -70880472.306464195 0 0 0 0 -12067842.142017365 12979627.813668013 0 12979627.813668013 -45909215.089585304 0 0 0 0 26724944.18963623 17742704.579973221 0 17742704.579973221 -63170375.998980999 0 0 0 0 172895151.4800415 39601074.556001663 0 39601074.556001663 -44327951.796638489 0 0 0 0 26678056.932304382 16565125.340531826 0 16565125.340531826 -10550671.492269516 0 0 0 0 388908437.37571716 93625129.957383156 0 93625129.957383156 -54326382.007047653 0 0 0 0 19167733.188611031 921187.51104772091 0 921187.51104772091 -19490656.324074745 0 0 0 0 -9584893.5584793091 72155229.571277618 0 72155229.571277618 -57548228.928226233 0 0 0 0 -786826.34401451237 714084.44120471273 0 714084.44120471273 1233536.4332295125 0 0 0 0 34553.024709701538 32315861.244508266 0 32315861.244508266 -26821203.334169388 0 0 0 0 99195163.520774841 26681910.61901474 0 26681910.61901474 -30224338.205249786 0 0 0 0 27329164.579608917 51976178.240305901 0 51976178.240305901 84138949.24630928 0 0 0 0 -464907.12303817272 314746.19307263987 0 314746.19307263987 685281.32290336443 0 0 0 0 106486167.67687607 306555901.31725502 0 306555901.31725502 305324293.0973978 0 0 0 0 253582065.58764076 340139609.96046698 0 340139609.96046698 248342949.85735607 0 0 0 0 170912648.40107727 218177825.65339613 0 218177825.65339613 89014714.203840733 0 0 0 0 169515633.19055152 238625189.48503587 0 238625189.48503587 106629956.76835442 0 0 0 0 229982610.44129562 186283426.3227458 0 186283426.3227458 151837443.12668037 0 0 0 0 201422651.18507957 128272642.82357693 0 128272642.82357693 34050566.414316177 0 0 0 0 -618821.23597426247 -150696.89208698738 0 -150696.89208698738 696741.43586533098 0 0 0 0 289703102.24541664 5424491.7376902103 0 5424491.7376902103 25529403.790823936 0 0 0 0 373164545.10375595 148158690.75156212 0 148158690.75156212 -152375827.01411247 0 0 0 0 460032236.07410431 14775495.287151337 0 14775495.287151337 -141611717.71906757 0 0 0 0 395417273.17034531 213387817.53828502 0 213387817.53828502 35980703.658820674 0 0 0 0 296905749.85567856 295517394.39008784 0 295517394.39008784 119067118.9238801 0 0 0 0 62559040.733398438 -21034969.513566017 0 -21034969.513566017 14813205.989145279 0 0 0 0 56814958.164901733 -34941036.865160465 0 -34941036.865160465 -18807819.504943848 0 0 0 0 8188646.7636222839 34210666.604131699 0 34210666.604131699 5369885.0272185802 0 0 0 0 146327991.68598175 35955506.373050213 0 35955506.373050213 3933485.9021911621 0 0 0 0 50042288.883975983 -30769352.256142616 0 -30769352.256142616 11095211.539888382 0 0 0 0 54047712.020805359 -27643198.73767519 0 -27643198.73767519 10121153.339129448 0 0 0 0 2969.9669670234434 -575531.07214319147 0 -575531.07214319147 1549184.7943461384 0 0 0 0 51706542.894886971 -38588923.183517218 0 -38588923.183517218 40990081.30364418 0 0 0 0 -434096.18957274873 -444670.84478110587 0 -444670.84478110587 359188.33892553172 0 0 0 0 120978.3075524224 957449.11111207958 0 957449.11111207958 719540.44095072336 0 0 0 0 62355.3661236763 123740.7126698494 0 123740.7126698494 81605.296133041382 0 0 0 0 43122139.309387207 -64190695.129597187 0 -64190695.129597187 57401914.829171658 0 0 0 0 324162.72909249947 -335327.27997227805 0 -335327.27997227805 772964.68264512066 0 0 0 0 2662497.2326478958 -4119414.1383383274 0 -4119414.1383383274 -3873674.8843727112 0 0 0 0 129561308.98791504 -496183800.72131062 0 -496183800.72131062 -226458039.87968636 0 0 0 0 52121827.408241272 -82134286.799250603 0 -82134286.799250603 15556317.54170084 0 0 0 0 121576713.58263016 -188354852.53834438 0 -188354852.53834438 -262412654.23818779 0 0 0 0 -14925492.512846947 35057402.193075418 0 35057402.193075418 -17616476.704307556 0 0 0 0 812735254.80467987 -52162702.903889656 0 -52162702.903889656 -458285922.70446634 0 0 0 0 193239511.41976833 -25132063.621082366 0 -25132063.621082366 -67821640.291483879 0 0 0 0 337844771.40444183 518255970.18717384 0 518255970.18717384 1318177090.8914776 0 0 0 0 1017788248.9023056 -476132811.60398674 0 -476132811.60398674 202138332.13614082 0 0 0 0 -351552872.9682312 137521939.30963445 0 137521939.30963445 267055738.05034637 0 0 0 0 -990350.3540019989 1129014.7872052193 0 1129014.7872052193 2029087.3444595337 0 0 0 0 -320055.67525756313 21522.082173575647 0 21522.082173575647 2533207.1927503608 0 0 0 0 596463508.88510132 295125057.67351151 0 295125057.67351151 -66698272.759523869 0 0 0 0 1189970272.575573 414348168.49374652 0 414348168.49374652 -214032489.83438206 0 0 0 0 1074491.0428941157 507157.73800705909 0 507157.73800705909 275826.48499095609 0 0 0 0 304338256.60750961 609754662.77107453 0 609754662.77107453 860459055.60611618 0 0 0 0 105677483.77726364 133587756.2439478 0 133587756.2439478 84087475.730616689 0 0 0 0 3421544.7933883667 7110774.7188794613 0 7110774.7188794613 101234620.38735533 0 0 0 0 3522363.3675842285 3421000.3682069778 0 3421000.3682069778 1229884.4992611408 0 0 0 0 503956918.20604491 273572909.38786232 0 273572909.38786232 -34546851.899670601 0 0 0 0 676934735.41473389 385582512.77219105 0 385582512.77219105 17244945.780508041 0 0 0 0 506490164.7505908 257552588.51646209 0 257552588.51646209 -78888461.193927765 0 0 0 0 748824727.68432236 278114856.09040594 0 278114856.09040594 -210044077.67992258 0 0 0 0 897386884.00127029 -240440985.55162477 0 -240440985.55162477 -40796569.157528877 0 0 0 0 1262859038.895237 436027509.34321666 0 436027509.34321666 -183371921.49507332 0 0 0 0 305701303.17625809 510506578.93070889 0 510506578.93070889 128335569.43695498 0 0 0 0 735594239.44577599 243957195.74677277 0 243957195.74677277 -259175550.13647842 0 0 0 0 -2248141.1418094635 361357.40575742722 0 361357.40575742722 1607488.8525123596 0 0 0 0 -137503745.78373337 81651688.705759764 0 81651688.705759764 -44857301.421098709 0 0 0 0 -946113.73337936401 221376.66380214691 0 221376.66380214691 1585755.3845214844 0 0 0 0 53987.69053565897 332997.2925211126 0 332997.2925211126 1802988.7424862252 0 0 0 0 -2348548.4115657806 386926.33154010773 0 386926.33154010773 2280417.5922050476 0 0 0 0 -2768059.8274383545 -2024188.708735466 0 -2024188.708735466 1231937.9589881897 0 0 0 0 -1930804.1555862427 -596350.54581737518 0 -596350.54581737518 1935094.1109657288 0 0 0 0 -1881915.5724411011 -312365.33854675293 0 -312365.33854675293 500591.36945724487 0 0 0 0 1551196535.6245689 128393636.40575838 0 128393636.40575838 -73979817.922400951 0 0 0 0 963019419.18318939 392527882.57345486 0 392527882.57345486 -215513754.9427352 0 0 0 0 810406829.94510651 222456247.73691845 0 222456247.73691845 105867874.87658501 0 0 0 0 16450.615888388827 76189.596892985981 0 76189.596892985981 91804.768319759751 0 0 0 0 683351812.67102814 353264786.10679531 0 353264786.10679531 64724384.744783401 0 0 0 0 -23602.306351842126 29347.248953753151 0 29347.248953753151 439212.42007927364 0 0 0 0 874673563.06817436 118188894.00438857 0 118188894.00438857 379710509.07747269 0 0 0 0 722543688.2509613 631405652.45720291 0 631405652.45720291 340257199.86053658 0 0 0 0 1321544492.9565163 526180256.41776037 0 526180256.41776037 21688153.141906738 0 0 0 0 3320061.1422128677 27868799.465374708 0 27868799.465374708 243967547.27491093 0 0 0 0 433549.00515755825 15008.711421053857 0 15008.711421053857 305196.80078710034 0 0 0 0 771737023.57588673 448781626.9287349 0 448781626.9287349 139979967.70704842 0 0 0 0 374328.50784148648 -40543.654384354129 0 -40543.654384354129 -118201.19569160091 0 0 0 0 142485868.8115387 83164147.055019379 0 83164147.055019379 36290336.772472382 0 0 0 0 190850958.33388138 148737349.00592041 0 148737349.00592041 3087438.8627536297 0 0 0 0 937481248.87102342 232626661.68720633 0 232626661.68720633 90823814.753436089 0 0 0 0 352698429.60032272 500001255.64079618 0 500001255.64079618 109011045.67389971 0 0 0 0 -20662750.188713908 -66497586.06924215 0 -66497586.06924215 -3575845.0618438721 0 0 0 0 963939.72828865051 29990163.86726141 0 29990163.86726141 25003514.875117183 0 0 0 0 -16824367.770803452 -14632063.315244198 0 -14632063.315244198 14425817.661149025 0 0 0 0 151470856.17565918 -160956769.8711729 0 -160956769.8711729 174612139.92361641 0 0 0 0 484106543.0293808 170767530.09727764 0 170767530.09727764 -93703097.497542858 0 0 0 0 697136.55494950805 135183.81738161389 0 135183.81738161389 501953.78336448479 0 0 0 0 374084417.58930969 193017414.39111042 0 193017414.39111042 178487145.69471693 0 0 0 0 -10008787.424819946 -37244.397070884705 0 -37244.397070884705 16097808.841490746 0 0 0 0 -27905162.693130493 6846136.0219402313 0 6846136.0219402313 14433659.193248749 0 0 0 0 -13143108.761928558 8938320.5134301186 0 8938320.5134301186 9178739.6936626434 0 0 0 0 -3751192.9949607849 17340820.825355053 0 17340820.825355053 -3046405.3155498505 0 0 0 0 -6860301.5641593933 12938111.925735474 0 12938111.925735474 6258522.6807823181 0 0 0 0 -5914304.3770599365 11856878.662050247 0 11856878.662050247 6701246.1782464981 0 0 0 0 -6958607.6812486649 21229050.240733385 0 21229050.240733385 -4276751.6513834 0 0 0 0 -7320777.2877426147 19313851.518268585 0 19313851.518268585 608805.49047470093 0 0 0 0 -6501554.5440311432 23225018.47856164 0 23225018.47856164 3691112.0376968384 0 0 0 0 -20627508.02104187 41098833.210028648 0 41098833.210028648 -17514959.027756453 0 0 0 0 -20438894.927494049 19224119.811654091 0 19224119.811654091 3628830.9824008942 0 0 0 0 -19800239.768348217 13886146.304488599 0 13886146.304488599 20343109.263757706 0 0 0 0 -45129424.124275208 37429485.977993011 0 37429485.977993011 20143872.004069328 0 0 0 0 -38393111.47347641 29872654.522712231 0 29872654.522712231 19253537.022735596 0 0 0 0 -97599975.587242126 -23515101.027104139 0 -23515101.027104139 66166821.659671783 0 0 0 0 5739759.5926513672 -39738764.981328964 0 -39738764.981328964 36940328.821409225 0 0 0 0 395205.06160567328 -29380.724841326009 0 -29380.724841326009 26794.292982978281 0 0 0 0 25177969.269193649 -10273340.593412399 0 -10273340.593412399 164134.38827419281 0 0 0 0 189561809.07198715 187866659.87134695 0 187866659.87134695 81500501.25026679 0 0 0 0 131979449.35600615 118491772.58042181 0 118491772.58042181 114539792.60302448 0 0 0 0 454748.16455841064 -493186.63259983063 0 -493186.63259983063 511748.70351156592 0 0 0 0 -2882522.5898356438 -1234858.9864134192 0 -1234858.9864134192 3015997.5198001862 0 0 0 0 1505972.8226966858 -10871966.373764992 0 -10871966.373764992 12564179.034434319 0 0 0 0 -27804974.164072841 -12797562.09555041 0 -12797562.09555041 16959515.495376587 0 0 0 0 3260392.4225296974 -2448351.292932272 0 -2448351.292932272 1443913.8371181488 0 0 0 0 -9896590.7083683014 -2315455.9176726341 0 -2315455.9176726341 9691272.839548111 0 0 0 0 -3180306.400970459 1152995.4468317032 0 1152995.4468317032 8386548.6625919342 0 0 0 0 -868662.44409561157 -1135483.3117733002 0 -1135483.3117733002 4592751.1077737808 0 0 0 0 -1322160.8981285095 -16589.933444023132 0 -16589.933444023132 1879718.0473222733 0 0 0 0 -1153003.4593467712 954578.91701316833 0 954578.91701316833 2709861.3544826508 0 0 0 0 -935603.75904846191 942629.01940536499 0 942629.01940536499 2599359.7464284897 0 0 0 0 -2168614.6540641785 4185311.0615291595 0 4185311.0615291595 2540357.2940273285 0 0 0 0 -1177890.9287695885 799980.18791770935 0 799980.18791770935 5945499.3063774109 0 0 0 0 -3449537.9601707458 3369588.6698360443 0 3369588.6698360443 8512981.0692083836 0 0 0 0 6134949.512336731 8299467.2529811859 0 8299467.2529811859 11132585.686883926 0 0 0 0 -2609705.5147724152 644255.69754886627 0 644255.69754886627 8012500.7796878815 0 0 0 0 -3591474.978717804 4650465.9969167709 0 4650465.9969167709 10089751.42719841 0 0 0 0 -1517645.7330715656 14603870.985901415 0 14603870.985901415 6499050.035987854 0 0 0 0 -1994975.1327552795 8808172.8758878708 0 8808172.8758878708 13697777.028587341 0 0 0 0 -1299496.6435852051 14340955.109477043 0 14340955.109477043 6434499.5131311417 0 0 0 0 2513239.8621139526 17575151.0386343 0 17575151.0386343 19767245.839216232 0 0 0 0 10770082.296802521 6532103.2942152023 0 6532103.2942152023 -25113205.213472366 0 0 0 0 133239.74918973725 183046.92066289112 0 183046.92066289112 -53304.744341926416 0 0 0 0 -26297.196783676744 1257830.5930364318 0 1257830.5930364318 247738.18184783164 0 0 0 0 10858789.745555878 8467147.6670742035 0 8467147.6670742035 -23064793.024643898 0 0 0 0 -8589345.8460578918 10797913.585782051 0 10797913.585782051 35064173.993720055 0 0 0 0 11049402.815811396 10176210.703651726 0 10176210.703651726 -15072645.261436462 0 0 0 0 10206148.417509079 17290432.567147017 0 17290432.567147017 -5099387.2414512634 0 0 0 0 14631223.261555672 17032741.94355917 0 17032741.94355917 -14107741.441113472 0 0 0 0 5819899.2136735916 21285870.166276455 0 21285870.166276455 7853461.5377349854 0 0 0 0 5475146.4296722412 11838189.785293579 0 11838189.785293579 16590231.938144684 0 0 0 0 14202757.480703354 38502215.431360722 0 38502215.431360722 27000192.875270844 0 0 0 0 17930535.346054077 37186442.950511932 0 37186442.950511932 7777822.1752243042 0 0 0 0 5241566.5129089355 31781978.039793968 0 31781978.039793968 50016630.420129776 0 0 0 0 52574113.320884705 -12545297.42634201 0 -12545297.42634201 -47530212.338026047 0 0 0 0 -86947.100913314149 293410.83360248525 0 293410.83360248525 177604.8171971431 0 0 0 0 56848038.314664841 -4088327.7564554214 0 -4088327.7564554214 -35976139.418384552 0 0 0 0 -6635214.1999359131 4586821.423078537 0 4586821.423078537 61570696.831914902 0 0 0 0 -1422030.4046192169 16265473.235734463 0 16265473.235734463 26214605.835786819 0 0 0 0 1941479.7883644104 -3128502.3368024826 0 -3128502.3368024826 25136266.397520065 0 0 0 0 150958.23552544136 475528.23543374753 0 475528.23543374753 352227.23529084725 0 0 0 0 -708123.92171287537 857561.77505064011 0 857561.77505064011 2174182.0192661285 0 0 0 0 -11027256.164176941 -5598327.7717227936 0 -5598327.7717227936 -3770871.7607688904 0 0 0 0 714013.18069076538 1299757.4414196014 0 1299757.4414196014 1949375.9433860779 0 0 0 0 249087.4670791626 2584065.5773468018 0 2584065.5773468018 749629.1841917038 0 0 0 0 218491.00134390965 378481.60639594495 0 378481.60639594495 29200.738301872509 0 0 0 0 36019781.932913303 -29866112.830353856 0 -29866112.830353856 -20450895.293380737 0 0 0 0 -25682172.262542725 29234574.856100082 0 29234574.856100082 33870002.19718802 0 0 0 0 -20641001.63753891 -9891377.4297733307 0 -9891377.4297733307 38575440.253570557 0 0 0 0 -10717371.549934387 17217534.591804504 0 17217534.591804504 -7786247.885468483 0 0 0 0 -9563477.2879104614 -304845.18197441101 0 -304845.18197441101 1350405.4337663651 0 0 0 0 -21632964.017936707 -3021766.9245598316 0 -3021766.9245598316 1430724.5534629822 0 0 0 0 -2031385.473903656 -932760.8629322052 0 -932760.8629322052 466828.43508911133 0 0 0 0 -287807.16825866699 -990711.43013477325 0 -990711.43013477325 -1508400.0387115479 0 0 0 0 -34671.290243262425 474455.71739055822 0 474455.71739055822 615857.31438629783 0 0 0 0 750222.46021270752 -2263243.0032663345 0 -2263243.0032663345 -748640.42673206329 0 0 0 0 -1143343.5412197113 -595418.32452964783 0 -595418.32452964783 4417803.406671524 0 0 0 0 5059180.5134506226 6365963.3122053146 0 6365963.3122053146 6448186.0314354897 0 0 0 0 2682217.8857498169 575804.05776691437 0 575804.05776691437 403478.99288034439 0 0 0 0 -1668108.5269317627 -1827178.3766756058 0 -1827178.3766756058 2627696.6167373657 0 0 0 0 10356455.917484283 -20777351.007291794 0 -20777351.007291794 23199889.921707869 0 0 0 0 -13797563.120134354 48047868.783605099 0 48047868.783605099 14641232.15448761 0 0 0 0 43972518.415174484 -23140686.779667854 0 -23140686.779667854 -43892243.779615402 0 0 0 0 47594507.388282776 -15571498.585695267 0 -15571498.585695267 -31502652.40146637 0 0 0 0 -17161.260501535609 207572.72103578527 0 207572.72103578527 201525.2803699146 0 0 0 0 11117079.712444305 12879309.58489418 0 12879309.58489418 13340080.026626587 0 0 0 0 43088388.889034271 13533655.165334702 0 13533655.165334702 -2231493.998960495 0 0 0 0 18362103.4518013 6452576.9029216766 0 6452576.9029216766 -3758961.259749651 0 0 0 0 55392309.035627365 -12832618.267852783 0 -12832618.267852783 -14862393.431564331 0 0 0 0 13767436.131885529 -15726532.878383636 0 -15726532.878383636 -9784340.1574878693 0 0 0 0 13786481.301422119 -4660306.4853191376 0 -4660306.4853191376 -2307355.8264245987 0 0 0 0 28822995.808135986 -5446693.8102045059 0 -5446693.8102045059 -4786229.0349941254 0 0 0 0 11698367.255176544 3212550.8798975945 0 3212550.8798975945 -848422.07220077515 0 0 0 0 14693621.363967896 2791783.9184641838 0 2791783.9184641838 -972932.20318031311 0 0 0 0 14804757.345672607 951349.86282730103 0 951349.86282730103 -1577547.1730384827 0 0 0 0 11824573.163005829 1921436.9245662689 0 1921436.9245662689 125657.97751045227 0 0 0 0 12649316.095962524 1410145.7147827148 0 1410145.7147827148 680823.80805873871 0 0 0 0 14322435.725778103 -354116.2571015358 0 -354116.2571015358 2235404.3268947601 0 0 0 0 13157634.501132965 2401735.5501461029 0 2401735.5501461029 2107850.0318832397 0 0 0 0 13268700.455693245 2616501.6331472397 0 2616501.6331472397 -608416.24585723877 0 0 0 0 11790681.452392578 2973503.3362045288 0 2973503.3362045288 1055450.0640850067 0 0 0 0 14052818.080101013 3373371.8225595355 0 3373371.8225595355 -104256.57480621338 0 0 0 0 12494575.239688873 3475110.0956859589 0 3475110.0956859589 1999370.6337332726 0 0 0 0 5925982.4545173645 -6033546.4475097656 0 -6033546.4475097656 -13715760.37123692 0 0 0 0 13939426.352924347 4758368.135717392 0 4758368.135717392 1813188.4805943966 0 0 0 0 7405664.707031264 -1805875.5025865603 0 -1805875.5025865603 -4560782.867933129 0 0 0 0 128886402.65113068 -38537569.134376526 0 -38537569.134376526 -35375234.847831726 0 0 0 0 40588563.7370224 17562423.204490662 0 17562423.204490662 -15505560.416847229 0 0 0 0 48814780.837944031 21272195.717372894 0 21272195.717372894 -25103383.672351837 0 0 0 0 110217412.48131561 37953230.875953197 0 37953230.875953197 -22484832.082992554 0 0 0 0 46900146.356742859 15149909.994625092 0 15149909.994625092 -15126273.062420845 0 0 0 0 50874307.597381592 -36856605.892051697 0 -36856605.892051697 -34171358.351675987 0 0 0 0 45419453.44568634 -3216714.7240791321 0 -3216714.7240791321 -27401169.27740097 0 0 0 0 85842737.617698669 7720231.1393966675 0 7720231.1393966675 -26855731.682201385 0 0 0 0 13410410.698738098 2177351.0445594788 0 2177351.0445594788 -1141610.5718021393 0 0 0 0 9256440.1849517822 482817.6884765625 0 482817.6884765625 -308186.66986560822 0 0 0 0 11935991.866847992 1799997.0886907578 0 1799997.0886907578 -886727.90237426758 0 0 0 0 7613229.4493713379 1172467.1083393097 0 1172467.1083393097 706122.97165298462 0 0 0 0 9419162.5795135498 2755637.0794944763 0 2755637.0794944763 -149433.53956985474 0 0 0 0 7124943.5557746887 2311256.9211854935 0 2311256.9211854935 430.82852172851562 0 0 0 0 1612823.4488589191 -1245959.1445354093 0 -1245959.1445354093 -567319.45582703315 0 0 0 0 138994029.03979278 -62444457.590937376 0 -62444457.590937376 20804431.757568359 0 0 0 0 -633279.36493422464 -157386.48839507357 0 -157386.48839507357 696170.84850602131 0 0 0 0 144938922.68444633 5212105.9314117432 0 5212105.9314117432 31824834.410615921 0 0 0 0 14076653.423648834 55957866.689953804 0 55957866.689953804 -25855796.924498081 0 0 0 0 7930080.6693267822 1019650.7053766251 0 1019650.7053766251 -395837.51534342766 0 0 0 0 7969678.9574432373 -551443.66351413727 0 -551443.66351413727 -2334326.7205937803 0 0 0 0 8905769.6335067749 1511642.9131393433 0 1511642.9131393433 -124149.44310510159 0 0 0 0 11268805.788124084 2799834.3202319145 0 2799834.3202319145 -739689.80125045776 0 0 0 0 8834222.6265869141 2001066.6929531097 0 2001066.6929531097 -2265703.2488861084 0 0 0 0 91631965.039132118 -29638096.288554668 0 -29638096.288554668 -10610244.783132553 0 0 0 0 384225.99137428636 -1112990.2277087597 0 -1112990.2277087597 599278.91887787543 0 0 0 0 -205665.70911979675 1614782.1574678421 0 1614782.1574678421 2829340.4179115295 0 0 0 0 57093345.526161194 -4429509.3606996536 0 -4429509.3606996536 413090.71115016937 0 0 0 0 -1023102.8318693284 -244001.37547684647 0 -244001.37547684647 1159364.9623205876 0 0 0 0 55712193.97525692 -12864564.110367 0 -12864564.110367 7970276.7276287079 0 0 0 0 82965887.699943542 -38456849.428470612 0 -38456849.428470612 -9184916.9682188034 0 0 0 0 56133704.070450783 -8931336.0378819108 0 -8931336.0378819108 -15264632.694766998 0 0 0 0 54558202.925533295 -32418015.900693893 0 -32418015.900693893 15212426.541408539 0 0 0 0 51291842.338386536 -26450125.117034912 0 -26450125.117034912 -18944310.032775402 0 0 0 0 94888246.326091766 78188348.836287498 0 78188348.836287498 102963190.79533768 0 0 0 0 192125642.33603287 57584134.91491127 0 57584134.91491127 32637713.04211998 0 0 0 0 100560720.48523712 -41257214.519014359 0 -41257214.519014359 16560252.668233633 0 0 0 0 109591531.08251381 -29987560.197414398 0 -29987560.197414398 -48787527.703132629 0 0 0 0 102393248.51983833 2078478.4085059166 0 2078478.4085059166 -44547532.335273743 0 0 0 0 70757227.162521362 -12343028.781246185 0 -12343028.781246185 11250333.579179287 0 0 0 0 -34014503.167671204 14283462.601654053 0 14283462.601654053 -36436070.297250271 0 0 0 0 95949208.272289276 -17309660.719949722 0 -17309660.719949722 -52131416.876316071 0 0 0 0 108139182.7924118 -40430310.775232315 0 -40430310.775232315 -55797836.690223694 0 0 0 0 290535284.17942047 17717174.810447693 0 17717174.810447693 -51339309.59517312 0 0 0 0 54541003.609083176 -19304038.766189575 0 -19304038.766189575 -40440380.09041214 0 0 0 0 60324503.299556732 -20166902.754708767 0 -20166902.754708767 -86499503.066473007 0 0 0 0 -3419187.7387485504 32299527.125325203 0 32299527.125325203 -2384667.2994613647 0 0 0 0 5696961.4421224594 -7538173.3037219048 0 -7538173.3037219048 -10012906.536834717 0 0 0 0 66320857.179660797 28821426.571775436 0 28821426.571775436 -17505949.58555603 0 0 0 0 67185796.178394318 -15391166.396650314 0 -15391166.396650314 -37723440.5676651 0 0 0 0 94737002.955972672 -14514583.779082775 0 -14514583.779082775 -57401411.375991821 0 0 0 0 84835202.84500885 -15389386.937213898 0 -15389386.937213898 -37782347.276873112 0 0 0 0 96993951.098022461 67686953.914200783 0 67686953.914200783 -1226154.0136375427 0 0 0 0 174834302.89556885 4802973.9125709534 0 4802973.9125709534 -55226438.288820744 0 0 0 0 4919749.8760681152 51835296.836696625 0 51835296.836696625 4540109.2811603546 0 0 0 0 23228814.901073456 12917793.54858017 0 12917793.54858017 -14159409.307090759 0 0 0 0 32498274.83972168 26302808.110565186 0 26302808.110565186 -13639192.334974289 0 0 0 0 31672142.77788353 26460456.967932701 0 26460456.967932701 -3352067.3076553345 0 0 0 0 33536275.496299744 25512964.434055328 0 25512964.434055328 -12237978.719081879 0 0 0 0 23865186.235862732 16750607.251529694 0 16750607.251529694 -4510686.1337599754 0 0 0 0 33599528.309108734 12915775.83523941 0 12915775.83523941 -15526008.678474426 0 0 0 0 17737718.234413147 10328610.890781403 0 10328610.890781403 -15441615.521749496 0 0 0 0 26879963.255752563 3939109.7456436157 0 3939109.7456436157 -18294591.643325806 0 0 0 0 368314.49522399902 14550478.513500214 0 14550478.513500214 -13101779.261154175 0 0 0 0 21124624.504198074 20098923.189537048 0 20098923.189537048 -18361421.624465942 0 0 0 0 727129.57340961881 -9626.8409376186319 0 -9626.8409376186319 19331.148791871965 0 0 0 0 221794625.3652153 84426734.880489349 0 84426734.880489349 32689923.155212402 0 0 0 0 -47117936.038764954 32476981.021850586 0 32476981.021850586 6218907.8677749634 0 0 0 0 683201.82781940792 -140453.37792979809 0 -140453.37792979809 -414425.84835175984 0 0 0 0 -25642.089888572693 12795154.924475193 0 12795154.924475193 -20307904.727508545 0 0 0 0 212835518.0211792 -124276526.35135078 0 -124276526.35135078 -123012962.00112915 0 0 0 0 97602429.812627792 133738988.03624439 0 133738988.03624439 314328634.19735718 0 0 0 0 7581166.1523132324 981910.86321640015 0 981910.86321640015 -4640119.6775436401 0 0 0 0 2423762.8224885957 -1562638.0678227674 0 -1562638.0678227674 -2333188.8816418257 0 0 0 0 13931011.386642456 8535190.2855911255 0 8535190.2855911255 -13163606.507740021 0 0 0 0 7262254.9875249425 2986657.6977928281 0 2986657.6977928281 -2268182.3113536611 0 0 0 0 10523682.121220589 6881778.3642978668 0 6881778.3642978668 -12863136.499320984 0 0 0 0 2839743.9137916565 19618286.944683075 0 19618286.944683075 -20483770.549445927 0 0 0 0 4063206.1612301432 2492618.4120619642 0 2492618.4120619642 -720833.61134297866 0 0 0 0 3301261.5009689331 20908682.842418671 0 20908682.842418671 -16934243.132106781 0 0 0 0 -778642.90503034554 757047.90136884665 0 757047.90136884665 1434109.1758433804 0 0 0 0 -41556359.969999313 92985720.69449544 0 92985720.69449544 -96746120.53720665 0 0 0 0 -42691073.299701691 93268494.08586216 0 93268494.08586216 -124624677.38186646 0 0 0 0 31849964.091098785 -76597228.020961761 0 -76597228.020961761 3640221.3019218445 0 0 0 0 -53642305.724796295 101702480.06990433 0 101702480.06990433 94344113.873188019 0 0 0 0 274534451.66496944 21456479.511723042 0 21456479.511723042 -74629295.214157104 0 0 0 0 -486356.25195516087 365115.83421124006 0 365115.83421124006 770378.92415022291 0 0 0 0 -78871403.482843399 27934669.753518581 0 27934669.753518581 60128453.553237915 0 0 0 0 -41580751.775263786 -16454158.15267992 0 -16454158.15267992 53263143.357704163 0 0 0 0 995812.85228347778 44460229.592506409 0 44460229.592506409 24313408.718658447 0 0 0 0 -60889444.229286194 35815935.754179001 0 35815935.754179001 63452289.57623291 0 0 0 0 1823699.3426588774 81525714.812483072 0 81525714.812483072 -3475465.9368057251 0 0 0 0 109286637.73240662 172522481.68312454 0 172522481.68312454 71571377.685333252 0 0 0 0 104396742.27053833 50013542.952213287 0 50013542.952213287 -15663854.50315094 0 0 0 0 25482772.229030609 24456357.87486124 0 24456357.87486124 1297083.0483169556 0 0 0 0 27416733.504025459 26164121.137453079 0 26164121.137453079 -21092622.923057556 0 0 0 0 -5849495.0064258575 13820608.955023766 0 13820608.955023766 7166590.1700744629 0 0 0 0 207300.17654800415 29419399.867324829 0 29419399.867324829 15058208.99448967 0 0 0 0 7032949.6016693115 -945036.41671180725 0 -945036.41671180725 -2415322.4605579376 0 0 0 0 4810168.948611835 -111676.93740442768 0 -111676.93740442768 -2931795.6265979772 0 0 0 0 6081297.612695694 633694.49219465256 0 633694.49219465256 -2978877.0129508972 0 0 0 0 3396396.1173157692 3308899.1346287727 0 3308899.1346287727 -3604642.6307067871 0 0 0 0 3699689.7643938065 948746.42398142815 0 948746.42398142815 -607106.23633956909 0 0 0 0 4276773.8363280967 -517687.79389885534 0 -517687.79389885534 -4747892.3931220137 0 0 0 0 5128963.8234004974 -19628749.681098938 0 -19628749.681098938 -26859946.199996948 0 0 0 0 341114182.18356705 72311961.089626312 0 72311961.089626312 -195443301.34940338 0 0 0 0 74830343.845321655 -31888545.222671509 0 -31888545.222671509 -120562497.96875954 0 0 0 0 40778845.628341675 10930464.34569931 0 10930464.34569931 -3839727.560295105 0 0 0 0 10376983.291702271 -2759786.999484539 0 -2759786.999484539 -7512784.3367131501 0 0 0 0 5915924.8243713379 -1354323.7998466492 0 -1354323.7998466492 -7540110.979608044 0 0 0 0 11028698.206327438 4060643.6245448887 0 4060643.6245448887 -12916078.51947403 0 0 0 0 35905270.478500366 10139037.140677452 0 10139037.140677452 -8011479.2475566864 0 0 0 0 6422149.7621917725 2682166.0369911194 0 2682166.0369911194 -9224938.9927368164 0 0 0 0 6320201.7246429063 1148751.8694102741 0 1148751.8694102741 -2828291.7264995491 0 0 0 0 3814263.3509292603 1358912.7477912903 0 1358912.7477912903 -4311617.5631814003 0 0 0 0 11446519.721794128 -2048468.0052638054 0 -2048468.0052638054 -2680124.2290542126 0 0 0 0 6944515.1145935059 -1721328.0471191406 0 -1721328.0471191406 -3175814.6591796875 0 0 0 0 3502029.7808303833 -873780.24220752716 0 -873780.24220752716 278176.06989479065 0 0 0 0 4489785.1081394497 1312911.1662250017 0 1312911.1662250017 -1671330.4879062932 0 0 0 0 2462264.6762524433 -1385352.6974720312 0 -1385352.6974720312 -1586933.354377436 0 0 0 0 7614071.9192390442 194428.99876737595 0 194428.99876737595 -4418045.14412117 0 0 0 0 6072222.7505125999 20224892.556672715 0 20224892.556672715 -8395958.5842952728 0 0 0 0 -7328802.8341522217 89485.68706035614 0 89485.68706035614 3103306.6093463898 0 0 0 0 -6749987.549987793 -5175599.642988205 0 -5175599.642988205 7286733.0808000565 0 0 0 0 -6205232.6472930908 -1798568.1975402832 0 -1798568.1975402832 7315888.1719512939 0 0 0 0 3043052.2322368622 -12018135.153540015 0 -12018135.153540015 -6035288.9690284729 0 0 0 0 -5369624.0491943359 -371148.3863697052 0 -371148.3863697052 -641858.18468284607 0 0 0 0 -8167147.4736404419 -6525467.3423466682 0 -6525467.3423466682 18064332.617703438 0 0 0 0 -129896.67104253918 36595.537268610671 0 36595.537268610671 79710.590728483396 0 0 0 0 67796280.372209549 25446640.526873827 0 25446640.526873827 -15136978.198267937 0 0 0 0 2600668.2465057373 9045845.5953226089 0 9045845.5953226089 589599.27074813843 0 0 0 0 51657018.374046326 -17353305.803789616 0 -17353305.803789616 -16490352.958545685 0 0 0 0 25209473.559806824 14406723.875870228 0 14406723.875870228 -22963287.850653648 0 0 0 0 14714237.968109131 33420384.513865471 0 33420384.513865471 38309877.585011482 0 0 0 0 1445279.1300451923 -1973788.2235764316 0 -1973788.2235764316 -2294714.2131643211 0 0 0 0 6703120.5670433044 -12143915.590596914 0 -12143915.590596914 -20885020.835313797 0 0 0 0 -14510368.902770996 -22203050.806879997 0 -22203050.806879997 10772393.845272064 0 0 0 0 2153096.309135437 -7625981.3368893862 0 -7625981.3368893862 -10258503.192271709 0 0 0 0 3907571.5033508763 -3470500.3359448882 0 -3470500.3359448882 -5162983.3001164775 0 0 0 0 406489.53086471558 -5279661.9748550653 0 -5279661.9748550653 -1936788.7528347969 0 0 0 0 3416184.6204032898 -6550410.9416650534 0 -6550410.9416650534 -10093398.644876242 0 0 0 0 2532830.1513175964 -9349057.5442305803 0 -9349057.5442305803 -13798293.58864522 0 0 0 0 7568795.9891047077 -1566344.4940667106 0 -1566344.4940667106 -6017910.8401440596 0 0 0 0 1579750.415356636 -7892587.1388276517 0 -7892587.1388276517 -9782989.4406793118 0 0 0 0 1832145.5395994186 -8587918.942109555 0 -8587918.942109555 -11271237.259120941 0 0 0 0 14483079.692102432 3780592.8915138245 0 3780592.8915138245 654704.34283828735 0 0 0 0 30270134.850925446 -13397975.643547058 0 -13397975.643547058 -15842952.050422668 0 0 0 0 5306438.580666461 463935.58302403195 0 463935.58302403195 -2692997.7115868842 0 0 0 0 13758231.154426575 4919695.9512786865 0 4919695.9512786865 2069181.8644484878 0 0 0 0 36612855.424462318 -6366749.4675413966 0 -6366749.4675413966 -16452340.150878906 0 0 0 0 36566158.528450489 -5267675.6486742496 0 -5267675.6486742496 -22344757.994995117 0 0 0 0 33788029.127944946 -3479433.4607620239 0 -3479433.4607620239 -19537851.23122406 0 0 0 0 26105187.3957901 3396926.5729751587 0 3396926.5729751587 -17848469.71704483 0 0 0 0 30846438.999153137 6216379.5909309387 0 6216379.5909309387 -18814756.81072998 0 0 0 0 40139980.99647522 4607992.9033851624 0 4607992.9033851624 -18891080.246559143 0 0 0 0 34500877.4053545 -5822349.0856244564 0 -5822349.0856244564 -10581746.934677124 0 0 0 0 33394664.831573486 -3138507.1127815247 0 -3138507.1127815247 -16090018.601448059 0 0 0 0 34291877.599258423 -3866475.4395484924 0 -3866475.4395484924 -19320744.678195953 0 0 0 0 26642005.467910767 -428952.0118637085 0 -428952.0118637085 -16318099.853904724 0 0 0 0 32312250.574569702 -4987470.021396637 0 -4987470.021396637 -13847872.968933105 0 0 0 0 4985995.5079040527 -1291205.0156784058 0 -1291205.0156784058 -2759408.5857172012 0 0 0 0 24698272.846366882 -3067608.2410697937 0 -3067608.2410697937 -9451638.2108383179 0 0 0 0 6105103.447122247 -900652.63862366043 0 -900652.63862366043 -4974407.8006632756 0 0 0 0 22208338.641414642 -1930875.5201187134 0 -1930875.5201187134 -9887947.2972793579 0 0 0 0 13735156.971180975 2365811.6973481476 0 2365811.6973481476 -11382781.199710846 0 0 0 0 17554456.44536972 10214536.971611023 0 10214536.971611023 -17019279.889949322 0 0 0 0 18376288.531520844 1526264.6387748718 0 1526264.6387748718 -11044638.894618988 0 0 0 0 3364042.3106384277 850219.30062866211 0 850219.30062866211 220755.71482849121 0 0 0 0 -1642271.1240844727 -3685767.7813358307 0 -3685767.7813358307 -11742496.949164867 0 0 0 0 3678016.3262005425 -1267071.4611072717 0 -1267071.4611072717 -2158771.2553810533 0 0 0 0 34630034.751804352 153302.84794044495 0 153302.84794044495 -2528949.3325805664 0 0 0 0 5725801.8345619533 -282148.3229105724 0 -282148.3229105724 -3489158.5638732743 0 0 0 0 1437960.3939865297 -996147.32174882106 0 -996147.32174882106 -1612610.1769749727 0 0 0 0 12602709.022491455 6652103.5746765137 0 6652103.5746765137 926203.59397888184 0 0 0 0 9025104.1056154165 -1139385.1936048726 0 -1139385.1936048726 -6884418.5354141584 0 0 0 0 4212446.805557251 311744.29061698914 0 311744.29061698914 -3070201.6636962891 0 0 0 0 6277200.9537834078 -1818573.5605379951 0 -1818573.5605379951 -6144979.0586747266 0 0 0 0 -49108923.851032257 -260977010.62792015 0 -260977010.62792015 -5256543.3214797974 0 0 0 0 390598158.04399109 -117803820.84706497 0 -117803820.84706497 -65786686.757946014 0 0 0 0 82409390.482574463 -131515757.5727663 0 -131515757.5727663 3697109.6933841705 0 0 0 0 -66097013.680175781 -30124439.464185715 0 -30124439.464185715 -48370284.165143967 0 0 0 0 319889.34754065564 -621241.05527477432 0 -621241.05527477432 -338235.12067673542 0 0 0 0 536306573.54790115 108089624.66325283 0 108089624.66325283 -43171592.643632889 0 0 0 0 -117966460.72817993 -124393710.53437877 0 -124393710.53437877 -27864653.969280243 0 0 0 0 211112230.41912079 -198547259.86983776 0 -198547259.86983776 -68900068.78530407 0 0 0 0 98627662.565013885 28926998.101325035 0 28926998.101325035 -392864.29952907562 0 0 0 0 669096.14679220365 -1239169.5941961771 0 -1239169.5941961771 -767676.47452418879 0 0 0 0 395567695.48569107 -57284108.392399788 0 -57284108.392399788 -85338368.483566523 0 0 0 0 -26481583.071512222 -35235092.239501238 0 -35235092.239501238 -5377206.1672649384 0 0 0 0 136244224.59616852 86732733.27298069 0 86732733.27298069 28010558.512032986 0 0 0 0 224327996.39477921 155647723.62643433 0 155647723.62643433 -80638478.96113205 0 0 0 0 642106532.26955032 378544125.30370426 0 378544125.30370426 30091941.106186867 0 0 0 0 730050434.91127396 -65784441.16498661 0 -65784441.16498661 -148870609.25085354 0 0 0 0 217329018.4383316 132375741.73742676 0 132375741.73742676 12274522.388778448 0 0 0 0 221423255.73338318 173728581.92772102 0 173728581.92772102 -20268102.17158699 0 0 0 0 -28738855.676387787 20345180.806781769 0 20345180.806781769 60953948.658147812 0 0 0 0 -460717.45954853855 406911.32065261598 0 406911.32065261598 802356.3918699827 0 0 0 0 324668588.41665602 47094404.58353734 0 47094404.58353734 -185198207.65516853 0 0 0 0 287644724.08595562 296771603.21112919 0 296771603.21112919 132002843.63526726 0 0 0 0 372665630.5294342 285359859.37981606 0 285359859.37981606 20662047.354421377 0 0 0 0 134751535.00896835 66828396.435575962 0 66828396.435575962 129187489.23100662 0 0 0 0 350967252.18621826 214074862.57688332 0 214074862.57688332 118906380.19661236 0 0 0 0 312624609.58224869 304880532.27337694 0 304880532.27337694 90470375.941196442 0 0 0 0 -26061479.675819397 280299677.09104919 0 280299677.09104919 225033986.61303806 0 0 0 0 320423649.01268864 326824017.25941634 0 326824017.25941634 110940762.14627457 0 0 0 0 169325641.34230423 106937006.64883041 0 106937006.64883041 254910959.65305576 0 0 0 0 163620932.91803551 151114365.10923386 0 151114365.10923386 121014765.43548775 0 0 0 0 2842432.369354248 70409058.38001442 0 70409058.38001442 134581833.29812717 0 0 0 0 2659973.9165496826 133807270.80158901 0 133807270.80158901 -161131698.8396616 0 0 0 0 12384631.236709595 141952.32382106781 0 141952.32382106781 -31230210.56848526 0 0 0 0 -33377694.980480194 120771286.48707581 0 120771286.48707581 -131126359.43637276 0 0 0 0 -743216.21375101618 795413.31527258386 0 795413.31527258386 1457697.5169555615 0 0 0 0 -65198270.395620346 97671895.764509201 0 97671895.764509201 35627289.593677521 0 0 0 0 -30286408.218196869 -15970799.441635132 0 -15970799.441635132 17371498.064760208 0 0 0 0 -10224612.145004272 19459252.961523056 0 19459252.961523056 65751004.379468918 0 0 0 0 1431966.4471775163 127051.00653027464 0 127051.00653027464 63321.169564178213 0 0 0 0 -16441663.201751709 -9704658.360666275 0 -9704658.360666275 19725936.143379211 0 0 0 0 -4519727.9754943848 13463384.598373413 0 13463384.598373413 4169443.6908493042 0 0 0 0 -11121693.263130188 10353288.868404388 0 10353288.868404388 8368187.9964370728 0 0 0 0 4008161.632702481 1930770.1591805443 0 1930770.1591805443 1001431.2298229132 0 0 0 0 16686637.375099182 9364496.4880332947 0 9364496.4880332947 -3591381.6949882507 0 0 0 0 3085172.2030336531 383287.20821085665 0 383287.20821085665 -2642549.784013248 0 0 0 0 27451381.321668625 -3947474.8997163773 0 -3947474.8997163773 -9853633.279876709 0 0 0 0 29459869.086133957 28515388.46802187 0 28515388.46802187 54688505.500682831 0 0 0 0 24553609.448875427 -350776.76107597351 0 -350776.76107597351 2131462.3524055481 0 0 0 0 22456124.467750549 6220818.2533416748 0 6220818.2533416748 24954457.470493317 0 0 0 0 24909848.591018677 1863853.4661827087 0 1863853.4661827087 -14018722.40417099 0 0 0 0 41106426.17565918 113603.84720993042 0 113603.84720993042 -16132530.215057373 0 0 0 0 44211542.685546875 9274999.6957941055 0 9274999.6957941055 -28587418.883960724 0 0 0 0 32420473.735437393 8446556.6338577271 0 8446556.6338577271 13738222.668964386 0 0 0 0 57524028.977981567 6632273.0901908875 0 6632273.0901908875 13511602.405356884 0 0 0 0 22715105.643302917 595459.67722988129 0 595459.67722988129 101991374.42964935 0 0 0 0 123647733.78623962 63458318.678937912 0 63458318.678937912 84512978.612846375 0 0 0 0 -4816576.4684619904 -3033154.9065556526 0 -3033154.9065556526 86682733.937683105 0 0 0 0 41825307.143108368 -20298196.429506302 0 -20298196.429506302 52720055.494127274 0 0 0 0 100376603.53916168 32807001.098300934 0 32807001.098300934 -2176155.5306224823 0 0 0 0 80283452.120903969 100433785.32404613 0 100433785.32404613 175995068.65729523 0 0 0 0 307609641.13398266 443413049.02779961 0 443413049.02779961 334141850.81910133 0 0 0 0 146673.8342783635 73670.811305865645 0 73670.811305865645 830283.82669233065 0 0 0 0 -181643502.13382721 -46294549.691768646 0 -46294549.691768646 249716447.97083664 0 0 0 0 2121235721.4602852 207322680.2675699 0 207322680.2675699 64020812.130073547 0 0 0 0 -32790430.239273071 193907821.27468681 0 193907821.27468681 462347371.26491165 0 0 0 0 -14024945.163000107 68257151.027834415 0 68257151.027834415 -16607881.059215546 0 0 0 0 78506616.160850525 18105992.636687279 0 18105992.636687279 -25924367.162456512 0 0 0 0 -102840960.35128784 30161462.565093994 0 30161462.565093994 4528761.3918247223 0 0 0 0 314284.66673601465 896845.28892766777 0 896845.28892766777 2574842.5445805667 0 0 0 0 2081698244.0333853 -468248780.24828553 0 -468248780.24828553 -262025886.81544495 0 0 0 0 485949308.38365173 -462003746.39797974 0 -462003746.39797974 491870478.77151108 0 0 0 0 713612486.10388184 -74146428.718572617 0 -74146428.718572617 328113816.09895992 0 0 0 0 1182209538.3287811 207440877.77885437 0 207440877.77885437 69078114.171949387 0 0 0 0 344755920.47389221 -15343910.213088989 0 -15343910.213088989 127969244.42070389 0 0 0 0 498592843.19438171 553681558.78475952 0 553681558.78475952 -346767624.02733612 0 0 0 0 383399693.86004448 -21049822.750533104 0 -21049822.750533104 -541338815.24853134 0 0 0 0 -168085573.48501587 177112987.91305542 0 177112987.91305542 53158137.742845416 0 0 0 0 586545814.0129776 333487258.35475063 0 333487258.35475063 166259090.05333328 0 0 0 0 115052998.56134033 17403300.768659592 0 17403300.768659592 65392707.289289355 0 0 0 0 23459517.997184753 94120295.111694336 0 94120295.111694336 174107234.29165268 0 0 0 0 -221754543.55625916 -146954610.3420372 0 -146954610.3420372 265690104.1521883 0 0 0 0 35855075.462572098 29906457.750133038 0 29906457.750133038 503397996.06994629 0 0 0 0 591792545.75458527 304710667.67689133 0 304710667.67689133 616985935.39940262 0 0 0 0 357980214.99604797 -150429356.05954933 0 -150429356.05954933 239300031.72031593 0 0 0 0 408566786.11639404 -210871991.29302692 0 -210871991.29302692 338727305.73571396 0 0 0 0 75943422.593589783 -239040334.56922626 0 -239040334.56922626 187981119.43098068 0 0 0 0 87523999.702354431 49845602.097937584 0 49845602.097937584 204067539.42144394 0 0 0 0 5739582.1285913587 1079063.7129726897 0 1079063.7129726897 -1094670.5200101356 0 0 0 0 39240500.351921082 76617241.794926584 0 76617241.794926584 -108057179.08949769 0 0 0 0 145954117.35746765 -52428479.823736191 0 -52428479.823736191 82262175.617181063 0 0 0 0 -112059504.597229 21293621.484800339 0 21293621.484800339 49436219.858736038 0 0 0 0 42811512.140678406 131789967.66178519 0 131789967.66178519 63182409.310291573 0 0 0 0 153583944.70452881 -217127997.30620414 0 -217127997.30620414 91151878.347563505 0 0 0 0 769170824.71400452 -760983895.53951669 0 -760983895.53951669 570884290.23053718 0 0 0 0 1692115751.2985535 -847281296.46221054 0 -847281296.46221054 -488045870.79602218 0 0 0 0 1387764029.5438385 307342428.87244511 0 307342428.87244511 -163473036.71732903 0 0 0 0 977743682.98446655 -72890381.42757225 0 -72890381.42757225 -402674392.32265675 0 0 0 0 892651660.29288101 22292737.991844654 0 22292737.991844654 -47061444.181137085 0 0 0 0 454656158.43913269 -39707435.375861168 0 -39707435.375861168 10717508.841190338 0 0 0 0 773888996.76327515 67227267.685530663 0 67227267.685530663 -69912586.788928986 0 0 0 0 365643015.43919373 -2178391.9090759754 0 -2178391.9090759754 14081810.234273911 0 0 0 0 773167143.77929437 162308104.81963199 0 162308104.81963199 64220.927146911621 0 0 0 0 1110240942.5608215 106983640.13363171 0 106983640.13363171 -160934477.79826164 0 0 0 0 729629908.77313995 139676780.59739113 0 139676780.59739113 -56964008.846035004 0 0 0 0 940681963.24526978 153614275.9316349 0 153614275.9316349 -80022739.517968178 0 0 0 0 741543967.06846619 104089043.68269014 0 104089043.68269014 9968373.7116279602 0 0 0 0 417442640.76287842 146313465.99238014 0 146313465.99238014 33536095.11863327 0 0 0 0 165067530.88589478 127284706.49142742 0 127284706.49142742 70428544.703350544 0 0 0 0 371209437.25282288 105102607.85995531 0 105102607.85995531 23261348.025806427 0 0 0 0 41489008.76146698 -60154105.277513981 0 -60154105.277513981 40257081.97580719 0 0 0 0 -36885280.710540771 13251408.741276741 0 13251408.741276741 29741934.644454002 0 0 0 0 16175943.879875183 91957857.560419083 0 91957857.560419083 68588007.288249969 0 0 0 0 -80785831.710891724 81605748.779895782 0 81605748.779895782 -8327882.5111961365 0 0 0 0 -97311733.82258606 -46165324.754051208 0 -46165324.754051208 -16117839.639978409 0 0 0 0 -81735536.338150024 4568730.6357727051 0 4568730.6357727051 67959474.6471138 0 0 0 0 -82359688.783866882 -56507715.280274391 0 -56507715.280274391 -47020279.031906128 0 0 0 0 -61767496.400756836 -100678051.60475159 0 -100678051.60475159 29887377.416618824 0 0 0 0 -70943932.578201294 27042446.632301331 0 27042446.632301331 122930135.4174509 0 0 0 0 -57038057.846560001 90026511.052399695 0 90026511.052399695 107423388.91189957 0 0 0 0 -55959608.04045105 105397169.85160828 0 105397169.85160828 2167890.5589828491 0 0 0 0 -67511585.897773743 10685974.453298569 0 10685974.453298569 74477741.78339386 0 0 0 0 -77498226.986419678 6581278.9997529984 0 6581278.9997529984 154947394.53836823 0 0 0 0 -958272.04614892974 -334882.29062098917 0 -334882.29062098917 458698.61961287889 0 0 0 0 248302536.93565369 100091819.63013268 0 100091819.63013268 110460738.89089966 0 0 0 0 623686206.95625305 284032776.67874718 0 284032776.67874718 -879578981.05449104 0 0 0 0 671083737.43992615 -8429551.0939788818 0 -8429551.0939788818 16599428.33996582 0 0 0 0 350643524.86058044 205426297.28316021 0 205426297.28316021 74445027.854063034 0 0 0 0 15437.48550940305 -375712.68368672766 0 -375712.68368672766 297278.67585317953 0 0 0 0 677285588.36539459 220140430.9850769 0 220140430.9850769 22006784.862037659 0 0 0 0 333508694.77916718 -71233564.570187569 0 -71233564.570187569 -161225516.70051003 0 0 0 0 854069947.96302795 196110861.38757896 0 196110861.38757896 53696494.188334942 0 0 0 0 883378475.31237793 -27089667.478338242 0 -27089667.478338242 120839441.03328276 0 0 0 0 905709119.16499329 198277982.23932934 0 198277982.23932934 -9902852.2653160095 0 0 0 0 -46565309.610767365 24843607.678926945 0 24843607.678926945 7429559.0965576172 0 0 0 0 1890357165.4609413 100107653.62435746 0 100107653.62435746 -395186200.15639877 0 0 0 0 204959.02307070373 2424644.7080442328 0 2424644.7080442328 5274846.4762141537 0 0 0 0 1073726510.9107056 788854794.16739464 0 788854794.16739464 -507555643.13781738 0 0 0 0 -2656105.0110473633 18163478.84664917 0 18163478.84664917 -8406333.49974823 0 0 0 0 -12152029.027435303 33359584.865737915 0 33359584.865737915 -6363166.0201377869 0 0 0 0 -1622363.2174377441 23744381.488063812 0 23744381.488063812 -9025001.1753692627 0 0 0 0 -20146624.778511047 5488766.9428768158 0 5488766.9428768158 3529634.0490570068 0 0 0 0 -1588535.6266021729 12034652.406837463 0 12034652.406837463 1524626.5904426575 0 0 0 0 -1497516.2508277893 8707291.7939968109 0 8707291.7939968109 16033554.871459961 0 0 0 0 -5094400.3412246704 17238308.376867294 0 17238308.376867294 13056496.165996552 0 0 0 0 427076153.28004456 -346494429.56871176 0 -346494429.56871176 48643662.738408983 0 0 0 0 3365747.1884409785 3522816.8224297054 0 3522816.8224297054 -4828108.8274255656 0 0 0 0 -6086335.1949882507 16909400.557806015 0 16909400.557806015 18771705.531822205 0 0 0 0 856924545.95581055 256860292.12196445 0 256860292.12196445 89905099.99896431 0 0 0 0 -262086.6420985416 4763924.3972456511 0 4763924.3972456511 8923819.2411238328 0 0 0 0 907263451.4969635 236548173.60495663 0 236548173.60495663 64622545.710096359 0 0 0 0 1012335065.4783325 282962644.99069881 0 282962644.99069881 -25548248.043459892 0 0 0 0 1008484497.0072937 344400713.34675026 0 344400713.34675026 113450990.88358116 0 0 0 0 930533894.30094147 383887562.88848615 0 383887562.88848615 276734053.41299248 0 0 0 0 -536480352.50328827 595772127.33881557 0 595772127.33881557 78909635.517241955 0 0 0 0 397509.30486320588 820008.07449454442 0 820008.07449454442 -153540.96184518561 0 0 0 0 -119391904.39422607 -316260245.62312984 0 -316260245.62312984 -828469280.50004196 0 0 0 0 786595233.78588867 46134348.990884662 0 46134348.990884662 -1250008922.3153224 0 0 0 0 1361474731.9095764 508662925.03795719 0 508662925.03795719 -37027172.016540527 0 0 0 0 71628.949232773855 966443.81976782531 0 966443.81976782531 1264726.8457624684 0 0 0 0 1125706430.9026871 624334997.24989367 0 624334997.24989367 241998628.40141678 0 0 0 0 2716910547.0651093 745229420.87668777 0 745229420.87668777 -1024475290.3819698 0 0 0 0 69606.873152200133 6559.2574593015015 0 6559.2574593015015 600397.69416104187 0 0 0 0 139023530.88273621 -103608087.2477802 0 -103608087.2477802 49006377.123111248 0 0 0 0 -552753795.90496826 428225667.63252974 0 428225667.63252974 -79650226.359211147 0 0 0 0 152151724.96941185 -31375919.645173252 0 -31375919.645173252 13199340.513172626 0 0 0 0 -607924068.01385498 354797747.95664024 0 354797747.95664024 -1641481.5316176414 0 0 0 0 -47978975.32510376 19510172.938256264 0 19510172.938256264 51790750.179601192 0 0 0 0 -17273504.926254272 -112586529.9703033 0 -112586529.9703033 224683397.76643658 0 0 0 0 74543100.688964844 -42400451.950503826 0 -42400451.950503826 39733451.195101261 0 0 0 0 -11680866.781921387 -18007451.933035851 0 -18007451.933035851 82373119.228502274 0 0 0 0 -20374311.717731476 13625015.202382982 0 13625015.202382982 25094914.114871979 0 0 0 0 -34357596.967514038 -25963890.058385611 0 -25963890.058385611 61675681.571816683 0 0 0 0 -33692305.75819397 -27178543.862459421 0 -27178543.862459421 -5196149.6745070741 0 0 0 0 -41231250.615364075 33146635.478947878 0 33146635.478947878 -4061093.1950998306 0 0 0 0 -35471589.052734375 15946229.803324938 0 15946229.803324938 43018005.356050491 0 0 0 0 -33839903.127746582 48577986.86928606 0 48577986.86928606 19013837.003220081 0 0 0 0 -36064288.524055481 37966507.233846784 0 37966507.233846784 -15772029.010425568 0 0 0 0 -84979619.054641724 148008332.38587904 0 148008332.38587904 -31342672.614747524 0 0 0 0 -31739859.087654114 35610231.033871889 0 35610231.033871889 67500173.451589584 0 0 0 0 -143662538.3918457 40922252.831944466 0 40922252.831944466 174194315.9508543 0 0 0 0 19234150.038669586 18526514.293142319 0 18526514.293142319 -1478485.1026763916 0 0 0 0 15417829.923641205 24088769.602633476 0 24088769.602633476 73614.999420166016 0 0 0 0 5915125.1797376685 2873892.327462865 0 2873892.327462865 -5528860.6532854037 0 0 0 0 5247244.9720077515 27415575.672374725 0 27415575.672374725 -16594919.84928894 0 0 0 0 19851824.298671722 21339066.106931686 0 21339066.106931686 -15225239.420417786 0 0 0 0 23391561.051746368 13181621.971496582 0 13181621.971496582 -1743025.9169311523 0 0 0 0 1962247.5456848145 17270421.589313507 0 17270421.589313507 -109761.51239395142 0 0 0 0 18066379.590629578 5362913.4701156616 0 5362913.4701156616 -10959102.202951431 0 0 0 0 20754039.990411758 377599.57191562653 0 377599.57191562653 -8556118.5250091553 0 0 0 0 13978289.342922211 5347502.3876640797 0 5347502.3876640797 -2532725.4488964081 0 0 0 0 4990882.4881286621 41070529.423914433 0 41070529.423914433 -83688620.858475447 0 0 0 0 10316688.348602295 11950737.217767477 0 11950737.217767477 11482613.876076937 0 0 0 0 21349873.214729309 19186768.728595257 0 19186768.728595257 -1381789.9031586647 0 0 0 0 3675571.6168635078 4636221.289980188 0 4636221.289980188 1722808.5308050462 0 0 0 0 7309506.8610897921 2016258.0365680056 0 2016258.0365680056 -4827601.3714745454 0 0 0 0 2939659.3254089355 12915148.289722443 0 12915148.289722443 6615859.4625320435 0 0 0 0 5643752.0570714381 8295955.3414655747 0 8295955.3414655747 5746479.1210674271 0 0 0 0 233859.9280090332 18713294.002174377 0 18713294.002174377 8456431.3357362747 0 0 0 0 -1962494.6433792114 8969269.5833930969 0 8969269.5833930969 5536338.6691169739 0 0 0 0 2643085.6779785156 13675570.654200554 0 13675570.654200554 7210634.9573059082 0 0 0 0 -2583240.553103447 10540075.642555565 0 10540075.642555565 16708870.714363098 0 0 0 0 -1502203.9852657318 17605191.278271735 0 17605191.278271735 6389616.6033744812 0 0 0 0 7766857.2411213052 9787493.0820649546 0 9787493.0820649546 4990805.4212794863 0 0 0 0 -4494165.8726806641 5278024.0923547745 0 5278024.0923547745 29887.106886863708 0 0 0 0 20692844.686813354 7067333.8158245087 0 7067333.8158245087 7965313.1246359348 0 0 0 0 16932001.460334778 -521662.80376291275 0 -521662.80376291275 14655757.726595402 0 0 0 0 -3208597.0098686218 9312036.4333536625 0 9312036.4333536625 12419430.341290474 0 0 0 0 1673408.4441701844 1533921.6203920692 0 1533921.6203920692 663110.85400569229 0 0 0 0 -45587658.961135864 33710935.960422039 0 33710935.960422039 7045703.4019312859 0 0 0 0 27225773.752853394 -912062.13458251953 0 -912062.13458251953 6481272.8436961174 0 0 0 0 63822847.587863922 69229318.813456357 0 69229318.813456357 3113041.2259788513 0 0 0 0 113210589.64666748 -40373102.633562565 0 -40373102.633562565 14370924.696774483 0 0 0 0 -15997841.999511719 11613644.380422115 0 11613644.380422115 59644629.409147501 0 0 0 0 973101.06270404719 764791.3199622808 0 764791.3199622808 472542.33630210732 0 0 0 0 -15001234.884963989 20398045.876765728 0 20398045.876765728 8470401.6640291214 0 0 0 0 918748.2767835781 992780.78253876325 0 992780.78253876325 153259.50370151235 0 0 0 0 26639772.583404541 -1314526.1990237236 0 -1314526.1990237236 20262247.730004311 0 0 0 0 12699007.217552185 17186610.212127447 0 17186610.212127447 9761304.3239059448 0 0 0 0 2166365.8760533221 1998288.3672639839 0 1998288.3672639839 770396.97220571735 0 0 0 0 11544319.092071533 13681563.398777723 0 13681563.398777723 -20428161.846037984 0 0 0 0 2046201.7772088051 -54389016.542362452 0 -54389016.542362452 -61626806.504743814 0 0 0 0 -275133.9013671875 18654580.6165272 0 18654580.6165272 4706808.3143894672 0 0 0 0 4200632.6495819092 17805206.629145145 0 17805206.629145145 4509509.0930443108 0 0 0 0 12423339.744464874 22480251.926253647 0 22480251.926253647 -9076724.1076607704 0 0 0 0 10694076.225669861 40056435.983377218 0 40056435.983377218 8730202.4883252084 0 0 0 0 44392341.972702026 5800249.61898458 0 5800249.61898458 -10273757.90105772 0 0 0 0 166124581.02893066 22049134.407405138 0 22049134.407405138 -104484217.22441089 0 0 0 0 417268.92725759 590172.57421386521 0 590172.57421386521 372798.86943153443 0 0 0 0 84633436.110515594 126181564.25365576 0 126181564.25365576 -118079500.71027899 0 0 0 0 -27205281.233215332 80460821.302300394 0 80460821.302300394 -43129725.052045852 0 0 0 0 -55425309.739471436 -57859342.867902547 0 -57859342.867902547 52602216.323150873 0 0 0 0 1069115.9604721069 38479403.951649994 0 38479403.951649994 17119026.217155695 0 0 0 0 43356881.43242836 159958472.52966899 0 159958472.52966899 -65264298.327267334 0 0 0 0 -888894.64057159424 -11197255.077816248 0 -11197255.077816248 42322741.77127178 0 0 0 0 62690.687424678355 61785.919800781645 0 61785.919800781645 -17200.981790980324 0 0 0 0 -12737008.340362549 28817215.279098451 0 28817215.279098451 56246584.064061642 0 0 0 0 162330006.89258766 101526929.06615268 0 101526929.06615268 -115970763.26794638 0 0 0 0 184795104.35501099 -23303350.304905009 0 -23303350.304905009 -66408.92848334751 0 0 0 0 -22808274.876220703 -69568923.432189882 0 -69568923.432189882 87634714.554808885 0 0 0 0 79054743.942504883 53962511.817323491 0 53962511.817323491 -7540084.4066929407 0 0 0 0 201216260.34498596 -11915528.871787921 0 -11915528.871787921 -54488036.210086621 0 0 0 0 202240.78495784849 -21383.030783556867 0 -21383.030783556867 -31942.555394347597 0 0 0 0 64815023.126346588 -108538504.14864494 0 -108538504.14864494 163082038.7014547 0 0 0 0 41643710.890075684 -67519026.288966715 0 -67519026.288966715 29184750.876406312 0 0 0 0 43067158.305511475 -43463853.419563651 0 -43463853.419563651 25657576.037089229 0 0 0 0 34750321.580993652 -58502888.649511755 0 -58502888.649511755 72203361.489213556 0 0 0 0 557271.46402376518 -4363.4631770099513 0 -4363.4631770099513 -69781.105889306666 0 0 0 0 7858822.9054145813 -18687615.579170015 0 -18687615.579170015 63521.737342359993 0 0 0 0 -7552211.2132339478 -6531957.976020582 0 -6531957.976020582 -5181217.633337073 0 0 0 0 624832.71511235973 5906.1733876299113 0 5906.1733876299113 -33643.960311663861 0 0 0 0 -13970086.517988205 8944807.0491244961 0 8944807.0491244961 -826826.34587947652 0 0 0 0 1058738.4394426383 -187109.63687682338 0 -187109.63687682338 -66275.476984916852 0 0 0 0 -325300.82472038269 -2342909.5651427535 0 -2342909.5651427535 -2787261.4167118371 0 0 0 0 57922413.516876221 -41501494.943903923 0 -41501494.943903923 27335132.646698713 0 0 0 0 352103.0043943841 209009.86137101054 0 209009.86137101054 50629.053921952203 0 0 0 0 78948682.624702454 -51733550.498092964 0 -51733550.498092964 9997666.1459124088 0 0 0 0 8592022.6954498291 -65521385.558164358 0 -65521385.558164358 31533310.994285762 0 0 0 0 12764482.081573486 -37896174.16287756 0 -37896174.16287756 25498367.284157906 0 0 0 0 59548544.27557373 -44089704.678368926 0 -44089704.678368926 -62767941.997873545 0 0 0 0 -38777854.494888306 42685658.956559181 0 42685658.956559181 8479336.3164832592 0 0 0 0 -118343881.6843605 -28919723.565024257 0 -28919723.565024257 56659209.257208347 0 0 0 0 439174.58673074283 496315.46292480081 0 496315.46292480081 204680.98860912235 0 0 0 0 154472237.05918884 58925346.84320122 0 58925346.84320122 -77658896.242315769 0 0 0 0 15117590.57195282 -9198703.0704903603 0 -9198703.0704903603 43887990.701491356 0 0 0 0 74163428.65174365 -56610638.557475969 0 -56610638.557475969 17530993.578084469 0 0 0 0 -12440147.374937057 -4405049.4094468802 0 -4405049.4094468802 2169878.4859120846 0 0 0 0 130354.55801447853 117768.97260323726 0 117768.97260323726 -4276.142149164225 0 0 0 0 179992560.37110901 -54042117.379356027 0 -54042117.379356027 -21966471.641164303 0 0 0 0 28301204.722942352 -56653623.111539483 0 -56653623.111539483 58310708.513572454 0 0 0 0 56493358.832130432 -52437523.199795902 0 -52437523.199795902 34265622.099206567 0 0 0 0 28746616.039108276 21415041.504450202 0 21415041.504450202 -7640232.7174711823 0 0 0 0 -4766646.2728805542 628879.33033174276 0 628879.33033174276 3773945.5008318424 0 0 0 0 -647802577.37371063 -216297363.98278746 0 -216297363.98278746 501001620.20944381 0 0 0 0 383912617.60526276 1358677614.5190177 0 1358677614.5190177 571683260.98749709 0 0 0 0 1744683076.0929413 -1053281421.1531541 0 -1053281421.1531541 508326478.00239456 0 0 0 0 677405.85874615982 -52763.571460710838 0 -52763.571460710838 482065.72058681754 0 0 0 0 1414974.7126652189 -82451.380241154227 0 -82451.380241154227 -86164.802958912755 0 0 0 0 4181903.9585418701 4936056.351147267 0 4936056.351147267 -3170611.639892241 0 0 0 0 5595252.3406066895 -5224920.0754310647 0 -5224920.0754310647 -1530326.4239722472 0 0 0 0 3251473.5780639648 7140842.2387497853 0 7140842.2387497853 -10144320.791536793 0 0 0 0 1267056.6258125305 2861718.8050843086 0 2861718.8050843086 -11214800.553328812 0 0 0 0 21967398.475891113 6840664.1939869523 0 6840664.1939869523 -11760052.502461292 0 0 0 0 2095526.8348236084 16315276.033537105 0 16315276.033537105 17720.831626951967 0 0 0 0 -9463663.8078994751 -17566952.142247159 0 -17566952.142247159 2157737.0500902473 0 0 0 0 18119835.98094368 -9495077.181858914 0 -9495077.181858914 -10122518.345004484 0 0 0 0 626133.6613352187 -57427.92863532342 0 -57427.92863532342 40844.587997943192 0 0 0 0 -1676980.3452415466 -8156612.3879885878 0 -8156612.3879885878 -10207225.391172767 0 0 0 0 6163678.6402587891 -291163.54643416405 0 -291163.54643416405 -10809980.408034023 0 0 0 0 347475020.90803528 -220197735.33684823 0 -220197735.33684823 119519928.76304376 0 0 0 0 741165876.03526306 238149243.66331744 0 238149243.66331744 -93991942.842393696 0 0 0 0 677067780.66598511 185492592.08398944 0 185492592.08398944 -132460087.75611666 0 0 0 0 848175545.28607178 225648815.26455441 0 225648815.26455441 -118684620.54145218 0 0 0 0 224955.06635322049 -33578.376782761887 0 -33578.376782761887 31243.674410847012 0 0 0 0 810850294.10452271 165417600.01782286 0 165417600.01782286 -83935095.363957494 0 0 0 0 547669076.54078674 108630529.32342395 0 108630529.32342395 -5586241.5271562561 0 0 0 0 661538126.7756958 139144366.60224608 0 139144366.60224608 -85665973.26795435 0 0 0 0 572572246.06406403 286605250.12086481 0 286605250.12086481 13106655.989416294 0 0 0 0 342485692.15197754 100912801.01092291 0 100912801.01092291 -64528035.661697388 0 0 0 0 530543124.65690613 579304872.79774058 0 579304872.79774058 779712061.35801971 0 0 0 0 792609211.58279419 -293050790.10053289 0 -293050790.10053289 103859884.03731255 0 0 0 0 687075.09287434816 131181.57916915556 0 131181.57916915556 56151.891532752896 0 0 0 0 1274462618.1629486 125836961.21521264 0 125836961.21521264 -134605984.63897222 0 0 0 0 1010888688.4332275 818989455.20824337 0 818989455.20824337 640398.44703406282 0 0 0 0 737742428.99661255 772372133.7955997 0 772372133.7955997 65833871.515252888 0 0 0 0 2185438.9427505769 146202.86966163735 0 146202.86966163735 -387501.76201390306 0 0 0 0 680058839.97553635 1001104602.6050144 0 1001104602.6050144 545582684.2991004 0 0 0 0 267315942.03817749 -154292792.26527905 0 -154292792.26527905 57699311.558843613 0 0 0 0 192291835.29497528 -6448689.9255650043 0 -6448689.9255650043 -220206541.02381706 0 0 0 0 2777998.6080932617 -1178345.3316411972 0 -1178345.3316411972 -2463949.8365664482 0 0 0 0 11431750.982009888 706319.45993041992 0 706319.45993041992 -2061276.9719486237 0 0 0 0 -977717.5177154541 -688613.76459026337 0 -688613.76459026337 -2126483.8031396866 0 0 0 0 2860872.6294364929 7754630.7805912495 0 7754630.7805912495 -3529083.8982276917 0 0 0 0 7435986.8292427063 -654399.4209073782 0 -654399.4209073782 -9204911.0402669907 0 0 0 0 639646.02192687988 7090640.8327040672 0 7090640.8327040672 -9529535.8010269254 0 0 0 0 7979004.4752502441 8949692.0036616325 0 8949692.0036616325 -13917086.527318001 0 0 0 0 2746420.0475730896 -512058.34833717346 0 -512058.34833717346 -4749005.9970970154 0 0 0 0 875123.73131561279 3471534.8889322281 0 3471534.8889322281 -1387670.611843586 0 0 0 0 903174.7956919549 -452317.78530589491 0 -452317.78530589491 -877817.45435908413 0 0 0 0 -2622054.3321151733 -2500315.4282299876 0 -2500315.4282299876 11967.338526725769 0 0 0 0 38216069.514228821 3559999.2978663445 0 3559999.2978663445 -24676913.077836037 0 0 0 0 38636154.662841797 560094.49421787262 0 560094.49421787262 -5082801.9411160946 0 0 0 0 -1389989.6767463684 -2283749.1087281108 0 -2283749.1087281108 -1286288.5241918564 0 0 0 0 2805548.6012807321 -578193.04942457285 0 -578193.04942457285 -1464168.8166593094 0 0 0 0 -8843110.7642784119 -7653570.7980496883 0 -7653570.7980496883 -5593092.1776046753 0 0 0 0 -2192774.100440979 -1054235.0178006887 0 -1054235.0178006887 1310428.9185714722 0 0 0 0 -1898272.5336797629 -944973.07069372293 0 -944973.07069372293 459639.25478381797 0 0 0 0 -2805154.9577178955 -2430500.6603339911 0 -2430500.6603339911 1480855.9776220322 0 0 0 0 -2385048.1554260254 -1847174.0763686895 0 -1847174.0763686895 -1108357.1715340614 0 0 0 0 -3478746.4451293945 -4315538.3724074364 0 -4315538.3724074364 -3449807.0373699665 0 0 0 0 -3773825.2945556641 -295201.36531613767 0 -295201.36531613767 -1838285.9441423416 0 0 0 0 380506.9897786174 150019.26911685616 0 150019.26911685616 -230298.49601753056 0 0 0 0 381318.05055236816 -2127869.0528247356 0 -2127869.0528247356 -1177451.3073816299 0 0 0 0 17986881.623764038 10087846.614387035 0 10087846.614387035 5979600.1322402954 0 0 0 0 66236940.537734985 5364064.4959115982 0 5364064.4959115982 -12484107.103898048 0 0 0 0 106013.69016535953 45975.868008518592 0 45975.868008518592 -19820.317420084029 0 0 0 0 1652605.1260642461 104505.15280328877 0 104505.15280328877 -637281.78389144223 0 0 0 0 -2249121.3227119446 -1557227.9068678617 0 -1557227.9068678617 1019764.8561525345 0 0 0 0 -9952046.9021835327 765924.79315185547 0 765924.79315185547 4351090.8714485168 0 0 0 0 53095572.40574646 5248636.2954282761 0 5248636.2954282761 -10021390.728521347 0 0 0 0 -367446.35363451205 -51228.854673182592 0 -51228.854673182592 181619.88793695858 0 0 0 0 8465325.3902587891 17523176.620489597 0 17523176.620489597 11149597.644133568 0 0 0 0 -11799621.937171936 -2568590.9860947132 0 -2568590.9860947132 -2501609.2037084103 0 0 0 0 6942256.1835083961 -18732700.913183972 0 -18732700.913183972 793001.87089347839 0 0 0 0 914367.46330991201 -428416.75114597753 0 -428416.75114597753 -1134628.8918011894 0 0 0 0 -13776867.232162476 3143176.636271596 0 3143176.636271596 -3390532.1396770477 0 0 0 0 32866590.882720947 -8745451.3569750786 0 -8745451.3569750786 -25447374.298721313 0 0 0 0 34508156.426445007 -16617767.991262436 0 -16617767.991262436 3958385.7085018158 0 0 0 0 16082341.010435104 23798811.820858836 0 23798811.820858836 23275090.994615555 0 0 0 0 30031751.042139053 30775594.778308392 0 30775594.778308392 16868960.02643013 0 0 0 0 -7887970.8655319214 29574772.184711933 0 29574772.184711933 -7432957.7664241791 0 0 0 0 12042315.088897705 6598945.9112195969 0 6598945.9112195969 13993744.855976105 0 0 0 0 37267769.990386963 8164714.2474384308 0 8164714.2474384308 -4106972.5731554031 0 0 0 0 3847717.2268714905 -3442175.9108793736 0 -3442175.9108793736 -4659208.4073905945 0 0 0 0 2493212.2591225724 248012.77924868651 0 248012.77924868651 -754427.69883425045 0 0 0 0 -991715.10653686523 1346856.090010643 0 1346856.090010643 -3326692.0095481873 0 0 0 0 -6856505.6299438477 -3746192.8457717896 0 -3746192.8457717896 -7053718.8813095093 0 0 0 0 -6081340.3770446777 -306509.60462856293 0 -306509.60462856293 2895886.6336455345 0 0 0 0 732304.86665760353 -175327.97765543498 0 -175327.97765543498 -548547.5996088516 0 0 0 0 16341271.948413849 -11670669.608241081 0 -11670669.608241081 8852593.6801052094 0 0 0 0 -1987883.0543670654 1650089.7376270294 0 1650089.7376270294 -5031623.7512737513 0 0 0 0 -16073007.287124634 8500987.9367060661 0 8500987.9367060661 9764210.3745498657 0 0 0 0 4135955.306640625 14519903.489953518 0 14519903.489953518 21720181.523618698 0 0 0 0 2980088.1316871643 3263080.6415755749 0 3263080.6415755749 3748935.6639938354 0 0 0 0 -826518.05838775635 -4102736.2603445053 0 -4102736.2603445053 -5488727.7095098495 0 0 0 0 2309184.7920150757 -6357573.9270153046 0 -6357573.9270153046 1476250.4175891876 0 0 0 0 33252763.032310486 12379381.451015472 0 12379381.451015472 5209197.5556454659 0 0 0 0 18111345.310012817 10165888.631968498 0 10165888.631968498 2117024.3311290741 0 0 0 0 10171951.19127655 83537.386604309082 0 83537.386604309082 1378582.0273895264 0 0 0 0 19020458.78453064 -10540344.75554204 0 -10540344.75554204 -3247949.940246582 0 0 0 0 2901601.541343689 -5709732.3773088455 0 -5709732.3773088455 -1583084.8242051601 0 0 0 0 4189032.8491180455 1542160.516389017 0 1542160.516389017 -1810857.2904308853 0 0 0 0 18306327.120220184 21020007.98091054 0 21020007.98091054 20090239.185993195 0 0 0 0 -374798.63346216269 -432063.46505085658 0 -432063.46505085658 -47921.878860091791 0 0 0 0 -2016760.7899475098 -1617997.8604793549 0 -1617997.8604793549 -297056.15075683594 0 0 0 0 5582898.0290660858 5781728.1973382235 0 5781728.1973382235 2921514.1641597748 0 0 0 0 6303840.9229639526 734505.43008200917 0 734505.43008200917 -5849811.5554181654 0 0 0 0 26565557.780105591 16714193.039955139 0 16714193.039955139 -5624776.8820466995 0 0 0 0 8515230.0838012695 -1765920.5084648132 0 -1765920.5084648132 1301403.1542239189 0 0 0 0 1641721.5279955529 1361331.2305763029 0 1361331.2305763029 -624331.14893942839 0 0 0 0 4796743.5246429443 5121169.1894760132 0 5121169.1894760132 -70232.478150367737 0 0 0 0 3449025.266998291 8942289.6926016808 0 8942289.6926016808 -4520592.4215393066 0 0 0 0 14342884.005172729 16461102.418606758 0 16461102.418606758 -818088.2974023819 0 0 0 0 16432819.444473267 6331905.0076589584 0 6331905.0076589584 3984488.9237365723 0 0 0 0 11003367.245025635 11012085.832667351 0 11012085.832667351 17140620.859949112 0 0 0 0 17108869.766052246 13331708.10118866 0 13331708.10118866 16042519.489706516 0 0 0 0 -171124.25981140137 2578100.1538238525 0 2578100.1538238525 17119308.035354614 0 0 0 0 159933.79611134948 196970.95173878968 0 196970.95173878968 -57860.410953758284 0 0 0 0 11783099.733459473 15038878.948356628 0 15038878.948356628 5145563.4644126892 0 0 0 0 12174063.062744141 22011850.455133438 0 22011850.455133438 956454.2444653511 0 0 0 0 25098838.80412674 12766400.093095779 0 12766400.093095779 6192661.2598800659 0 0 0 0 3971013.4887199402 6483010.463160038 0 6483010.463160038 7806688.9872303009 0 0 0 0 8745087.9782486558 10244613.217160068 0 10244613.217160068 -3094195.3395576477 0 0 0 0 520390.47302086279 396032.1543074511 0 396032.1543074511 276622.27952896059 0 0 0 0 17001742.612380981 14853869.005716324 0 14853869.005716324 3671981.2115058899 0 0 0 0 7390543.7389588542 3277080.6758075319 0 3277080.6758075319 -3849872.9914554656 0 0 0 0 15521121.273296356 21115763.177816391 0 21115763.177816391 5826841.5094070435 0 0 0 0 7245706.3910217285 5733692.905796051 0 5733692.905796051 4708453.6074066162 0 0 0 0 2681404.8097991943 928564.43788337708 0 928564.43788337708 -2292044.0514297485 0 0 0 0 1564215.9678142723 4123860.7091880767 0 4123860.7091880767 2674291.7506161332 0 0 0 0 4942123.0787252076 795571.03387555759 0 795571.03387555759 -2150667.8577887937 0 0 0 0 8595478.1632080078 -166801.23043060303 0 -166801.23043060303 513400.24392700195 0 0 0 0 7679569.7032690309 1202105.2619727086 0 1202105.2619727086 -4228619.2656511068 0 0 0 0 3531478.1554120518 2929838.9314444344 0 2929838.9314444344 -1333099.3149628669 0 0 0 0 -78564830.150474548 8703096.3476920128 0 8703096.3476920128 -4218266.7625360489 0 0 0 0 1329160.7456775531 2154031.252930047 0 2154031.252930047 -926312.04216383398 0 0 0 0 16514001.976089478 57599076.097897053 0 57599076.097897053 -6967531.9337951839 0 0 0 0 64272629.098236084 -29918757.979828835 0 -29918757.979828835 -19793032.176786423 0 0 0 0 -4821769.5231704712 46574.787754535675 0 46574.787754535675 15635838.173692703 0 0 0 0 -20754315.136604309 9840962.8601408005 0 9840962.8601408005 14137487.589338303 0 0 0 0 2813424.5499038696 13287023.518157005 0 13287023.518157005 -4235151.4163311422 0 0 0 0 17290048.937886894 -32911796.783299781 0 -32911796.783299781 -2387698.0456552505 0 0 0 0 443628.24427109957 -73077.918222223409 0 -73077.918222223409 -208374.03901768755 0 0 0 0 7724798.0838546753 2968769.5832271576 0 2968769.5832271576 -6275877.1195762157 0 0 0 0 4677196.2329744529 3087982.7559404802 0 3087982.7559404802 -876935.24959143193 0 0 0 0 7982497.1499633789 2359126.3857295513 0 2359126.3857295513 -16990589.360467196 0 0 0 0 5309404.571182251 10323760.558939934 0 10323760.558939934 -7285684.9771109819 0 0 0 0 7805001.2807159424 12978976.525382161 0 12978976.525382161 -5026122.3203496933 0 0 0 0 6189333.2572937012 9631609.4095668793 0 9631609.4095668793 -2927249.8556820154 0 0 0 0 10399200.108184814 7587293.9550814629 0 7587293.9550814629 -13905905.080194473 0 0 0 0 13333813.050537109 4111466.2131328583 0 4111466.2131328583 -2265755.3645811081 0 0 0 0 9909132.9516677856 13709009.079971313 0 13709009.079971313 985248.45654678345 0 0 0 0 10831492.631881714 12265270.160241127 0 12265270.160241127 -3486775.5151748657 0 0 0 0 -473313.60045623779 9181160.7813644409 0 9181160.7813644409 2121898.3596824408 0 0 0 0 806697.58453369141 14382085.14627552 0 14382085.14627552 3932529.3970565796 0 0 0 0 2443468.5202941895 17015377.631259918 0 17015377.631259918 1336946.4171285629 0 0 0 0 -8694562.4748687744 23005362.376255989 0 23005362.376255989 -2336909.2861720324 0 0 0 0 4116501.7590866089 6721482.8958604336 0 6721482.8958604336 -6928490.5230007172 0 0 0 0 544871.68080392387 202454.10467029456 0 202454.10467029456 46699.818833083846 0 0 0 0 3911945.5376358032 938308.85260152817 0 938308.85260152817 -3307537.7462778091 0 0 0 0 3114880.7292098999 -2345986.0245537758 0 -2345986.0245537758 -12083233.175672948 0 0 0 0 2281834.0928610824 858060.66833557654 0 858060.66833557654 136613.24739643862 0 0 0 0 5177276.3178634644 1450873.0578017235 0 1450873.0578017235 -2376488.201452516 0 0 0 0 1612990.3135694638 -266192.14562167507 0 -266192.14562167507 -823954.2486214824 0 0 0 0 12503052.49105072 -4919495.3598389626 0 -4919495.3598389626 -2178648.8864736557 0 0 0 0 -3825221.6813333035 5425049.3310273085 0 5425049.3310273085 -114509.28777241707 0 0 0 0 3176314.3629695959 2528273.5388438618 0 2528273.5388438618 282379.59124750365 0 0 0 0 -2424133.4860839844 2212559.9503548145 0 2212559.9503548145 1984389.1362062693 0 0 0 0 1593938.3427314758 689611.51626127958 0 689611.51626127958 -621149.88670253754 0 0 0 0 1236767.4614486694 278244.46907711029 0 278244.46907711029 -506128.73284053802 0 0 0 0 1558673.1485281996 113404.51498715486 0 113404.51498715486 -305450.69009264413 0 0 0 0 2996625.8040512903 574826.18982234411 0 574826.18982234411 201833.73488410073 0 0 0 0 4077296.6776351929 15321790.05687499 0 15321790.05687499 -5369379.9381039143 0 0 0 0 2262341.8433837891 14099886.292873859 0 14099886.292873859 3455708.234534502 0 0 0 0 3622721.2708577029 2706120.1206391267 0 2706120.1206391267 91492.534342025989 0 0 0 0 417053.03263092041 10896655.209084213 0 10896655.209084213 -3248031.1298761368 0 0 0 0 435200.27056884766 10480977.183293104 0 10480977.183293104 -2226805.0048820972 0 0 0 0 -2441932.7107849121 5808084.9710711241 0 5808084.9710711241 -757660.31996744871 0 0 0 0 -3838225.7611777782 4952240.9432083517 0 4952240.9432083517 4894346.77211833 0 0 0 0 -3012970.8416748047 2063401.4342315197 0 2063401.4342315197 2093751.039269805 0 0 0 0 -1721172.2044372559 348500.77794092894 0 348500.77794092894 9367035.894422166 0 0 0 0 -2114217.2297172546 7587419.8315449059 0 7587419.8315449059 8522948.7868947983 0 0 0 0 3469007.9271697998 -4901665.8721497059 0 -4901665.8721497059 13949966.992465198 0 0 0 0 -1617374.1909484863 8777076.0149139166 0 8777076.0149139166 4006461.5122745186 0 0 0 0 -2018746.5563583374 13078336.090657353 0 13078336.090657353 23997492.380648136 0 0 0 0 88041.107452392578 481487.75832945108 0 481487.75832945108 2225796.900431633 0 0 0 0 1075888.4926757812 447057.5253791213 0 447057.5253791213 2196883.4236396551 0 0 0 0 -555591.51954650879 -490714.41704142094 0 -490714.41704142094 1230531.3658777475 0 0 0 0 -2526572.8595123291 2748784.6676797867 0 2748784.6676797867 2214147.0074930191 0 0 0 0 -4981071.6228637695 2496483.7178134918 0 2496483.7178134918 2410175.1999002695 0 0 0 0 -2450198.6213378906 1305267.9656382799 0 1305267.9656382799 3400726.4085184336 0 0 0 0 -2972365.8835678101 2919528.231993407 0 2919528.231993407 240018.85491394997 0 0 0 0 -799392.1697807312 474017.95441399515 0 474017.95441399515 42159.64452123642 0 0 0 0 -3138605.1433410645 1708400.7748152018 0 1708400.7748152018 314043.26938414574 0 0 0 0 -288920.47489929199 -401816.00265747309 0 -401816.00265747309 1506534.4058195353 0 0 0 0 -476176.10736846924 446231.47861245275 0 446231.47861245275 776139.79487991333 0 0 0 0 -422868.41416931152 443916.43401107192 0 443916.43401107192 -524118.21505594254 0 0 0 0 107566200.65579224 -201228465.72184274 0 -201228465.72184274 378409839.76663834 0 0 0 0 -122220.83453059196 198810.55549710011 0 198810.55549710011 -15699.142926106915 0 0 0 0 2188384.2408934571 1387299.8652239088 0 1387299.8652239088 837609.85853461048 0 0 0 0 -93179454.573619843 99912533.882151738 0 99912533.882151738 -3873070.8776540752 0 0 0 0 -61532.098808387294 78744.465279392898 0 78744.465279392898 28908.297969912011 0 0 0 0 1530740.768447876 872080.27587592602 0 872080.27587592602 -5933.178969591856 0 0 0 0 1235261.045996841 821566.63796807558 0 821566.63796807558 -221458.37571429624 0 0 0 0 2137767.9793701172 670616.10876321793 0 670616.10876321793 -297381.197473526 0 0 0 0 1554768.3224563599 1047695.739905715 0 1047695.739905715 -520153.40190303326 0 0 0 0 202856.4949625805 9086.6899098884314 0 9086.6899098884314 -146810.16989619582 0 0 0 0 1798184.0130208042 1954015.3397070542 0 1954015.3397070542 374016.58835287089 0 0 0 0 1346842.5260925293 631470.62721759081 0 631470.62721759081 -682411.90379023552 0 0 0 0 -4131098.5280418396 -122465.205085814 0 -122465.205085814 975558.65085101128 0 0 0 0 74421.212345477194 329738.85044808243 0 329738.85044808243 -15158.377029490024 0 0 0 0 1403027.5661010742 763156.779484272 0 763156.779484272 229150.28490829468 0 0 0 0 341403.45430755615 323555.02191911696 0 323555.02191911696 115.33850650282585 0 0 0 0 886795.33139767498 446342.53097119904 0 446342.53097119904 -51124.626083354073 0 0 0 0 540251.07879638672 165544.13128659679 0 165544.13128659679 -25232.051169012921 0 0 0 0 1561814.4913406372 896031.84217873216 0 896031.84217873216 12341.99600481987 0 0 0 0 1726649.3525840994 1426204.0311346371 0 1426204.0311346371 593952.59245333297 0 0 0 0 552651.7138671875 148192.24488187768 0 148192.24488187768 -1206.7104978315351 0 0 0 0 1069401.1967115775 88738.835107951309 0 88738.835107951309 -159675.10478490408 0 0 0 0 1785181.2174835205 250594.32271158695 0 250594.32271158695 -288140.81788516045 0 0 0 0 1392998.685079813 451734.73378782719 0 451734.73378782719 -361121.3882188797 0 0 0 0 645012.12530517578 -264420.32043913886 0 -264420.32043913886 -126991.54499884331 0 0 0 0 1715768.8426208496 173215.01905786991 0 173215.01905786991 -804036.61042499542 0 0 0 0 1850993.8973445129 796329.45908344351 0 796329.45908344351 -75251.019335636156 0 0 0 0 56742035.361755371 -143514640.32570818 0 -143514640.32570818 -220800.51197383052 0 0 0 0 1756758.6032562256 -18718.437988877296 0 -18718.437988877296 -651260.35545217991 0 0 0 0 3343431.1344585419 13845273.328764524 0 13845273.328764524 -7621496.312261939 0 0 0 0 2748608.9274520874 1087953.7601533532 0 1087953.7601533532 2297041.7707187235 0 0 0 0 542116.18076746538 389440.13218449987 0 389440.13218449987 -23976.646306773935 0 0 0 0 1011843.0001220703 -42752.280881782157 0 -42752.280881782157 -1307.8282691672423 0 0 0 0 2105115.0184530858 383361.57345173042 0 383361.57345173042 -39533.415104300031 0 0 0 0 1942855.4418503977 -280951.76250090823 0 -280951.76250090823 -498574.76251454087 0 0 0 0 1162247.542930603 124381.7530233264 0 124381.7530233264 -715520.30071735382 0 0 0 0 2637876.4681957141 -951043.22633138858 0 -951043.22633138858 -1176846.2997821765 0 0 0 0 820620.18464660645 -696849.00037157536 0 -696849.00037157536 -1526184.3926663399 0 0 0 0 67823155.803001404 -15060637.587918282 0 -15060637.587918282 -52889359.945850372 0 0 0 0 2891388.6210287921 -540981.33034577523 0 -540981.33034577523 -1137391.4243323724 0 0 0 0 1327826.051351659 427547.06911455002 0 427547.06911455002 -53990.190782607489 0 0 0 0 1059841.7878265381 -351511.66985307634 0 -351511.66985307634 -890504.07609242201 0 0 0 0 2024744.6046485901 50117.590570554137 0 50117.590570554137 -1246150.3839705288 0 0 0 0 1806010.9327392578 -65886.79615676403 0 -65886.79615676403 -1139392.2319123745 0 0 0 0 1236769.1041966081 91163.997081815498 0 91163.997081815498 -96516.72671710432 0 0 0 0 2088142.0325021744 307219.38567935675 0 307219.38567935675 -1005407.5139471292 0 0 0 0 1517247.4414978027 354969.45604610443 0 354969.45604610443 -1195501.1836403012 0 0 0 0 7587627.4321517944 -2241636.4643177986 0 -2241636.4643177986 4087190.0252549648 0 0 0 0 43313.664672851562 -1405574.2302069664 0 -1405574.2302069664 4000466.51450634 0 0 0 0 3343965.4395215511 605176.88704159856 0 605176.88704159856 -655578.19585048617 0 0 0 0 -286516.2651747819 -191715.58583908342 0 -191715.58583908342 -30464.280711816158 0 0 0 0 44401855.974089622 109786770.74411282 0 109786770.74411282 -81358174.282419205 0 0 0 0 -7865503.0844573975 2878469.3803195953 0 2878469.3803195953 -3695804.8760299683 0 0 0 0 -10554428.846450806 -17839969.569431782 0 -17839969.569431782 71790459.026389122 0 0 0 0 -27582554.314163208 -8317390.0596656799 0 -8317390.0596656799 11772564.635969639 0 0 0 0 53625227.73979187 -29378506.672966957 0 -29378506.672966957 -5292310.1613130569 0 0 0 0 78984.454915985465 96350.403516331688 0 96350.403516331688 -42602.794279144611 0 0 0 0 11059490.548179626 14282372.586042404 0 14282372.586042404 -41864114.643641949 0 0 0 0 -13168171.217140198 9306106.1447728872 0 9306106.1447728872 -2930334.5970001221 0 0 0 0 12061230.610588551 -2717068.5597183108 0 -2717068.5597183108 -2737027.1404533386 0 0 0 0 6744010.9925193787 5405657.6509926319 0 5405657.6509926319 -49317.206611633301 0 0 0 0 7619206.057144165 -3108859.7526316643 0 -3108859.7526316643 527175.67712783813 0 0 0 0 -2734662.7970809937 -2710414.26333699 0 -2710414.26333699 -2065069.4148908667 0 0 0 0 -7819140.6211547852 -8867348.0363241807 0 -8867348.0363241807 -2346812.6236545444 0 0 0 0 -7381501.9173336029 -3990625.0102292583 0 -3990625.0102292583 940365.86883069575 0 0 0 0 -5628120.3765449524 -4009583.6381295919 0 -4009583.6381295919 -6072086.7152981758 0 0 0 0 9553803.4113197327 -1133461.9263057709 0 -1133461.9263057709 36023449.138538361 0 0 0 0 -11113634.195381165 -9586462.1499586105 0 -9586462.1499586105 -3010301.1070661545 0 0 0 0 -1820070.7530693784 -490315.89850209281 0 -490315.89850209281 438637.69058336143 0 0 0 0 -2592424.5879669189 -986613.48156261444 0 -986613.48156261444 -1652521.3114144802 0 0 0 0 941406.70526175573 -419370.43432953954 0 -419370.43432953954 -682402.29276416008 0 0 0 0 76429680.785949707 -42189746.156593323 0 -42189746.156593323 46543877.185943604 0 0 0 0 2881699.9404919222 -539576.72131747939 0 -539576.72131747939 -981292.74254825176 0 0 0 0 -3290683.5195159912 -2365127.8995796442 0 -2365127.8995796442 2053732.063245073 0 0 0 0 -7035144.2490234375 -8433303.2331471443 0 -8433303.2331471443 -5656517.4846892357 0 0 0 0 -267646.04015032388 -75682.290376200341 0 -75682.290376200341 80583.363059620562 0 0 0 0 -7032246.2512712479 -6180173.889790982 0 -6180173.889790982 -8192487.4576931 0 0 0 0 3028303.7016243637 -511771.11589549109 0 -511771.11589549109 -643866.88003832754 0 0 0 0 -26260060.888290405 -22721294.813572884 0 -22721294.813572884 -11369750.676548123 0 0 0 0 -3511748.8735198975 -5431148.8822872192 0 -5431148.8822872192 -552750.31576776505 0 0 0 0 -720487.57183837891 -4422882.2597797811 0 -4422882.2597797811 -3092010.8827110827 0 0 0 0 -1199206.9212188721 429215.52694883803 0 429215.52694883803 520889.88834701478 0 0 0 0 -298209.37530326843 -1053116.4142376222 0 -1053116.4142376222 -284803.22037315369 0 0 0 0 108131.95097160339 -51173.95697552897 0 -51173.95697552897 -867641.87369915843 0 0 0 0 -50089.067539215088 325137.66186039301 0 325137.66186039301 527390.41262306552 0 0 0 0 455351.82891845703 -874948.29797017574 0 -874948.29797017574 -890005.92239640467 0 0 0 0 348506.13080000877 -326500.77304501366 0 -326500.77304501366 180788.86269168221 0 0 0 0 220386.77688598633 -651496.60871836543 0 -651496.60871836543 -92740.110605254769 0 0 0 0 576832.5290222168 -937863.44502872741 0 -937863.44502872741 -456554.52333068295 0 0 0 0 -727184.43372225389 -966467.28688933339 0 -966467.28688933339 -122462.352271178 0 0 0 0 784928.00744628906 -944206.90028513968 0 -944206.90028513968 -601609.80392497778 0 0 0 0 235480.13914489746 -773755.82412263751 0 -773755.82412263751 -649229.52326526493 0 0 0 0 427633.75788879395 -226894.40356615186 0 -226894.40356615186 -891466.12704511825 0 0 0 0 987549.75030517578 -184405.86060737685 0 -184405.86060737685 -812865.77835976542 0 0 0 0 98943.952033543959 -26836.884537724778 0 -26836.884537724778 -57296.649722539296 0 0 0 0 966061.75599861145 -149205.54995219863 0 -149205.54995219863 -224644.75092653005 0 0 0 0 2326987.2946014404 81579.771284962073 0 81579.771284962073 -249238.17671549745 0 0 0 0 955147.65615844727 -299189.40779852448 0 -299189.40779852448 921.65761801167127 0 0 0 0 343728.90158081055 -974218.84478905541 0 -974218.84478905541 -210651.22490554891 0 0 0 0 2522664.1140670776 1479570.0318850901 0 1479570.0318850901 1131874.3669082415 0 0 0 0 10006699.065505981 1320158.2451570407 0 1320158.2451570407 -919918.46110290359 0 0 0 0 5566670.0019187927 53240.161573613463 0 53240.161573613463 1298.2187188793487 0 0 0 0 4172748.732925415 2864929.3937394768 0 2864929.3937394768 1597008.762031141 0 0 0 0 4318397.3005065918 1275480.719427811 0 1275480.719427811 1220982.4175874479 0 0 0 0 1606561.5839309692 -809338.17112616636 0 -809338.17112616636 -897300.35931023676 0 0 0 0 -82921.367279052734 2975.0561068523675 0 2975.0561068523675 1525795.9149608966 0 0 0 0 2002810.7532348633 2491684.6492169546 0 2491684.6492169546 1068784.4917169195 0 0 0 0 346143.86852897331 -143867.2591668712 0 -143867.2591668712 77795.965934211825 0 0 0 0 3709075.2554397583 247326.42299747191 0 247326.42299747191 -56319.932825182797 0 0 0 0 7516467.6081390381 -4580417.6913644159 0 -4580417.6913644159 -745495.34511758154 0 0 0 0 10122530.459421158 1477783.3183858898 0 1477783.3183858898 -1483983.2998227931 0 0 0 0 12426108.972518921 -997203.36844935431 0 -997203.36844935431 -5354.9184488116898 0 0 0 0 19912222.995849609 1488379.1612539832 0 1488379.1612539832 -1698144.3323775292 0 0 0 0 15966569.822013855 -3472240.3775862129 0 -3472240.3775862129 -600299.44587502815 0 0 0 0 3506541.6016464233 -10164133.234068554 0 -10164133.234068554 4360444.2821154343 0 0 0 0 17757198.361524582 920519.70993825293 0 920519.70993825293 4125156.4790163944 0 0 0 0 15204686.937889099 -2419127.1894884375 0 -2419127.1894884375 114771.62272644509 0 0 0 0 33240021.246704102 -5868176.3216535822 0 -5868176.3216535822 711139.38647116302 0 0 0 0 27443400.314647675 12203968.068747412 0 12203968.068747412 5406546.0692605944 0 0 0 0 -29469.376715879887 -56242.35750644654 0 -56242.35750644654 -343.08093761556211 0 0 0 0 17772217.664138794 4401801.4741393346 0 4401801.4741393346 34920678.121958494 0 0 0 0 21274442.978408813 -16091054.447544757 0 -16091054.447544757 14541213.878424622 0 0 0 0 36634146.687889099 6849254.7074834146 0 6849254.7074834146 2043800.7025406957 0 0 0 0 21329255.649749756 -1259696.2495192662 0 -1259696.2495192662 -940685.27864010632 0 0 0 0 1944644.6486282349 2043326.5316683417 0 2043326.5316683417 9475730.4604832754 0 0 0 0 8495418.0584716797 10710628.237726249 0 10710628.237726249 9432001.1455580629 0 0 0 0 7777.5854577608407 2011.2784298928455 0 2011.2784298928455 -1102.8981161790298 0 0 0 0 -3608333.6361694336 -527501.24366496503 0 -527501.24366496503 6189484.8309730589 0 0 0 0 -495133.23140982911 -461446.53519987594 0 -461446.53519987594 -96032.393726091512 0 0 0 0 1269146.2176361084 963686.67302682996 0 963686.67302682996 4113394.3202594286 0 0 0 0 4920961.523727417 2321591.3967995141 0 2321591.3967995141 241858.02708487865 0 0 0 0 -116995.88496954739 -188578.73162630945 0 -188578.73162630945 10206.881894594546 0 0 0 0 6198796.5195465088 1261190.2967375144 0 1261190.2967375144 75362.882906227373 0 0 0 0 6663819.6259384155 5343251.01435766 0 5343251.01435766 3743868.8743993714 0 0 0 0 -1158529.0952758789 2958393.96208819 0 2958393.96208819 9860450.5265432 0 0 0 0 -214541.52041625977 -1364200.4742906298 0 -1364200.4742906298 7889979.6673389906 0 0 0 0 215663.53559875488 2091537.3410492826 0 2091537.3410492826 28565430.626867961 0 0 0 0 -988742.5823059082 -3055658.604047969 0 -3055658.604047969 7357343.2670409903 0 0 0 0 2606346.6757049561 -9637387.0956216194 0 -9637387.0956216194 -3050178.1434711516 0 0 0 0 -3402945.2793426514 -9560357.6923591569 0 -9560357.6923591569 -4510996.5093201324 0 0 0 0 -5367266.001953125 -6124872.0392239541 0 -6124872.0392239541 6745650.1763306651 0 0 0 0 -70005.677597045898 -400758.35049933754 0 -400758.35049933754 5601915.5063329339 0 0 0 0 -4687719.1386260986 -4181490.2501075305 0 -4181490.2501075305 3959157.7992546428 0 0 0 0 -2785675.5769958496 -8771027.0156432241 0 -8771027.0156432241 -5257468.4083859324 0 0 0 0 4684526.4614868164 -2231692.07820829 0 -2231692.07820829 -9890098.135509491 0 0 0 0 -15560.247245788574 -9166737.2277829722 0 -9166737.2277829722 -12271563.176990926 0 0 0 0 135346.06198120117 -2095632.117474556 0 -2095632.117474556 -1726191.0186343193 0 0 0 0 3271147.9371337891 1628760.9794623852 0 1628760.9794623852 -2851207.3975915909 0 0 0 0 3377.9949722290039 2364682.8022782803 0 2364682.8022782803 -2064250.789182663 0 0 0 0 507088.14730272442 -20578.198737603612 0 -20578.198737603612 -235603.21336548519 0 0 0 0 1078455.5355385952 -1367190.0595869618 0 -1367190.0595869618 -936689.5982709669 0 0 0 0 -2376687.3906402588 203966.9199757576 0 203966.9199757576 -1062815.4966076612 0 0 0 0 -5476607.3278656006 -1665968.7451472282 0 -1665968.7451472282 -2763530.7185490131 0 0 0 0 6562421.5285339355 2995159.5583253205 0 2995159.5583253205 -951670.01503555477 0 0 0 0 502878.06467267126 130824.559921626 0 130824.559921626 -10418.839833415808 0 0 0 0 -11499030.283698082 -19655512.516766608 0 -19655512.516766608 -10603821.383424312 0 0 0 0 1436013.6474151611 -6553157.5018482208 0 -6553157.5018482208 -167191.78626728058 0 0 0 0 1385658.2915040553 -1267118.6538452292 0 -1267118.6538452292 -884030.42754115723 0 0 0 0 4489016.0214004517 -18936966.111004535 0 -18936966.111004535 -21145042.863290414 0 0 0 0 -14623213.031402588 -8958249.7963860892 0 -8958249.7963860892 -3069692.2264716104 0 0 0 0 7641516.5635070801 -6058358.8521348462 0 -6058358.8521348462 -21798293.431533601 0 0 0 0 5163853.8110656738 -7427649.03759446 0 -7427649.03759446 -6419762.7869365215 0 0 0 0 21901360.660190582 2057668.1438034466 0 2057668.1438034466 -7438590.5021408945 0 0 0 0 11060428.531921387 -2281911.1226266772 0 -2281911.1226266772 -7140771.3148733787 0 0 0 0 16767192.747619629 -11120616.227890424 0 -11120616.227890424 -5275319.1108733937 0 0 0 0 16418891.00201416 -2321915.9010483474 0 -2321915.9010483474 -12274401.204183891 0 0 0 0 16755528.332077026 -6601481.5509781763 0 -6601481.5509781763 -14704023.196132466 0 0 0 0 1306831.4419441223 -8929876.0501322728 0 -8929876.0501322728 -10513628.868541211 0 0 0 0 10920825.845672607 5288846.8430514634 0 5288846.8430514634 -2972043.2812087787 0 0 0 0 23011887.424062729 10693255.428804472 0 10693255.428804472 -3341408.6818905696 0 0 0 0 14245973.620880127 5452829.9241413027 0 5452829.9241413027 -6087621.0473789126 0 0 0 0 8334577.4909095764 6370089.4751372188 0 6370089.4751372188 -244497.99756530672 0 0 0 0 9089702.6024932861 3405635.2868848294 0 3405635.2868848294 -4897731.558085084 0 0 0 0 7353925.2413406372 -125285.07264368236 0 -125285.07264368236 -6985794.4160365015 0 0 0 0 12174256.926818848 3424716.5701665804 0 3424716.5701665804 -8071899.7075874805 0 0 0 0 8099069.3390350342 168299.72349390388 0 168299.72349390388 -7167059.6458266079 0 0 0 0 6355476.5536804199 -9170970.1088955849 0 -9170970.1088955849 -14178337.552716985 0 0 0 0 5869443.5635070801 -2689823.1996677145 0 -2689823.1996677145 -8559913.889080584 0 0 0 0 3375771.6971740723 -5546550.2825513482 0 -5546550.2825513482 -7818429.3049606383 0 0 0 0 9147189.1673583984 -2324776.6974721719 0 -2324776.6974721719 -11008810.83890754 0 0 0 0 1713810.8801422119 -4766469.7681658193 0 -4766469.7681658193 -5379070.0443431139 0 0 0 0 2632554.3509521484 -4138202.3506908417 0 -4138202.3506908417 -11400280.313933909 0 0 0 0 -9208957.9263916016 -4597126.9535004701 0 -4597126.9535004701 -6483820.3759076893 0 0 0 0 -226992.62901414558 -121427.77969320118 0 -121427.77969320118 99195.642547263546 0 0 0 0 1901434.3773722295 -1046068.2740163449 0 -1046068.2740163449 -595911.38918338506 0 0 0 0 1569777.856338501 -14876995.354568481 0 -14876995.354568481 4628371.6785988808 0 0 0 0 1329116.1721191406 -2920405.3863151968 0 -2920405.3863151968 -957926.23891882598 0 0 0 0 2879338.5933227539 -2852589.4740726799 0 -2852589.4740726799 -3859795.9248528928 0 0 0 0 4249918.0103912354 -3821116.8183724433 0 -3821116.8183724433 -6627303.2548716366 0 0 0 0 1570537.5050811768 -3205861.2037173808 0 -3205861.2037173808 -3171909.6258231401 0 0 0 0 5412151.6026611328 -1552221.3700203858 0 -1552221.3700203858 -4144015.6141460091 0 0 0 0 4257135.7090911865 -1566192.0095480531 0 -1566192.0095480531 -4126874.1623710468 0 0 0 0 4621469.3334579468 -661925.58918423206 0 -661925.58918423206 -2003482.340080142 0 0 0 0 3487662.4561233521 -886326.83788139373 0 -886326.83788139373 -4486.1024524569511 0 0 0 0 3641796.789352417 -730167.82025903463 0 -730167.82025903463 -2006551.0853413809 0 0 0 0 -9191240.6839160919 301743.5042963773 0 301743.5042963773 -791501.97569131851 0 0 0 0 2101818.9291880913 -1123767.3622118235 0 -1123767.3622118235 -591162.42232935084 0 0 0 0 3824868.8614196777 -807179.50557011366 0 -807179.50557011366 -1441021.9983759001 0 0 0 0 -2293581.7887573242 2635352.2128589153 0 2635352.2128589153 -4339877.456179142 0 0 0 0 -9109085.175491333 1078732.3978736401 0 1078732.3978736401 2717128.1590442657 0 0 0 0 2988987.3619842529 -1461481.7733271271 0 -1461481.7733271271 -1043656.9407983422 0 0 0 0 -7773749.9523468018 720749.60821843147 0 720749.60821843147 -2690224.2189260721 0 0 0 0 -7835135.7267913818 1124024.5643242598 0 1124024.5643242598 2161867.1855535507 0 0 0 0 -7163768.2440643311 1800800.6158902645 0 1800800.6158902645 -1909656.9511957169 0 0 0 0 -2501253.6088409424 -3636238.5010552406 0 -3636238.5010552406 5328842.287674427 0 0 0 0 -2162511.6297302246 -8930572.3680922985 0 -8930572.3680922985 16887777.309126064 0 0 0 0 -10563241.419708252 2537617.5580601692 0 2537617.5580601692 2221431.4877922535 0 0 0 0 223264.658203125 -7999137.1847727299 0 -7999137.1847727299 2224451.2596330643 0 0 0 0 5563885.6456756592 -10205371.616401911 0 -10205371.616401911 2783596.6696038246 0 0 0 0 4990420.9122314453 -3359299.8634188175 0 -3359299.8634188175 -1433640.6387375593 0 0 0 0 4809979.3753356934 -12585169.322278023 0 -12585169.322278023 -1648822.2041144371 0 0 0 0 -421907.27941894531 -12293052.369259834 0 -12293052.369259834 7943709.5073962212 0 0 0 0 7020164.9028167725 -16732945.74825716 0 -16732945.74825716 4896117.2930808067 0 0 0 0 4649709.9957580566 -20481742.734597325 0 -20481742.734597325 17426799.27801919 0 0 0 0 20744616.567108154 -18848792.330557704 0 -18848792.330557704 27762577.408457994 0 0 0 0 39724096.764358521 -661106.8540430069 0 -661106.8540430069 -44202273.053378582 0 0 0 0 4954968.2705383301 19225473.248025417 0 19225473.248025417 -25805125.396728754 0 0 0 0 36848413.562849045 -25478925.668418974 0 -25478925.668418974 -11721281.310456276 0 0 0 0 17128958.251342773 -28504413.041417599 0 -28504413.041417599 10600514.669403553 0 0 0 0 12991650.419952393 -2656829.8928427696 0 -2656829.8928427696 -22651989.443453312 0 0 0 0 7957638.0967597961 -14985077.405738592 0 -14985077.405738592 -4547502.972454071 0 0 0 0 4100921.6889343262 -5513056.7684025764 0 -5513056.7684025764 -10768913.270840168 0 0 0 0 14776453.824691772 -13730199.708079338 0 -13730199.708079338 -4992774.2335870266 0 0 0 0 1681457.9354095459 3895726.1260399818 0 3895726.1260399818 -13349404.088223696 0 0 0 0 4915784.8477172852 -2676193.4840257168 0 -2676193.4840257168 -7499580.4279689789 0 0 0 0 -12255019.033599854 11676869.006200552 0 11676869.006200552 -9545011.7069020271 0 0 0 0 9306865.6012573242 263882.85885596275 0 263882.85885596275 -12491775.575505257 0 0 0 0 -3576905.9294471741 2390521.7739387751 0 2390521.7739387751 -4946069.1624217033 0 0 0 0 -2090957.569229126 1416683.373008728 0 1416683.373008728 -5043741.1794438362 0 0 0 0 209839.77421569824 -1724385.6629137993 0 -1724385.6629137993 -6535227.3973731995 0 0 0 0 148957.30471701548 -5492.7890651440248 0 -5492.7890651440248 -69286.803420922603 0 0 0 0 6435536.3836288452 6746289.5983438492 0 6746289.5983438492 -3770443.9025752842 0 0 0 0 1091142.9242248535 -7973471.1748845577 0 -7973471.1748845577 -4811138.010892868 0 0 0 0 7029914.0741882324 -12520123.278875828 0 -12520123.278875828 -1651457.1870756149 0 0 0 0 1338412.3175048828 -1788957.5210363865 0 -1788957.5210363865 344917.07478523254 0 0 0 0 2497938.8978157043 1729814.8728429675 0 1729814.8728429675 -621765.82453083992 0 0 0 0 193355.3066977337 -464434.2560573779 0 -464434.2560573779 -127763.62282223202 0 0 0 0 -1586059.8689880371 -8805995.334969759 0 -8805995.334969759 3998217.5615249872 0 0 0 0 1645218.6473007202 -2436615.9878873825 0 -2436615.9878873825 -2657348.2503864765 0 0 0 0 675619.70018128306 -224388.84280356951 0 -224388.84280356951 -178686.47640887334 0 0 0 0 4970961.9021682739 -1333794.4639100432 0 -1333794.4639100432 -1428108.695476532 0 0 0 0 3136445.4883041382 617425.93633060157 0 617425.93633060157 -2187044.3596764654 0 0 0 0 1561390.4456991851 -265952.36410432914 0 -265952.36410432914 -792530.16668812931 0 0 0 0 1348996.5501312381 -340764.08454985172 0 -340764.08454985172 -732136.29316813103 0 0 0 0 3522924.9443092346 -521707.32612677664 0 -521707.32612677664 -819283.43495646119 0 0 0 0 3423442.1406707764 85918.755498699844 0 85918.755498699844 -1544458.1707932651 0 0 0 0 3973641.6932678223 1027166.7901830822 0 1027166.7901830822 -3602883.9620177187 0 0 0 0 4330499.9683570862 -98972.193764150143 0 -98972.193764150143 -2944228.6608770788 0 0 0 0 3968860.3850250244 1003015.8616577685 0 1003015.8616577685 -2019842.092542313 0 0 0 0 827353.31340789795 1732616.5700815655 0 1732616.5700815655 -1585777.8651497513 0 0 0 0 4665841.3313903809 2813796.4384613708 0 2813796.4384613708 -3679625.1348587871 0 0 0 0 6681046.5059528351 2340521.0974327186 0 2340521.0974327186 -3593210.1848741025 0 0 0 0 1614106.2734680176 1547531.9945761804 0 1547531.9945761804 -322426.5692163147 0 0 0 0 3897315.7983036041 4220735.0424990524 0 4220735.0424990524 -971161.04833929986 0 0 0 0 4481425.2796554565 4188718.6701553203 0 4188718.6701553203 -57264.960436299443 0 0 0 0 -2767156.0460357666 473788.98864624277 0 473788.98864624277 -864839.47897691932 0 0 0 0 10428670.480636597 -3349255.3061684966 0 -3349255.3061684966 -5490562.6009616852 0 0 0 0 590807.51025045943 -262131.84447455592 0 -262131.84447455592 -615227.98836615472 0 0 0 0 301028.48064041138 2769290.154068701 0 2769290.154068701 -1505622.0887781829 0 0 0 0 -239493.22245597839 4948629.9878575355 0 4948629.9878575355 -9743465.4451265335 0 0 0 0 132155.62340688892 -83679.914805606008 0 -83679.914805606008 4113.2392561165616 0 0 0 0 835939.56527709961 -7347093.9653699398 0 -7347093.9653699398 -14060022.166283131 0 0 0 0 2390719.7595901489 -1638102.5714770555 0 -1638102.5714770555 1040429.8352832794 0 0 0 0 -2485799.2835235596 -7574201.5873267651 0 -7574201.5873267651 1934765.1931080222 0 0 0 0 -3307521.9096546173 -2466432.469806537 0 -2466432.469806537 9839394.3179068565 0 0 0 0 500859.923412323 -1164629.0456106663 0 -1164629.0456106663 1602083.5961413383 0 0 0 0 3434790.1294631958 -4774982.2899421453 0 -4774982.2899421453 3077613.3767552376 0 0 0 0 137.47584374621511 3904.4252477148548 0 3904.4252477148548 -19750.15239636341 0 0 0 0 -4456704.3428878784 3110566.2887288174 0 3110566.2887288174 -1037243.4128786325 0 0 0 0 -5332828.7113800049 1548572.2953538038 0 1548572.2953538038 -1108986.3808099031 0 0 0 0 326133.68081502058 -193536.42175326124 0 -193536.42175326124 -552429.37449823064 0 0 0 0 -2214937.0328712463 2452870.6826716485 0 2452870.6826716485 -2452190.5511763617 0 0 0 0 -1717035.6555366516 1090295.9673674079 0 1090295.9673674079 -806685.15208599716 0 0 0 0 -2258847.0646057129 2059394.8532118686 0 2059394.8532118686 -3746709.694011353 0 0 0 0 -7513930.5583190918 1515873.3467581458 0 1515873.3467581458 -3593605.0585419759 0 0 0 0 -1813747.9842224121 889388.36199078523 0 889388.36199078523 -5849528.8064189479 0 0 0 0 -2117635.4575653076 745656.91802977491 0 745656.91802977491 -2654410.5044199824 0 0 0 0 -5203321.3609924316 642195.95100620016 0 642195.95100620016 -2570806.3912622109 0 0 0 0 480108.69487380981 -975869.71283449279 0 -975869.71283449279 -2892860.4438749179 0 0 0 0 -896870.17274475098 653179.58807023056 0 653179.58807023056 -1903197.6331831142 0 0 0 0 -778019.830078125 318261.27328600362 0 318261.27328600362 -3991170.3784910813 0 0 0 0 96809.058868408203 480585.94485476054 0 480585.94485476054 -3478148.7033139942 0 0 0 0 -2492233.6923217773 340279.12032862566 0 340279.12032862566 -1022356.5022305958 0 0 0 0 -1655377.6572113037 978260.39102978446 0 978260.39102978446 -2785489.0452643074 0 0 0 0 144354.20106045157 -256134.95925493538 0 -256134.95925493538 -229048.70502687813 0 0 0 0 -2937521.1959609985 1921423.5199453959 0 1921423.5199453959 -2609429.0350506362 0 0 0 0 -3112997.7312316895 557517.94029434118 0 557517.94029434118 -1583602.2613109872 0 0 0 0 -2306362.9305725098 2522999.7259312943 0 2522999.7259312943 -2059038.9750693068 0 0 0 0 -403349.07830810547 1342599.0064909181 0 1342599.0064909181 -5079058.780694182 0 0 0 0 -1450063.2312583923 3097455.3130423967 0 3097455.3130423967 -3723104.4454079242 0 0 0 0 -8311865.591545105 7470783.867562524 0 7470783.867562524 -7395704.5717399418 0 0 0 0 -8152785.8082275391 7430526.6831114516 0 7430526.6831114516 -7457209.9113662578 0 0 0 0 -9808.8716012081131 -27516.265006000176 0 -27516.265006000176 21618.386917104515 0 0 0 0 -2891155.2500915527 2337202.7819359144 0 2337202.7819359144 -7781747.3132814094 0 0 0 0 1237840.7242660522 -1356005.4644291466 0 -1356005.4644291466 1768632.1346696252 0 0 0 0 2152602.0374450684 3692204.6306342073 0 3692204.6306342073 5460754.3853832372 0 0 0 0 360189.3501739502 1880164.436822135 0 1880164.436822135 -1839895.3565207571 0 0 0 0 413082.28852081299 2207714.6408815198 0 2207714.6408815198 166292.31114664301 0 0 0 0 1690823.828994751 -1127925.5779704861 0 -1127925.5779704861 30163.97422393231 0 0 0 0 460446.04348754883 1556.6877971217036 0 1556.6877971217036 -2244446.2811229415 0 0 0 0 743772.93125915527 407966.07140968367 0 407966.07140968367 -2004140.0224644244 0 0 0 0 -7209.6584014892578 -782207.34051115252 0 -782207.34051115252 -625295.9826762788 0 0 0 0 2649621.6689453125 -2348584.3095261902 0 -2348584.3095261902 -397748.19413809897 0 0 0 0 1893815.430267334 -1159772.9559638985 0 -1159772.9559638985 -469675.88511750661 0 0 0 0 2930082.9433991909 -873970.62829624012 0 -873970.62829624012 1440319.4322676035 0 0 0 0 10317.596468538046 2690.572733098641 0 2690.572733098641 -1039.3304251637644 0 0 0 0 2763347.750213623 -596878.1926391687 0 -596878.1926391687 -998427.67875112174 0 0 0 0 1229660.851348877 -2250266.7622073428 0 -2250266.7622073428 1656587.5905557568 0 0 0 0 3772.1775079015642 464.81565701309592 0 464.81565701309592 -833.22323245054793 0 0 0 0 2269299.9462356567 -435854.71614801756 0 -435854.71614801756 -416253.77254225197 0 0 0 0 6286674.0680265427 -1343096.0360904897 0 -1343096.0360904897 2234.2074262162851 0 0 0 0 -984877.1335105896 1756715.3596543616 0 1756715.3596543616 -148417.92939855484 0 0 0 0 271488.95219421387 538900.69007876446 0 538900.69007876446 -458656.67145529436 0 0 0 0 -1731115.7201309204 1612681.7584490059 0 1612681.7584490059 -128812.3532873122 0 0 0 0 -1901474.9695587158 764540.75392428506 0 764540.75392428506 -10567.039965068921 0 0 0 0 -900387.94277954102 1274394.8943748595 0 1274394.8943748595 -1472930.2476338772 0 0 0 0 -1225210.2258148193 1364783.2439051731 0 1364783.2439051731 -1776111.5719207413 0 0 0 0 935067.6682434082 33723.154992557131 0 33723.154992557131 -878073.92199297994 0 0 0 0 141823.47119903564 -1825513.4904778842 0 -1825513.4904778842 2725491.9365758775 0 0 0 0 -1187130.3913879395 -839390.96887589246 0 -839390.96887589246 -933653.58006321103 0 0 0 0 -551695.16188812256 -624453.29869578523 0 -624453.29869578523 1432107.0609821584 0 0 0 0 3963055.3967075348 -383534.26829657151 0 -383534.26829657151 77103.760152400937 0 0 0 0 3140071.3915100098 -4280106.7577455584 0 -4280106.7577455584 1984443.6796853652 0 0 0 0 3339287.6840515137 -1634836.1293182066 0 -1634836.1293182066 1352.9819685089215 0 0 0 0 301675.23612976074 853712.88888057985 0 853712.88888057985 990847.48994827084 0 0 0 0 -96655.178020477295 282230.82482055499 0 282230.82482055499 466278.14140117029 0 0 0 0 -1328961.4799041748 1206721.1635585632 0 1206721.1635585632 1795.5170576979071 0 0 0 0 -931472.31994628906 1397552.1025177496 0 1397552.1025177496 -2574591.3061282961 0 0 0 0 -1050926.1898651123 1450951.5551055025 0 1450951.5551055025 -1178699.8771319971 0 0 0 0 179373.76732713729 -234294.8224945683 0 -234294.8224945683 -188472.11335775949 0 0 0 0 -1205743.2342681885 895408.18309455959 0 895408.18309455959 -781275.31342560297 0 0 0 0 -1143764.5539016724 638000.2015697367 0 638000.2015697367 -2192.6049725006615 0 0 0 0 119809.68091231026 -210755.04835056514 0 -210755.04835056514 214145.63328094356 0 0 0 0 -199717.38280105591 -74353.022412936087 0 -74353.022412936087 1460404.0386339994 0 0 0 0 15108.972835052758 -170041.40380014293 0 -170041.40380014293 218274.59365639387 0 0 0 0 527130.05166625977 -1298983.6923216237 0 -1298983.6923216237 -1002.7494792113215 0 0 0 0 111825.38736724854 -621843.65359601786 0 -621843.65359601786 941040.93170847511 0 0 0 0 197469.75994873047 -2131786.4687357047 0 -2131786.4687357047 1293256.1732024183 0 0 0 0 41394.075486849993 -55831.173317620531 0 -55831.173317620531 -27281.788165455488 0 0 0 0 276193.53416442871 -131165.21819497459 0 -131165.21819497459 2083506.3177712774 0 0 0 0 -58672633.673828125 1929392.3516311198 0 1929392.3516311198 30039729.155384898 0 0 0 0 170422.21726672817 -434298.1144635193 0 -434298.1144635193 333819.77028030332 0 0 0 0 554152.18178939819 -371799.48385906254 0 -371799.48385906254 19891.88218642585 0 0 0 0 206449.13095723093 -168574.01393233053 0 -168574.01393233053 -76597.019441414101 0 0 0 0 391373.86296081543 -458090.54962098598 0 -458090.54962098598 287936.90045392513 0 0 0 0 205857.15789794922 -647169.47640830278 0 -647169.47640830278 309882.88776135445 0 0 0 0 -259510.4553565979 -420037.18285304308 0 -420037.18285304308 821162.4096865654 0 0 0 0 232977.11306277849 -356187.71250401996 0 -356187.71250401996 204299.30307203176 0 0 0 0 94106.581481933594 -242778.42441678047 0 -242778.42441678047 253291.15446722507 0 0 0 0 351079.98732757568 -604964.04897296429 0 -604964.04897296429 743276.22270894051 0 0 0 0 1198111.0851898193 -1619481.853464365 0 -1619481.853464365 2018642.9512853026 0 0 0 0 435881.94806289673 -470496.15679565072 0 -470496.15679565072 459201.60487151146 0 0 0 0 5016.1413470841944 -50665.62766876258 0 -50665.62766876258 77424.79622857034 0 0 0 0 -295151.23642730713 594637.57533717155 0 594637.57533717155 6580347.5766780376 0 0 0 0 1223933.6760764122 -2106992.4406647757 0 -2106992.4406647757 5096586.4050240517 0 0 0 0 -286826.10737609863 971695.40265500546 0 971695.40265500546 1666704.4792759418 0 0 0 0 896317.61580657959 -561804.53484129906 0 -561804.53484129906 1225376.8001028299 0 0 0 0 679202.86914825439 -1006714.0779227018 0 -1006714.0779227018 352648.11734056473 0 0 0 0 546782.19486236572 -700791.45036327839 0 -700791.45036327839 374153.51305174828 0 0 0 0 -186845.46755981445 -899250.79087412357 0 -899250.79087412357 1145817.3260838985 0 0 0 0 9392.9898338969797 -184833.57776820473 0 -184833.57776820473 273490.72708896716 0 0 0 0 1927702.6104278564 60766498.386298299 0 60766498.386298299 -14581802.31473957 0 0 0 0 28699926.127349854 1872572.9257344902 0 1872572.9257344902 24422596.795404166 0 0 0 0 192034912.9605732 15225758.30108257 0 15225758.30108257 -8906147.1048554182 0 0 0 0 136897.9805364497 371.89638457889669 0 371.89638457889669 -6234.1183067526454 0 0 0 0 158887340.39359283 -59369926.410524055 0 -59369926.410524055 10067232.872932617 0 0 0 0 151970351.13751984 50015445.873801842 0 50015445.873801842 -49804431.393693492 0 0 0 0 301377041.40081024 -4803176.517897455 0 -4803176.517897455 -169764.57224184455 0 0 0 0 282820919.11348343 -62759217.220498204 0 -62759217.220498204 3696284.1604638696 0 0 0 0 324357157.82444763 -19079380.272510454 0 -19079380.272510454 -60730243.423782408 0 0 0 0 186597491.75659752 -7789929.8908660933 0 -7789929.8908660933 -49438001.341105849 0 0 0 0 308972033.08505249 -51548413.347944796 0 -51548413.347944796 -34814780.471807986 0 0 0 0 297073911.26948547 15720315.064150035 0 15720315.064150035 -36095342.504407674 0 0 0 0 135395865.39233589 -32692659.199732933 0 -32692659.199732933 -26589545.362071123 0 0 0 0 154060648.63230896 4634383.619621411 0 4634383.619621411 -21618756.848393865 0 0 0 0 152727755.34362793 -1379936.3540523648 0 -1379936.3540523648 44406417.42147202 0 0 0 0 147768067.02135372 33175993.818631236 0 33175993.818631236 -58342739.269409031 0 0 0 0 28020.704061627388 -88403.29686788097 0 -88403.29686788097 191343.96502706761 0 0 0 0 402265.85627746582 -494952.76233128615 0 -494952.76233128615 1744.2514907549 0 0 0 0 413597.27072143555 -605637.86266842508 0 -605637.86266842508 926103.89387168526 0 0 0 0 -170359.66116333008 28808883.978011638 0 28808883.978011638 -29107033.410964966 0 0 0 0 -621977.04228973389 27141063.973464295 0 27141063.973464295 21337882.438012511 0 0 0 0 80069031.02571106 -14589265.342057824 0 -14589265.342057824 16784071.207889903 0 0 0 0 -9218781.1209487915 42196328.042212516 0 42196328.042212516 28233949.898104966 0 0 0 0 -17993169.550598145 -21439549.809686542 0 -21439549.809686542 -24064041.047112346 0 0 0 0 15350123.26700592 -53663935.7911672 0 -53663935.7911672 6854254.2520564795 0 0 0 0 108129.94704905897 64203.038807353936 0 64203.038807353936 59853.11742939445 0 0 0 0 198127839.23101807 131052116.48635596 0 131052116.48635596 -115918658.27562463 0 0 0 0 -2936043.7325134277 22574095.145276427 0 22574095.145276427 84403982.329067707 0 0 0 0 180772649.36040545 22659263.941987745 0 22659263.941987745 186680753.4240154 0 0 0 0 179834983.06274414 4576391.0930336714 0 4576391.0930336714 25311246.711743832 0 0 0 0 139360180.93965149 69997295.516277283 0 69997295.516277283 59226761.436381817 0 0 0 0 211937938.79595947 13414346.033203334 0 13414346.033203334 -20098311.638091922 0 0 0 0 130462101.81202698 -43866808.25800994 0 -43866808.25800994 7988892.6052487195 0 0 0 0 396057446.29621124 -130054062.92092806 0 -130054062.92092806 27316743.193686962 0 0 0 0 351714736.03977966 113467737.81916177 0 113467737.81916177 51271039.730839014 0 0 0 0 455441460.51365662 -57218144.352401495 0 -57218144.352401495 -2354366.816468358 0 0 0 0 235569169.74697876 144569484.11607361 0 144569484.11607361 26929484.185825706 0 0 0 0 238454.23722094111 -121333.63870500866 0 -121333.63870500866 8144.1569821770536 0 0 0 0 471666558.81055927 6563510.9495046884 0 6563510.9495046884 44967862.17791903 0 0 0 0 17837198.821884155 20350643.919374764 0 20350643.919374764 -15613080.241271138 0 0 0 0 4655009.1283187866 24244055.971783251 0 24244055.971783251 21188590.211974382 0 0 0 0 16621733.132194519 -65937674.087072819 0 -65937674.087072819 66930368.585762978 0 0 0 0 -5121003.4171600342 11708663.678211123 0 11708663.678211123 58820420.597113669 0 0 0 0 16676817.371139526 -37386239.822997928 0 -37386239.822997928 66644270.219034255 0 0 0 0 109646264.53062057 -13442674.452696428 0 -13442674.452696428 26985771.88541621 0 0 0 0 151530867.29376841 1536244.2194109857 0 1536244.2194109857 -70798454.043941021 0 0 0 0 149806689.88444519 19482322.955601215 0 19482322.955601215 -51286652.992143154 0 0 0 0 55646059.522374153 -13499519.785767168 0 -13499519.785767168 -38619920.365816832 0 0 0 0 75648296.546794891 86011182.472265169 0 86011182.472265169 43596100.19128561 0 0 0 0 240538776.72758484 11430301.771371484 0 11430301.771371484 -58586044.32992816 0 0 0 0 415572579.19974518 65237728.422735453 0 65237728.422735453 -72064511.716964245 0 0 0 0 202065164.03422546 38179865.160794973 0 38179865.160794973 -67754475.534954429 0 0 0 0 225236366.7611618 -5580229.7009710073 0 -5580229.7009710073 -43083877.928387642 0 0 0 0 142973958.67090607 -50029109.772578955 0 -50029109.772578955 -3960648.2305340767 0 0 0 0 336116017.49647331 -189344094.52982882 0 -189344094.52982882 83070252.942672491 0 0 0 0 75490040.672637939 -34679863.426278114 0 -34679863.426278114 1839478.9540989399 0 0 0 0 80974332.66192627 -24297215.073483706 0 -24297215.073483706 5545497.1893754005 0 0 0 0 294842.40167707205 92186.573524137959 0 92186.573524137959 104878.88629188132 0 0 0 0 174746.36139447056 -155666.20396184362 0 -155666.20396184362 34917.354845956899 0 0 0 0 30466550.543022156 -20254249.793933153 0 -20254249.793933153 16598540.276370645 0 0 0 0 88165319.862190247 9267727.0760484338 0 9267727.0760484338 -9162422.1845984459 0 0 0 0 111102294.67610931 -12679368.126000047 0 -12679368.126000047 -3664477.6938284636 0 0 0 0 65928.757952515967 -68954.149514120072 0 -68954.149514120072 9824.1084080291912 0 0 0 0 10158569.724836349 12698158.871995717 0 12698158.871995717 13956208.733088255 0 0 0 0 63031599.870033264 77078050.880411983 0 77078050.880411983 18201257.223259449 0 0 0 0 32265736.36946106 9700836.6478626728 0 9700836.6478626728 29353031.464164585 0 0 0 0 135011572.77739334 15285747.072229743 0 15285747.072229743 -46218672.254149437 0 0 0 0 129720832.59695435 12254994.249283671 0 12254994.249283671 28793765.347651005 0 0 0 0 210625601.81040192 35138488.748827398 0 35138488.748827398 -66994969.524751663 0 0 0 0 201584405.17984772 69857188.528298736 0 69857188.528298736 -8259831.4667050838 0 0 0 0 129414721.96195221 -11122637.207959414 0 -11122637.207959414 75610930.347979069 0 0 0 0 284757035.12819672 31690790.112957001 0 31690790.112957001 -64373924.249350786 0 0 0 0 171763850.96401978 8667100.1780216694 0 8667100.1780216694 -68909957.192322731 0 0 0 0 149109993.28621674 21398702.38474071 0 21398702.38474071 -58070117.250430822 0 0 0 0 4926950.7473983765 -3241032.6561589241 0 -3241032.6561589241 1454179.6111927032 0 0 0 0 -4014.4636621512473 19850.145263237879 0 19850.145263237879 58773.533327919751 0 0 0 0 -4049227.8704986572 -4555937.6311740875 0 -4555937.6311740875 9487751.5268186331 0 0 0 0 -10098730.25428772 -13539752.425841808 0 -13539752.425841808 14174692.082823515 0 0 0 0 8308417.1385879517 -487676.24916648865 0 -487676.24916648865 -20809108.50831604 0 0 0 0 -6751657.658539772 11999602.46909517 0 11999602.46909517 -1136333.4363217354 0 0 0 0 -10429855.718238831 -11659634.59244597 0 -11659634.59244597 1280822.5568904877 0 0 0 0 -108487.33972167969 1369019.3388233185 0 1369019.3388233185 7867300.6378686428 0 0 0 0 -106066.04609680176 2009928.9460847378 0 2009928.9460847378 2520566.7911993563 0 0 0 0 560709.69161987305 515489.39206838608 0 515489.39206838608 -751932.8824441433 0 0 0 0 575837.03715515137 269934.51400160789 0 269934.51400160789 860430.2372636795 0 0 0 0 48613.490982014686 -8276.4922892786562 0 -8276.4922892786562 136049.06237629391 0 0 0 0 282640.77397155762 -211992.5429828167 0 -211992.5429828167 175089.07568621635 0 0 0 0 -1046154.007774353 2719895.062422514 0 2719895.062422514 5071181.1868019104 0 0 0 0 968731.41710472107 1718019.997625351 0 1718019.997625351 5517751.3813400269 0 0 0 0 -10899646.81729126 -4562132.1496398449 0 -4562132.1496398449 14701088.481881857 0 0 0 0 -698325.4610786438 440906.53795671463 0 440906.53795671463 11899837.722661734 0 0 0 0 -8622171.4220962524 -19199747.426919222 0 -19199747.426919222 -5584893.1529393196 0 0 0 0 -9059136.4263687134 -13705765.572260857 0 -13705765.572260857 31112730.941860795 0 0 0 0 -1218430.0060272217 -10587007.404379725 0 -10587007.404379725 -1461417.9572328329 0 0 0 0 -3397809.9962768555 -5687862.8727653027 0 -5687862.8727653027 -4977928.3747730255 0 0 0 0 -6385584.2180862427 -12231897.852606177 0 -12231897.852606177 1769460.7977042198 0 0 0 0 1332747.1023712158 -4492856.990760088 0 -4492856.990760088 8001159.7251880169 0 0 0 0 1162890.5251083374 -9311973.1808123589 0 -9311973.1808123589 -804035.9561214447 0 0 0 0 -12803004.979988098 -56023.087099909782 0 -56023.087099909782 3403448.917037487 0 0 0 0 2250404.1831207275 -4910985.1169099808 0 -4910985.1169099808 1694841.2401022315 0 0 0 0 5198265.0127296448 -11309853.620729625 0 -11309853.620729625 130208.9069776535 0 0 0 0 8574232.9036254883 -3454737.3006703854 0 -3454737.3006703854 -20285911.935262442 0 0 0 0 2513407.0111919604 -421893.75124469254 0 -421893.75124469254 -195298.26455316745 0 0 0 0 57946968.941940308 -58691875.749734402 0 -58691875.749734402 -1454229.1105690002 0 0 0 0 -155297.81367594004 -64228.727911252528 0 -64228.727911252528 251866.69803958829 0 0 0 0 -13093210.910438538 -5389019.3789066076 0 -5389019.3789066076 48067938.815180898 0 0 0 0 66547402.918113708 -6075224.4377138615 0 -6075224.4377138615 -5026440.6388263702 0 0 0 0 -16558877.66834259 -16461551.826958179 0 -16461551.826958179 53151792.000450134 0 0 0 0 -6372950.7834625244 -12416710.866048455 0 -12416710.866048455 32558022.104465723 0 0 0 0 2071896.1949729919 -10572179.668556988 0 -10572179.668556988 -38179502.152852774 0 0 0 0 1838684.1292426549 -369734.82453327277 0 -369734.82453327277 -59545.844157424421 0 0 0 0 20375707.20898056 -6143551.3632909656 0 -6143551.3632909656 18790598.534333944 0 0 0 0 -12330050.557792664 -19157066.724556088 0 -19157066.724556088 66823475.892009407 0 0 0 0 653769.18019676208 -21289658.538839042 0 -21289658.538839042 -5435209.1395392418 0 0 0 0 -6769789.369720459 -21076452.73591274 0 -21076452.73591274 15835815.82805492 0 0 0 0 485075.58349800482 -422697.24623137433 0 -422697.24623137433 -237196.09376623202 0 0 0 0 5547568.7562332153 -2360963.8425159752 0 -2360963.8425159752 -26892203.378364325 0 0 0 0 29893028.073867798 -2534961.9209158421 0 -2534961.9209158421 851528.10022109747 0 0 0 0 85517684.172241211 22206039.186642885 0 22206039.186642885 -7133184.805188179 0 0 0 0 25529.862778354436 -37083.035340446979 0 -37083.035340446979 -18520.022767314716 0 0 0 0 4279528.5785293579 -14864788.858357072 0 -14864788.858357072 -24120761.583551407 0 0 0 0 5380144.0453643799 -22478097.036179781 0 -22478097.036179781 -36675112.58921051 0 0 0 0 -19320210.801467896 -12735639.833733916 0 -12735639.833733916 -7750644.4868681431 0 0 0 0 -231759.06640651822 -223208.83967738412 0 -223208.83967738412 461742.57572850445 0 0 0 0 18151785.290904999 604009.55745542049 0 604009.55745542049 -17513075.680010319 0 0 0 0 33701039.206550598 -8225852.9097275734 0 -8225852.9097275734 -40590604.422719955 0 0 0 0 33312839.4868927 11123784.22379756 0 11123784.22379756 -12413561.797300339 0 0 0 0 -15401730.091049194 7617321.8474017382 0 7617321.8474017382 19194420.462175727 0 0 0 0 323713125.7296133 148939174.90103278 0 148939174.90103278 184009733.51170397 0 0 0 0 152023855.00363159 -9270771.644469142 0 -9270771.644469142 96306378.713429451 0 0 0 0 241825591.69431305 -120183609.57085377 0 -120183609.57085377 178859492.80720472 0 0 0 0 342097404.15174866 -14907478.208711386 0 -14907478.208711386 -27551604.119198799 0 0 0 0 215843766.39105034 157227758.39207649 0 157227758.39207649 30008194.177280664 0 0 0 0 410658.06904486939 -82145.890936254465 0 -82145.890936254465 16014.016302132528 0 0 0 0 384852494.45726776 -94365457.741709709 0 -94365457.741709709 -32595859.096579552 0 0 0 0 26185138.812438965 -75588422.499879122 0 -75588422.499879122 247669940.30310798 0 0 0 0 29999050.947166443 12907118.819146752 0 12907118.819146752 71295481.323760986 0 0 0 0 1159012.6675223224 -248796.9299533657 0 -248796.9299533657 1521.5459875710221 0 0 0 0 57401010.181293488 -6229854.0027683973 0 -6229854.0027683973 -65623165.225530624 0 0 0 0 -36126506.393638611 -17674491.124040842 0 -17674491.124040842 121714791.76281235 0 0 0 0 496240.80723967776 -361613.89651483018 0 -361613.89651483018 -261709.81051799326 0 0 0 0 22724193.496671677 5104839.1720214784 0 5104839.1720214784 -91935512.964066505 0 0 0 0 32761498.181587219 -88513159.460038066 0 -88513159.460038066 80239195.391860187 0 0 0 0 37634220.332550049 -53714982.623571992 0 -53714982.623571992 10232550.076939106 0 0 0 0 61941533.576469421 -63646428.495212436 0 -63646428.495212436 60420786.491652608 0 0 0 0 -58965336.828186035 -58726059.690562248 0 -58726059.690562248 49843939.037504435 0 0 0 0 142006634.6371727 108384159.15608239 0 108384159.15608239 -173301155.77436042 0 0 0 0 240647.25513824075 -165792.21784456074 0 -165792.21784456074 -127694.78415725124 0 0 0 0 112520776.97477722 -167213930.50418615 0 -167213930.50418615 224606385.97277093 0 0 0 0 305745665.59441376 -23900218.029617786 0 -23900218.029617786 4279824.7635638714 0 0 0 0 42100140.905212402 11661137.661510587 0 11661137.661510587 20745814.253037125 0 0 0 0 163948985.43238068 100809994.60725975 0 100809994.60725975 65168938.416956902 0 0 0 0 6739461.3841209412 63765912.824144423 0 63765912.824144423 -13600082.888193607 0 0 0 0 164345717.51892853 83318096.043044984 0 83318096.043044984 -14244498.054357052 0 0 0 0 62615754.336593628 -56997522.135385938 0 -56997522.135385938 -131881454.3252126 0 0 0 0 108387089.60916901 16808230.80764249 0 16808230.80764249 -71372071.504441977 0 0 0 0 181363.91741945595 -286425.89743786934 0 -286425.89743786934 55779.289900647316 0 0 0 0 -22693215.801330566 -6946652.3132638633 0 -6946652.3132638633 -27274641.223838933 0 0 0 0 19511763.217643738 19079761.033233941 0 19079761.033233941 -21980861.221326053 0 0 0 0 -34721751.337047577 -75559425.087460697 0 -75559425.087460697 62799468.7213974 0 0 0 0 77472.963348597288 -189733.32127024024 0 -189733.32127024024 41412.91992620637 0 0 0 0 52813661.131587982 -122499855.14386946 0 -122499855.14386946 30531439.957963347 0 0 0 0 166397316.44207764 -93578107.8656106 0 -93578107.8656106 10252455.057676168 0 0 0 0 185801315.15496826 -83893826.15031743 0 -83893826.15031743 -14580026.530507088 0 0 0 0 85798654.626296997 -13458679.379080534 0 -13458679.379080534 -61627825.668820441 0 0 0 0 104942267.01264954 -6878912.9462003112 0 -6878912.9462003112 -23252993.087163925 0 0 0 0 83023534.576919556 -30320036.945190124 0 -30320036.945190124 -36915354.930351205 0 0 0 0 42203820.207748413 -39295781.734856039 0 -39295781.734856039 -24441277.272166252 0 0 0 0 7907836.9672527313 -39346551.397271909 0 -39346551.397271909 -23648153.86067234 0 0 0 0 19752673.396244049 -13343782.495467603 0 -13343782.495467603 -50414232.786918461 0 0 0 0 -13213949.335508347 15348225.343684211 0 15348225.343684211 -25295997.298052341 0 0 0 0 -19992164.541248322 -12260527.190519921 0 -12260527.190519921 -18919109.00657168 0 0 0 0 -5221976.7746810913 1194488.2349459529 0 1194488.2349459529 -27976578.179742724 0 0 0 0 -30857477.382629395 -4959871.9991173893 0 -4959871.9991173893 -23260739.713498473 0 0 0 0 -15926027.102539062 -10203611.172075614 0 -10203611.172075614 -80980712.42584002 0 0 0 0 -3201842.1508178711 13223756.921030313 0 13223756.921030313 -50893168.768713035 0 0 0 0 30196928.200843811 -22045537.491024673 0 -22045537.491024673 -22462696.773093045 0 0 0 0 -4824246.1030464172 3551501.3569520079 0 3551501.3569520079 -20465563.769083291 0 0 0 0 11846806.04573822 -20451727.931996286 0 -20451727.931996286 -14333909.109535635 0 0 0 0 31241801.694068909 -18048061.451047033 0 -18048061.451047033 -32190276.449315548 0 0 0 0 35687089.946052551 7535951.0200710595 0 7535951.0200710595 -25146950.697757304 0 0 0 0 29733822.130699158 4507150.4421260953 0 4507150.4421260953 -11796206.732263029 0 0 0 0 34574938.349590302 -7153390.3461065292 0 -7153390.3461065292 -33334238.448743582 0 0 0 0 13993003.045333862 -1821715.0685958862 0 -1821715.0685958862 -26864967.805007219 0 0 0 0 15617737.74798584 -8449208.5475040674 0 -8449208.5475040674 -33965179.511050731 0 0 0 0 -28421696.502182007 -24680320.816621542 0 -24680320.816621542 -57363402.244154692 0 0 0 0 8020876.4804382324 -8602303.0656137466 0 -8602303.0656137466 -32800830.910395026 0 0 0 0 -24131836.256370544 -33125672.151156306 0 -33125672.151156306 -41293569.771809816 0 0 0 0 2625.2617121636868 -580.64483816549182 0 -580.64483816549182 169149.56640670553 0 0 0 0 -26113216.211074829 -18484521.148266435 0 -18484521.148266435 6127322.6674895883 0 0 0 0 -19961842.187690735 -53882354.618004233 0 -53882354.618004233 -62058742.048314095 0 0 0 0 -11398204.338790894 -31022502.658272743 0 -31022502.658272743 -74886051.423189282 0 0 0 0 -17108521.512145996 -29807307.180659413 0 -29807307.180659413 -30562996.513195992 0 0 0 0 -3276555.6912231445 20795431.530902982 0 20795431.530902982 3630937.0176824331 0 0 0 0 181767871.42092896 -96937375.903693557 0 -96937375.903693557 42288543.089289188 0 0 0 0 103175078.87983704 50179350.854609609 0 50179350.854609609 -25847745.245397806 0 0 0 0 -38228.412406653166 -11128.706639212556 0 -11128.706639212556 120747.71538335434 0 0 0 0 -52448773.18296814 -97358940.94259733 0 -97358940.94259733 17896724.262130022 0 0 0 0 51854989.443786621 -136822236.5523124 0 -136822236.5523124 22327443.690634631 0 0 0 0 9433876.6305999756 -67508736.426754326 0 -67508736.426754326 -4719332.0636368394 0 0 0 0 162498839.5164566 -79477798.317721561 0 -79477798.317721561 -33490852.247535825 0 0 0 0 10155050.481643677 -15172609.76787895 0 -15172609.76787895 -25082608.931700259 0 0 0 0 -51766650.869268417 -21823333.901521962 0 -21823333.901521962 -24309009.742959023 0 0 0 0 -5870830.1525268555 -61909837.859108329 0 -61909837.859108329 10653652.552842975 0 0 0 0 40067458.850603104 -73640121.304273486 0 -73640121.304273486 -4973470.5492025614 0 0 0 0 57158069.305421829 -20864546.460820511 0 -20864546.460820511 -15921626.062966049 0 0 0 0 55478356.248603821 -79594904.784132108 0 -79594904.784132108 -20860582.829870433 0 0 0 0 48427444.460868835 -66738537.082150936 0 -66738537.082150936 -32206962.124781106 0 0 0 0 106966899.52863312 -58406033.112725317 0 -58406033.112725317 -31840171.540823966 0 0 0 0 126442745.72239685 19844678.250550568 0 19844678.250550568 10123345.949687779 0 0 0 0 57319340.985198975 -21716397.462784141 0 -21716397.462784141 -14776604.17484957 0 0 0 0 51959727.452260017 24209640.17599725 0 24209640.17599725 17618507.456490099 0 0 0 0 30500308.029575348 -593543.14139345288 0 -593543.14139345288 -10984829.522981882 0 0 0 0 44114073.742767334 -15738242.771232843 0 -15738242.771232843 20564965.182117295 0 0 0 0 -1595167.5708389282 -11466167.446213579 0 -11466167.446213579 15452117.962014703 0 0 0 0 -7094443.6802749634 -4994670.1106593311 0 -4994670.1106593311 9616461.8921189308 0 0 0 0 3606759.7615308762 2641946.8341350574 0 2641946.8341350574 -23739756.637300611 0 0 0 0 3539308.9410705566 1849997.833258599 0 1849997.833258599 -5926611.1648852825 0 0 0 0 20716711.188079834 12377086.716781706 0 12377086.716781706 -1358377.6534774601 0 0 0 0 16167548.283756256 -4023054.7772814035 0 -4023054.7772814035 -13695434.591618657 0 0 0 0 2836202.7263031006 9170538.6842103004 0 9170538.6842103004 -9307248.6722053885 0 0 0 0 837586.89924621582 7465340.852083981 0 7465340.852083981 -7833880.1409884691 0 0 0 0 173791.48746778443 -268164.83252664702 0 -268164.83252664702 -193749.38562786745 0 0 0 0 31721669.893679619 -12127472.39764899 0 -12127472.39764899 -9792042.5318164825 0 0 0 0 104077.75549332798 -141331.09368602745 0 -141331.09368602745 -103937.18143063699 0 0 0 0 8362310.543548584 -6532270.4227148294 0 -6532270.4227148294 -9195379.1855282784 0 0 0 0 6484791.9212493896 -9747580.981357336 0 -9747580.981357336 -14630177.438158393 0 0 0 0 1410558.4223480225 7346162.1543126106 0 7346162.1543126106 -31013112.923342109 0 0 0 0 -2275132.5028305054 -5358922.9956054688 0 -5358922.9956054688 -9201721.7455236912 0 0 0 0 -435838.73564910889 10787180.127712548 0 10787180.127712548 -11243168.217897788 0 0 0 0 -106308205.8223877 -4341681.9784808159 0 -4341681.9784808159 -3294769.8259451389 0 0 0 0 161609.41638231277 -299581.04362138035 0 -299581.04362138035 -209419.26550343723 0 0 0 0 7436589.5132751465 4281762.6321128011 0 4281762.6321128011 -18078738.60381265 0 0 0 0 -1417175.956192255 -26314158.459419452 0 -26314158.459419452 -47765053.892079532 0 0 0 0 -74373619.610767365 -35300424.227139115 0 -35300424.227139115 -14322499.442911506 0 0 0 0 733886.00212069694 337030.22541631386 0 337030.22541631386 30055.874322748481 0 0 0 0 -9106207.9057540894 -11803850.038027227 0 -11803850.038027227 -10612447.304560065 0 0 0 0 -25696726.429954529 -12957397.847896069 0 -12957397.847896069 -4530606.4470799267 0 0 0 0 2744597.7136931559 923406.2714436492 0 923406.2714436492 38872.594004491053 0 0 0 0 -51956734.339454651 -21966847.052252591 0 -21966847.052252591 1650576.6813846827 0 0 0 0 -25944617.608329296 -16676302.092674965 0 -16676302.092674965 -17479710.416205138 0 0 0 0 23713158.279891968 5776974.0929107666 0 5776974.0929107666 -4213260.0760304928 0 0 0 0 25503915.52481842 -510518.91373848915 0 -510518.91373848915 17853012.591819525 0 0 0 0 11178813.209649086 -9763015.5309684798 0 -9763015.5309684798 -23199720.371579975 0 0 0 0 4757922.4728012085 -22295132.929797113 0 -22295132.929797113 -29255509.487255305 0 0 0 0 51079986.443946838 7722685.8204908371 0 7722685.8204908371 -58893947.578191906 0 0 0 0 37076318.705955505 27984274.773357004 0 27984274.773357004 -29761480.984814405 0 0 0 0 13233977.971474648 -7376664.7775101662 0 -7376664.7775101662 683851.14477348328 0 0 0 0 3594789.5043640137 -4441849.5179214478 0 -4441849.5179214478 7597867.3306541443 0 0 0 0 14759133.04807663 18793164.993126869 0 18793164.993126869 13650437.083413839 0 0 0 0 8553837.1164956093 5606878.0285983831 0 5606878.0285983831 -6704965.8402990997 0 0 0 0 8291689.9407648686 -2594000.6229295111 0 -2594000.6229295111 -3359186.2136913184 0 0 0 0 12422327.197140694 -12774545.602878738 0 -12774545.602878738 -21214280.301023304 0 0 0 0 -15689043.965988159 -11029409.391834676 0 -11029409.391834676 610456.83149546385 0 0 0 0 12677668.076747939 4378128.7374022901 0 4378128.7374022901 10009637.068611145 0 0 0 0 11438941.415649414 -301073.36478865147 0 -301073.36478865147 -9093198.7364515066 0 0 0 0 -2313793.2752227783 -5769197.5943309069 0 -5769197.5943309069 -6667782.3377927542 0 0 0 0 7809174.0977663584 -2165961.7566546029 0 -2165961.7566546029 -3884506.2606957355 0 0 0 0 1916225.3585739136 -14618866.751911521 0 -14618866.751911521 -8344447.0005326271 0 0 0 0 -541105.40055847168 -17414415.591956854 0 -17414415.591956854 -11406600.881253362 0 0 0 0 4427251.9457626343 -31084235.741852731 0 -31084235.741852731 -606102.49462080002 0 0 0 0 -10840529.385290146 -19940293.448140234 0 -19940293.448140234 -16470575.965032101 0 0 0 0 -681356.11878967285 -8347825.1608741283 0 -8347825.1608741283 -24444343.620217919 0 0 0 0 -16708221.860321045 -10184832.142706782 0 -10184832.142706782 -9346948.0942103863 0 0 0 0 -1200808.9060058594 -4558231.1004902124 0 -4558231.1004902124 -21296299.006259069 0 0 0 0 2821175.093914032 -10461695.896820396 0 -10461695.896820396 -12803964.878443241 0 0 0 0 65586497.224441528 42879274.961857915 0 42879274.961857915 -63732782.101341963 0 0 0 0 23258495.340530396 -37120019.349100232 0 -37120019.349100232 28037866.879123807 0 0 0 0 -9646268.517288208 -5572633.2575604916 0 -5572633.2575604916 14595566.892801285 0 0 0 0 -5089200.6027679443 8768552.7633860111 0 8768552.7633860111 -680230.85105085373 0 0 0 0 22259603.965545654 -25464969.284885406 0 -25464969.284885406 25438013.490272164 0 0 0 0 99346.574067279696 -183845.86524019437 0 -183845.86524019437 -126281.45184896348 0 0 0 0 -10953465.784408569 -43057339.30026862 0 -43057339.30026862 16128973.415312409 0 0 0 0 -27546825.617294312 -30677335.294473648 0 -30677335.294473648 10573517.394556463 0 0 0 0 80713834.93510437 -7826869.381464839 0 -7826869.381464839 -9195176.6770913601 0 0 0 0 93512.339728435501 18590.967408431694 0 18590.967408431694 18877.413708141597 0 0 0 0 -16551089.663742065 -16255145.953559041 0 -16255145.953559041 -8476599.2607541084 0 0 0 0 15617259.211242676 -5013217.9110996723 0 -5013217.9110996723 276130.97380317003 0 0 0 0 12252888.531761169 -14591802.23967576 0 -14591802.23967576 699955.57479977608 0 0 0 0 42634296.953170776 -1799177.8332252502 0 -1799177.8332252502 181296.6198909618 0 0 0 0 20973837.9923172 -25792317.766298532 0 -25792317.766298532 11579740.014687061 0 0 0 0 9286272.6113891602 -7122963.0534412861 0 -7122963.0534412861 -5567449.0772664547 0 0 0 0 11083603.653839111 -9561185.2729671001 0 -9561185.2729671001 2126869.3669090271 0 0 0 0 12460035.170677185 -10911868.972988367 0 -10911868.972988367 -2632308.2667133808 0 0 0 0 21618154.261474609 -8563142.2761981487 0 -8563142.2761981487 -2904085.8466539383 0 0 0 0 13475463.835727692 -13712303.005946696 0 -13712303.005946696 1779726.2153835297 0 0 0 0 10169514.308258057 -2212278.5254473686 0 -2212278.5254473686 -213893.72355383635 0 0 0 0 17263217.360847473 -3578533.5807174444 0 -3578533.5807174444 48876.710747241974 0 0 0 0 504231.19093751535 -104354.1197265666 0 -104354.1197265666 -151207.878811331 0 0 0 0 1656169.7305101901 -202755.02648351807 0 -202755.02648351807 -577885.26172136131 0 0 0 0 2696726.2931671143 -1055527.3469370604 0 -1055527.3469370604 -1266799.939820528 0 0 0 0 1805603.3588371277 -1432894.9913440049 0 -1432894.9913440049 -984614.52535218 0 0 0 0 1702609.9186019897 -9649.3762992471457 0 -9649.3762992471457 -1403951.3787307739 0 0 0 0 1797193.3162841797 293400.66477096081 0 293400.66477096081 -1046400.8734574318 0 0 0 0 1730550.2307658643 -499955.90766031388 0 -499955.90766031388 -868576.5851335465 0 0 0 0 5647569.7923278809 -4213583.9867763519 0 -4213583.9867763519 3943769.2191252708 0 0 0 0 4044522.9379730225 -6861106.0952734947 0 -6861106.0952734947 8652200.8160514832 0 0 0 0 4676638.888381958 -6670143.2141590118 0 -6670143.2141590118 8374437.8227243423 0 0 0 0 10876171.30607605 -14136727.844285488 0 -14136727.844285488 9402018.9372596741 0 0 0 0 8261508.1229095459 -10561406.576457024 0 -10561406.576457024 4514291.020465374 0 0 0 0 9200044.4355316162 -9098070.3527593613 0 -9098070.3527593613 3374799.3031826019 0 0 0 0 -4236615.3308868408 -16626385.325536966 0 -16626385.325536966 -19341593.737919986 0 0 0 0 350707.50215148926 -9351610.3810386658 0 -9351610.3810386658 -7809653.2812726498 0 0 0 0 -19511563.999900818 -8012760.5301790237 0 -8012760.5301790237 1955990.9418654442 0 0 0 0 238240.02445569448 -98326.749969770201 0 -98326.749969770201 -47559.169156654272 0 0 0 0 311860.14045874588 -1274103.4344403939 0 -1274103.4344403939 624456.62681775447 0 0 0 0 -2241164.2767181396 -3881432.7600772381 0 -3881432.7600772381 -2557802.644067049 0 0 0 0 -5872367.0693206787 -6351393.7204276323 0 -6351393.7204276323 -3524.9776577949524 0 0 0 0 -882725.03954315186 -8672824.1124918461 0 -8672824.1124918461 -7947931.8293203712 0 0 0 0 1711349.6195449829 -2662507.1978464127 0 -2662507.1978464127 -20888.016079409048 0 0 0 0 -652253.59029388428 -6433735.7870931625 0 -6433735.7870931625 -1045387.7297211885 0 0 0 0 554575.68592425901 -1950258.6040352453 0 -1950258.6040352453 541775.18411864131 0 0 0 0 1771026.4397583008 -1514993.8097648323 0 -1514993.8097648323 -1488331.3148596287 0 0 0 0 -68429.998096466064 -4370431.622492522 0 -4370431.622492522 -594832.80715703964 0 0 0 0 8480444.2832489014 -1439828.3141579628 0 -1439828.3141579628 -2680792.4258184433 0 0 0 0 -14915862.161865234 8557457.4833841324 0 8557457.4833841324 4700153.8134870529 0 0 0 0 -7615504.7261810303 11254882.679043293 0 11254882.679043293 8809956.1970591545 0 0 0 0 51897.155188061297 -42660.545268552378 0 -42660.545268552378 -149408.45261404917 0 0 0 0 8715474.4956207275 -7331556.8917657137 0 -7331556.8917657137 -3345094.3271932602 0 0 0 0 4704220.2832641602 -4700051.868732214 0 -4700051.868732214 -2465195.5093994141 0 0 0 0 5339212.1427764893 -8163893.3045951426 0 -8163893.3045951426 -2609433.8223142624 0 0 0 0 12456329.009552002 -4749857.6426625252 0 -4749857.6426625252 -3374934.2884943485 0 0 0 0 -5010744.9558105469 -3405258.4087674618 0 -3405258.4087674618 -768581.30039381981 0 0 0 0 331426.9523217231 -254291.14634677954 0 -254291.14634677954 -292528.99864250992 0 0 0 0 2365712.1119842529 13677315.153820276 0 13677315.153820276 -7869570.0011005402 0 0 0 0 1303589.8221972184 -518626.6720750127 0 -518626.6720750127 -1710989.7926467129 0 0 0 0 -26700534.142944336 -16404581.85161972 0 -16404581.85161972 11798328.949662209 0 0 0 0 11585700.887681961 -24087541.447006464 0 -24087541.447006464 -8362564.9170589447 0 0 0 0 1765060.130859375 1331320.6994075775 0 1331320.6994075775 325565.34418749809 0 0 0 0 896365.36535644531 -22035.741849780083 0 -22035.741849780083 -329958.03495645523 0 0 0 0 635693.66731178761 -183972.83586174902 0 -183972.83586174902 -696440.11782747926 0 0 0 0 603002.9093170166 -136789.47635102272 0 -136789.47635102272 -564644.04354286194 0 0 0 0 1207166.3182972446 -115078.13621421158 0 -115078.13621421158 -829747.30771512922 0 0 0 0 380529.0810546875 1270718.3523154259 0 1270718.3523154259 -1518392.5905485153 0 0 0 0 1706359.5088384505 -319243.20932827238 0 -319243.20932827238 -612847.1339133915 0 0 0 0 361566.10090708174 -175940.47215714213 0 -175940.47215714213 -247869.99378585792 0 0 0 0 7719329.650390625 -3297882.3253908157 0 -3297882.3253908157 1233161.6476154327 0 0 0 0 -1010264.1832199097 -847501.90630412102 0 -847501.90630412102 -1221907.0756134987 0 0 0 0 3342796.0719299316 -18589.242998957634 0 -18589.242998957634 -1477451.9617374539 0 0 0 0 4722147.547668457 2036501.7780997753 0 2036501.7780997753 153728.48896479607 0 0 0 0 5829210.9726867676 -2191400.0076173544 0 -2191400.0076173544 -2893624.2327561378 0 0 0 0 4646823.6328277588 1073560.3378273249 0 1073560.3378273249 -715997.55267119408 0 0 0 0 -1481714.1010437012 -932111.13647890091 0 -932111.13647890091 -4269124.3580141068 0 0 0 0 -46823.820429041982 -447203.76985698921 0 -447203.76985698921 -97815.830646531947 0 0 0 0 48761.264614373446 -248309.84680483676 0 -248309.84680483676 -417221.35010780126 0 0 0 0 2651009.7512207031 -2608128.2849407196 0 -2608128.2849407196 -8449869.5830960274 0 0 0 0 -5159860.3555603027 2286471.5385299921 0 2286471.5385299921 -4416932.9438405037 0 0 0 0 12721331.619223595 -925792.53277669847 0 -925792.53277669847 -3761265.4368796349 0 0 0 0 8732986.3259887695 1402700.3226504326 0 1402700.3226504326 -1919542.4720506668 0 0 0 0 23399832.936828613 -14791582.538585067 0 -14791582.538585067 -2848651.1372432709 0 0 0 0 -2735095.7373657227 171019.40504980087 0 171019.40504980087 -2122067.1507902145 0 0 0 0 74292.348640561104 -185363.29100052593 0 -185363.29100052593 -106339.37493329839 0 0 0 0 1893145.6083508655 -548892.75588064548 0 -548892.75588064548 -864373.93709977774 0 0 0 0 613828.87101596221 -671680.50539683085 0 -671680.50539683085 -684745.07174269389 0 0 0 0 195872.6575088501 -552432.42460060865 0 -552432.42460060865 -1203233.4310264587 0 0 0 0 1795410.6869114228 -375364.97015239857 0 -375364.97015239857 -923545.93004331575 0 0 0 0 1801759.5210091146 -2608.916296582669 0 -2608.916296582669 -798043.69937271578 0 0 0 0 1053676.3692321777 -218541.28567266464 0 -218541.28567266464 -1065312.8930559158 0 0 0 0 126032.9478302002 -2109876.2682950497 0 -2109876.2682950497 -3472809.8075232506 0 0 0 0 903697.84664916992 -18694.649846673012 0 -18694.649846673012 -1221292.0354949236 0 0 0 0 1040192.2327115536 -459349.55716564413 0 -459349.55716564413 -206729.25284901474 0 0 0 0 1001694.7225112915 -237535.68031623214 0 -237535.68031623214 -1147238.3013712168 0 0 0 0 284706.20532226562 232876.80960321426 0 232876.80960321426 -2447877.0734775066 0 0 0 0 1030538.066444397 -417799.70705038309 0 -417799.70705038309 -150951.14240837097 0 0 0 0 395890.91513061523 -72289.368090748787 0 -72289.368090748787 -2471877.5037209243 0 0 0 0 903719.53136253357 -105743.56479745544 0 -105743.56479745544 -1020685.7665126324 0 0 0 0 1815572.37813434 -214781.42983073229 0 -214781.42983073229 -835745.01988137886 0 0 0 0 514926.35678360984 193901.89130751055 0 193901.89130751055 -658594.33237059228 0 0 0 0 5085.5225670207292 -5071.9457843825221 0 -5071.9457843825221 4805.2210571964533 0 0 0 0 8743176.0939407349 -838176.02240252495 0 -838176.02240252495 5758242.099065423 0 0 0 0 1840137.8723144131 154957.26491636969 0 154957.26491636969 -748126.29919770197 0 0 0 0 1020891.0537338257 -450938.3973929882 0 -450938.3973929882 -250251.17967283726 0 0 0 0 19365684.672561646 -15508472.34230423 0 -15508472.34230423 12874687.535531998 0 0 0 0 31198467.994354248 -25036238.134244919 0 -25036238.134244919 -10750091.925599098 0 0 0 0 128114.77052227594 90058.296256406233 0 90058.296256406233 -121068.92075430031 0 0 0 0 5678399.2434082031 -4502375.9100351334 0 -4502375.9100351334 537087.31797504425 0 0 0 0 1196313.5274775513 -1118618.1219909233 0 -1118618.1219909233 -461832.35349105811 0 0 0 0 882280.79070968181 -253132.15536141861 0 -253132.15536141861 -92800.507823046064 0 0 0 0 -3898053.9462432861 -4455820.3419671059 0 -4455820.3419671059 11774172.122347832 0 0 0 0 2958675.2011108398 -4663044.4551739693 0 -4663044.4551739693 11085322.908391714 0 0 0 0 -6977809.0522155762 -6867154.4159035683 0 -6867154.4159035683 16509821.01349926 0 0 0 0 16272009.872375488 -8622991.6511354446 0 -8622991.6511354446 12110197.804924965 0 0 0 0 1042761.3399200439 -36165.307260274887 0 -36165.307260274887 -1358633.486682415 0 0 0 0 8143869.7126464844 -4621630.5870427191 0 -4621630.5870427191 1160607.5308475494 0 0 0 0 -429869.45706176758 -1337252.7255480289 0 -1337252.7255480289 744139.72843408585 0 0 0 0 356019.12563937157 -984938.14117150591 0 -984938.14117150591 -524704.26357262011 0 0 0 0 3033703.5597149143 -403754.97346837446 0 -403754.97346837446 -752174.69086700736 0 0 0 0 1467612.2893066406 335476.52562844753 0 335476.52562844753 -2580063.4687646627 0 0 0 0 521535.07862091064 -130589.25657922029 0 -130589.25657922029 -1111410.9167199135 0 0 0 0 2046088.6917792782 -553207.90166274505 0 -553207.90166274505 -754206.58113059588 0 0 0 0 3087969.667416282 -413561.54980304581 0 -413561.54980304581 -489259.05805458478 0 0 0 0 1735937.2940212917 -1262023.7957431655 0 -1262023.7957431655 -821157.22799786716 0 0 0 0 -4009722.3513946533 -7197970.0733573437 0 -7197970.0733573437 5458598.9944796562 0 0 0 0 12953699.500144958 20671266.676654577 0 20671266.676654577 -35081981.993194103 0 0 0 0 3992245.7473258972 -1458027.4274055958 0 -1458027.4274055958 -4966270.9599347115 0 0 0 0 -7429157.6642150879 60178168.674712658 0 60178168.674712658 11133862.95136261 0 0 0 0 -28555165.990348816 54258425.18468833 0 54258425.18468833 78488763.401762962 0 0 0 0 -28623137.666488647 -5315419.4920005798 0 -5315419.4920005798 120798851.39004326 0 0 0 0 -11715696.53817749 392695.48280763626 0 392695.48280763626 32203418.954452991 0 0 0 0 4771177.3274688721 -24272793.760065556 0 -24272793.760065556 23686904.653228521 0 0 0 0 50717161.729476929 -60114233.665192127 0 -60114233.665192127 60881689.907577276 0 0 0 0 -9728346.2125854492 -841001.23250627518 0 -841001.23250627518 14518653.008961201 0 0 0 0 -13949628.571472168 -3011299.1740176678 0 -3011299.1740176678 45755124.116110325 0 0 0 0 -7091650.4451293945 -7949780.8569402695 0 -7949780.8569402695 22799556.954544067 0 0 0 0 -4738296.8605194092 -13075654.760642052 0 -13075654.760642052 21591566.875800252 0 0 0 0 -2079765.8339385986 -14706038.29986763 0 -14706038.29986763 10583798.077312469 0 0 0 0 -924389.36799621582 -15676789.345965862 0 -15676789.345965862 10545392.635543771 0 0 0 0 8796265.1235961914 -16277575.182472706 0 -16277575.182472706 15282926.737382889 0 0 0 0 5069446.1003723145 -3382827.5139584541 0 -3382827.5139584541 -12803980.048082352 0 0 0 0 38237926.166677475 -26356940.615065619 0 -26356940.615065619 1549693.3733301163 0 0 0 0 15481066.483581543 17813392.439857483 0 17813392.439857483 -59469008.259845734 0 0 0 0 -9072565.8352279663 5392023.0592982769 0 5392023.0592982769 -20018548.606729984 0 0 0 0 10658825.954479218 -13733793.827750623 0 -13733793.827750623 -10616571.384929657 0 0 0 0 -4594567.883605957 -9569030.527895242 0 -9569030.527895242 -7447003.0087943077 0 0 0 0 4524984.2977676392 -8015821.0614460707 0 -8015821.0614460707 -21615606.346951485 0 0 0 0 2113185.8679504395 -11842650.118084669 0 -11842650.118084669 -7442505.5212063789 0 0 0 0 2002893.1988677979 -3968172.7759560347 0 -3968172.7759560347 -840487.60033714771 0 0 0 0 6223660.8376426697 -12854704.658837736 0 -12854704.658837736 -2175116.5255146027 0 0 0 0 8018734.3517608643 -6250330.7839632034 0 -6250330.7839632034 -11265744.474278927 0 0 0 0 8199436.2277984619 -13027240.073036194 0 -13027240.073036194 -724152.28066444397 0 0 0 0 15623844.382919312 -15181005.590014219 0 -15181005.590014219 -2171645.6891229153 0 0 0 0 13709404.245729446 -14729555.37727505 0 -14729555.37727505 3730240.6811261177 0 0 0 0 8827439.1731262207 -8673038.1034469604 0 -8673038.1034469604 3870550.0935783386 0 0 0 0 17439928.648938656 -7236024.6415002644 0 -7236024.6415002644 17770636.008216858 0 0 0 0 14964385.168365479 -14764636.669592381 0 -14764636.669592381 5224757.417276144 0 0 0 0 17744427.872619629 -19733747.655231953 0 -19733747.655231953 10591100.124246597 0 0 0 0 12628168.722572327 -13736212.259403467 0 -13736212.259403467 3905812.8056850433 0 0 0 0 6744266.5364837646 -12936929.148893356 0 -12936929.148893356 21480569.708022118 0 0 0 0 1898717.9668960571 -1949104.1081044674 0 -1949104.1081044674 14030357.187755585 0 0 0 0 1737601.2426300049 2541438.6185956001 0 2541438.6185956001 2007524.763980031 0 0 0 0 22501989.47694397 -25719569.06292963 0 -25719569.06292963 24041690.670805931 0 0 0 0 29476944.148956299 -23624214.186544418 0 -23624214.186544418 19982285.232737064 0 0 0 0 188061.0938084079 -64572.343244230375 0 -64572.343244230375 29467.574591017794 0 0 0 0 16628405.062095642 -12472422.435845137 0 -12472422.435845137 10865190.033546448 0 0 0 0 13777613.823471069 -13694313.90268302 0 -13694313.90268302 13376364.708171844 0 0 0 0 1699728.3229675293 -9210009.2870612144 0 -9210009.2870612144 14433044.508588314 0 0 0 0 1855523.9937744141 -8286937.1020412445 0 -8286937.1020412445 16599014.077325493 0 0 0 0 -3523357.725112915 -12876076.818217754 0 -12876076.818217754 12710099.097636223 0 0 0 0 92135.240112304688 -7540109.8208606243 0 -7540109.8208606243 11056820.92228508 0 0 0 0 4094013.8428039551 -12136486.661808491 0 -12136486.661808491 3983379.3443048 0 0 0 0 6962815.4239273071 -6586260.4374946356 0 -6586260.4374946356 14498123.347894669 0 0 0 0 2205956784.2347088 289838668.67187148 0 289838668.67187148 -117581920.57867561 0 0 0 0 1851859380.8371582 74470103.911646023 0 74470103.911646023 -33732840.244066179 0 0 0 0 539113.41453934275 -245533.3071398437 0 -245533.3071398437 -16452.420118640395 0 0 0 0 2090346272.9209061 187441450.7347697 0 187441450.7347697 -20791312.486046165 0 0 0 0 -112271466.26921463 -55409988.519400299 0 -55409988.519400299 55886023.026615173 0 0 0 0 32158168.614532471 13051569.871808738 0 13051569.871808738 -37993191.40161559 0 0 0 0 2016980970.9646378 184036660.85032421 0 184036660.85032421 -9833656.5708867908 0 0 0 0 1880620470.2106924 67565545.83713828 0 67565545.83713828 -100226183.46694511 0 0 0 0 23835536.210212708 7815077.1981265843 0 7815077.1981265843 -10993447.714058533 0 0 0 0 1483710.8963357329 -636251.46895996854 0 -636251.46895996854 -43723.137871735104 0 0 0 0 -33519589.760149956 -19560382.661439031 0 -19560382.661439031 -3585365.9400173426 0 0 0 0 1022438284.4981041 -226710345.4396987 0 -226710345.4396987 207858191.23307651 0 0 0 0 2611857.2577805854 -651670.19878446683 0 -651670.19878446683 -221072.46415435153 0 0 0 0 -32848317.141456604 -18057117.098076224 0 -18057117.098076224 10088257.895000219 0 0 0 0 -16425380.225273132 -24362890.439851761 0 -24362890.439851761 -1484073.9868737459 0 0 0 0 2003042201.3909874 176447270.27592599 0 176447270.27592599 -181407899.46662623 0 0 0 0 2152180473.6144943 271587319.30151308 0 271587319.30151308 -60510896.390993103 0 0 0 0 2097975389.7015877 88961767.762107879 0 88961767.762107879 -188000554.48765364 0 0 0 0 2027307602.8237 169775338.77364609 0 169775338.77364609 -94265314.727140829 0 0 0 0 2137869068.7852135 140161036.78552914 0 140161036.78552914 129926865.56720185 0 0 0 0 2203578365.9026947 100054822.38132219 0 100054822.38132219 -47820302.840959787 0 0 0 0 2132738990.2861381 83269849.316314384 0 83269849.316314384 511645008.63368404 0 0 0 0 1988389853.6116524 25148374.864586439 0 25148374.864586439 -77149.590004373313 0 0 0 0 1713706487.3419647 47118598.440071456 0 47118598.440071456 -83009780.386767015 0 0 0 0 1492663570.0413284 215417428.30471709 0 215417428.30471709 -44454752.826429024 0 0 0 0 9676810.316368103 1430214.1866280639 0 1430214.1866280639 -1366641.9621378556 0 0 0 0 1619665.6628009966 364601.07748449966 0 364601.07748449966 47681.879131097419 0 0 0 0 730023539.01637268 350305018.97355276 0 350305018.97355276 451795482.53883541 0 0 0 0 2211769.2135142861 340251.18428120948 0 340251.18428120948 -183892.40250404115 0 0 0 0 6917358.3465461731 397707.88980364148 0 397707.88980364148 -1253241.3924706168 0 0 0 0 4832019.8139801025 1163766.4010624578 0 1163766.4010624578 45600.981035663099 0 0 0 0 2434151257.9684372 208736398.23565447 0 208736398.23565447 -207470838.31538945 0 0 0 0 1430206980.1587067 1004762358.3954333 0 1004762358.3954333 412767271.23246956 0 0 0 0 714270.59389413148 -23496.945002751119 0 -23496.945002751119 21037.054687050659 0 0 0 0 2216413808.4807816 -718960703.44007659 0 -718960703.44007659 29251196.061426401 0 0 0 0 2341777935.9613342 381048416.72741538 0 381048416.72741538 -33232042.030427784 0 0 0 0 8673276.511138916 6006855.5806233883 0 6006855.5806233883 -12274966.698831081 0 0 0 0 5271408.9997258261 729686.36268985737 0 729686.36268985737 -574981.94517835067 0 0 0 0 -36064360.417190552 -33644275.205731869 0 -33644275.205731869 -37632386.88319397 0 0 0 0 229271189.92642212 6875142.9460093975 0 6875142.9460093975 -71671036.578417182 0 0 0 0 5087391.3273409232 -293502.06537496526 0 -293502.06537496526 -366080.35755825514 0 0 0 0 -26096637.477294922 96584297.042912602 0 96584297.042912602 17399772.904383898 0 0 0 0 -56784556.745510101 4921396.550154388 0 4921396.550154388 28746592.65708971 0 0 0 0 -137856847.0308075 -73474433.678678751 0 -73474433.678678751 -46269399.835784912 0 0 0 0 485572.47350359336 62131.334657838568 0 62131.334657838568 -207005.75152495492 0 0 0 0 -11402083.560600281 -53408401.940606654 0 -53408401.940606654 -9290792.3268444203 0 0 0 0 3355335.6610527039 98783.284739281982 0 98783.284739281982 -745915.301082002 0 0 0 0 1972258.6518828273 504077.93179404549 0 504077.93179404549 -406009.11376694776 0 0 0 0 6898545.1463546753 3191526.9503762256 0 3191526.9503762256 -3914921.8532156274 0 0 0 0 4741828.9099121094 -847710.29276355542 0 -847710.29276355542 -427115.929458756 0 0 0 0 4942545.4884338379 -150476.81468058459 0 -150476.81468058459 1092768.601089533 0 0 0 0 4346486.2828979492 1045806.4356680955 0 1045806.4356680955 -1221753.5255097048 0 0 0 0 12294801.112213135 6464257.4127447288 0 6464257.4127447288 240597.85838212818 0 0 0 0 851781.48940245993 375464.97156891413 0 375464.97156891413 75303.64221139648 0 0 0 0 2280669.7491798401 -1560725.4893279513 0 -1560725.4893279513 -160583.38464516005 0 0 0 0 174630.88886260986 -1078182.5121692403 0 -1078182.5121692403 -552.63333789893409 0 0 0 0 2635577.0572509766 1032087.1302370972 0 1032087.1302370972 -462479.31814039883 0 0 0 0 5080660.9227294922 -1325925.232712216 0 -1325925.232712216 2429.1164767208211 0 0 0 0 10867501.75138092 1216254.3409651429 0 1216254.3409651429 -5596537.1231502686 0 0 0 0 8210093.9302978516 4909089.3889096202 0 4909089.3889096202 65697.98656827111 0 0 0 0 17366428.890937805 10772245.996345473 0 10772245.996345473 2564573.7371591553 0 0 0 0 503518.88655055501 295033.3935470432 0 295033.3935470432 155516.4529688209 0 0 0 0 7290945.3605117798 -69711.697999820113 0 -69711.697999820113 -1460228.1281149136 0 0 0 0 12360295.182228088 3486423.944861046 0 3486423.944861046 -12244328.385352176 0 0 0 0 7573201.8736534119 455166.07167763193 0 455166.07167763193 -2724725.0186698576 0 0 0 0 6263779.0537834167 -3319613.9775367989 0 -3319613.9775367989 -3844764.7144047157 0 0 0 0 7751302.3385162354 762145.39704525843 0 762145.39704525843 -8211681.0553994924 0 0 0 0 3696888.6907043457 -1747307.2437232211 0 -1747307.2437232211 -3440330.1835888615 0 0 0 0 2763840.3578643799 23209182.918364525 0 23209182.918364525 -26963363.666924968 0 0 0 0 4760935.8297660761 234700.33960845362 0 234700.33960845362 -217657.17719171254 0 0 0 0 24064350.892190933 3655413.116629079 0 3655413.116629079 -10241527.521272659 0 0 0 0 20206796.753908157 -6799991.7822879255 0 -6799991.7822879255 3791417.6925241947 0 0 0 0 4385627.7821365558 380582.51910860417 0 380582.51910860417 -145942.03427107324 0 0 0 0 -138299922.41259766 28041332.167322159 0 28041332.167322159 7636429.363222003 0 0 0 0 15692659.212013245 707305.18750248477 0 707305.18750248477 -3181477.5295095313 0 0 0 0 5399664.3510894775 -2150575.3294935683 0 -2150575.3294935683 -4921827.3219821975 0 0 0 0 -22570725.706346087 -22715691.662063155 0 -22715691.662063155 2333050.8606759906 0 0 0 0 200745.731496742 62247.752663490362 0 62247.752663490362 -128269.2926056718 0 0 0 0 -12073353.545639038 6040000.1577448845 0 6040000.1577448845 783004.55751490593 0 0 0 0 567884.22751055798 -48887.346642527729 0 -48887.346642527729 -64244.405040015772 0 0 0 0 -13122492.732475281 5745001.3546200395 0 5745001.3546200395 3144431.3013853431 0 0 0 0 19156326.839824677 -4369091.7282021642 0 -4369091.7282021642 3101854.6897749901 0 0 0 0 -10567267.816925049 4425276.6238152385 0 4425276.6238152385 -343470.53010773659 0 0 0 0 -11653475.159202576 6423374.0135454535 0 6423374.0135454535 -605072.13148927689 0 0 0 0 -13650267.34386158 260572.66398291104 0 260572.66398291104 998507.95528531075 0 0 0 0 236729.80138728768 387248.8687578449 0 387248.8687578449 85085.326884296082 0 0 0 0 -14046908.407058716 4435785.3453403115 0 4435785.3453403115 1353864.6807411015 0 0 0 0 -11446167.811565399 8394040.5581280515 0 8394040.5581280515 8218502.4457185604 0 0 0 0 13206390.772454262 12937285.186136901 0 12937285.186136901 -14039843.003741622 0 0 0 0 -29331143.502178192 19952040.276882935 0 19952040.276882935 2120736.2153459527 0 0 0 0 -39323.7675813362 42852.428437502123 0 42852.428437502123 122423.51348726597 0 0 0 0 175436111.86748886 7824651.7371977568 0 7824651.7371977568 -42595945.866602182 0 0 0 0 53085363.541236877 -23556005.037166357 0 -23556005.037166357 10155600.431111813 0 0 0 0 30815534.077697754 24243795.753228724 0 24243795.753228724 15813332.295502603 0 0 0 0 23548968.878517151 5804649.2242337763 0 5804649.2242337763 13965230.400224168 0 0 0 0 468835.55729675293 2860020.2433484793 0 2860020.2433484793 8798642.1080732942 0 0 0 0 58157547.256795883 -4530527.7538484409 0 -4530527.7538484409 -9558486.4859604836 0 0 0 0 73649.087657914497 409551.92260409426 0 409551.92260409426 161750.8292622091 0 0 0 0 637213.70329275727 1212004.325544389 0 1212004.325544389 -1775088.2374365903 0 0 0 0 55862309.177825928 25171406.044250108 0 25171406.044250108 -4379550.5126353726 0 0 0 0 39621672.692554474 -3144273.8434797674 0 -3144273.8434797674 -2871988.6451283097 0 0 0 0 -182771.88033676147 8512272.1085290909 0 8512272.1085290909 4729965.2890853882 0 0 0 0 -2431297.8525047302 -1734269.9916551113 0 -1734269.9916551113 2829039.7238335609 0 0 0 0 -4791732.2286834717 334729.89029958844 0 334729.89029958844 2716413.9324133396 0 0 0 0 -497435.91135828197 1086073.6752772992 0 1086073.6752772992 2818913.6683684383 0 0 0 0 7071627.6152133942 14173159.666667871 0 14173159.666667871 -229335.23739504814 0 0 0 0 4191347.9995651245 1767130.2897574902 0 1767130.2897574902 1307485.7343780994 0 0 0 0 35139.187417806126 1141910.4733132692 0 1141910.4733132692 1571957.0193327297 0 0 0 0 47755682.256546021 -74907156.940535545 0 -74907156.940535545 124413472.53914452 0 0 0 0 -4623804.4036865234 2814992.7342329025 0 2814992.7342329025 -1529091.2635848522 0 0 0 0 -6985622.3639526367 3625912.0381212831 0 3625912.0381212831 2090315.7737593651 0 0 0 0 -18540247.950637817 19547766.959873289 0 19547766.959873289 5715013.967518568 0 0 0 0 -8646021.6069488525 6036679.9498804808 0 6036679.9498804808 -2543313.7481440306 0 0 0 0 -6578513.4779205322 3693125.1880420446 0 3693125.1880420446 -1697068.6870801449 0 0 0 0 -5016418.0302581787 -1068425.913856566 0 -1068425.913856566 630500.16819214821 0 0 0 0 -9560455.5027923584 -406156.48325580359 0 -406156.48325580359 960427.04549604654 0 0 0 0 40180102.548156738 40010584.301170349 0 40010584.301170349 38883526.997970581 0 0 0 0 -3969313.0190582275 6373864.6429243088 0 6373864.6429243088 -29487023.644254208 0 0 0 0 1346340.3696361724 -463699.01112575177 0 -463699.01112575177 -725449.62080358551 0 0 0 0 132816954.69421387 87686487.871438742 0 87686487.871438742 117008778.35896301 0 0 0 0 105414721.76507568 25996362.135950089 0 25996362.135950089 6472181.6429519653 0 0 0 0 7900261.1269073486 12217242.059233665 0 12217242.059233665 -30975346.626363039 0 0 0 0 67169977.221740723 43486266.463786125 0 43486266.463786125 -2388398.6217718124 0 0 0 0 28985740.805984497 -12415887.177501678 0 -12415887.177501678 -15589523.559812546 0 0 0 0 134152181.1105957 61513445.613689423 0 61513445.613689423 -2749169.3444099426 0 0 0 0 167585315.54241943 41073843.402636528 0 41073843.402636528 -29611887.612569809 0 0 0 0 233465217.00683594 69124377.416865349 0 69124377.416865349 -54035951.737237811 0 0 0 0 241786697.30290222 85972715.049735069 0 85972715.049735069 -26235042.768234253 0 0 0 0 195739961.46565247 75999589.384151459 0 75999589.384151459 -6102543.0557098389 0 0 0 0 251832007.15975952 79590945.83316803 0 79590945.83316803 -96539561.869651794 0 0 0 0 231221660.23997498 139074913.65923119 0 139074913.65923119 -31683134.044849396 0 0 0 0 218313198.03056335 144020186.22911739 0 144020186.22911739 74988675.281024933 0 0 0 0 228134103.28778076 106956869.85881615 0 106956869.85881615 -1291051.8883974552 0 0 0 0 227995699.93331909 96831323.690519333 0 96831323.690519333 -34368499.404706955 0 0 0 0 260530049.10768127 246006876.72259283 0 246006876.72259283 142299153.29397941 0 0 0 0 282679144.14077759 -91046654.569219589 0 -91046654.569219589 -5611038.9604922533 0 0 0 0 20860131.907546997 -64217004.97934103 0 -64217004.97934103 201037.55987739563 0 0 0 0 442501.28262465447 -148014.66654983629 0 -148014.66654983629 -208930.43353082077 0 0 0 0 364010469.44203186 181884244.49220943 0 181884244.49220943 4552223.7143535614 0 0 0 0 432320486.03929138 -268356618.92069817 0 -268356618.92069817 67773941.054580688 0 0 0 0 -357227.96897125244 26571166.168612003 0 26571166.168612003 498155.04899501801 0 0 0 0 19996806.601747274 25126086.352930434 0 25126086.352930434 -17211917.222679138 0 0 0 0 4712148.9179077148 -918910.4049847126 0 -918910.4049847126 -19364487.162083536 0 0 0 0 -7024997.036781311 19710516.323696136 0 19710516.323696136 -5907290.5342855453 0 0 0 0 6170.0620409660041 -14186.77229049243 0 -14186.77229049243 -43248.322775193257 0 0 0 0 -2541187.5074195862 20348968.297138751 0 20348968.297138751 -4233558.8213200569 0 0 0 0 -20930939.10105896 7577324.7364816666 0 7577324.7364816666 11823062.889819384 0 0 0 0 15538292.773155212 -52434769.140875459 0 -52434769.140875459 34093211.167010307 0 0 0 0 -3675270.2430953979 330450.54387164116 0 330450.54387164116 104154.22351455688 0 0 0 0 23423297.337726593 -1268994.8902953863 0 -1268994.8902953863 -7727107.5182271004 0 0 0 0 1428183.8001098633 -3953289.0734915733 0 -3953289.0734915733 -926005.25520896912 0 0 0 0 12684146.084121704 -1311667.9740917683 0 -1311667.9740917683 -2622686.4849817753 0 0 0 0 535788.02977493568 133393.66495775059 0 133393.66495775059 -1532530.575727145 0 0 0 0 122239.06195152365 49256.132247427478 0 49256.132247427478 -236944.50124796003 0 0 0 0 237438.11837768555 368209.74342679977 0 368209.74342679977 233154.30020141602 0 0 0 0 -1964906.580291748 -3207159.5395864248 0 -3207159.5395864248 -5539803.1239550114 0 0 0 0 -11610046.263385773 10976846.523911953 0 10976846.523911953 -14980199.611351013 0 0 0 0 1094192.3554077148 -7099869.272857666 0 -7099869.272857666 6358384.8773345947 0 0 0 0 8123.768381267786 -18280.614877820015 0 -18280.614877820015 -119638.94351768214 0 0 0 0 30399920.71105957 -11973564.540299416 0 -11973564.540299416 -25750100.723077774 0 0 0 0 25108163.724517822 -3639687.4688405991 0 -3639687.4688405991 -22959454.240642548 0 0 0 0 -21618783.081848145 -14932653.141397476 0 -14932653.141397476 -15763171.169975281 0 0 0 0 41437576.115600586 -13783445.081441402 0 -13783445.081441402 -25747886.372200012 0 0 0 0 23154250.405334473 -27300722.02110672 0 -27300722.02110672 -42740459.075018883 0 0 0 0 27286186.46937561 3981426.120714426 0 3981426.120714426 -2141959.197593689 0 0 0 0 -31111279.343933105 -42055148.231412888 0 -42055148.231412888 -28170341.30188942 0 0 0 0 937553.3827641448 -494340.42432067357 0 -494340.42432067357 -768082.33915894013 0 0 0 0 -63767886.467102051 -28281070.308433533 0 -28281070.308433533 -9697899.828086853 0 0 0 0 1225210.6174926758 -246597.44038164616 0 -246597.44038164616 -293993.6471824646 0 0 0 0 1216469.155730024 -145191.7458097199 0 -145191.7458097199 -1816864.0039527749 0 0 0 0 -23588562.343521118 -26300522.013906956 0 -26300522.013906956 -16334809.995956421 0 0 0 0 2029018.5229535941 -686175.97024518624 0 -686175.97024518624 -1461663.2994399597 0 0 0 0 376506.48476099689 174057.43193990365 0 174057.43193990365 -1065649.8815366703 0 0 0 0 914415.19613740966 -546461.34626784362 0 -546461.34626784362 -337947.55581679894 0 0 0 0 3343856.0051345825 -1600942.993409723 0 -1600942.993409723 -2563916.1925996542 0 0 0 0 1297848.358581543 745646.192091465 0 745646.192091465 1621894.2962230444 0 0 0 0 44631603.688720703 805921.17744255066 0 805921.17744255066 -26785057.681182861 0 0 0 0 58578273.428146362 27144903.615344524 0 27144903.615344524 -10241293.847782135 0 0 0 0 -486.7874755859375 -1288876.1637105942 0 -1288876.1637105942 -3471089.877207756 0 0 0 0 645374.2421875 -3195990.2521293163 0 -3195990.2521293163 -1572124.9543299675 0 0 0 0 431112.43515541777 -36396.265473078936 0 -36396.265473078936 -804693.18793391599 0 0 0 0 -377574.07928466797 -1226615.8973903656 0 -1226615.8973903656 -1724673.2084932327 0 0 0 0 7978929.4150238037 426889.49274396896 0 426889.49274396896 -1092377.8541676998 0 0 0 0 1284852.7391891479 -276220.41017502546 0 -276220.41017502546 -408577.10730171204 0 0 0 0 1756923.5171966553 -1509949.627692461 0 -1509949.627692461 -2023314.2026016712 0 0 0 0 -2646808.8500518799 2849993.573210597 0 2849993.573210597 360636.62909555435 0 0 0 0 18980.293089769781 4318.7948133349419 0 4318.7948133349419 -4910.3753507290967 0 0 0 0 -3927953.6431884766 -4234726.3157430887 0 -4234726.3157430887 -5348324.7216815948 0 0 0 0 -524395.46994972229 -3024349.0350921582 0 -3024349.0350921582 -3759827.2283728123 0 0 0 0 -542167.33291625977 -2920713.2517068088 0 -2920713.2517068088 -1238340.3620101213 0 0 0 0 -510146.01159667969 -900301.18081188202 0 -900301.18081188202 -1846122.4293581247 0 0 0 0 321794.66501200199 -445569.5740026813 0 -445569.5740026813 67872.808517963218 0 0 0 0 2579462.4984436035 -685224.9517800808 0 -685224.9517800808 -2470911.2537999377 0 0 0 0 2410413.7656402588 -4404563.9154928327 0 -4404563.9154928327 -2516978.7305979729 0 0 0 0 -3133333.6574401855 -4363388.6295195818 0 -4363388.6295195818 -4445843.4017730057 0 0 0 0 601314.04646862904 -273939.52195707522 0 -273939.52195707522 -1529423.6944585326 0 0 0 0 5504261.3301849365 -3508925.0804675817 0 -3508925.0804675817 -3619381.1435250044 0 0 0 0 30346456.516174316 19654405.639290571 0 19654405.639290571 31654524.44763279 0 0 0 0 6518257.1360626221 -1307532.3302898109 0 -1307532.3302898109 -3985667.6919026971 0 0 0 0 228840.47689435631 197083.65201468021 0 197083.65201468021 117782.59168669838 0 0 0 0 3340410.8903121948 -77483.791635751724 0 -77483.791635751724 -20252092.344486237 0 0 0 0 79352571.541625977 -61742781.816613197 0 -61742781.816613197 34282119.778924942 0 0 0 0 376276221.38449097 -22310952.757008076 0 -22310952.757008076 -10612258.019406915 0 0 0 0 351871370.92196655 25391688.548153877 0 25391688.548153877 -23212299.192603111 0 0 0 0 212522114.95199585 -46890828.147457123 0 -46890828.147457123 -14236663.243129492 0 0 0 0 196367366.09591675 7555384.6941382885 0 7555384.6941382885 21426037.563201904 0 0 0 0 192108346.7276001 12858332.439188957 0 12858332.439188957 22556419.699781418 0 0 0 0 267176654.25897217 29187094.624935627 0 29187094.624935627 4879097.3370780945 0 0 0 0 21691012.491188049 -3280529.568493247 0 -3280529.568493247 62090058.643241882 0 0 0 0 105688647.06188965 -8287447.0217885971 0 -8287447.0217885971 29056732.560478926 0 0 0 0 102690918.59838867 14258643.718103409 0 14258643.718103409 19686232.888874054 0 0 0 0 73187740.574584961 3193287.5214767456 0 3193287.5214767456 19966642.703826725 0 0 0 0 117714069.1836853 29408372.028133392 0 29408372.028133392 -12221454.305747986 0 0 0 0 187481947.51756287 15227266.869860649 0 15227266.869860649 431966.67889118195 0 0 0 0 182404126.6362381 19235160.957886219 0 19235160.957886219 36882999.614942551 0 0 0 0 121570326.02337646 18107401.408513069 0 18107401.408513069 5110526.2883076668 0 0 0 0 183891513.57154083 14881650.572293758 0 14881650.572293758 -19267799.581041336 0 0 0 0 115396175.86361694 34277243.102066994 0 34277243.102066994 -17984044.876132011 0 0 0 0 198108736.56634521 44512474.849966526 0 44512474.849966526 -33344891.094577789 0 0 0 0 208879259.18063354 32088479.584651947 0 32088479.584651947 -34018933.083055496 0 0 0 0 169452782.51544189 52412338.135562897 0 52412338.135562897 -28556206.747916937 0 0 0 0 160222880.81224823 27488780.000299215 0 27488780.000299215 -30322992.462360382 0 0 0 0 66315956.221099854 23523221.397028923 0 23523221.397028923 -5956689.3676159382 0 0 0 0 100300037.76287842 5045437.466881752 0 5045437.466881752 -15778629.50328064 0 0 0 0 20938756.628316879 7538627.8289036043 0 7538627.8289036043 674911.72276079655 0 0 0 0 59798.693880006671 957400.81387751922 0 957400.81387751922 1125289.5619788186 0 0 0 0 246765366.78764343 41800677.232961416 0 41800677.232961416 -42667752.496818542 0 0 0 0 241256087.71194458 54836784.062521935 0 54836784.062521935 -66895137.936056137 0 0 0 0 247366761.1661377 37640520.213309288 0 37640520.213309288 -49034407.785129547 0 0 0 0 221660153.04275513 56820291.42672348 0 56820291.42672348 -53623994.09330079 0 0 0 0 240913887.48529053 28618556.453971863 0 28618556.453971863 -27541390.613137245 0 0 0 0 234515445.80961609 19778599.31989634 0 19778599.31989634 33853689.545488358 0 0 0 0 209020678.96072388 34657950.946594238 0 34657950.946594238 -25743871.788570404 0 0 0 0 1921530.1777479663 -13164.193947630003 0 -13164.193947630003 -131379.1985416555 0 0 0 0 8549674.7985534668 -189087.40825659037 0 -189087.40825659037 401069.40907275304 0 0 0 0 415394.24432675168 840859.16784767061 0 840859.16784767061 672411.88832607586 0 0 0 0 383530070.57220459 119103910.39433146 0 119103910.39433146 -9157876.0159645081 0 0 0 0 320901622.12432098 131760165.20854712 0 131760165.20854712 41579982.643784523 0 0 0 0 224925755.24557495 76419115.169492722 0 76419115.169492722 88017805.35948658 0 0 0 0 9395228.579864502 1977635.1929015219 0 1977635.1929015219 -136426.08686804771 0 0 0 0 -22777245.001948982 102526124.49704407 0 102526124.49704407 -19719572.628411293 0 0 0 0 380953911.20581055 112220597.58382988 0 112220597.58382988 23096462.750965118 0 0 0 0 4103242.5056084208 974876.4491940327 0 974876.4491940327 -236941.31013923979 0 0 0 0 6147281.6555175781 1374037.9745776951 0 1374037.9745776951 258531.0313220135 0 0 0 0 -23239299.868179321 56155105.254625559 0 56155105.254625559 13544471.092970371 0 0 0 0 -29298.727994023822 -41579.853669455275 0 -41579.853669455275 184503.86105328926 0 0 0 0 575181910.20051575 76729229.908474207 0 76729229.908474207 -8050217.7941656113 0 0 0 0 477567466.39169312 12572943.94094348 0 12572943.94094348 -5412492.7467141151 0 0 0 0 428342279.61946869 259559950.84662461 0 259559950.84662461 113376528.74006653 0 0 0 0 6392.4749683327973 78866.619527186238 0 78866.619527186238 36826.715644398886 0 0 0 0 546218343.14016724 121947796.15122223 0 121947796.15122223 -46947635.511720158 0 0 0 0 488251010.19073486 123825199.86317754 0 123825199.86317754 58484608.54320097 0 0 0 0 1432576.8758975416 8165.0544603280723 0 8165.0544603280723 502228.06396079715 0 0 0 0 4739017.3798446655 527200.3300638888 0 527200.3300638888 248358.44194965065 0 0 0 0 472581285.19523621 175558939.69014084 0 175558939.69014084 -45973253.143597841 0 0 0 0 173887627.32609558 140315415.11378789 0 140315415.11378789 48296424.137960672 0 0 0 0 6021070.4833869934 88641.598229876719 0 88641.598229876719 -386075.5921369344 0 0 0 0 2252133.1169204712 -3071610.3594289594 0 -3071610.3594289594 -3554218.9317827323 0 0 0 0 1609103.6070105694 122704.50259787031 0 122704.50259787031 -49622.508979763268 0 0 0 0 6702541.8949432373 1315707.7227554955 0 1315707.7227554955 -403765.09222790599 0 0 0 0 -1101115.0307693481 -8271540.5972285271 0 -8271540.5972285271 -7172834.46423034 0 0 0 0 8189255.0958175659 5574948.2292411663 0 5574948.2292411663 -4796757.4043169767 0 0 0 0 489142.68756533228 52203.117963217199 0 52203.117963217199 -10329.384229225005 0 0 0 0 463410.83981558587 -31011.527664281428 0 -31011.527664281428 92388.612693487943 0 0 0 0 -7904878.7967891693 -26548157.810988143 0 -26548157.810988143 -17639448.133866649 0 0 0 0 -1548710.5772857666 -5872485.3124353923 0 -5872485.3124353923 -17152142.355329767 0 0 0 0 22705399.264038086 -1451976.9694955982 0 -1451976.9694955982 -21072564.895136543 0 0 0 0 45931281.994918823 7815745.5151187358 0 7815745.5151187358 -136262.45598026499 0 0 0 0 14176625.151311874 -30572721.513355013 0 -30572721.513355013 -31119617.275786482 0 0 0 0 303705163.81735229 -48463992.760512434 0 -48463992.760512434 -40774447.451874614 0 0 0 0 9187635.9281616211 6998829.5594735704 0 6998829.5594735704 -8235144.3711814191 0 0 0 0 3075137.6027603149 -2891489.0482018194 0 -2891489.0482018194 875278.30238039244 0 0 0 0 33357397.968532562 -38759485.919883296 0 -38759485.919883296 -28522649.465987951 0 0 0 0 36875753.887809753 -54184552.146265879 0 -54184552.146265879 31110149.755424425 0 0 0 0 -2448675.1690673828 -34657457.622269109 0 -34657457.622269109 192376.07873206981 0 0 0 0 210314549.77453423 164713815.12986755 0 164713815.12986755 147897899.22602144 0 0 0 0 82797.404809139203 -74185.95021109283 0 -74185.95021109283 -237743.92319498779 0 0 0 0 543233209.0822525 110107443.40677992 0 110107443.40677992 -171339071.96976823 0 0 0 0 63299857.331825256 49684507.556259871 0 49684507.556259871 111382875.0029403 0 0 0 0 -47244585.648231506 25624199.192376226 0 25624199.192376226 6611453.3827323318 0 0 0 0 21531227.163696289 38205795.300110839 0 38205795.300110839 -40191496.136528969 0 0 0 0 22169108.043678284 26448071.618105076 0 26448071.618105076 29171734.927610323 0 0 0 0 12949875.508331299 10904386.288696893 0 10904386.288696893 -10433249.757174 0 0 0 0 7643234.0428771973 7485835.0166780651 0 7485835.0166780651 -9751401.6150483787 0 0 0 0 316914724.82291412 12421297.189493954 0 12421297.189493954 -30538938.034356833 0 0 0 0 49312345.802032471 -83491875.86509943 0 -83491875.86509943 52301.165099024773 0 0 0 0 275737.40712021664 -169474.08442309126 0 -169474.08442309126 -823478.7875643 0 0 0 0 -46234048.48781395 -32416117.473332852 0 -32416117.473332852 27368810.437779903 0 0 0 0 2714703.0408439636 5296832.3339345697 0 5296832.3339345697 -4123573.9077676535 0 0 0 0 3730207.4940490723 -5647068.2796325684 0 -5647068.2796325684 -17247458.107829332 0 0 0 0 4147148.6477813721 4465965.3547162116 0 4465965.3547162116 -12009386.871627212 0 0 0 0 5252664.1020965576 2472039.6934612393 0 2472039.6934612393 -8970354.4608995914 0 0 0 0 -20777.388731127605 -19731.929657116532 0 -19731.929657116532 -33571.090330589883 0 0 0 0 352733.05277672037 -361350.58963903226 0 -361350.58963903226 24901.104666080966 0 0 0 0 -4254984.979095459 -10205978.894006908 0 -10205978.894006908 -14798682.87365824 0 0 0 0 -5275471.8059844971 -7257912.263395071 0 -7257912.263395071 -7388863.5662899017 0 0 0 0 -4623032.4019241333 1615629.5744993985 0 1615629.5744993985 -2440294.337813437 0 0 0 0 3470842.4658508301 -1890150.7311218381 0 -1890150.7311218381 -16137258.881909013 0 0 0 0 6988176.4669952393 -8104955.9670933783 0 -8104955.9670933783 -23803001.744967222 0 0 0 0 -1613689.3814849854 -3953330.7614440322 0 -3953330.7614440322 -20331212.133847237 0 0 0 0 -15097023.541366577 -3236029.1513635516 0 -3236029.1513635516 -18559203.366979957 0 0 0 0 -681145.14733886719 -12722190.926759154 0 -12722190.926759154 -18784715.399140835 0 0 0 0 4781730.9073944092 -1072084.1118807793 0 -1072084.1118807793 -15674243.030717194 0 0 0 0 88451.320287063718 -11244.510968931019 0 -11244.510968931019 -82314.819073601655 0 0 0 0 -454131.37222290039 -603830.43354666233 0 -603830.43354666233 2874193.9561798871 0 0 0 0 22672304.546073914 39941897.314258754 0 39941897.314258754 23608266.256073952 0 0 0 0 6949403.8301391602 -1842379.7580621243 0 -1842379.7580621243 8206894.3757730126 0 0 0 0 -7049708.1222076416 4506305.0631170273 0 4506305.0631170273 6270642.8949913979 0 0 0 0 13077468.247840881 -12159274.655351758 0 -12159274.655351758 6369026.642706275 0 0 0 0 27125340.436737061 -14630462.644598603 0 -14630462.644598603 4952286.6861498356 0 0 0 0 33388501.566314697 -2218727.1944653392 0 -2218727.1944653392 -794708.35191935301 0 0 0 0 -20196182.368854523 -38122859.458484933 0 -38122859.458484933 -11215724.677140445 0 0 0 0 157845.49018595181 -197783.839715207 0 -197783.839715207 95128.88498559728 0 0 0 0 -24856935.13633728 -7112655.9872089922 0 -7112655.9872089922 -12509240.612355828 0 0 0 0 862961.26596736908 -36049938.686323687 0 -36049938.686323687 -17868388.485115498 0 0 0 0 9961710.4243011475 2099505.520204857 0 2099505.520204857 -18849732.721468747 0 0 0 0 -15704849.960113525 -12426860.446812361 0 -12426860.446812361 -15865491.708938241 0 0 0 0 19608660.487014771 -18432677.483818576 0 -18432677.483818576 -17068162.791826501 0 0 0 0 -1385658.8365650177 -22315891.563521333 0 -22315891.563521333 -10824588.828589261 0 0 0 0 9451764.8596725464 7130842.6752429828 0 7130842.6752429828 -13473643.023655772 0 0 0 0 14877484.801055908 6957856.0308196843 0 6957856.0308196843 -14127011.690290153 0 0 0 0 41831686.486953735 -61121164.080606766 0 -61121164.080606766 39134320.999164365 0 0 0 0 39549249.421722412 9600155.2356919162 0 9600155.2356919162 -16030099.180260431 0 0 0 0 108336505.35020447 -11101109.407333314 0 -11101109.407333314 -10505562.171114501 0 0 0 0 47297775.684951782 -36179131.51110743 0 -36179131.51110743 -7163167.4082192313 0 0 0 0 -11110135.843673706 -17542225.168143496 0 -17542225.168143496 -5836361.0847441657 0 0 0 0 -27816980.605751038 -41875926.955634415 0 -41875926.955634415 80313702.495013505 0 0 0 0 -5785752.2824554443 -33115450.320701733 0 -33115450.320701733 32798356.790415064 0 0 0 0 -35919673.611652374 -14256283.658561528 0 -14256283.658561528 46806662.879845195 0 0 0 0 -61826805.985671997 -7628552.4445337653 0 -7628552.4445337653 45831767.904239252 0 0 0 0 19786919.048290253 698946.79276669957 0 698946.79276669957 -25124661.997921251 0 0 0 0 96911.739661496133 -39039.776428221841 0 -39039.776428221841 2996.3983704890879 0 0 0 0 69401270.562896729 -34720433.581010461 0 -34720433.581010461 -90475.898672430849 0 0 0 0 -27534876.896179199 8832917.1009207554 0 8832917.1009207554 100517.85568454808 0 0 0 0 114524471.14251709 -32557721.183498859 0 -32557721.183498859 -65848552.500321642 0 0 0 0 -19570433.945976257 5772760.5735576861 0 5772760.5735576861 -16265562.669345081 0 0 0 0 233267.9275870733 -42910.578213296831 0 -42910.578213296831 -4898.16519964297 0 0 0 0 -8004454.9138298035 -9668562.6134181619 0 -9668562.6134181619 -20532.915956404227 0 0 0 0 44228.739467337728 -62195.427733222023 0 -62195.427733222023 46419.175982903718 0 0 0 0 -40594594.206775665 9237027.116400918 0 9237027.116400918 41212854.459035486 0 0 0 0 44008.512663940899 -43425.331660984084 0 -43425.331660984084 -9334.0207170639915 0 0 0 0 188984165.51470947 -13006534.872574568 0 -13006534.872574568 -60719531.471183002 0 0 0 0 119453483.58702087 -122976716.89076307 0 -122976716.89076307 81641134.281785846 0 0 0 0 49525564.260375977 33670204.479666233 0 33670204.479666233 6791335.2482812405 0 0 0 0 41201103.794960022 -43760676.303193882 0 -43760676.303193882 22924648.117227912 0 0 0 0 11336153.533576965 -559423.09541425109 0 -559423.09541425109 33002344.228769898 0 0 0 0 -62861456.17616725 18452557.892200328 0 18452557.892200328 37479003.892644435 0 0 0 0 -76166646.989257812 -97372027.392420083 0 -97372027.392420083 31883657.072955251 0 0 0 0 8625575.4328613281 -73309747.891067296 0 -73309747.891067296 33843703.162661433 0 0 0 0 -105493792.01327515 11427111.617549822 0 11427111.617549822 46510157.579071462 0 0 0 0 22799168.655044556 1800580.1344776154 0 1800580.1344776154 47232451.866152652 0 0 0 0 -26764864.083511353 -40434921.58476162 0 -40434921.58476162 56087601.691654623 0 0 0 0 5071595.3129119873 -19357098.586642802 0 -19357098.586642802 57117510.45200453 0 0 0 0 12426451.721805573 -20372547.430600092 0 -20372547.430600092 5785510.7940779328 0 0 0 0 -67298.32958984375 18058902.614238083 0 18058902.614238083 10358412.01788453 0 0 0 0 32736351.304489136 2883211.9117871225 0 2883211.9117871225 -30293636.462065339 0 0 0 0 42394894.752609253 -22296826.298545003 0 -22296826.298545003 -15501342.033590198 0 0 0 0 28866434.539901733 41395296.870758712 0 41395296.870758712 6213001.2750539184 0 0 0 0 139364.12333108205 -103595.73835402168 0 -103595.73835402168 -86833.380284569081 0 0 0 0 -13073229.873542786 6359381.272177279 0 6359381.272177279 1427912.6314496994 0 0 0 0 5890848.7180328369 -10679707.506739199 0 -10679707.506739199 55016695.72934866 0 0 0 0 41549656.690498352 35682924.403906733 0 35682924.403906733 -22084510.095846176 0 0 0 0 7267056.5276031494 810836.57937541604 0 810836.57937541604 14338082.116531312 0 0 0 0 3248834.133102417 -4843740.3262396157 0 -4843740.3262396157 -26583888.031144544 0 0 0 0 491246.75886219181 -315620.32484026439 0 -315620.32484026439 75530.504700134072 0 0 0 0 2780265.7828960419 3044718.8935902296 0 3044718.8935902296 -1788892.0131652355 0 0 0 0 2821632.9695587158 -66191978.041319251 0 -66191978.041319251 -55251100.594588995 0 0 0 0 21983159.00038147 22406618.93787396 0 22406618.93787396 -16500716.940666676 0 0 0 0 312057.33017570246 -227541.6721186433 0 -227541.6721186433 -276449.66146419279 0 0 0 0 566086.21431479044 -437084.21806299873 0 -437084.21806299873 118882.01461743412 0 0 0 0 638318.35952758789 712651.25949499011 0 712651.25949499011 -3927377.6296787262 0 0 0 0 3149006.6989536285 -2306284.7181449085 0 -2306284.7181449085 806351.77331209183 0 0 0 0 19067465.999481201 -3616714.1635094881 0 -3616714.1635094881 -12182805.415409744 0 0 0 0 15117824.062561035 4923582.3871079683 0 4923582.3871079683 14775472.231364846 0 0 0 0 20480219.830032349 9420260.6972113848 0 9420260.6972113848 1917308.8303329945 0 0 0 0 169933.41882558167 -89070.192205695435 0 -89070.192205695435 -171122.30205425248 0 0 0 0 13290742.832763672 5575379.2901630402 0 5575379.2901630402 2208721.4543569088 0 0 0 0 7951.0759429931641 -380987.80794602633 0 -380987.80794602633 -1184226.5852217674 0 0 0 0 -390036.31478881836 -858489.08853530884 0 -858489.08853530884 -923160.91392874718 0 0 0 0 15696874.555335999 3337768.4097756743 0 3337768.4097756743 1904252.5427725315 0 0 0 0 472074.22329437546 -109013.14380933717 0 -109013.14380933717 -524860.16501254519 0 0 0 0 14411311.782821655 6064591.9576101303 0 6064591.9576101303 -2418223.8269176483 0 0 0 0 5971280.5251159668 4991990.6096434593 0 4991990.6096434593 2331352.8367847204 0 0 0 0 14581346.6472826 4693801.9519015551 0 4693801.9519015551 -307920.44500398636 0 0 0 0 7169306.5739383698 3473783.7972703874 0 3473783.7972703874 -394124.81778812408 0 0 0 0 12196061.000526428 4841579.8147002459 0 4841579.8147002459 477256.53382110596 0 0 0 0 16322593.106079102 2456505.8683569431 0 2456505.8683569431 -1337996.6435049772 0 0 0 0 17218807.245040894 6107004.8579457998 0 6107004.8579457998 124923.69730472565 0 0 0 0 527969.98541259766 -8548978.1926896572 0 -8548978.1926896572 -73940985.921363354 0 0 0 0 534399.89038079605 -308561.15528223198 0 -308561.15528223198 -33014.588624303637 0 0 0 0 16068552.37689209 5006791.8006407022 0 5006791.8006407022 -743835.58893954754 0 0 0 0 15652091.090118408 6111543.6253684759 0 6111543.6253684759 846334.54409390688 0 0 0 0 12942859.994346619 11805797.190681756 0 11805797.190681756 9951432.857011795 0 0 0 0 13581753.368423462 3888254.748893261 0 3888254.748893261 4111351.4649989605 0 0 0 0 12821889.491387844 6394478.9982112423 0 6394478.9982112423 -306269.57335567474 0 0 0 0 -39328729.950611115 -60304149.432838678 0 -60304149.432838678 -23808803.200696468 0 0 0 0 52029283.231369019 22095343.775471926 0 22095343.775471926 1990590.3148297071 0 0 0 0 276626.60885363258 -160312.10472581163 0 -160312.10472581163 -7723.4472135641845 0 0 0 0 -47808802.980300903 -51780841.086875021 0 -51780841.086875021 3149030.0464506149 0 0 0 0 -50902524.036552429 -84006325.758941412 0 -84006325.758941412 -58513712.038587093 0 0 0 0 -76245754.203872681 -52282024.17419076 0 -52282024.17419076 34495632.4627406 0 0 0 0 35123601.446344376 -1450038.8910644948 0 -1450038.8910644948 -71117344.121639252 0 0 0 0 32262362.529205322 1514055.4055805206 0 1514055.4055805206 -128372.88752555847 0 0 0 0 135221428.19181824 -38648720.269609809 0 -38648720.269609809 6911388.4411773682 0 0 0 0 8103221.2814941406 -19098376.631226778 0 -19098376.631226778 -37534424.5131253 0 0 0 0 75656783.991043091 -72375919.15596211 0 -72375919.15596211 -64070120.150352955 0 0 0 0 -109269707.42032623 -111015202.49483132 0 -111015202.49483132 -73276238.034852028 0 0 0 0 138985.73192908801 -143152.78041006997 0 -143152.78041006997 -109175.49240805383 0 0 0 0 104771931.14627075 73096841.410053849 0 73096841.410053849 77263105.80647707 0 0 0 0 -4361136.3048820496 -24289270.133546293 0 -24289270.133546293 150451261.25331283 0 0 0 0 -12284898.248527527 6061168.5974211693 0 6061168.5974211693 50178808.680347085 0 0 0 0 -32206720.209060669 -33386326.146986008 0 -33386326.146986008 2068881.5835560113 0 0 0 0 -38771519.810710907 -42355407.822282195 0 -42355407.822282195 26510479.750296593 0 0 0 0 -32003491.514190674 -33560424.413752913 0 -33560424.413752913 -39173253.419591427 0 0 0 0 -31628444.861190796 -8356631.2825186253 0 -8356631.2825186253 -10947074.144240379 0 0 0 0 -40445199.12297821 -39299578.119689226 0 -39299578.119689226 4272324.2627248764 0 0 0 0 -45904966.665252686 -15839648.704960823 0 -15839648.704960823 9201117.50566113 0 0 0 0 -46411972.734466553 -19713797.65171051 0 -19713797.65171051 14891681.818351746 0 0 0 0 -45880082.465349197 -18122139.085016347 0 -18122139.085016347 6801403.5142264366 0 0 0 0 -52398615.0570755 -9542933.0273036957 0 -9542933.0273036957 29599800.854569912 0 0 0 0 -53868447.767087936 -3789959.4359802604 0 -3789959.4359802604 13945406.924752235 0 0 0 0 -35596500.764221191 -6541697.3031888008 0 -6541697.3031888008 13514456.250917196 0 0 0 0 -47424330.580284119 -14539148.079204082 0 -14539148.079204082 67864397.191881418 0 0 0 0 -19774894.753219604 35385591.337644339 0 35385591.337644339 49953885.658180594 0 0 0 0 -28295896.749404907 11921515.669997215 0 11921515.669997215 -10527625.476348877 0 0 0 0 -4403238.7758674622 49667251.259924591 0 49667251.259924591 21995961.257054806 0 0 0 0 29005.543844002153 32963.437296921387 0 32963.437296921387 -36760.349896097789 0 0 0 0 -471207.94967722893 -3732638.5361506324 0 -3732638.5361506324 -9657078.2799897194 0 0 0 0 -39877862.601081848 31112032.378472805 0 31112032.378472805 5231457.3963046074 0 0 0 0 -13478475.502471924 29538709.163166881 0 29538709.163166881 -21950659.379896641 0 0 0 0 -1036837.8732299805 951884.96691858768 0 951884.96691858768 -13568096.164504766 0 0 0 0 42485101.788467407 55018400.706399679 0 55018400.706399679 -83839749.824909031 0 0 0 0 10392364.604476929 -10147795.63544035 0 -10147795.63544035 -94873800.034415871 0 0 0 0 7834253.4507369995 30074134.063420177 0 30074134.063420177 14252721.335932732 0 0 0 0 6679217.3699197769 24330064.375387907 0 24330064.375387907 79606105.55905962 0 0 0 0 58068630.594070435 95387879.298982203 0 95387879.298982203 15151167.765136242 0 0 0 0 106556106.34396362 31164470.806939244 0 31164470.806939244 -7331688.6980727315 0 0 0 0 133854206.42497253 114456880.18315804 0 114456880.18315804 -33363364.053289443 0 0 0 0 93495700.611709595 84026619.275935233 0 84026619.275935233 -30437135.855675459 0 0 0 0 75603620.10766983 92268406.540744215 0 92268406.540744215 62280382.809169054 0 0 0 0 -53413.686505068094 17050.902521523647 0 17050.902521523647 -17929.95820144366 0 0 0 0 52276767.359741211 39188782.075496912 0 39188782.075496912 35115512.915846825 0 0 0 0 71242842.636367798 37541911.963980258 0 37541911.963980258 18444667.976450443 0 0 0 0 70788888.673789978 29554386.555897892 0 29554386.555897892 11666715.071243435 0 0 0 0 207120036.13903809 62014589.891170502 0 62014589.891170502 134552564.76093864 0 0 0 0 313481739.59934235 63206487.989258915 0 63206487.989258915 -51547056.348772645 0 0 0 0 63692832.603225708 33672474.357474685 0 33672474.357474685 22230272.09038949 0 0 0 0 -54296.07065702416 56291.230484964326 0 56291.230484964326 94883.797843543784 0 0 0 0 168555305.25408936 136809054.10387218 0 136809054.10387218 -10498658.61596328 0 0 0 0 100462215.89877319 -49413142.626034856 0 -49413142.626034856 -12467031.275360435 0 0 0 0 89837.494400210679 -143631.24274323601 0 -143631.24274323601 31162.148925736103 0 0 0 0 33933003.623146057 -33971158.35506317 0 -33971158.35506317 -6090742.8557289839 0 0 0 0 124962113.27489471 12187771.390138648 0 12187771.390138648 -53235983.537056103 0 0 0 0 -106358.93177183345 100992.97726175003 0 100992.97726175003 153531.9138664213 0 0 0 0 101165835.95473099 35396636.314153589 0 35396636.314153589 -39575716.74236922 0 0 0 0 100388768.62104034 31749712.877857089 0 31749712.877857089 -54282152.264565185 0 0 0 0 62355925.868041992 40971959.835333943 0 40971959.835333943 25742306.446582556 0 0 0 0 88788952.678272247 25154180.221875165 0 25154180.221875165 -26551911.508050755 0 0 0 0 65280476.383651733 1677639.1424173117 0 1677639.1424173117 -44468190.144799948 0 0 0 0 68943184.585571289 506796.7471049428 0 506796.7471049428 -56123911.698767662 0 0 0 0 54337206.373092651 24442492.59206523 0 24442492.59206523 32434779.252215683 0 0 0 0 46115871.067695618 10425800.81871663 0 10425800.81871663 19609807.561119705 0 0 0 0 19078378.163513184 22313130.16731292 0 22313130.16731292 38526614.621341348 0 0 0 0 25255202.899795532 3205949.3103573024 0 3205949.3103573024 17150032.251066655 0 0 0 0 60402570.291641235 22632294.551983505 0 22632294.551983505 24564710.620170355 0 0 0 0 61568109.264057159 31791620.582299218 0 31791620.582299218 11863716.11272049 0 0 0 0 78698868.852645874 46507555.277831614 0 46507555.277831614 17171699.05940938 0 0 0 0 59370194.175674438 38004629.60832262 0 38004629.60832262 17161133.295915842 0 0 0 0 77910345.051239014 28913509.936808497 0 28913509.936808497 18312308.217048407 0 0 0 0 66432824.835449219 38989644.453884423 0 38989644.453884423 15588440.493517399 0 0 0 0 58548428.527282715 30300654.695310831 0 30300654.695310831 15225992.974751234 0 0 0 0 57523105.599639893 33066387.07662791 0 33066387.07662791 8209984.8500528336 0 0 0 0 28749370.439117432 22079228.342457533 0 22079228.342457533 11454683.735351086 0 0 0 0 32839889.894134521 1159465.5927288532 0 1159465.5927288532 -2963483.7428543568 0 0 0 0 43004615.366607666 18732794.307256699 0 18732794.307256699 7539720.4072492123 0 0 0 0 54947145.031890869 23699770.484658241 0 23699770.484658241 -1316986.9973459244 0 0 0 0 49963841.645278931 30389217.799941242 0 30389217.799941242 15120805.64105773 0 0 0 0 52948897.678123474 32135848.084051043 0 32135848.084051043 33196124.312506795 0 0 0 0 -17640188.071158051 -5643005.9586654343 0 -5643005.9586654343 21793323.404536009 0 0 0 0 82021126.19631958 18046508.527688861 0 18046508.527688861 2394084.932636261 0 0 0 0 -52226.348650059983 158107.82927329838 0 158107.82927329838 11431.850832417869 0 0 0 0 72419029.688415527 40036520.861575127 0 40036520.861575127 8927831.6537950039 0 0 0 0 -301275.82895303145 404322.67647035047 0 404322.67647035047 -19442.954440139438 0 0 0 0 64845154.061706543 22108009.352020741 0 22108009.352020741 -33437829.751630783 0 0 0 0 428.51729683205485 15196.59458341077 0 15196.59458341077 -23535.097081141546 0 0 0 0 276984.84547315072 208285.55070913956 0 208285.55070913956 -549205.99323314568 0 0 0 0 458416.01863539219 134568.82698381692 0 134568.82698381692 -325328.78072166443 0 0 0 0 41972462.637527466 20703897.748161912 0 20703897.748161912 12251929.097090706 0 0 0 0 6289892.7322692871 14056317.999931931 0 14056317.999931931 17925701.84424901 0 0 0 0 508376.22153352201 -100545.83344209753 0 -100545.83344209753 -642177.74871301581 0 0 0 0 26350319.187103271 28538473.180320621 0 28538473.180320621 13764784.581394672 0 0 0 0 44772913.613647461 20293363.483663559 0 20293363.483663559 7507245.2499911785 0 0 0 0 53636589.131134033 29676886.732836962 0 29676886.732836962 17745131.541445524 0 0 0 0 43595516.226398468 24605570.673032805 0 24605570.673032805 14764098.538756609 0 0 0 0 54169654.25289917 29745395.687955856 0 29745395.687955856 14145198.26190877 0 0 0 0 42705324.140167236 18382758.138837218 0 18382758.138837218 17639729.51819241 0 0 0 0 41946479.014434814 27404548.821975946 0 27404548.821975946 26556153.762333095 0 0 0 0 62585441.788848877 36438521.794329882 0 36438521.794329882 19191830.581690788 0 0 0 0 1046044.3663924932 198583.92876830511 0 198583.92876830511 440288.16189098358 0 0 0 0 112431.46709000066 28304.281387841329 0 28304.281387841329 -102945.21917126596 0 0 0 0 12183.590695690364 104439.75079639722 0 104439.75079639722 -240881.21356006007 0 0 0 0 -2287278.5944988728 4752690.1125492761 0 4752690.1125492761 -8686183.2151567936 0 0 0 0 -27433.241020025685 479074.03229264915 0 479074.03229264915 -479005.69298952818 0 0 0 0 109309.79595947266 -85712.335701942444 0 -85712.335701942444 950155.48112586886 0 0 0 0 968804.07427978516 -312703.87984085083 0 -312703.87984085083 958310.3488528505 0 0 0 0 3365971.8054504395 5053091.5712410212 0 5053091.5712410212 4586816.1060307622 0 0 0 0 -5273920.831817627 -799776.4509049654 0 -799776.4509049654 8299921.7355837822 0 0 0 0 -138839.39932250977 -6852822.7586855888 0 -6852822.7586855888 6017050.2659463882 0 0 0 0 31254790.286079407 15456483.449303389 0 15456483.449303389 -16821314.845237732 0 0 0 0 6510610.338394165 -29946346.523301601 0 -29946346.523301601 -21346457.20011425 0 0 0 0 -49084062.078460693 -11581848.339540482 0 -11581848.339540482 7271338.2506217957 0 0 0 0 -22523619.949115753 48530693.76533401 0 48530693.76533401 -31380410.148953438 0 0 0 0 -1278719.8635787964 -10948685.876881599 0 -10948685.876881599 752270.2453289032 0 0 0 0 1233744.7707214355 -639340.98734474182 0 -639340.98734474182 267574.69190788269 0 0 0 0 1057187.7903900146 374146.86879348755 0 374146.86879348755 -512931.45529079437 0 0 0 0 1053122.0584564209 -36654.043115615845 0 -36654.043115615845 -280946.86399745941 0 0 0 0 948003.97358703613 -160275.21855163574 0 -160275.21855163574 -358603.91626119614 0 0 0 0 70549.431938827038 -29663.498080773279 0 -29663.498080773279 -53121.768996626604 0 0 0 0 33544849.654998779 6735966.603246212 0 6735966.603246212 -2672884.3044333458 0 0 0 0 196270.6928691864 227239.27209812962 0 227239.27209812962 -641006.27326108632 0 0 0 0 -68595.270470201969 528807.88498304226 0 528807.88498304226 -870095.11011119734 0 0 0 0 424894.11222839355 137448.01939034462 0 137448.01939034462 -290518.64060020447 0 0 0 0 -241649.14548869058 527968.16261165217 0 527968.16261165217 -531722.32818555878 0 0 0 0 -2861262.4361724854 10045117.956949055 0 10045117.956949055 -2288014.2372024059 0 0 0 0 576191.65489387512 -4233674.894640103 0 -4233674.894640103 -12396671.387074947 0 0 0 0 3520935.8056640625 12875449.316457272 0 12875449.316457272 -1366430.8281874657 0 0 0 0 10997665.153226852 17347817.334261362 0 17347817.334261362 32919026.265058089 0 0 0 0 2552175.2181396484 19092460.723165631 0 19092460.723165631 41674723.687023997 0 0 0 0 1578328.4927558899 4829987.7179676518 0 4829987.7179676518 23034960.393529892 0 0 0 0 -3951818.3664054871 1914093.3702306449 0 1914093.3702306449 39831618.15413022 0 0 0 0 -491576.67251586914 5587582.0712347031 0 5587582.0712347031 22828905.167565748 0 0 0 0 10372895.438400269 12103577.350064099 0 12103577.350064099 -4605766.3609187603 0 0 0 0 6768.6283599585295 812636.90853048861 0 812636.90853048861 -1644038.9518254313 0 0 0 0 295360.03546539322 179231.99467391241 0 179231.99467391241 -549236.8439365197 0 0 0 0 -109248935.23031616 16602.607962608337 0 16602.607962608337 -758655.20563197136 0 0 0 0 -123341634.04547119 66502395.668838501 0 66502395.668838501 -38694577.696745872 0 0 0 0 -192643672.23832703 107425126.1033771 0 107425126.1033771 -22414782.645971298 0 0 0 0 -102030722.04978943 -168936425.81239223 0 -168936425.81239223 49217805.008896828 0 0 0 0 2000822.3164672852 -123766810.02973461 0 -123766810.02973461 5443324.4000654221 0 0 0 0 -245245986.06320953 -6016492.4638137817 0 -6016492.4638137817 130300818.25167274 0 0 0 0 60910259.951065063 -72684762.126589909 0 -72684762.126589909 -10425202.207383856 0 0 0 0 27813997.515670776 -1371929.2389253974 0 -1371929.2389253974 21424354.390471429 0 0 0 0 131978.63198852539 -5728927.8349482119 0 -5728927.8349482119 28802166.354657382 0 0 0 0 14323556.134975433 5310520.0121112131 0 5310520.0121112131 37072438.536277771 0 0 0 0 33987.756195068359 10139992.245243251 0 10139992.245243251 53635028.995873868 0 0 0 0 -5989950.8415374756 -8090519.3073163331 0 -8090519.3073163331 66237847.337562747 0 0 0 0 253842352.4078064 187102961.82904005 0 187102961.82904005 70343938.051938057 0 0 0 0 61842119.519048691 72511237.530486822 0 72511237.530486822 27147658.925348282 0 0 0 0 158927424.85997009 106296210.2083025 0 106296210.2083025 -2010185.6328926086 0 0 0 0 143393421.90174866 -56439000.464313507 0 -56439000.464313507 -47114045.996531487 0 0 0 0 80188865.111915588 -240288130.68037701 0 -240288130.68037701 132198405.3278265 0 0 0 0 419410572.51493835 -44071240.292787075 0 -44071240.292787075 -48436902.048083663 0 0 0 0 908005379.9604454 -145626688.52100635 0 -145626688.52100635 -218902924.85706091 0 0 0 0 130315580.12432861 195458095.33173704 0 195458095.33173704 392158051.03416777 0 0 0 0 46418947.17804718 -7880295.5322651863 0 -7880295.5322651863 -99279005.570690155 0 0 0 0 -233768610.61804199 103836953.86089611 0 103836953.86089611 198283526.49581242 0 0 0 0 -84006.604285563342 12988.101933032274 0 12988.101933032274 562832.73956042319 0 0 0 0 -120652516.41934967 50978371.39309144 0 50978371.39309144 59808851.626047134 0 0 0 0 24229408.198059082 125817909.69329119 0 125817909.69329119 96882134.999478817 0 0 0 0 -18171155.724472046 27120883.018175602 0 27120883.018175602 -32538173.210268259 0 0 0 0 255941581.92002869 135419045.6046834 0 135419045.6046834 64749584.3357535 0 0 0 0 -38037093.121856689 61567098.192539215 0 61567098.192539215 -41470718.817582607 0 0 0 0 135616.45682097226 -16167.285390900448 0 -16167.285390900448 -276654.28774689813 0 0 0 0 -249984233.38515472 84239901.977831841 0 84239901.977831841 144786890.8606348 0 0 0 0 337223686.33196259 102458551.2228508 0 102458551.2228508 -391712180.07591438 0 0 0 0 251120291.42625427 -200383242.85142374 0 -200383242.85142374 126260308.43573475 0 0 0 0 70420862.973693848 89879980.419455528 0 89879980.419455528 -23151656.49066925 0 0 0 0 71801221.120391846 -70616060.038529873 0 -70616060.038529873 -46172172.552500725 0 0 0 0 438959.92697887914 165455.41693103872 0 165455.41693103872 -892826.84483404236 0 0 0 0 -107137396.74816895 23934053.522128105 0 23934053.522128105 48575574.93672657 0 0 0 0 233502819.43837738 -18251356.187345505 0 -18251356.187345505 -32924420.495645523 0 0 0 0 484491164.82487869 -111603558.5292784 0 -111603558.5292784 -55946746.572696686 0 0 0 0 -64842.822657108307 424849.78552695736 0 424849.78552695736 1570580.1373883309 0 0 0 0 -58928989.612632751 43639975.648888946 0 43639975.648888946 -55041115.438834906 0 0 0 0 196714783.7197876 -54828630.308749199 0 -54828630.308749199 68979558.92965126 0 0 0 0 218701234.20849609 16835492.795970917 0 16835492.795970917 18664212.258151054 0 0 0 0 195424285.40263367 -15401571.018055439 0 -15401571.018055439 -25981313.989400864 0 0 0 0 202800130.64624023 11905608.283956528 0 11905608.283956528 -30064230.58359623 0 0 0 0 213532333.4214592 -31498733.313094914 0 -31498733.313094914 -32514757.772640228 0 0 0 0 96651741.701454163 -23405450.148882389 0 -23405450.148882389 3533694.9042987823 0 0 0 0 217431512.27162552 -19756659.383183718 0 -19756659.383183718 -32445560.645152092 0 0 0 0 189000038.65762329 -57879868.012167215 0 -57879868.012167215 2693856.9929952621 0 0 0 0 281252.25755282305 695722.3501924891 0 695722.3501924891 -192815.99076721049 0 0 0 0 -3640893.192199707 -6301740.3051338196 0 -6301740.3051338196 -17347551.050179482 0 0 0 0 80383178.706049919 39920718.641481757 0 39920718.641481757 -17462900.615496635 0 0 0 0 68042437.797355652 -13436353.045756817 0 -13436353.045756817 -24473618.041852951 0 0 0 0 132799308.83317566 47744872.114108086 0 47744872.114108086 -11692300.78445363 0 0 0 0 274012.35349152982 920008.30673299171 0 920008.30673299171 -423420.46831218421 0 0 0 0 2269535.6534118652 -1932969.6073414087 0 -1932969.6073414087 -906590.26589822769 0 0 0 0 -569447.13447570801 -3059911.0085976124 0 -3059911.0085976124 -1217306.6573986411 0 0 0 0 706520.14097595215 330682.54932069778 0 330682.54932069778 565337.41198325157 0 0 0 0 -1589457.2134857178 -217040.86318612099 0 -217040.86318612099 504286.09604084492 0 0 0 0 -7065694.96459198 17759906.194199562 0 17759906.194199562 -20499245.535148621 0 0 0 0 7384848.5079345703 1394548.742754221 0 1394548.742754221 -10011900.180152416 0 0 0 0 426673.54895692691 587368.27972472087 0 587368.27972472087 -1454732.6911568015 0 0 0 0 53697378.450256348 -62608449.497323513 0 -62608449.497323513 72775799.415755272 0 0 0 0 50797714.601348877 15470579.987801313 0 15470579.987801313 -50159927.497745514 0 0 0 0 -4260061.1160736084 -8835049.541993618 0 -8835049.541993618 -18928341.616265535 0 0 0 0 -11174067.693374634 5952409.7625172138 0 5952409.7625172138 -17432900.452070951 0 0 0 0 -29924436.077255249 -13719629.674780369 0 -13719629.674780369 5844758.4544379711 0 0 0 0 36989525.65467453 -36897682.568353087 0 -36897682.568353087 -536030.40470170975 0 0 0 0 -31320044.347991943 -10950506.079437017 0 -10950506.079437017 4113347.3393418789 0 0 0 0 77906.774729043245 -43053.669609263539 0 -43053.669609263539 -2167.1398186529987 0 0 0 0 -27606775.409744263 74340247.81566143 0 74340247.81566143 44775821.769400597 0 0 0 0 21803277.534576416 37782229.587087154 0 37782229.587087154 5768836.8004074097 0 0 0 0 361346.51622772217 2204959.2809904218 0 2204959.2809904218 30226412.611858368 0 0 0 0 41523229.917266846 42073727.94624567 0 42073727.94624567 -4886372.6052875519 0 0 0 0 323000.98224327574 443207.25318928994 0 443207.25318928994 -1418642.9143816431 0 0 0 0 34252577.579589844 14092447.664522409 0 14092447.664522409 -17704824.209614336 0 0 0 0 -27111643.979873657 -9406388.3345495462 0 -9406388.3345495462 40744218.737727165 0 0 0 0 21781594.928421021 -11864814.990707874 0 -11864814.990707874 2639676.4682254791 0 0 0 0 25703898.864095688 2881150.0395969152 0 2881150.0395969152 9385808.3813972473 0 0 0 0 280363279.23814392 49206400.987119198 0 49206400.987119198 202457.22556781769 0 0 0 0 439539446.85623932 -6485895.9791750908 0 -6485895.9791750908 -109675113.42796326 0 0 0 0 304951259.8999939 58289401.478107929 0 58289401.478107929 -133391412.98876381 0 0 0 0 27379510.866500854 60790809.913035393 0 60790809.913035393 26461810.30507946 0 0 0 0 312154580.26198578 -112656187.84776878 0 -112656187.84776878 -25490322.989429712 0 0 0 0 -4682038.9859008789 40115547.04379034 0 40115547.04379034 16336486.784589767 0 0 0 0 120355.11351624504 220999.4249991253 0 220999.4249991253 -45342.514263139805 0 0 0 0 5805248.8758850098 -8825707.6439027786 0 -8825707.6439027786 -17891733.736047745 0 0 0 0 46335917.014831543 12754341.460065842 0 12754341.460065842 -10232559.107074738 0 0 0 0 -10847671.248291016 613505.48281502724 0 613505.48281502724 1671630.7113785744 0 0 0 0 287516663.99613619 84174248.528497458 0 84174248.528497458 -37431025.625844002 0 0 0 0 54561.104737674817 2044785.9095569449 0 2044785.9095569449 2057447.6129773937 0 0 0 0 -148727361.91176605 20653534.228107929 0 20653534.228107929 99031426.892940521 0 0 0 0 81627648.991409302 -91008084.755746841 0 -91008084.755746841 82797788.806079388 0 0 0 0 258038877.57841492 231903837.62516975 0 231903837.62516975 -161201140.31568718 0 0 0 0 -1188785.0938990684 171162.91367479227 0 171162.91367479227 2927670.075649797 0 0 0 0 -3735335.7065353394 3765833.354477644 0 3765833.354477644 3362674.282319501 0 0 0 0 -8657644.2288894653 5130864.8749125004 0 5130864.8749125004 4939669.5144176483 0 0 0 0 -4465186.0777206421 1366671.7015924454 0 1366671.7015924454 4158376.0904740691 0 0 0 0 10042692.91746521 8059711.9195623398 0 8059711.9195623398 1746854.8614320755 0 0 0 0 10638966.257857323 15986350.921309128 0 15986350.921309128 2516024.9620256424 0 0 0 0 1153837.0174631812 427966.85429130029 0 427966.85429130029 -1810846.0614944147 0 0 0 0 17066273.636310577 6414856.6623055935 0 6414856.6623055935 -3576516.6837482452 0 0 0 0 4028117.2775440216 14330297.409639597 0 14330297.409639597 4176057.6973876953 0 0 0 0 -9565511.3047790527 9323921.4578447342 0 9323921.4578447342 1954440.1893525124 0 0 0 0 -1064828.7111587524 4968114.1546912193 0 4968114.1546912193 1668722.5635372251 0 0 0 0 -14464255.261558533 10273518.103973031 0 10273518.103973031 -2918428.6426048279 0 0 0 0 -8960633.7769851685 5484239.6144912243 0 5484239.6144912243 -422967.31412148476 0 0 0 0 -2136990.3642559052 20467675.962751865 0 20467675.962751865 -12683277.669322968 0 0 0 0 31569849.213943481 19776467.072758585 0 19776467.072758585 -14343686.425109744 0 0 0 0 -39428812.571987152 -3504904.5621393621 0 -3504904.5621393621 -7164509.6205384731 0 0 0 0 -15314282.652524948 43280756.219899982 0 43280756.219899982 -3108603.1522357464 0 0 0 0 11903795.921211243 -668655.6692160964 0 -668655.6692160964 -33781733.130741715 0 0 0 0 -3193655.2980499268 -3934004.8376088142 0 -3934004.8376088142 -3096478.7791926861 0 0 0 0 4439289.6914329529 12325481.581772208 0 12325481.581772208 1895927.8466520309 0 0 0 0 -22845442.353096008 2582112.8033610582 0 2582112.8033610582 3523809.728705287 0 0 0 0 583284.4355305722 756378.26924546249 0 756378.26924546249 -346619.78003477002 0 0 0 0 -445712.97287703957 1629137.3176156674 0 1629137.3176156674 4011068.2099599782 0 0 0 0 44997242.352615356 62042764.811934948 0 62042764.811934948 9526325.7483038902 0 0 0 0 253791032.16801071 -17397928.152849913 0 -17397928.152849913 -34421046.176136971 0 0 0 0 -95799.219941515476 1042722.9006155655 0 1042722.9006155655 2725761.1252517942 0 0 0 0 -15260680.790252686 5476867.767963171 0 5476867.767963171 9563052.60689044 0 0 0 0 -17126772.694236755 11466417.082731605 0 11466417.082731605 -5311001.5827360153 0 0 0 0 -8655603.4954223633 17181367.942311645 0 17181367.942311645 -1476173.7977536321 0 0 0 0 -60218394.262191772 49740197.84395504 0 49740197.84395504 -17643445.173144519 0 0 0 0 21423268.741287231 59863731.728129625 0 59863731.728129625 -36868121.720563531 0 0 0 0 -8190895.0297031403 16533542.15086171 0 16533542.15086171 -34258206.542924404 0 0 0 0 3432746.4342403412 -36351035.600421622 0 -36351035.600421622 -62042083.081526041 0 0 0 0 434025.60906362161 -178317.93295683712 0 -178317.93295683712 -429499.37333873921 0 0 0 0 76507564.140655518 50854911.587109089 0 50854911.587109089 -62946206.56622754 0 0 0 0 10451701.920974731 14585920.558446646 0 14585920.558446646 -65861522.00579524 0 0 0 0 146725928.63594055 -19563170.141849339 0 -19563170.141849339 -174706477.28896737 0 0 0 0 8397047.1548309326 4175527.5878968239 0 4175527.5878968239 8420592.4639673233 0 0 0 0 -2407375.1182250977 13837354.80767417 0 13837354.80767417 991121.13166236877 0 0 0 0 6105932.6212463379 934866.68561637402 0 934866.68561637402 6706948.2238855362 0 0 0 0 293291.45501749218 607544.94412602577 0 607544.94412602577 -211706.19600681221 0 0 0 0 -11733672.115753174 12540367.685437679 0 12540367.685437679 13966132.475175858 0 0 0 0 -37429033.230194092 38060241.798427105 0 38060241.798427105 -12906988.007188797 0 0 0 0 -19028363.105255127 15219921.051921844 0 15219921.051921844 13796816.9009552 0 0 0 0 -18914934.572738647 2335681.1576051712 0 2335681.1576051712 9023649.413125515 0 0 0 0 -658145.54217529297 10909291.444410801 0 10909291.444410801 12265502.98596859 0 0 0 0 -1067425.9601995945 36028.362007975578 0 36028.362007975578 11668186.890135765 0 0 0 0 -39874380.623100281 13350725.558660269 0 13350725.558660269 50228720.650723457 0 0 0 0 6178107.7425870895 4936838.5913960785 0 4936838.5913960785 13320731.69615078 0 0 0 0 6940611.6566009521 16285949.404123783 0 16285949.404123783 33132420.892829895 0 0 0 0 14493840.878986359 18401320.744029999 0 18401320.744029999 22578455.935206413 0 0 0 0 13138131.751701355 19058770.5933218 0 19058770.5933218 23731096.863014698 0 0 0 0 17274296.171348572 40216733.814846516 0 40216733.814846516 29477574.716258049 0 0 0 0 25213517.903022766 25917338.744110107 0 25917338.744110107 23408957.984452248 0 0 0 0 56098553.497873306 84948352.0616678 0 84948352.0616678 78268427.287208557 0 0 0 0 7704167.6709518433 11190221.413098812 0 11190221.413098812 10411953.182960987 0 0 0 0 5730205.0858311653 3829933.5196249187 0 3829933.5196249187 5740778.1661157608 0 0 0 0 10855426.759063721 9814985.4128837585 0 9814985.4128837585 12240888.600035667 0 0 0 0 6282099.7542495728 11409450.427576542 0 11409450.427576542 12784210.110531807 0 0 0 0 5079364.9520187378 7713289.8706016541 0 7713289.8706016541 2020874.6681358814 0 0 0 0 7361341.7456703186 3153482.6250721216 0 3153482.6250721216 7789873.5344104767 0 0 0 0 9250361.1972961426 6496304.4024553299 0 6496304.4024553299 7147726.7388329506 0 0 0 0 -3461316.4096412659 3429959.8647556305 0 3429959.8647556305 8151587.5802946091 0 0 0 0 33301379.875282288 -8305325.336135745 0 -8305325.336135745 -3916246.0784704685 0 0 0 0 675278.67587959766 1132235.5677601811 0 1132235.5677601811 -168708.77090815388 0 0 0 0 9105171.6019744873 2048359.6081062555 0 2048359.6081062555 -1214528.942303896 0 0 0 0 26861214.360786438 8978095.6475737691 0 8978095.6475737691 -48428145.763459206 0 0 0 0 -180548351.11354065 -45916120.916780233 0 -45916120.916780233 92563149.311325192 0 0 0 0 -94970775.221351624 924686.0551225543 0 924686.0551225543 16350514.746947885 0 0 0 0 -55168275.161314011 57052199.182448491 0 57052199.182448491 -34799529.357808471 0 0 0 0 7378228.501739502 -843245.65542343259 0 -843245.65542343259 10828907.728849411 0 0 0 0 40492059.590536118 20291088.573700011 0 20291088.573700011 -36688108.968720913 0 0 0 0 35151547.526573181 26711148.656089664 0 26711148.656089664 -6441841.9101834297 0 0 0 0 412724.90687596425 317444.6425235318 0 317444.6425235318 -200065.77609373239 0 0 0 0 23549472.878173828 20201682.862081051 0 20201682.862081051 20074257.91604805 0 0 0 0 163808170.68099976 87581604.01514633 0 87581604.01514633 633321.30973237008 0 0 0 0 45408767.771881104 -18113604.852124572 0 -18113604.852124572 -44994291.949225157 0 0 0 0 4751599.6940994263 1598536.3751578331 0 1598536.3751578331 550645.96248304844 0 0 0 0 931861.72301310673 731299.24768888345 0 731299.24768888345 -216680.97516972121 0 0 0 0 700387.42604446411 9902530.5734467506 0 9902530.5734467506 7032115.3243675232 0 0 0 0 4304609.70703125 1591913.5178790092 0 1591913.5178790092 630986.449239254 0 0 0 0 14475320.803123474 -3587407.5929465294 0 -3587407.5929465294 3537660.0509877205 0 0 0 0 6315954.2947769165 1699724.5231061578 0 1699724.5231061578 1164473.1504712105 0 0 0 0 -2973062.4462890625 6906389.7645440102 0 6906389.7645440102 -1267605.4204068184 0 0 0 0 1405617.3686303794 1938901.7389737165 0 1938901.7389737165 34394.025311888545 0 0 0 0 1813155.7472381592 -517019.30565977097 0 -517019.30565977097 -863635.17440772057 0 0 0 0 283083.14407608286 116879.71924803592 0 116879.71924803592 17509.582337160595 0 0 0 0 4672698.7070770264 1574567.3850717545 0 1574567.3850717545 449896.79534959793 0 0 0 0 1283379.3929236222 1422984.25752973 0 1422984.25752973 1474456.5487262174 0 0 0 0 5126833.3978815079 -7844050.6457861066 0 -7844050.6457861066 12688912.089635134 0 0 0 0 5220626.3456573486 9211284.4211773872 0 9211284.4211773872 54137725.782151893 0 0 0 0 5057955.8857650757 4133263.1510543823 0 4133263.1510543823 1225505.3509454727 0 0 0 0 -2675754.3491435051 1876664.2106903493 0 1876664.2106903493 5148817.604429245 0 0 0 0 1731575687.8541183 -717812365.87012494 0 -717812365.87012494 40858030.740019083 0 0 0 0 1234113545.8617973 -794754961.5673182 0 -794754961.5673182 254271628.71730059 0 0 0 0 1572415507.2529831 -597067134.28483117 0 -597067134.28483117 -49149496.116958261 0 0 0 0 842998.33479434531 -31876.150116956793 0 -31876.150116956793 -445530.85831590823 0 0 0 0 10528398.844860077 10951406.958939791 0 10951406.958939791 1114604.5863047838 0 0 0 0 1164743248.0766907 -616707299.42016912 0 -616707299.42016912 93862722.72063823 0 0 0 0 17061281.11831665 -3816936.6062039733 0 -3816936.6062039733 -3711865.8780779839 0 0 0 0 4258556.4419736546 456805.24258950399 0 456805.24258950399 -27926.479591185809 0 0 0 0 4167681.6411743164 1309777.257004261 0 1309777.257004261 404783.40353989601 0 0 0 0 -8312833.396484375 748820.22420167923 0 748820.22420167923 -263260.62203043699 0 0 0 0 4381315.6242980957 1446509.6481542587 0 1446509.6481542587 618531.13850975037 0 0 0 0 4654902.8316345215 2409196.7529640198 0 2409196.7529640198 1589523.7762980461 0 0 0 0 2057099.1643218994 1423335.0158486366 0 1423335.0158486366 1332995.5651137829 0 0 0 0 1416971.3565026429 819358.73676644079 0 819358.73676644079 1340367.0726256478 0 0 0 0 675350792.54299164 -516482638.97476852 0 -516482638.97476852 802425431.20204735 0 0 0 0 1218912.5096931458 2591373.2691147327 0 2591373.2691147327 2706946.7845392227 0 0 0 0 2202495532.6845055 -1334636892.9699759 0 -1334636892.9699759 292638472.91624457 0 0 0 0 1064786271.9017181 -1093916048.1425641 0 -1093916048.1425641 494584839.95429176 0 0 0 0 1593534784.4557571 -1039627211.4754375 0 -1039627211.4754375 417897352.80434 0 0 0 0 1869924.5201971959 -50445.511588121764 0 -50445.511588121764 -1012049.2202734875 0 0 0 0 561003327.75483513 -1227802628.8142543 0 -1227802628.8142543 1745554711.0709324 0 0 0 0 1664264.5894231964 1330744.4359034686 0 1330744.4359034686 463570.90299361612 0 0 0 0 2198351865.1937637 150920.69036561332 0 150920.69036561332 -527811.01796440233 0 0 0 0 2223375.1108016968 28341323.390115559 0 28341323.390115559 971518638.7746588 0 0 0 0 660172.00120077282 27226.254481031559 0 27226.254481031559 466031.91184512188 0 0 0 0 587320243.35381317 1020411988.5602957 0 1020411988.5602957 917072791.8846159 0 0 0 0 1210129.7729567867 1288360.3124187619 0 1288360.3124187619 -39304.336825267877 0 0 0 0 2728501.679397583 3337124.9445886612 0 3337124.9445886612 2803786.5634782016 0 0 0 0 5291169.5467987061 2013012.6198251247 0 2013012.6198251247 748900.82155513763 0 0 0 0 5022145.4804840088 2726147.9343094826 0 2726147.9343094826 1309605.1376450062 0 0 0 0 2202100664.7445316 1040280337.3639446 0 1040280337.3639446 -46713935.418712042 0 0 0 0 1868318702.4425793 641031801.41851532 0 641031801.41851532 35325614.42340716 0 0 0 0 688470.43352432735 -28679.895001164638 0 -28679.895001164638 -595029.11731208244 0 0 0 0 -15172072.303039551 -32019222.594192505 0 -32019222.594192505 -26744214.290326834 0 0 0 0 25918491.022407532 7204371.6781212091 0 7204371.6781212091 -17401271.264451027 0 0 0 0 29380603.779350281 4445619.0818111897 0 4445619.0818111897 -15463690.754034042 0 0 0 0 1260129.7303169444 56218.631814200431 0 56218.631814200431 -1339300.1719309546 0 0 0 0 16497390.195640564 3725019.2268257141 0 3725019.2268257141 -15378854.212246895 0 0 0 0 1303578334.5255089 254870562.70005322 0 254870562.70005322 -15480263.665996358 0 0 0 0 200559130.17127287 -177307519.28023767 0 -177307519.28023767 37372585.479207695 0 0 0 0 205287945.33269119 66767293.670012861 0 66767293.670012861 19607061.006656699 0 0 0 0 1023835188.6800613 278812265.71358919 0 278812265.71358919 -17293089.188285023 0 0 0 0 1232045477.7147522 55468213.675116308 0 55468213.675116308 -25329872.241222829 0 0 0 0 1344475441.6281443 344180914.14664441 0 344180914.14664441 -97878643.868150398 0 0 0 0 1941363251.6124263 435920409.03171819 0 435920409.03171819 -122237297.44176713 0 0 0 0 1690279545.3024826 399496051.54300153 0 399496051.54300153 -95162641.738461807 0 0 0 0 -4992580.5091953278 -418212105.02534068 0 -418212105.02534068 620374802.46519518 0 0 0 0 804105.85928357206 526205.61728151306 0 526205.61728151306 -231156.41234911091 0 0 0 0 1491858584.1953354 -746794207.46311259 0 -746794207.46311259 94837005.347249985 0 0 0 0 1374076695.5392075 -1234732972.3451672 0 -1234732972.3451672 720181910.15075588 0 0 0 0 155370812.30446625 -212614614.20125985 0 -212614614.20125985 475286378.43393183 0 0 0 0 943222935.31381989 -260715306.44518995 0 -260715306.44518995 -128903685.39228845 0 0 0 0 276006811.58625984 -449737590.6359762 0 -449737590.6359762 121240471.84150457 0 0 0 0 206336228.95891571 -376787329.87418842 0 -376787329.87418842 726101322.35900128 0 0 0 0 602374444.08858109 -818653263.29841852 0 -818653263.29841852 829720136.83989048 0 0 0 0 566544364.91560364 -790600131.38720739 0 -790600131.38720739 944009799.07047558 0 0 0 0 492041289.79610443 -880880999.37545681 0 -880880999.37545681 1011204289.9255977 0 0 0 0 1456794547.8702774 -1643872008.5253768 0 -1643872008.5253768 1484723131.492681 0 0 0 0 1904181453.1848297 -1359539043.547816 0 -1359539043.547816 662002536.23359632 0 0 0 0 2256148782.1139793 -1854975005.4334643 0 -1854975005.4334643 810014957.14281583 0 0 0 0 2206216382.7539902 -1201503407.4154809 0 -1201503407.4154809 732873394.61178935 0 0 0 0 2957430443.8399048 -548912910.55923474 0 -548912910.55923474 1288380096.4069033 0 0 0 0 2099143922.7553196 -1175531381.5192389 0 -1175531381.5192389 993173348.83925128 0 0 0 0 1985853385.8734741 -1456588191.6033487 0 -1456588191.6033487 463972557.04613805 0 0 0 0 1803088217.7539635 -1261776215.997035 0 -1261776215.997035 1198870877.3289132 0 0 0 0 2496461183.0717945 -1231922688.9962044 0 -1231922688.9962044 646738847.50776839 0 0 0 0 1595122136.0746746 -1448220863.0964661 0 -1448220863.0964661 1199164538.3818953 0 0 0 0 2057873288.4591637 -1206815358.4319649 0 -1206815358.4319649 -31654425.213260919 0 0 0 0 1055106526.3140564 -258199018.56256175 0 -258199018.56256175 24913770.368620157 0 0 0 0 444398689.83570099 654747163.80372012 0 654747163.80372012 1214103802.9756155 0 0 0 0 674343.91782543436 134576.54280152847 0 134576.54280152847 1988663.2543239584 0 0 0 0 426768171.50981379 711557658.70121384 0 711557658.70121384 502570861.1965065 0 0 0 0 174618277.15255737 317512623.09339714 0 317512623.09339714 326443383.12795639 0 0 0 0 384369857.01006126 160376050.00127602 0 160376050.00127602 -194332295.96913719 0 0 0 0 482325112.59058857 468602034.33761907 0 468602034.33761907 151540911.08892822 0 0 0 0 -83524120.707111359 678867788.14017916 0 678867788.14017916 1409496009.7909651 0 0 0 0 66376950.362560272 471938884.13050842 0 471938884.13050842 582539942.01466751 0 0 0 0 221727566.75855637 376190911.88549614 0 376190911.88549614 295775062.94073486 0 0 0 0 -215143791.6709547 278506517.80995369 0 278506517.80995369 805573919.0987339 0 0 0 0 -216532014.92988014 295057729.50608158 0 295057729.50608158 795976824.67170191 0 0 0 0 -81942116.127051353 139588430.98150444 0 139588430.98150444 303309253.74022675 0 0 0 0 13961039.900543213 136538871.08156395 0 136538871.08156395 187900542.66952133 0 0 0 0 -3006764.376159668 261663926.92995644 0 261663926.92995644 490060081.12994862 0 0 0 0 72626606.168945312 121281269.77000189 0 121281269.77000189 180007739.47535706 0 0 0 0 16078300.613859177 12921869.476867676 0 12921869.476867676 65869760.525726318 0 0 0 0 -12797596.841623783 -4683422.4581489563 0 -4683422.4581489563 106922704.46221161 0 0 0 0 -2382006.8662643433 93966877.757152557 0 93966877.757152557 313085391.74876118 0 0 0 0 -14723294.752688408 -14580823.437542442 0 -14580823.437542442 32965889.129667997 0 0 0 0 57094622.994522095 126495196.69805838 0 126495196.69805838 55590830.905685738 0 0 0 0 2198294.6470220354 -2537.5351364016533 0 -2537.5351364016533 5069233.195149241 0 0 0 0 -268302137.26646614 -61019498.750076294 0 -61019498.750076294 113354759.17730713 0 0 0 0 10752887.352823257 -151923350.82755852 0 -151923350.82755852 -40920165.824866295 0 0 0 0 -80039484.468603134 -80393595.86306572 0 -80393595.86306572 -26283931.344291687 0 0 0 0 4657235.6629278753 -557772.01830906235 0 -557772.01830906235 7123622.9962924905 0 0 0 0 31487763.436285019 28143897.499180309 0 28143897.499180309 -14172984.720324099 0 0 0 0 -46320651.493963242 20885297.814121246 0 20885297.814121246 -33940021.861152649 0 0 0 0 -20564849.218727112 -73821656.55512619 0 -73821656.55512619 -55094506.28932333 0 0 0 0 -14946666.80712986 -9904058.9925093651 0 -9904058.9925093651 108242701.30828857 0 0 0 0 -52128817.113759518 14424159.333886147 0 14424159.333886147 90259891.436141968 0 0 0 0 -33597997.921678543 -79658403.083070755 0 -79658403.083070755 16732933.279840469 0 0 0 0 13327370.345297664 -1720668.8772586952 0 -1720668.8772586952 2897250.8522190661 0 0 0 0 22792386.419265747 15102753.626758575 0 15102753.626758575 -11436036.384168625 0 0 0 0 12973597.495416284 -52748749.193799973 0 -52748749.193799973 -112600866.32423973 0 0 0 0 6077074.8187923431 4513972.7431128323 0 4513972.7431128323 9589801.4584685564 0 0 0 0 3465670.646476062 1880345.6042818045 0 1880345.6042818045 2028254.5292804958 0 0 0 0 3403992.9490490532 1693312.2113463068 0 1693312.2113463068 3106358.026442253 0 0 0 0 -6264104.2790298462 -39470454.727050781 0 -39470454.727050781 -26617743.03855896 0 0 0 0 7666906.8811263172 -930368.40195966046 0 -930368.40195966046 4326001.0347441621 0 0 0 0 1089388.5729675293 343055.39660644531 0 343055.39660644531 -785151.22239685059 0 0 0 0 6605524.2761040628 168937.55635847617 0 168937.55635847617 318266.65095661161 0 0 0 0 5758387.4674492627 1858942.3855457788 0 1858942.3855457788 3193579.1561711873 0 0 0 0 -86514.048843383789 -2836.5035667419434 0 -2836.5035667419434 1565434.2545928955 0 0 0 0 5260806.4954337664 642896.5668143048 0 642896.5668143048 5047746.5865936391 0 0 0 0 -52203.784479141235 -466446.50238418579 0 -466446.50238418579 1373760.5411949158 0 0 0 0 311848975.81440735 169978804.71571586 0 169978804.71571586 -12439601.764899705 0 0 0 0 2258660.0203354927 1237708.5476766343 0 1237708.5476766343 4457887.3755699042 0 0 0 0 62943175.706817627 15494386.507177204 0 15494386.507177204 -29061965.538419969 0 0 0 0 -39998079.067008018 25033786.241866134 0 25033786.241866134 15111144.538569868 0 0 0 0 2575967.8469069819 1843583.8661580971 0 1843583.8661580971 -903098.66129790409 0 0 0 0 2909958.750936667 -19710.225316683762 0 -19710.225316683762 1662634.6913482645 0 0 0 0 -93249996.221967697 163461673.26255274 0 163461673.26255274 -243060363.3402195 0 0 0 0 35786239.51776123 -54216201.112066425 0 -54216201.112066425 9964818.2357978784 0 0 0 0 3235447.7714557648 -9739932.6421156637 0 -9739932.6421156637 226448179.38860622 0 0 0 0 -128710972.5055809 115550139.1311394 0 115550139.1311394 643138767.51887894 0 0 0 0 140079670.50961876 365520433.61224735 0 365520433.61224735 -77480948.263497829 0 0 0 0 2202636637.851717 -628969968.85957813 0 -628969968.85957813 -153882191.59974375 0 0 0 0 2352045297.5768242 -1162218475.5474739 0 -1162218475.5474739 1454328366.9764674 0 0 0 0 2362229114.6167793 21118687.334478915 0 21118687.334478915 -119810591.85855296 0 0 0 0 957799.05844106991 -162270.49073419557 0 -162270.49073419557 758005.55326011661 0 0 0 0 294855365.54357529 -702487488.01427937 0 -702487488.01427937 1416225787.0003448 0 0 0 0 956895.28011856601 787813.02280551475 0 787813.02280551475 3759354.8774386407 0 0 0 0 1645820661.5190716 -1022445887.7121781 0 -1022445887.7121781 392343563.72729856 0 0 0 0 168783572.66272545 141705857.55683884 0 141705857.55683884 107556149.14721268 0 0 0 0 704863904.61719513 1189387276.9060791 0 1189387276.9060791 1274529237.0280771 0 0 0 0 2201286085.579689 954154325.19459784 0 954154325.19459784 -103017953.46913871 0 0 0 0 33698661.359592438 59435496.320946008 0 59435496.320946008 192260900.60912019 0 0 0 0 294956840.46700668 125987613.22209337 0 125987613.22209337 166499844.19874501 0 0 0 0 513046369.68891144 445724365.70460039 0 445724365.70460039 345341141.88528806 0 0 0 0 441645562.2087574 -14514522.084336158 0 -14514522.084336158 -83911389.150155127 0 0 0 0 1313882976.4111519 409364329.68477523 0 409364329.68477523 -157007935.11185575 0 0 0 0 654182025.34975433 294430721.67165786 0 294430721.67165786 -74653306.545530498 0 0 0 0 765540875.05793381 149703393.57955426 0 149703393.57955426 -149707923.00390095 0 0 0 0 2205164324.1346741 374328252.3933779 0 374328252.3933779 -480940645.44530857 0 0 0 0 1309321586.3131523 518784597.77614021 0 518784597.77614021 -291015075.84126461 0 0 0 0 1380077714.331459 -58330145.501195371 0 -58330145.501195371 -447759593.33408022 0 0 0 0 850155270.11366463 -133819092.09978265 0 -133819092.09978265 -145140374.14010048 0 0 0 0 1289889934.5492859 240311215.15253544 0 240311215.15253544 -205205531.30382854 0 0 0 0 1251322198.3707733 -622307560.56532454 0 -622307560.56532454 90801340.850475118 0 0 0 0 586378731.42067909 29788353.084960863 0 29788353.084960863 2402385.4247675538 0 0 0 0 2204402986.1982231 -243069128.76248974 0 -243069128.76248974 -434670191.45839465 0 0 0 0 1303012716.78022 -508867470.59464335 0 -508867470.59464335 -58611819.990492254 0 0 0 0 3852891.1925621033 4339007.7383544445 0 4339007.7383544445 6524096.9544677734 0 0 0 0 12192173.620491028 11786402.070993423 0 11786402.070993423 6855070.8842525482 0 0 0 0 1088653.0863334481 1519519.1682601767 0 1519519.1682601767 2951702.6225612229 0 0 0 0 1036972.5851325989 4367443.872013092 0 4367443.872013092 6719034.7209882736 0 0 0 0 344603980.84964752 -179449335.48903707 0 -179449335.48903707 61757509.976953126 0 0 0 0 6999821.1201171875 4538336.7710633278 0 4538336.7710633278 2057895.2000188828 0 0 0 0 15780182.701019287 11092854.353440285 0 11092854.353440285 5074799.8734798431 0 0 0 0 15559670.635719299 11937005.355236888 0 11937005.355236888 3796035.3570289612 0 0 0 0 26056021.738853455 18551556.620464325 0 18551556.620464325 7889794.5452518463 0 0 0 0 3728466.8652191162 1022216.3791203499 0 1022216.3791203499 6948219.4434070587 0 0 0 0 280330248.32548523 74290640.413159996 0 74290640.413159996 105918108.05921817 0 0 0 0 1542128.7385041029 1447786.1104938835 0 1447786.1104938835 4138467.7687940658 0 0 0 0 34071931.303173065 -5251320.7777886391 0 -5251320.7777886391 389169.73435974121 0 0 0 0 17042365.793403625 7633731.2266836166 0 7633731.2266836166 3579539.8258790672 0 0 0 0 2017340.7931082747 717194.88510044385 0 717194.88510044385 190768.99173013307 0 0 0 0 10896524.724700928 14847604.622205734 0 14847604.622205734 12221173.142799377 0 0 0 0 25517052.917747498 5154203.3018369675 0 5154203.3018369675 -519110.35292804241 0 0 0 0 2804631.6561070881 1495056.9601076329 0 1495056.9601076329 4933113.1508671381 0 0 0 0 4956092.7448064461 2885538.9508063993 0 2885538.9508063993 -736662.3541807821 0 0 0 0 17350389.772190094 5383227.2043777704 0 5383227.2043777704 5354799.889257431 0 0 0 0 13360322.196403503 12258728.113288879 0 12258728.113288879 14573182.190038681 0 0 0 0 1474127.3432472274 859527.49307263317 0 859527.49307263317 -218670.18411579821 0 0 0 0 -1752538.6990585327 3624593.1671562195 0 3624593.1671562195 8079049.5574731827 0 0 0 0 33683627.78968811 40520871.412337303 0 40520871.412337303 13530839.597703695 0 0 0 0 22348585.309638977 5816635.2749459743 0 5816635.2749459743 -2750881.5490207672 0 0 0 0 10611737.215812683 19541863.3745327 0 19541863.3745327 -13605298.570778847 0 0 0 0 17237203.393295288 28149144.700752258 0 28149144.700752258 12462604.787546158 0 0 0 0 11616237.549608231 7096587.4831497669 0 7096587.4831497669 4503597.6798210144 0 0 0 0 15391283.546204567 13168841.315928519 0 13168841.315928519 4884576.0631141663 0 0 0 0 22599205.6927948 17355503.110239983 0 17355503.110239983 6667245.2367897034 0 0 0 0 12112366.23588562 11539569.563036919 0 11539569.563036919 7969645.3390754461 0 0 0 0 23501653.944368839 25141974.116090417 0 25141974.116090417 12818827.388824463 0 0 0 0 16923962.85559845 19142182.526668549 0 19142182.526668549 11639201.176412106 0 0 0 0 11791014.57047081 18288892.435394645 0 18288892.435394645 21183960.331707001 0 0 0 0 19080610.205154419 20210380.886279106 0 20210380.886279106 10923178.949550629 0 0 0 0 9209712.1028652191 10557696.555630326 0 10557696.555630326 9115756.0052528381 0 0 0 0 18064028.25472641 18231083.364429951 0 18231083.364429951 11520797.913825989 0 0 0 0 54492396.006378174 28381868.836120605 0 28381868.836120605 9010004.3707180023 0 0 0 0 36343356.210571289 29732121.213569641 0 29732121.213569641 8956746.8265228271 0 0 0 0 80631394.4584198 62204603.672132492 0 62204603.672132492 27644942.716430783 0 0 0 0 35402812.526412964 29055288.788723946 0 29055288.788723946 19190809.786071062 0 0 0 0 19087094.255021483 22229114.493566245 0 22229114.493566245 19806163.664632797 0 0 0 0 28730049.782577515 22376646.893679619 0 22376646.893679619 12479790.880335093 0 0 0 0 35907701.447036743 15677407.766541481 0 15677407.766541481 13487189.81668663 0 0 0 0 80813642.026115417 4876538.4547843933 0 4876538.4547843933 -2992291.459113121 0 0 0 0 75960400.239250183 12800150.092080593 0 12800150.092080593 -6992660.1170825958 0 0 0 0 37715963.265815735 -3130614.1969718933 0 -3130614.1969718933 15251567.308109283 0 0 0 0 61916521.757125854 -194243.07736968994 0 -194243.07736968994 2473523.0102233887 0 0 0 0 30806004.839820862 17864165.194894791 0 17864165.194894791 6201182.6905193329 0 0 0 0 16420813.706573486 14328766.72953701 0 14328766.72953701 7443863.2506389618 0 0 0 0 12057974.670799255 -1195200.127737999 0 -1195200.127737999 -33733306.984862328 0 0 0 0 21219358.154968262 27572834.473003387 0 27572834.473003387 -5612984.9700489044 0 0 0 0 30359892.700593948 759341.7910399437 0 759341.7910399437 -26028381.958368301 0 0 0 0 4652705.6096801758 14126467.586504936 0 14126467.586504936 -27844964.73307991 0 0 0 0 -53419349.128178596 86161379.758493423 0 86161379.758493423 -71339908.782730103 0 0 0 0 163465364.11462402 180926531.88962364 0 180926531.88962364 71429091.022871017 0 0 0 0 81824175.209844589 60809391.936086655 0 60809391.936086655 -69130005.550458908 0 0 0 0 273712771.16682434 -37396510.69836235 0 -37396510.69836235 -104123211.28331959 0 0 0 0 -50287907.638183117 53636552.184932709 0 53636552.184932709 -96804965.597400665 0 0 0 0 119888457.49830556 -81231164.835859895 0 -81231164.835859895 87905764.746040344 0 0 0 0 177081504.82722855 13570716.682507515 0 13570716.682507515 -436597074.97802544 0 0 0 0 20149556.063138254 -1044369.2746751318 0 -1044369.2746751318 -317832.02082385262 0 0 0 0 31809179.484470367 14379686.491742134 0 14379686.491742134 -70912287.086730957 0 0 0 0 16897293.271938451 -1351651.7419926506 0 -1351651.7419926506 958477.76411697117 0 0 0 0 34219507.572113991 -193595271.72918892 0 -193595271.72918892 -94361577.302974701 0 0 0 0 33111459.490890503 7172321.0145368576 0 7172321.0145368576 -46850912.965513229 0 0 0 0 107816197.40140602 -30238470.507949829 0 -30238470.507949829 -351049073.81394219 0 0 0 0 -43399463.679699525 -87913228.07019043 0 -87913228.07019043 -20080242.709587097 0 0 0 0 37623886.972031593 -73710910.730600357 0 -73710910.730600357 -20305053.362008929 0 0 0 0 -50216126.805088043 -141914043.25535107 0 -141914043.25535107 225821799.0078907 0 0 0 0 73606349.631540298 -83600046.428033829 0 -83600046.428033829 -53382136.557920456 0 0 0 0 18337441.520960808 -164675350.63463306 0 -164675350.63463306 204320139.58112717 0 0 0 0 143624422.21692467 -205687167.91698074 0 -205687167.91698074 202367506.00437546 0 0 0 0 -95648134.882740691 -192790481.31695223 0 -192790481.31695223 601050733.27038574 0 0 0 0 -91566450.806480169 -160069649.54107904 0 -160069649.54107904 505223337.68795013 0 0 0 0 57724133.068476677 -311833520.69068146 0 -311833520.69068146 574858438.67394066 0 0 0 0 -68639802.917119503 -36146852.13286972 0 -36146852.13286972 266069413.58661222 0 0 0 0 -70050731.586111188 -7157134.7228498459 0 -7157134.7228498459 403192678.49545288 0 0 0 0 -271033072.87133932 -71150890.729598999 0 -71150890.729598999 605695090.91574693 0 0 0 0 -101099640.81113631 164332236.25461173 0 164332236.25461173 532067109.59555817 0 0 0 0 -420985082.59430313 245729913.61143589 0 245729913.61143589 1040524029.0100508 0 0 0 0 -284709488.42943573 93016118.170982361 0 93016118.170982361 646703316.77178192 0 0 0 0 -274391233.5282467 41757727.085829973 0 41757727.085829973 898318782.60066605 0 0 0 0 -559978560.93514538 76783754.902091026 0 76783754.902091026 894922362.33655977 0 0 0 0 -370471499.14599895 -110500247.91919518 0 -110500247.91919518 937279486.50963545 0 0 0 0 -197734955.52283764 -251299576.61420536 0 -251299576.61420536 1000116882.2058029 0 0 0 0 -451451699.41603518 -96432719.701635838 0 -96432719.701635838 1046834579.4809532 0 0 0 0 -357297714.78492498 -264226352.67735386 0 -264226352.67735386 1402688518.0120201 0 0 0 0 1189994382.2946682 -133403009.79205418 0 -133403009.79205418 161913677.1200428 0 0 0 0 -96302232.903953552 -549233382.25340557 0 -549233382.25340557 1711901673.923769 0 0 0 0 600686502.5042057 -953378766.0339241 0 -953378766.0339241 1240811769.8820705 0 0 0 0 361771926.52174187 -607786928.76248932 0 -607786928.76248932 748619380.79982758 0 0 0 0 169141192.35096169 258902026.97100115 0 258902026.97100115 256380196.43177795 0 0 0 0 475583920.52566338 -1171124469.4307842 0 -1171124469.4307842 -330541946.22787094 0 0 0 0 219886380.41318989 90075798.77036953 0 90075798.77036953 240534682.25604057 0 0 0 0 218414274.27025509 38907167.282193184 0 38907167.282193184 101353811.51375198 0 0 0 0 579691505.18616486 -23242437.342107773 0 -23242437.342107773 79665282.843029022 0 0 0 0 271277489.99534225 -386175766.01427841 0 -386175766.01427841 450434870.21896172 0 0 0 0 54455288.068423033 -299005397.00769281 0 -299005397.00769281 560869246.00812531 0 0 0 0 -80544109.76700592 9705564.6658267975 0 9705564.6658267975 39424857.040927887 0 0 0 0 -39535169.505458832 20142841.652002335 0 20142841.652002335 16509424.309070587 0 0 0 0 19911549.319318771 192351158.94450903 0 192351158.94450903 236398873.49774933 0 0 0 0 -149743235.77392578 47804203.516958237 0 47804203.516958237 114130857.42499185 0 0 0 0 -115491224.90562057 -146898237.90670443 0 -146898237.90670443 -117366537.85549355 0 0 0 0 687343.98622575402 -1255897.0821206535 0 -1255897.0821206535 485336.51452122466 0 0 0 0 -297356230.20539665 -62818171.931839943 0 -62818171.931839943 251150612.48789793 0 0 0 0 -38048338.095394135 -16467576.221801758 0 -16467576.221801758 46333831.552178383 0 0 0 0 1212570.2858771607 298721.29836725863 0 298721.29836725863 -56821.878008084837 0 0 0 0 -36142510.038819313 -12613190.961570501 0 -12613190.961570501 -2912643.04637146 0 0 0 0 302625165.09736633 54736424.450500488 0 54736424.450500488 -310299571.10559273 0 0 0 0 -7414019.3576698303 -15333187.033763885 0 -15333187.033763885 -13415637.088254929 0 0 0 0 101333922.04015732 -54439058.486726761 0 -54439058.486726761 -202581576.47506714 0 0 0 0 -91617664.061542511 -104932078.43377304 0 -104932078.43377304 -104205314.11133575 0 0 0 0 742538.45397920476 -119857.27320604445 0 -119857.27320604445 -220200.04389196634 0 0 0 0 252138497.89364624 -222417890.32405853 0 -222417890.32405853 -313705247.08733368 0 0 0 0 -583102.98350123689 -1370033.2439497998 0 -1370033.2439497998 481306.41526651685 0 0 0 0 41283167.6461339 -400281501.93779802 0 -400281501.93779802 254588510.67532921 0 0 0 0 -195793949.69284439 53383676.128595829 0 53383676.128595829 245355004.7484169 0 0 0 0 8903908.7857394069 -1310898.452854753 0 -1310898.452854753 -133397.33801947348 0 0 0 0 449744536.96580696 872579942.7784481 0 872579942.7784481 970074783.4860611 0 0 0 0 291746546.21971512 366507733.71600342 0 366507733.71600342 195158914.54237366 0 0 0 0 -9611300.8285522461 3746152.9258270264 0 3746152.9258270264 7126746.8021240234 0 0 0 0 -1548599.1727485657 8385577.8317050934 0 8385577.8317050934 1829069.2935791016 0 0 0 0 -11908634.829963684 14559845.609817505 0 14559845.609817505 7205489.1500434875 0 0 0 0 -28855191.842468262 4565630.9222698212 0 4565630.9222698212 9098181.044883728 0 0 0 0 16082659.947658574 -3059165.0301713999 0 -3059165.0301713999 -2332743.7032976989 0 0 0 0 -22791946.293094635 19316176.154777527 0 19316176.154777527 5783990.2788562775 0 0 0 0 18874696.426647186 14996541.069909096 0 14996541.069909096 -23688493.03852272 0 0 0 0 -257027338.54372215 -181139939.03337526 0 -181139939.03337526 -84221492.884435654 0 0 0 0 317355863.01756954 139442961.44318962 0 139442961.44318962 -134056170.62458038 0 0 0 0 782035211.50928497 384153705.0122757 0 384153705.0122757 -251844329.99913788 0 0 0 0 273633233.74578094 -15101697.46647644 0 -15101697.46647644 -377163240.40706158 0 0 0 0 99493524.126815796 -486643023.34027672 0 -486643023.34027672 -454784029.36442184 0 0 0 0 1039794356.9262085 -192877473.18983078 0 -192877473.18983078 -893812411.42700958 0 0 0 0 85113955.238536835 14124575.362321854 0 14124575.362321854 -167924715.65803909 0 0 0 0 195647113.63137436 -37601921.388716698 0 -37601921.388716698 -225813643.51952934 0 0 0 0 193135010.40674591 -42709367.911390781 0 -42709367.911390781 -233374169.92776489 0 0 0 0 5044573.2316652006 -1257606.3745336151 0 -1257606.3745336151 -2536522.3554409584 0 0 0 0 49219782.561899185 -51447662.301638603 0 -51447662.301638603 -212194640.60570908 0 0 0 0 -15520014.502307892 6833695.8106665611 0 6833695.8106665611 1885997.8992061615 0 0 0 0 16390419.761621175 -2370554.4056832353 0 -2370554.4056832353 -1745331.5611252107 0 0 0 0 18611303.418888386 183583.19496119197 0 183583.19496119197 -3669843.5258948626 0 0 0 0 8740085.5451965332 -689862.13506031036 0 -689862.13506031036 -3304181.5761241317 0 0 0 0 25671538.053015314 -220197.44709909381 0 -220197.44709909381 -3721722.436512399 0 0 0 0 28963188.31640625 -11737585.549213409 0 -11737585.549213409 -42944545.741971374 0 0 0 0 1135640.7283535004 37052851.088010788 0 37052851.088010788 -50854289.527679443 0 0 0 0 22988391.302746981 -6305300.8437217772 0 -6305300.8437217772 -4279353.6556058936 0 0 0 0 -30281116.986841202 42110438.362715721 0 42110438.362715721 -9292825.7539615631 0 0 0 0 -21350890.928115845 25124393.742509842 0 25124393.742509842 16574486.865687072 0 0 0 0 -15924513.421785355 166140336.04516792 0 166140336.04516792 92921735.77615881 0 0 0 0 -27758398.412146926 64415838.420848846 0 64415838.420848846 -51726762.314502716 0 0 0 0 23020832.476419333 -746137.24639844615 0 -746137.24639844615 -1622572.317948116 0 0 0 0 46821003.011497498 -8575342.3804206848 0 -8575342.3804206848 -83965083.422177613 0 0 0 0 63892379.934095383 109442225.10326576 0 109442225.10326576 -232198439.91030079 0 0 0 0 32776510.321159363 12150058.346511841 0 12150058.346511841 -41161303.215269089 0 0 0 0 54038129.05078125 -24990453.93866539 0 -24990453.93866539 -21135962.151450157 0 0 0 0 25092487.788246155 -34648103.192779541 0 -34648103.192779541 -15446773.312389374 0 0 0 0 19865521.851203918 -31578295.670470238 0 -31578295.670470238 -7686320.8508758545 0 0 0 0 24146114.292160034 -23928777.970168114 0 -23928777.970168114 -1103453.2474269867 0 0 0 0 4437387.6200561523 -19794844.393997192 0 -19794844.393997192 46040825.659227371 0 0 0 0 50416324.9271698 -52403492.23031044 0 -52403492.23031044 19914736.274568558 0 0 0 0 133605.57467685267 -273263.2828267226 0 -273263.2828267226 -309905.97558499966 0 0 0 0 27069723.540054321 -1042493.3184928298 0 -1042493.3184928298 -4556316.7518343329 0 0 0 0 4054145.9299685694 -2571955.3772433987 0 -2571955.3772433987 -2533546.8997744685 0 0 0 0 70887464.386505127 169761.32671546936 0 169761.32671546936 5694315.2710018158 0 0 0 0 120264607.01933289 -42826771.93794632 0 -42826771.93794632 15577356.738956451 0 0 0 0 89469531.513442993 -52138267.189426422 0 -52138267.189426422 44028294.025276184 0 0 0 0 62422545.260040283 21703.023215293884 0 21703.023215293884 1928653.9552650452 0 0 0 0 123176002.17094421 -34685114.786049843 0 -34685114.786049843 15939675.444385529 0 0 0 0 -2675121.4025878906 16818160.525771141 0 16818160.525771141 -57370563.599092484 0 0 0 0 118998943.95628357 -52686066.350394011 0 -52686066.350394011 14054279.487110138 0 0 0 0 420322.45890888385 74429.920490161516 0 74429.920490161516 -516338.0984796877 0 0 0 0 42958172.388832092 5342444.6825612187 0 5342444.6825612187 -7918033.8441461474 0 0 0 0 1597359.8817000613 1237731.6212751847 0 1237731.6212751847 -4459330.4385498185 0 0 0 0 -14217567.122797966 -49652890.81651634 0 -49652890.81651634 -62081517.889017105 0 0 0 0 59598164.536453247 -37563511.246909142 0 -37563511.246909142 -93294046.133670807 0 0 0 0 -3578757.5252609253 18034295.455722332 0 18034295.455722332 -58594400.414520264 0 0 0 0 98904937.405158997 52161750.145026445 0 52161750.145026445 -48944554.283277512 0 0 0 0 115407130.98843384 16577737.792571068 0 16577737.792571068 -35606465.550798416 0 0 0 0 104601349.21359253 36994553.389515877 0 36994553.389515877 -74178702.827568531 0 0 0 0 49870062.26594162 6967132.2881369293 0 6967132.2881369293 -33244402.685334384 0 0 0 0 1219403.4512634277 41646338.762341648 0 41646338.762341648 -37854086.637442827 0 0 0 0 38652382.448654175 -20560741.689642102 0 -20560741.689642102 -9330616.1770237088 0 0 0 0 1828544.5253180889 -334512.35376087949 0 -334512.35376087949 -82606.118498159078 0 0 0 0 24115433.434741974 22396832.075877488 0 22396832.075877488 -97354803.614519358 0 0 0 0 436179.59708234482 1117769.8938287124 0 1117769.8938287124 -2823590.1097229039 0 0 0 0 4154388.9595632553 67218299.71109499 0 67218299.71109499 -78018929.83272922 0 0 0 0 -9960023.4286499023 103031461.69019175 0 103031461.69019175 -148942237.88766313 0 0 0 0 -57707938.008323669 56723605.697919965 0 56723605.697919965 -18018058.524793983 0 0 0 0 12311795.520652771 -5458904.760738045 0 -5458904.760738045 61546526.575548112 0 0 0 0 42400578.376604557 -4435816.2928929105 0 -4435816.2928929105 -10908872.987394989 0 0 0 0 5415523.6315536499 23061584.240364432 0 23061584.240364432 -27371077.22268784 0 0 0 0 -10966852.1277771 12129394.582570732 0 12129394.582570732 -9973834.4452323914 0 0 0 0 6431712.5927467346 10301576.313615382 0 10301576.313615382 -13169289.879153252 0 0 0 0 9075552.7409667969 5803554.9404629469 0 5803554.9404629469 -11528023.595415115 0 0 0 0 13193910.178314209 7434071.8982143402 0 7434071.8982143402 -14693724.346337318 0 0 0 0 6548721.2998880502 -2093425.345625082 0 -2093425.345625082 -26454.817139397695 0 0 0 0 21480871.486293793 -14223214.822356105 0 -14223214.822356105 1444843.523704052 0 0 0 0 25365446.52824688 -12920674.633764271 0 -12920674.633764271 -11361402.063972771 0 0 0 0 24857830.501159668 -26099214.633728027 0 -26099214.633728027 3270520.3453826904 0 0 0 0 7870254.832186887 -4067047.2152007855 0 -4067047.2152007855 -4931761.5834699199 0 0 0 0 28521462.761257172 -27532192.997647285 0 -27532192.997647285 -12656699.551357269 0 0 0 0 10682323.335906982 -19795058.557380676 0 -19795058.557380676 1443873.9361572266 0 0 0 0 -553829.58165471256 -976372.99414166785 0 -976372.99414166785 131549.72467058897 0 0 0 0 8063942.6712493896 24716993.395920515 0 24716993.395920515 -702641.60418570042 0 0 0 0 10009417.113220215 9155894.8548902273 0 9155894.8548902273 -14115528.361396074 0 0 0 0 4840734.5635350905 4113795.66949437 0 4113795.66949437 -3769597.7521011662 0 0 0 0 21251085.316612244 1511690.2241140008 0 1511690.2241140008 -39332262.752377316 0 0 0 0 14326284.100582123 15248614.736247569 0 15248614.736247569 -20774103.018648028 0 0 0 0 3634327.5969238281 45733869.949359342 0 45733869.949359342 39695019.413772337 0 0 0 0 41769849.579082489 -2929594.8568926454 0 -2929594.8568926454 -47772722.04120858 0 0 0 0 1799580.5631825402 700658.58867014339 0 700658.58867014339 -1001136.6429423175 0 0 0 0 -2942108.0142288208 -7200727.630359292 0 -7200727.630359292 -15171582.689631939 0 0 0 0 44955388.362457275 -48427952.50497067 0 -48427952.50497067 -45262746.604653895 0 0 0 0 24667401.579025269 -53374196.178455204 0 -53374196.178455204 -39244055.38313365 0 0 0 0 -80350.260572565719 65710.80663835071 0 65710.80663835071 92214.135607529912 0 0 0 0 86319105.479324341 54899807.352282733 0 54899807.352282733 18021795.315996505 0 0 0 0 80613882.344741821 29802342.131223351 0 29802342.131223351 -18869707.956900328 0 0 0 0 72331715.712043762 2683133.3535797 0 2683133.3535797 -70817263.823317945 0 0 0 0 144406941.87674713 -6211997.7606472373 0 -6211997.7606472373 -70328780.942112744 0 0 0 0 33462211.793571472 -5600475.6029857397 0 -5600475.6029857397 -51312555.083068997 0 0 0 0 30223952.951511383 -32999158.318494961 0 -32999158.318494961 -41678217.741130948 0 0 0 0 74882810.255813599 -8528947.8287084103 0 -8528947.8287084103 -37081546.213399991 0 0 0 0 81297990.91904068 -31272641.749469161 0 -31272641.749469161 -52706183.6641469 0 0 0 0 73659808.02633667 -24982077.245991468 0 -24982077.245991468 -42910002.774612769 0 0 0 0 -4330831.3366851807 52733613.368164241 0 52733613.368164241 -29243473.022356927 0 0 0 0 237851287.87388611 -64788086.708178997 0 -64788086.708178997 -45690849.805262506 0 0 0 0 211425858.17675781 104747957.12308949 0 104747957.12308949 -20057706.11904788 0 0 0 0 229699297.6340065 -204701111.49049714 0 -204701111.49049714 -163319934.65900588 0 0 0 0 286328270.40371704 48207944.855659366 0 48207944.855659366 -14430754.058815956 0 0 0 0 506930.2675319016 90475.798896030057 0 90475.798896030057 -210895.86366409375 0 0 0 0 53025519.380241394 -71325065.770918369 0 -71325065.770918369 18766021.717383385 0 0 0 0 90735859.992889404 171686807.12102938 0 171686807.12102938 201550583.30676782 0 0 0 0 6819516.6611938477 40757871.201141477 0 40757871.201141477 124673648.31661654 0 0 0 0 74683830.413635254 80662261.948534489 0 80662261.948534489 -52549912.760217428 0 0 0 0 -15384620.363769531 -2962588.9870809577 0 -2962588.9870809577 -88526305.606008485 0 0 0 0 -35140481.237089157 -243942436.0020496 0 -243942436.0020496 -62689255.545568228 0 0 0 0 5128025.4932789318 2259578.2280837176 0 2259578.2280837176 -1835557.8202577028 0 0 0 0 -112868483.7744751 -29745845.564577788 0 -29745845.564577788 -31381723.961667597 0 0 0 0 4937926.0366636124 1315259.426161129 0 1315259.426161129 -1611498.1728292312 0 0 0 0 17160326.325134277 -87786539.780607224 0 -87786539.780607224 -69355340.789399624 0 0 0 0 21880980.46919607 -4039533.802689753 0 -4039533.802689753 59856.190749284142 0 0 0 0 16849981.560500741 -17224610.060406685 0 -17224610.060406685 43217134.567696571 0 0 0 0 20375597.026641846 -2738831.3710918427 0 -2738831.3710918427 -40912489.798154116 0 0 0 0 -18155435.23135376 34757928.766812123 0 34757928.766812123 -277250911.55219138 0 0 0 0 16461391.162535347 9274367.4571752213 0 9274367.4571752213 -9350026.7880754769 0 0 0 0 33400962.204156876 10593131.35266304 0 10593131.35266304 79674761.684841156 0 0 0 0 31546186.963920593 21178331.702155113 0 21178331.702155113 -36928740.941265106 0 0 0 0 6706893.0620274544 2667369.1490521431 0 2667369.1490521431 28357386.826455116 0 0 0 0 -7667773.703994751 38267036.232500076 0 38267036.232500076 -31291764.639983416 0 0 0 0 31878738.069065094 -4604354.3195285797 0 -4604354.3195285797 8455958.0279846191 0 0 0 0 22950803.198449612 35541621.088454485 0 35541621.088454485 -10015672.387485504 0 0 0 0 27071589.734279633 27879617.764645576 0 27879617.764645576 -30295528.754745483 0 0 0 0 -6399913.049697876 25731267.615459442 0 25731267.615459442 589822.61844730377 0 0 0 0 24312840.311660912 2305570.8865251723 0 2305570.8865251723 -927970.28678826464 0 0 0 0 41090016.917102814 -849029.65313768387 0 -849029.65313768387 3175279.4091148376 0 0 0 0 27987352.590612411 38578807.552124023 0 38578807.552124023 4813582.9385871887 0 0 0 0 61831879.010787964 49110741.280121088 0 49110741.280121088 -132475483.54830359 0 0 0 0 62622513.576957703 -19428226.068937302 0 -19428226.068937302 10035226.303743124 0 0 0 0 65513140.040771484 15774842.546525955 0 15774842.546525955 -3578651.276058197 0 0 0 0 2799283.5244093155 1499015.5086324816 0 1499015.5086324816 -2119914.4326701304 0 0 0 0 8255641.7505264282 32781035.357078552 0 32781035.357078552 13269302.809969902 0 0 0 0 35902783.507369041 41062911.376524448 0 41062911.376524448 -10008509.016119003 0 0 0 0 25861663.706121992 -1184309.6681412833 0 -1184309.6681412833 -931396.36166313593 0 0 0 0 44833100.569213867 -20367439.463592529 0 -20367439.463592529 -60160302.42217809 0 0 0 0 53473110.432815552 37176973.729734421 0 37176973.729734421 -106586700.82537079 0 0 0 0 25537511.585792542 23691804.003141403 0 23691804.003141403 -52578784.25422892 0 0 0 0 12716663.445198059 100907751.47356415 0 100907751.47356415 49428612.417833328 0 0 0 0 102485099.89094543 93747836.524461746 0 93747836.524461746 -56550184.79940033 0 0 0 0 108516769.62368011 119723795.2176342 0 119723795.2176342 -61667240.905184746 0 0 0 0 111497665.41756439 140585508.57666016 0 140585508.57666016 -29432664.989879608 0 0 0 0 5275385.5521469116 56476917.04287529 0 56476917.04287529 -17582342.631368637 0 0 0 0 -32452345.434509277 44076302.914552689 0 44076302.914552689 -21000737.548398018 0 0 0 0 2906162.4053559704 1449811.6465494898 0 1449811.6465494898 135091.2910740017 0 0 0 0 14416618.191673279 33320823.455720901 0 33320823.455720901 -71208089.96559906 0 0 0 0 29664446.79057312 39194291.030024529 0 39194291.030024529 -136278818.16439438 0 0 0 0 -75398101.295017242 -28453013.714402199 0 -28453013.714402199 30336188.325973511 0 0 0 0 874544.03962082602 614484.73929192824 0 614484.73929192824 173282.7956583926 0 0 0 0 -81365111.786680222 -92444009.656998634 0 -92444009.656998634 161798570.70913124 0 0 0 0 64855677.697532654 163746095.61969757 0 163746095.61969757 244215903.72462845 0 0 0 0 103396237.36795044 -34003008.926387787 0 -34003008.926387787 -67953680.612646103 0 0 0 0 130694225.28396988 -14427633.001300812 0 -14427633.001300812 -54755258.206547737 0 0 0 0 113135621.7278471 -66721215.202801943 0 -66721215.202801943 5585574.2487697601 0 0 0 0 41208453.181800842 -18459324.929106712 0 -18459324.929106712 -26608953.573799133 0 0 0 0 5054509.1387244035 2058489.5536081961 0 2058489.5536081961 -293872.55069543095 0 0 0 0 15536115.521207809 3327426.6871376038 0 3327426.6871376038 -21301764.797134399 0 0 0 0 19098500.419656754 30533808.682390213 0 30533808.682390213 -111052891.76809311 0 0 0 0 32266521.043527603 3189145.914396286 0 3189145.914396286 -59286869.195512772 0 0 0 0 -16166799.8598423 4990307.6810245514 0 4990307.6810245514 -59346452.873186111 0 0 0 0 -12700852.280452728 58056217.633827209 0 58056217.633827209 -69282172.018539429 0 0 0 0 56064461.025558472 23179267.802143097 0 23179267.802143097 -9041710.5581893921 0 0 0 0 14516274.413669586 18138611.801845551 0 18138611.801845551 6035223.4818696976 0 0 0 0 4375894.8775596619 10996083.614709854 0 10996083.614709854 3301237.4576435089 0 0 0 0 14628218.700115204 6255791.7883605957 0 6255791.7883605957 -4769376.2851390839 0 0 0 0 3805307.7869234085 6035414.1262140274 0 6035414.1262140274 -6471995.7932434082 0 0 0 0 26586260.833696365 15243807.133040905 0 15243807.133040905 -9349009.2031745911 0 0 0 0 27640321.930561066 6022899.0001630783 0 6022899.0001630783 -10923745.496868134 0 0 0 0 119721349.68274498 11312626.473110199 0 11312626.473110199 -39881927.254428864 0 0 0 0 112780067.31542587 -2478469.1331138611 0 -2478469.1331138611 -27275317.233161926 0 0 0 0 128578214.86988831 18849451.839464188 0 18849451.839464188 -108731582.10871124 0 0 0 0 93808545.652736664 38174079.696782112 0 38174079.696782112 -20876004.067934036 0 0 0 0 110061570.52518463 -8677541.0543880463 0 -8677541.0543880463 32588329.751148224 0 0 0 0 112682211.1411612 22811558.227697849 0 22811558.227697849 -31161367.027393341 0 0 0 0 150814402.30500793 6417547.7033786774 0 6417547.7033786774 -10626816.087497711 0 0 0 0 105970523.11497116 -24095722.43821907 0 -24095722.43821907 17397229.354418755 0 0 0 0 58363069.729905605 7873386.8970911503 0 7873386.8970911503 -13764687.887783051 0 0 0 0 111518457.6447525 4008607.1937789917 0 4008607.1937789917 1979263.6612968445 0 0 0 0 110084518.55504227 29358016.302633286 0 29358016.302633286 -11453706.311353683 0 0 0 0 62258211.458721161 15142430.278447151 0 15142430.278447151 13057113.87858963 0 0 0 0 143818410.72793579 39525700.608691216 0 39525700.608691216 -1709306.2426929474 0 0 0 0 180284265.66011429 -29643339.887813568 0 -29643339.887813568 21024390.969100952 0 0 0 0 78259022.087554932 -19799445.011481285 0 -19799445.011481285 45832877.828975677 0 0 0 0 168749730.75006485 -251979777.44022751 0 -251979777.44022751 40510665.11955452 0 0 0 0 290053290.63665009 -125239502.235466 0 -125239502.235466 18932096.320277691 0 0 0 0 147464554.44809341 -60608041.542100906 0 -60608041.542100906 48792326.843490601 0 0 0 0 222003132.89427567 -33828410.079062462 0 -33828410.079062462 -60525059.437767029 0 0 0 0 751140.21182712726 660988.9779761536 0 660988.9779761536 636961.66280140332 0 0 0 0 391306555.52161407 -274148808.91665888 0 -274148808.91665888 19933498.660070419 0 0 0 0 120748894.17022514 157210590.56048441 0 157210590.56048441 400890524.99275208 0 0 0 0 590551458.85364151 -77577444.619811058 0 -77577444.619811058 -57705562.977001667 0 0 0 0 158485990.02742004 -89495447.44683075 0 -89495447.44683075 86941889.248397589 0 0 0 0 270878221.92044449 288730424.9456892 0 288730424.9456892 67165961.706157684 0 0 0 0 163040.72957415134 -271503.73854183219 0 -271503.73854183219 -191182.73105453909 0 0 0 0 104407030.8582077 -384874040.03520584 0 -384874040.03520584 633975312.49328899 0 0 0 0 74057864.082284927 7885545.5034255981 0 7885545.5034255981 -27183263.625303268 0 0 0 0 -61848.543911345303 -1882649.0738421923 0 -1882649.0738421923 -751795.62912613689 0 0 0 0 1073212.9099274455 769738.35769200511 0 769738.35769200511 -698242.65939069714 0 0 0 0 282403.26108551025 -946164.3285036087 0 -946164.3285036087 -5101583.5960671902 0 0 0 0 -6060401.0669059753 19866365.830181122 0 19866365.830181122 15257565.630465508 0 0 0 0 59930279.050656319 24813518.529767036 0 24813518.529767036 -3450842.3533935547 0 0 0 0 -5596849.8393096924 -13663466.22149086 0 -13663466.22149086 -27446305.939868927 0 0 0 0 1146430.9971454944 443103.32763518393 0 443103.32763518393 -1245747.5150549347 0 0 0 0 -8112082.41746521 -8624735.2256081104 0 -8624735.2256081104 -10776738.195610046 0 0 0 0 -4495419.0475540161 6220078.9142370224 0 6220078.9142370224 3394299.0159130096 0 0 0 0 -10843812.631700039 -17927721.408729732 0 -17927721.408729732 -18240006.835783005 0 0 0 0 1027583.3557243347 -1161487.4246234894 0 -1161487.4246234894 -4798135.1597981453 0 0 0 0 185563.27085018158 -992906.54443013668 0 -992906.54443013668 -4110016.0609731674 0 0 0 0 512869.85051846504 -1915313.2439110798 0 -1915313.2439110798 -1283103.0646385308 0 0 0 0 39952485.058242798 2701919.4739209414 0 2701919.4739209414 62550349.232419968 0 0 0 0 -21098748.8397789 -25368975.656560898 0 -25368975.656560898 178980379.06522655 0 0 0 0 11696151.872597694 -62298221.367930651 0 -62298221.367930651 184512266.70409775 0 0 0 0 233370046.61943054 41834497.531579971 0 41834497.531579971 229541269.85677147 0 0 0 0 77882881.04838562 -159821801.78686297 0 -159821801.78686297 450077978.85210609 0 0 0 0 45756271.550973892 -58098346.220346451 0 -58098346.220346451 178403092.53353786 0 0 0 0 -19160099.69235611 -94982374.43813467 0 -94982374.43813467 180433135.24768925 0 0 0 0 -8482842.6179199219 -107730538.74300671 0 -107730538.74300671 230990743.63033009 0 0 0 0 234655918.75896835 -180877826.60058451 0 -180877826.60058451 77736673.109990597 0 0 0 0 232837673.27006531 -149475359.50397944 0 -149475359.50397944 30410712.530484676 0 0 0 0 70722274.33903265 -85967724.825028494 0 -85967724.825028494 10016355.824346542 0 0 0 0 336693251.25487518 -25890907.419020176 0 -25890907.419020176 6740724.5277293921 0 0 0 0 356724907.68873286 -198878624.21915674 0 -198878624.21915674 -22447047.586056709 0 0 0 0 442250477.60164261 -315988441.57458162 0 -315988441.57458162 148788310.83043766 0 0 0 0 248218362.11780167 -184259499.5586133 0 -184259499.5586133 122074018.68852735 0 0 0 0 443425655.95655179 52076333.464596346 0 52076333.464596346 396556910.93234062 0 0 0 0 409526.81611743383 293136.87934956094 0 293136.87934956094 171959.43272705469 0 0 0 0 513706539.92791939 -522896269.41082716 0 -522896269.41082716 357384755.28725529 0 0 0 0 344650019.50123119 -46636199.353256464 0 -46636199.353256464 -19600407.350341797 0 0 0 0 312492686.19421387 -249900003.40286541 0 -249900003.40286541 -62466992.421052933 0 0 0 0 57943158.353176117 -200847427.15195179 0 -200847427.15195179 173411032.73390579 0 0 0 0 436631534.40081787 -390154894.06779718 0 -390154894.06779718 41782618.596031189 0 0 0 0 881639218.41337967 -518369874.19288659 0 -518369874.19288659 122784326.56260872 0 0 0 0 353758714.6146965 -321557844.79756641 0 -321557844.79756641 287353636.57299948 0 0 0 0 -354165794.11217117 17570017.150928259 0 17570017.150928259 389598002.4664669 0 0 0 0 70663.751611116051 206211.24627538119 0 206211.24627538119 862475.12099412153 0 0 0 0 170169.70357759495 105880.09299123986 0 105880.09299123986 1971163.4798542371 0 0 0 0 -19558794.150541306 -84223863.750205517 0 -84223863.750205517 285597080.42286634 0 0 0 0 462630405.7087326 -209021700.99361253 0 -209021700.99361253 -21461523.000012875 0 0 0 0 271743142.81071544 -17118409.590954065 0 -17118409.590954065 -75247220.846272469 0 0 0 0 860099406.49181175 -476674792.12467098 0 -476674792.12467098 -168144468.5004366 0 0 0 0 -359128250.91709912 -762268.44578906614 0 -762268.44578906614 414394337.25304455 0 0 0 0 270163707.60132027 -588823012.526582 0 -588823012.526582 530383136.2112118 0 0 0 0 425079.0107101975 -257396.09696652414 0 -257396.09696652414 1694479.8447882326 0 0 0 0 96771011.586898804 14008270.105585188 0 14008270.105585188 4337193.0212216377 0 0 0 0 -80271870.643188477 1886725.2290432453 0 1886725.2290432453 63751439.238425255 0 0 0 0 -24435652.177032471 45189395.16697073 0 45189395.16697073 55080343.080366135 0 0 0 0 127621335.89521027 52545403.277043819 0 52545403.277043819 5684562.6089425087 0 0 0 0 997546.80001112632 -1002937.9048837639 0 -1002937.9048837639 34097.628267328095 0 0 0 0 1649886203.8294649 -992027883.19998658 0 -992027883.19998658 593535777.35790265 0 0 0 0 764990673.68904114 86639904.211169183 0 86639904.211169183 -398603493.74000734 0 0 0 0 1183088109.1455269 -1212687131.9116902 0 -1212687131.9116902 649987179.64440048 0 0 0 0 910125630.28831863 -262460300.12494779 0 -262460300.12494779 675131044.15120566 0 0 0 0 1216918710.4935284 -14559545.412241757 0 -14559545.412241757 395741060.57716286 0 0 0 0 1503128156.6281204 -1068987730.3490822 0 -1068987730.3490822 744782460.70046329 0 0 0 0 585683346.62215042 -319098086.35667622 0 -319098086.35667622 300181148.16165423 0 0 0 0 675022617.53138924 -108254524.13338745 0 -108254524.13338745 -146367055.7168119 0 0 0 0 150561269.04778671 195545591.84792423 0 195545591.84792423 19403899.821329117 0 0 0 0 955864123.91153145 -267736057.09456205 0 -267736057.09456205 19422698.887796879 0 0 0 0 455197147.40434456 -255220837.65737247 0 -255220837.65737247 61724006.421809196 0 0 0 0 385495584.03914547 -323657470.42868614 0 -323657470.42868614 100828630.7143507 0 0 0 0 529768091.62775803 -314612300.07073116 0 -314612300.07073116 100600057.2412318 0 0 0 0 389007129.55239487 -308555862.620821 0 -308555862.620821 150954245.45143223 0 0 0 0 235227863.66963196 -321830743.33342552 0 -321830743.33342552 149932042.68845963 0 0 0 0 181326469.92301941 -258647957.35600138 0 -258647957.35600138 218837917.51729393 0 0 0 0 200357303.43396759 -295005635.97348499 0 -295005635.97348499 226763842.0707078 0 0 0 0 247648738.11239243 -199045464.90051961 0 -199045464.90051961 142298740.66561031 0 0 0 0 520458994.68390465 -161329590.97740912 0 -161329590.97740912 147453461.55043602 0 0 0 0 182552792.1821785 -327668507.86846161 0 -327668507.86846161 562976796.54450703 0 0 0 0 332505885.69363785 -732618719.75802803 0 -732618719.75802803 489517748.88196087 0 0 0 0 126712270.05263519 -298280513.31160259 0 -298280513.31160259 312905139.33575368 0 0 0 0 182425066.37889481 302904711.8066268 0 302904711.8066268 257402608.5725131 0 0 0 0 120252294.46111393 -200424588.73128915 0 -200424588.73128915 140959130.45789146 0 0 0 0 807246.31329450384 691273.84201341169 0 691273.84201341169 495535.13977261866 0 0 0 0 372855636.41862297 -370487719.32368994 0 -370487719.32368994 111228168.14932823 0 0 0 0 320101163.1808548 -214600025.88156319 0 -214600025.88156319 -95311351.569630623 0 0 0 0 471032.22466979828 330328.07097841101 0 330328.07097841101 20273.343496380374 0 0 0 0 356920028.02997589 -424445856.89024544 0 -424445856.89024544 151789194.79872131 0 0 0 0 28471229.588876724 15740339.598267555 0 15740339.598267555 37788244.223735809 0 0 0 0 93875278.395029783 -89842842.619923413 0 -89842842.619923413 195319564.46021843 0 0 0 0 156814546.30255508 -50341285.910430908 0 -50341285.910430908 114773731.99142647 0 0 0 0 -43726039.30606842 -674814.514087677 0 -674814.514087677 160597701.50823212 0 0 0 0 95775869.450220108 41772396.107459068 0 41772396.107459068 -128349391.36806488 0 0 0 0 -163281896.06590271 167687825.97875404 0 167687825.97875404 -22866990.856531143 0 0 0 0 63695009.244928837 12313806.028597355 0 12313806.028597355 -438852579.69688797 0 0 0 0 63376245.734443665 23092741.852897644 0 23092741.852897644 -79752710.095359802 0 0 0 0 -155725605.19302157 -306442315.02499282 0 -306442315.02499282 295025219.73937798 0 0 0 0 -99020801.924463511 207459007.2293824 0 207459007.2293824 -90696227.545349121 0 0 0 0 46955997.745491028 -265330697.5599556 0 -265330697.5599556 13751519.66451025 0 0 0 0 99541370.72851944 -123863116.67330456 0 -123863116.67330456 281588067.68842399 0 0 0 0 -107633863.81921005 -175616926.20501614 0 -175616926.20501614 281834476.03355026 0 0 0 0 33992813.647327423 -95058254.819576263 0 -95058254.819576263 235004956.05232048 0 0 0 0 -12783536.690616131 -203975290.51644039 0 -203975290.51644039 650657241.35943413 0 0 0 0 190899803.5058136 -388175041.29916477 0 -388175041.29916477 179982634.73339272 0 0 0 0 120630115.26779556 -351561347.29072094 0 -351561347.29072094 390979424.11166668 0 0 0 0 357627133.49994278 -417402746.83973551 0 -417402746.83973551 183090476.04433632 0 0 0 0 236021299.52750206 -315553029.39988923 0 -315553029.39988923 183549887.1441555 0 0 0 0 38484201.955613136 -202029666.58399582 0 -202029666.58399582 203509036.60238647 0 0 0 0 -304713321.44825268 72029429.323545456 0 72029429.323545456 -167258575.84779978 0 0 0 0 570752909.34572601 -489390062.95374584 0 -489390062.95374584 -68629046.37937212 0 0 0 0 368636896.26758194 -310843866.9303422 0 -310843866.9303422 22178841.294066668 0 0 0 0 435822136.99563026 -689562370.98449135 0 -689562370.98449135 550815014.72826004 0 0 0 0 39990720.172338486 -575647603.85635281 0 -575647603.85635281 1515149682.2647743 0 0 0 0 795622113.64877701 -1033662940.5386219 0 -1033662940.5386219 507960307.32795811 0 0 0 0 235092.90503082192 -784649.06345981453 0 -784649.06345981453 312046.2762711799 0 0 0 0 665823253.40121329 -416447736.94202769 0 -416447736.94202769 -637762158.25479317 0 0 0 0 -362075.45382291079 -797186.0753905864 0 -797186.0753905864 1730883.9020142627 0 0 0 0 461924190.74526298 -1185299141.7890558 0 -1185299141.7890558 217186972.86746979 0 0 0 0 -485761186.38938957 331320420.03935254 0 331320420.03935254 920865522.82956696 0 0 0 0 -426897490.77132034 92789757.224565506 0 92789757.224565506 1446599694.3667903 0 0 0 0 -313079840.47343242 62417338.444963455 0 62417338.444963455 -12642284.820535108 0 0 0 0 -502211995.71469021 -71519783.222134113 0 -71519783.222134113 1015613268.0819521 0 0 0 0 -345903.34862016467 -1675114.6692556504 0 -1675114.6692556504 3152600.4850001279 0 0 0 0 -744182665.37871456 -929718114.18207049 0 -929718114.18207049 -32804078.012237407 0 0 0 0 -610223308.44223487 -540262157.4496845 0 -540262157.4496845 -41265344.786535263 0 0 0 0 -101454152.77514458 -307427819.03367805 0 -307427819.03367805 -84304884.539505243 0 0 0 0 -343085995.07359064 -50992091.679849446 0 -50992091.679849446 491507948.82962799 0 0 0 0 -262979398.30274534 -632784119.05526185 0 -632784119.05526185 1044287474.007987 0 0 0 0 164687073.58966541 -405532780.91238594 0 -405532780.91238594 429419184.30469847 0 0 0 0 -194362100.60478759 -94136242.271820426 0 -94136242.271820426 211420782.51348591 0 0 0 0 388389284.6700592 -254638909.60945559 0 -254638909.60945559 -76269984.969624519 0 0 0 0 419422070.63070345 -360045778.45095944 0 -360045778.45095944 69431096.084401131 0 0 0 0 390819125.76180458 -315838956.24888659 0 -315838956.24888659 66159923.459477365 0 0 0 0 161991868.6204567 -380207996.37138844 0 -380207996.37138844 206086220.43529034 0 0 0 0 398147789.01761436 -501626563.78345942 0 -501626563.78345942 266501291.82926345 0 0 0 0 632237911.87917328 -724183623.65159512 0 -724183623.65159512 232063948.09877849 0 0 0 0 349344763.58408928 -562296891.74041235 0 -562296891.74041235 231501041.0052188 0 0 0 0 181560290.79199004 -737809972.62765503 0 -737809972.62765503 567776051.15753102 0 0 0 0 -115055922.46231508 -692403744.11493826 0 -692403744.11493826 608807822.84974301 0 0 0 0 1353348852.4653237 -837328448.92638576 0 -837328448.92638576 197655916.79422605 0 0 0 0 415081865.7176609 -1181293920.6852224 0 -1181293920.6852224 793341171.38275278 0 0 0 0 -298702359.39451218 -225267632.80277967 0 -225267632.80277967 841913144.61748254 0 0 0 0 80413272.892867088 -347185374.5450778 0 -347185374.5450778 -448628154.03334808 0 0 0 0 1567650.2193703041 -3453252.0095725707 0 -3453252.0095725707 521840.78429676633 0 0 0 0 456170.5958217741 -716193.46819245513 0 -716193.46819245513 596254.97520485194 0 0 0 0 172208715.23715258 -454756554.75263333 0 -454756554.75263333 -1066452224.5299776 0 0 0 0 2263900.3359496151 -2752302.936578372 0 -2752302.936578372 46494.941752017708 0 0 0 0 -194683686.51950479 -268737279.34393597 0 -268737279.34393597 134463879.35517573 0 0 0 0 -92069504.007001221 -851757059.88053679 0 -851757059.88053679 624674100.87621212 0 0 0 0 -12122036.741763592 -724991705.22371674 0 -724991705.22371674 86243021.217564672 0 0 0 0 -250889587.68602371 -500575511.40230286 0 -500575511.40230286 469924536.84452742 0 0 0 0 -76396171.618393719 -764699360.75207829 0 -764699360.75207829 625320480.6396172 0 0 0 0 162714139.01214612 -1270279506.5541487 0 -1270279506.5541487 1403131207.8351183 0 0 0 0 1207214597.7880669 -185010831.68531078 0 -185010831.68531078 276165137.15226716 0 0 0 0 1113309025.0218143 -1099093870.5677447 0 -1099093870.5677447 460171319.83040154 0 0 0 0 1337888721.3501334 -468229050.19161642 0 -468229050.19161642 -82538179.186530322 0 0 0 0 187393516.45579052 -473799780.26666778 0 -473799780.26666778 41558691.700652003 0 0 0 0 -159805164.06257677 -73608254.627457738 0 -73608254.627457738 -693233183.26125836 0 0 0 0 475512479.78537965 -747194072.83728266 0 -747194072.83728266 -354340434.70539355 0 0 0 0 293991800.06216997 111386755.3346523 0 111386755.3346523 -401954365.33017278 0 0 0 0 929250379.61489296 -105342215.56404161 0 -105342215.56404161 -807020899.02481627 0 0 0 0 -489057054.68912435 139446219.52644283 0 139446219.52644283 -823497114.05632353 0 0 0 0 383802645.72500706 -484765995.48504102 0 -484765995.48504102 -1934653787.3719201 0 0 0 0 2341860.5298078461 -1897945.3180468052 0 -1897945.3180468052 -185037.46138529474 0 0 0 0 2105233712.5981081 -194584264.10274029 0 -194584264.10274029 -607453913.24202275 0 0 0 0 2109573780.5515921 29354682.74446696 0 29354682.74446696 -1406441025.8001919 0 0 0 0 1215825755.4840059 657230960.1089983 0 657230960.1089983 -1843110876.9224818 0 0 0 0 1101578.3004765832 -666733.34221322672 0 -666733.34221322672 -123475.67918944918 0 0 0 0 241762417.55561924 -360940350.06327105 0 -360940350.06327105 443619120.69184178 0 0 0 0 1014170932.385523 583322672.03894019 0 583322672.03894019 -1039493589.3958331 0 0 0 0 1901842642.755954 29440972.49040103 0 29440972.49040103 -716071696.34378612 0 0 0 0 2205291643.1546993 145690838.35057548 0 145690838.35057548 -1070711297.5168737 0 0 0 0 1477690892.1861386 218948503.75306255 0 218948503.75306255 -541491342.58487952 0 0 0 0 2204077437.3029919 -358725373.98326635 0 -358725373.98326635 -123527064.86849247 0 0 0 0 1593753502.4475088 -224950699.54434273 0 -224950699.54434273 235539913.67246306 0 0 0 0 2205179033.6745977 -625640528.11970031 0 -625640528.11970031 418361428.15131932 0 0 0 0 1723007656.9791031 -780646989.13214087 0 -780646989.13214087 665429077.63033009 0 0 0 0 1387406461.7535744 -598336898.12881505 0 -598336898.12881505 850966884.71665597 0 0 0 0 1293997982.8186791 -1163643967.5981803 0 -1163643967.5981803 772471209.27808225 0 0 0 0 1309093298.0530739 -889301695.9618063 0 -889301695.9618063 -844568122.43104208 0 0 0 0 -457801143.11066413 -331531460.84873801 0 -331531460.84873801 1824314258.4180102 0 0 0 0 -179941.45466060704 -855558.43119051866 0 -855558.43119051866 1657560.2094918501 0 0 0 0 1770954604.0692158 -873296103.78652287 0 -873296103.78652287 796461163.26093578 0 0 0 0 2290476014.2557869 -853625812.53160608 0 -853625812.53160608 105001334.51768827 0 0 0 0 -763734416.96311104 -270083666.92924505 0 -270083666.92924505 942366184.96254921 0 0 0 0 418783048.9086163 -378445993.68751788 0 -378445993.68751788 1245764619.2540512 0 0 0 0 -30603443.2872715 195451562.54522848 0 195451562.54522848 600103159.49620104 0 0 0 0 150094878.50847054 -731129016.48572564 0 -731129016.48572564 2980304591.8427801 0 0 0 0 1577531460.6328106 -1338482303.8056641 0 -1338482303.8056641 2279712475.4685054 0 0 0 0 2103745216.8349657 -348461310.32983452 0 -348461310.32983452 1735285105.5075846 0 0 0 0 2203960262.9141731 -921687284.13172579 0 -921687284.13172579 1391548535.0384564 0 0 0 0 1804571270.8304138 -1260597031.8153119 0 -1260597031.8153119 1134802749.8541987 0 0 0 0 2128665253.9617105 -599947956.99382579 0 -599947956.99382579 695019635.41863763 0 0 0 0 18531514.895721436 -10638194.778003693 0 -10638194.778003693 27829741.275398254 0 0 0 0 18746834.193359375 -14776034.499919891 0 -14776034.499919891 21318495.577524185 0 0 0 0 9705344.2353439331 -17014540.63270092 0 -17014540.63270092 21374664.133653849 0 0 0 0 34955246.468070984 -16058804.476633072 0 -16058804.476633072 11571604.559350967 0 0 0 0 37919337.17681694 -9756524.8843822479 0 -9756524.8843822479 13520297.841804504 0 0 0 0 39163937.545837402 -12592543.876934052 0 -12592543.876934052 12397619.785648346 0 0 0 0 32068138.722522736 -10126369.428208351 0 -10126369.428208351 14423116.800930023 0 0 0 0 27709729.20161438 -12073222.73021698 0 -12073222.73021698 20420100.232990265 0 0 0 0 18610117.976236224 -17442806.012271151 0 -17442806.012271151 17799777.188137054 0 0 0 0 35984728.389358521 -9420387.9878692627 0 -9420387.9878692627 13015620.519341469 0 0 0 0 9759191.4655838013 30614.024936676025 0 30614.024936676025 -4212722.0435771942 0 0 0 0 16166034.207663834 343142.88847248093 0 343142.88847248093 -1782516.5363749205 0 0 0 0 28881706.379150391 -8124868.3506965637 0 -8124868.3506965637 13774262.511198997 0 0 0 0 20969041.206787109 -10012655.806619644 0 -10012655.806619644 -7576886.9845161438 0 0 0 0 13427250.211715698 898858.61678504944 0 898858.61678504944 -9876177.883190155 0 0 0 0 -5051034.2106704712 16445310.849788666 0 16445310.849788666 -13386517.34459877 0 0 0 0 -1023192.4149055481 -11310881.716527939 0 -11310881.716527939 -10358058.885419369 0 0 0 0 -2431969.8645973206 -5579983.8088722229 0 -5579983.8088722229 -32718778.79510498 0 0 0 0 -8522016.6342086792 -13058944.243503571 0 -13058944.243503571 -37342834.726631165 0 0 0 0 13120245.083604813 -17401148.218190432 0 -17401148.218190432 -12725054.247570038 0 0 0 0 4064187.647354126 -24585189.356636047 0 -24585189.356636047 -75586093.488380432 0 0 0 0 5348568.5351409912 24782113.38867569 0 24782113.38867569 -28638921.97946167 0 0 0 0 23420904.766738892 16214710.958242416 0 16214710.958242416 -62053475.225174904 0 0 0 0 23668595.018127441 -2219348.1717243195 0 -2219348.1717243195 28042913.000413775 0 0 0 0 21176517.147972107 -7758429.2899837494 0 -7758429.2899837494 17972724.008396149 0 0 0 0 16076601.875741184 -4943740.5148424963 0 -4943740.5148424963 -3316577.4674374047 0 0 0 0 6767254.3257789612 -6372327.1156954765 0 -6372327.1156954765 53501185.579230309 0 0 0 0 17111193.800039731 -1697671.6179870954 0 -1697671.6179870954 -4208053.1086063143 0 0 0 0 13769766.820425034 -4892051.497885704 0 -4892051.497885704 -17125199.169326782 0 0 0 0 27529537.207382202 -26735575.323866844 0 -26735575.323866844 -56092742.005640268 0 0 0 0 12667974.2437704 -7848637.9126166245 0 -7848637.9126166245 -2317137.5828048601 0 0 0 0 20511944.553678975 -847286.4704114066 0 -847286.4704114066 -8181090.4011371573 0 0 0 0 13724834.231652975 45183151.496016145 0 45183151.496016145 75862290.181045532 0 0 0 0 8184875.091758728 -23211843.58557415 0 -23211843.58557415 30082199.706391335 0 0 0 0 6617928.712059021 -15514618.629026413 0 -15514618.629026413 46767466.566128731 0 0 0 0 18022336.44210434 -14619589.290165901 0 -14619589.290165901 12694792.053427696 0 0 0 0 -17579219.889728546 -26994007.659119606 0 -26994007.659119606 10158127.78748703 0 0 0 0 -98693754.824419975 51164948.401250839 0 51164948.401250839 12718682.334068298 0 0 0 0 40915108.641670227 7202318.889377594 0 7202318.889377594 20896951.1314888 0 0 0 0 39106221.209472656 39695171.508507729 0 39695171.508507729 -144699621.03591537 0 0 0 0 16372946.652061462 3175880.4325790405 0 3175880.4325790405 -106906043.75362873 0 0 0 0 -50368968.959822655 -79290550.889941692 0 -79290550.889941692 -69041251.595558167 0 0 0 0 14608896.678459167 3321556.2161073685 0 3321556.2161073685 -24397907.852869034 0 0 0 0 36272461.377185822 -22851769.805447578 0 -22851769.805447578 -56077848.910113335 0 0 0 0 21120526.241437912 -28763979.311971188 0 -28763979.311971188 1413931.8206920624 0 0 0 0 46547263.895652771 -18268428.802698135 0 -18268428.802698135 -13385559.46837616 0 0 0 0 37167946.416194916 -14485348.654004812 0 -14485348.654004812 -9332311.4663486481 0 0 0 0 54147352.665672302 -17860654.162647247 0 -17860654.162647247 -20283858.727018356 0 0 0 0 64488528.55556488 3855639.9740495682 0 3855639.9740495682 -1417399.058588028 0 0 0 0 51019252.16595459 25971367.382759094 0 25971367.382759094 8996311.3497240543 0 0 0 0 17470652.617412567 222086.25194263458 0 222086.25194263458 3577539.6918776035 0 0 0 0 47671912.987270355 -5844408.980533123 0 -5844408.980533123 -26224.553665161133 0 0 0 0 5586153.4980280949 -1467.196680069901 0 -1467.196680069901 -747222.44428578578 0 0 0 0 46320277.889190674 -8571908.1180648804 0 -8571908.1180648804 -5247590.4469246864 0 0 0 0 49428803.811174393 -11668771.237229347 0 -11668771.237229347 -2522306.2497844696 0 0 0 0 7904501.136437336 7482670.1072384613 0 7482670.1072384613 2020301.5895369002 0 0 0 0 1671721.3457984924 57545053.501986504 0 57545053.501986504 34223736.905549049 0 0 0 0 48565612.081542969 -15751419.305076599 0 -15751419.305076599 -24572184.135645866 0 0 0 0 61185442.851540565 -26217953.670073032 0 -26217953.670073032 -25158486.961839676 0 0 0 0 3105960.8343716636 -180630.40170390625 0 -180630.40170390625 -753962.28694530344 0 0 0 0 -7570977.8371944427 22273375.961969376 0 22273375.961969376 -3104193.2537193298 0 0 0 0 -4413816.949432373 14131366.397199631 0 14131366.397199631 -7889921.0400052071 0 0 0 0 -5069524.3220214844 14756166.055151463 0 14756166.055151463 7217673.4412269592 0 0 0 0 -14206779.622306824 10872163.619239807 0 10872163.619239807 8907577.0504646301 0 0 0 0 -4207085.1123085022 3252830.6940422058 0 3252830.6940422058 19354028.804436684 0 0 0 0 -3618846.6033477783 11097084.031489372 0 11097084.031489372 5156637.8646697998 0 0 0 0 8903557.3152745254 7138955.2484208047 0 7138955.2484208047 1605023.1021214575 0 0 0 0 20564770.702245712 7597252.9561319351 0 7597252.9561319351 6162258.3037185669 0 0 0 0 -14640439.440100431 15506002.619364142 0 15506002.619364142 7580447.6517715454 0 0 0 0 5377964.6948013306 10454256.615147591 0 10454256.615147591 -4211014.4984741211 0 0 0 0 -139291.14888462517 5729635.1172485603 0 5729635.1172485603 890425.82979345485 0 0 0 0 -9764020.2665863037 14486590.872142792 0 14486590.872142792 4244435.2553186417 0 0 0 0 8013202.0804443359 6929932.9731721878 0 6929932.9731721878 -817268.0522518158 0 0 0 0 6703915.7393455505 9145244.0614700317 0 9145244.0614700317 -3070315.5429325104 0 0 0 0 2734755.404964447 9785880.4275255203 0 9785880.4275255203 -2264169.5814538002 0 0 0 0 3605663.4163208008 4826569.8905420303 0 4826569.8905420303 -17177623.057312965 0 0 0 0 30895102.925848007 -1056911.2914638519 0 -1056911.2914638519 -1246028.6274471283 0 0 0 0 18676804.768547058 -5776182.1130809784 0 -5776182.1130809784 8744010.8699407578 0 0 0 0 41393880.552303314 -8860221.0173802376 0 -8860221.0173802376 12311246.342281342 0 0 0 0 3472181.0755433729 210325.16221076855 0 210325.16221076855 -1391761.0809986759 0 0 0 0 40492601.61854744 -19451743.421324253 0 -19451743.421324253 11894268.088043213 0 0 0 0 54231422.061195374 -13933432.172441483 0 -13933432.172441483 -3109268.331360817 0 0 0 0 9348181.4130692147 -1453631.9960794458 0 -1453631.9960794458 -199001.40192567091 0 0 0 0 19135947.284248352 3519639.2252693176 0 3519639.2252693176 6048844.009311676 0 0 0 0 28345394.31288147 1809772.5313224792 0 1809772.5313224792 -1271149.5730819702 0 0 0 0 9922146.6108582858 1752063.044019755 0 1752063.044019755 -658684.82814722322 0 0 0 0 4532962.3091654778 308242.46890997887 0 308242.46890997887 -1082559.3835411072 0 0 0 0 6831148.6518549854 2370674.3338174354 0 2370674.3338174354 172595.2522711209 0 0 0 0 4217562.3816080093 -363237.19026565552 0 -363237.19026565552 -2003230.1734514236 0 0 0 0 4317555.0329036713 770980.07996273041 0 770980.07996273041 -2862019.3184244335 0 0 0 0 5109214.2605996132 2092211.7987337112 0 2092211.7987337112 -3562541.8721752167 0 0 0 0 5416962.0027823448 1249597.2626953125 0 1249597.2626953125 -4931250.5550880432 0 0 0 0 3537664.7324436745 -450930.41263795015 0 -450930.41263795015 -152517.47047340064 0 0 0 0 9706709.453576006 10361315.802508764 0 10361315.802508764 -1619564.3398716685 0 0 0 0 4999976.4198145866 2542279.7911939621 0 2542279.7911939621 -2498003.9496643543 0 0 0 0 14890369.155246735 -6793640.1517276764 0 -6793640.1517276764 10200094.822914124 0 0 0 0 10038198.34545639 -1446835.3024946526 0 -1446835.3024946526 -2147951.4749058904 0 0 0 0 10012656.487461239 -957982.33894790616 0 -957982.33894790616 -2727855.7494796067 0 0 0 0 21840060.144733429 -297100.3350019455 0 -297100.3350019455 -4678236.3359451294 0 0 0 0 3167575.5728187561 -170667.03058815002 0 -170667.03058815002 -2931303.2789916992 0 0 0 0 10423050.115008622 -19687.565193219809 0 -19687.565193219809 -222221.12972328579 0 0 0 0 25736182.331741333 -6637716.0878200531 0 -6637716.0878200531 -11168487.743173599 0 0 0 0 35651902.263199806 -10481780.545118809 0 -10481780.545118809 -13747672.801544189 0 0 0 0 18195958.472827911 1201834.2419462204 0 1201834.2419462204 -2668668.5687141418 0 0 0 0 33799246.504653931 -18255134.432489395 0 -18255134.432489395 -7563148.1502914429 0 0 0 0 6055449.7555507496 -620505.87070564902 0 -620505.87070564902 -1374305.8329392979 0 0 0 0 14516485.746479034 -1967232.666103363 0 -1967232.666103363 -2822035.2668409348 0 0 0 0 18159883.884951681 -711322.9012940079 0 -711322.9012940079 -894774.36250686646 0 0 0 0 9122261.2051611692 -424371.71378521295 0 -424371.71378521295 -742355.06874642987 0 0 0 0 5977875.8132922659 1448427.6694106525 0 1448427.6694106525 -957168.94334188569 0 0 0 0 30319621.416007996 -6478126.8035106659 0 -6478126.8035106659 -3531701.6004095078 0 0 0 0 1553664.2455458888 167122.05869140197 0 167122.05869140197 -582435.51271806005 0 0 0 0 22050046.233564377 -2317234.9628725052 0 -2317234.9628725052 -7475328.4844684601 0 0 0 0 12715336.602910995 443108.21855545044 0 443108.21855545044 -8112278.3850669861 0 0 0 0 4931882.6671829224 -1643316.2530632019 0 -1643316.2530632019 3687474.5819950104 0 0 0 0 32869923.837078094 -10939997.404392242 0 -10939997.404392242 -5848241.4793510437 0 0 0 0 32890155.954807281 -665078.33494091034 0 -665078.33494091034 -17217958.605350494 0 0 0 0 22342755.420612335 1335163.6223649979 0 1335163.6223649979 -16220410.127063751 0 0 0 0 16390611.873682022 8393491.9873604774 0 8393491.9873604774 -22148584.631893158 0 0 0 0 5767145.4007291794 6235040.2158332765 0 6235040.2158332765 -6922864.9764633179 0 0 0 0 22311618.38196373 3191906.6251134872 0 3191906.6251134872 -10420870.906597137 0 0 0 0 21572719.660938263 -2224495.3559856415 0 -2224495.3559856415 -9621636.1373596191 0 0 0 0 414087.44892501831 9750793.0884189606 0 9750793.0884189606 11056038.299920082 0 0 0 0 2125860.8023452759 11099068.583051682 0 11099068.583051682 -33050.075756072998 0 0 0 0 3807647.8286781311 12612438.629167557 0 12612438.629167557 -3545900.9463171959 0 0 0 0 -356015.50379180908 8746876.8510370255 0 8746876.8510370255 3545887.0005426407 0 0 0 0 2945596.901309967 6334733.0462303162 0 6334733.0462303162 1407007.4150323868 0 0 0 0 4055707.1972770691 7836624.7495918274 0 7836624.7495918274 338197.83097934723 0 0 0 0 3521737.6244010925 9185038.4387397766 0 9185038.4387397766 3336193.3101844788 0 0 0 0 3533775.1049480438 11786185.846385956 0 11786185.846385956 1058437.6474227905 0 0 0 0 -1150397.5471878052 1629430.1447114944 0 1629430.1447114944 4995584.5565469265 0 0 0 0 2220734.740196228 7122774.5986423492 0 7122774.5986423492 4399667.214176178 0 0 0 0 3717906.4123704256 1243403.9270418123 0 1243403.9270418123 -197793.20774176344 0 0 0 0 601874.11316680908 2047188.2233314514 0 2047188.2233314514 8762117.7290973663 0 0 0 0 225636.42291259766 3555409.0404090881 0 3555409.0404090881 7629281.3274183273 0 0 0 0 -394860.67121887207 9104750.0916389227 0 9104750.0916389227 13407668.974933624 0 0 0 0 -43735247.39037323 17054691.315099716 0 17054691.315099716 -13360092.741196632 0 0 0 0 -372304.3725245744 978148.75514145521 0 978148.75514145521 598097.46968131233 0 0 0 0 -11674443.379827499 34765310.288571358 0 34765310.288571358 -27061946.514347076 0 0 0 0 2938858.1218757629 -8082782.3867068291 0 -8082782.3867068291 -44278855.593681335 0 0 0 0 3556770.2465209961 -4492890.7777080536 0 -4492890.7777080536 -324761.15655136108 0 0 0 0 8719019.4852733612 2713494.1024742126 0 2713494.1024742126 -28888882.506748199 0 0 0 0 322376.60128347483 64703.959296706598 0 64703.959296706598 -107255.92608888075 0 0 0 0 369997.10864969809 -420004.96461396804 0 -420004.96461396804 -366172.6361138795 0 0 0 0 -6932131.1143379211 408311.24827384949 0 408311.24827384949 12614501.211515427 0 0 0 0 -17164963.674564362 20557126.585439682 0 20557126.585439682 -14810636.95460701 0 0 0 0 7957619.8329391479 -8826097.6266155243 0 -8826097.6266155243 905515.55517649651 0 0 0 0 -19856751.486599326 -24941381.578165531 0 -24941381.578165531 -4361484.9697608948 0 0 0 0 -1540371.6434402466 10118442.097249031 0 10118442.097249031 -43451135.73216629 0 0 0 0 3557033.5996853113 -10445349.815623581 0 -10445349.815623581 -16421122.279655457 0 0 0 0 81346120.534798622 -6914854.6012730598 0 -6914854.6012730598 -17536111.850040436 0 0 0 0 57169532.431770325 45677113.064096451 0 45677113.064096451 -7531264.2172999382 0 0 0 0 6627255.3410310745 17938529.753967762 0 17938529.753967762 8643125.1542739868 0 0 0 0 35132492.521793365 -11443475.419261932 0 -11443475.419261932 -7937250.1214675903 0 0 0 0 11617958.980049133 -12582867.510120392 0 -12582867.510120392 6568536.4071178436 0 0 0 0 39436882.684638977 -35827659.077740192 0 -35827659.077740192 24187725.618499756 0 0 0 0 65744.80820153188 -41271.762075770646 0 -41271.762075770646 -58256.988451781916 0 0 0 0 16781365.55562973 -4922647.7255086899 0 -4922647.7255086899 -22347736.986099243 0 0 0 0 22333554.117136002 26245205.148970127 0 26245205.148970127 -22213936.025852203 0 0 0 0 50998631.210453033 -1297229.5172290802 0 -1297229.5172290802 -2351950.0433731079 0 0 0 0 8802030.3380244002 -3075051.6327675655 0 -3075051.6327675655 -2867658.9984595031 0 0 0 0 13043376.697143555 -10595378.324627399 0 -10595378.324627399 999745.08822655678 0 0 0 0 18222465.395237923 14665853.611617118 0 14665853.611617118 7189684.059076786 0 0 0 0 44018290.438144684 10314865.35352397 0 10314865.35352397 -6139977.62337327 0 0 0 0 -32387324.30034256 -10286276.141884208 0 -10286276.141884208 -10434121.465723276 0 0 0 0 -27702684.254905701 -22334517.092628837 0 -22334517.092628837 6745410.6171168089 0 0 0 0 -23241772.241939545 -18206666.902654529 0 -18206666.902654529 -4752964.5770087242 0 0 0 0 -12029084.142295837 -20572581.254516661 0 -20572581.254516661 -8454684.7172932625 0 0 0 0 9304039.9700523578 -3562140.4198823902 0 -3562140.4198823902 -2431151.5356742018 0 0 0 0 -27378471.359992981 -21726972.899487495 0 -21726972.899487495 -1566968.288030982 0 0 0 0 28314437.885299683 1475033.5668356419 0 1475033.5668356419 -3663314.0226804018 0 0 0 0 1620205.017364502 -11956867.29977417 0 -11956867.29977417 -9833882.4015197754 0 0 0 0 6396957.8577720597 1828190.6540991347 0 1828190.6540991347 120911.12518326193 0 0 0 0 5936630.0459597111 12748975.336510897 0 12748975.336510897 -13291329.372852325 0 0 0 0 22879006.208053589 -38261934.453911781 0 -38261934.453911781 -1615507.595949173 0 0 0 0 1501355.504565198 -355208.54523718916 0 -355208.54523718916 -108635.54321136 0 0 0 0 4831015.6744503612 865047.79080872517 0 865047.79080872517 63247.017156707123 0 0 0 0 -9024257.8871860504 -24278276.337791443 0 -24278276.337791443 7441936.8933753967 0 0 0 0 22913778.333221436 -5615279.5604162216 0 -5615279.5604162216 -21024248.03842926 0 0 0 0 -6764213.6225585938 -28492670.649057746 0 -28492670.649057746 -15513050.216544747 0 0 0 0 12484438.349985953 -2299118.4924660008 0 -2299118.4924660008 -1972593.9986581276 0 0 0 0 23146265.288439274 822203.20987868309 0 822203.20987868309 -1273070.8419132233 0 0 0 0 35699386.95186758 12630895.740180731 0 12630895.740180731 -5792848.8184394836 0 0 0 0 -44937099.686893463 -36414513.639295578 0 -36414513.639295578 -20009727.013389587 0 0 0 0 1527916.2112394238 229894.16747779632 0 229894.16747779632 1578.5894297156483 0 0 0 0 -39525460.710535049 -17706501.146763325 0 -17706501.146763325 3158996.1158981323 0 0 0 0 28407788.230232239 -3353173.0993537903 0 -3353173.0993537903 -12232056.390995026 0 0 0 0 -1542278.4724693298 -21474896.751734734 0 -21474896.751734734 21895971.220133781 0 0 0 0 -4337768.6080093384 -8688306.0638694763 0 -8688306.0638694763 -14548961.176944733 0 0 0 0 12088036.535770416 -24842545.371194363 0 -24842545.371194363 -34411255.47500205 0 0 0 0 17834754.839424133 -37325314.476481915 0 -37325314.476481915 -31511843.793406546 0 0 0 0 -6337969.172492981 -26655604.519955397 0 -26655604.519955397 -9791166.3946015835 0 0 0 0 7515563.0713033676 -31634795.580032423 0 -31634795.580032423 16350440.065334558 0 0 0 0 7658574.7590103149 -31818838.970261276 0 -31818838.970261276 -8382974.433293581 0 0 0 0 -11831784.832039356 -22886476.367544323 0 -22886476.367544323 14497248.618370414 0 0 0 0 6131592.0424346924 -10383094.196932256 0 -10383094.196932256 -162804.80350732803 0 0 0 0 10241008.942184448 -17198236.100930393 0 -17198236.100930393 6939726.913302362 0 0 0 0 18900482.116521835 -680267.0000243783 0 -680267.0000243783 35432284.819100976 0 0 0 0 47807474.367183685 -39577477.09531647 0 -39577477.09531647 1539311.8019442558 0 0 0 0 22708567.276290894 -44692212.848209739 0 -44692212.848209739 27572456.483833045 0 0 0 0 39950406.862197876 -8980911.0115717649 0 -8980911.0115717649 34490336.512382984 0 0 0 0 160650094.7975235 -32964976.686022162 0 -32964976.686022162 28036052.309756398 0 0 0 0 49649799.056247711 4974578.5754885972 0 4974578.5754885972 96869506.997778416 0 0 0 0 40932.245192637667 -59513.93071152363 0 -59513.93071152363 175044.62470555649 0 0 0 0 150766412.08261871 105662247.00339508 0 105662247.00339508 94001869.46847105 0 0 0 0 13946482.867744446 -78779530.423439801 0 -78779530.423439801 -7233804.6525700092 0 0 0 0 46045011.790405273 63452295.383785099 0 63452295.383785099 57286074.524166584 0 0 0 0 27843376.510383606 26814288.371035576 0 26814288.371035576 54930098.085447133 0 0 0 0 103549801.64174652 -13437396.381167889 0 -13437396.381167889 -17306597.859774351 0 0 0 0 11713666.601165771 -28185416.66689086 0 -28185416.66689086 -48609443.608288646 0 0 0 0 47136569.664291382 -38318493.154189825 0 -38318493.154189825 -52542331.911842406 0 0 0 0 32885587.640571594 -27127247.468217254 0 -27127247.468217254 -8838355.3451316357 0 0 0 0 15132659.469985962 -36760199.500136763 0 -36760199.500136763 -10558348.326442242 0 0 0 0 25502569.840171814 3667527.5046211481 0 3667527.5046211481 -21026789.069433093 0 0 0 0 -206834489.96951294 -117100419.72087812 0 -117100419.72087812 13985149.801739633 0 0 0 0 -14280887.36212492 -13926768.464962181 0 -13926768.464962181 -61526702.498418689 0 0 0 0 34530705.183746338 -11525456.171324193 0 -11525456.171324193 -63372564.053721339 0 0 0 0 -87847861.431556702 -76208371.4848876 0 -76208371.4848876 -75649709.781634882 0 0 0 0 -46384485.633361816 4689103.2517815828 0 4689103.2517815828 -41878113.313766897 0 0 0 0 11083719.917381287 -15279356.322883904 0 -15279356.322883904 -47691275.240803242 0 0 0 0 21902586.821056366 42535640.355061293 0 42535640.355061293 22203575.234978199 0 0 0 0 23038345.958755493 -29576294.80602324 0 -29576294.80602324 -43872642.418298125 0 0 0 0 146891.62855277397 217598.75688100234 0 217598.75688100234 177791.2271865987 0 0 0 0 281606.58331237361 -82007.450816021301 0 -82007.450816021301 369509.83159209113 0 0 0 0 36101709.984153748 5400374.6858645678 0 5400374.6858645678 -1855965.5438605547 0 0 0 0 464820.12662506104 25433209.593699813 0 25433209.593699813 -10117786.058428288 0 0 0 0 46572697.462310791 5449774.9986516237 0 5449774.9986516237 -8286664.1147890091 0 0 0 0 -6757084.2874755859 26952204.608818531 0 26952204.608818531 -15868626.203621507 0 0 0 0 22203181.738908768 67097720.804423004 0 67097720.804423004 64666870.630368948 0 0 0 0 757960.46679378487 62437.916943011805 0 62437.916943011805 430035.26087769814 0 0 0 0 1146245.0283205621 697594.04217046965 0 697594.04217046965 159993.25525147951 0 0 0 0 29171243.845351934 46447895.794796623 0 46447895.794796623 -7684677.5196239948 0 0 0 0 1947315.3246422634 630464.64795746468 0 630464.64795746468 77001.166827110574 0 0 0 0 21908859.090801239 63154657.549393594 0 63154657.549393594 26767836.974364996 0 0 0 0 -5605432.3834075928 -14365057.549839735 0 -14365057.549839735 8829270.1120324135 0 0 0 0 28663287.520935059 -30162257.245262146 0 -30162257.245262146 -7112711.1422975063 0 0 0 0 16705722.961654663 25667987.045501232 0 25667987.045501232 -6417721.5138645172 0 0 0 0 -117213505.8032608 98192328.892410934 0 98192328.892410934 167245446.42047477 0 0 0 0 31451950.562567234 -1640676.3049502373 0 -1640676.3049502373 -33011928.401102066 0 0 0 0 30627247.102035522 33300652.73931253 0 33300652.73931253 -30754329.364845991 0 0 0 0 10631675.563561201 -14769.423871994019 0 -14769.423871994019 35138755.576094627 0 0 0 0 50251909.23336792 16955438.048653841 0 16955438.048653841 -90314666.513401508 0 0 0 0 20043325.956960846 -1554645.0495713768 0 -1554645.0495713768 -62940.204154673775 0 0 0 0 13177705.333815813 -19876498.992257118 0 -19876498.992257118 3356496.3578739166 0 0 0 0 16389613.281827688 -17460656.374220729 0 -17460656.374220729 12192752.422509193 0 0 0 0 44697014.132286072 3310261.0638250113 0 3310261.0638250113 -114001433.23227453 0 0 0 0 18225785.063546129 -1183524.9032472156 0 -1183524.9032472156 -242254.73575911575 0 0 0 0 18660441.569666862 -1978402.511259079 0 -1978402.511259079 -7019500.2957382202 0 0 0 0 22053399.174070358 -4018400.0509395599 0 -4018400.0509395599 -24494837.572238922 0 0 0 0 12494102.257287979 -14800610.7654562 0 -14800610.7654562 -10611516.397027969 0 0 0 0 17642136.418859482 -2568820.0039100647 0 -2568820.0039100647 -24129469.947877884 0 0 0 0 14920425.867853165 -2142498.9616584778 0 -2142498.9616584778 -21921379.885024071 0 0 0 0 18746273.784703255 5995885.4630565643 0 5995885.4630565643 -50604005.078474045 0 0 0 0 13072602.122974396 3811002.4042291641 0 3811002.4042291641 -50146962.131187439 0 0 0 0 32053887.81641078 -8798883.1960630417 0 -8798883.1960630417 -29750716.794467926 0 0 0 0 9253799.2389603555 -745272.82347106934 0 -745272.82347106934 -27201155.188637257 0 0 0 0 18371148.64606142 -2725185.7151699066 0 -2725185.7151699066 -58578730.905929565 0 0 0 0 20129379.142288208 7241428.7073588371 0 7241428.7073588371 -67536478.585365295 0 0 0 0 -3021414.6405479908 12969262.933666229 0 12969262.933666229 -44980293.337715149 0 0 0 0 2276118.2796962261 24601761.677457809 0 24601761.677457809 -65792348.528175354 0 0 0 0 20893311.696850777 23536401.84165287 0 23536401.84165287 -92152891.467281342 0 0 0 0 7363621.6264403658 2299300.5692002038 0 2299300.5692002038 -1490595.0057114961 0 0 0 0 2209673.1800470352 11982940.774227142 0 11982940.774227142 -30528815.574707031 0 0 0 0 -247638.64263725281 -8291113.0623607635 0 -8291113.0623607635 -62604560.215686798 0 0 0 0 7077698.4905796051 -12340223.623213768 0 -12340223.623213768 -17770571.401988029 0 0 0 0 9059051.4971504211 -5704409.6295366287 0 -5704409.6295366287 -16535096.302990198 0 0 0 0 2616675.2695446014 -12020804.181595325 0 -12020804.181595325 -18625653.546797752 0 0 0 0 5628243.3040390015 -17462894.503740549 0 -17462894.503740549 -50258992.359986842 0 0 0 0 10245947.062978745 -8975944.7751436234 0 -8975944.7751436234 -10339892.242380142 0 0 0 0 14472650.244392576 -2500363.5711667137 0 -2500363.5711667137 -1083711.0078685132 0 0 0 0 45596074.033145905 -14055976.710382342 0 -14055976.710382342 -111205063.73614287 0 0 0 0 51623387.376609802 5565811.1643297076 0 5565811.1643297076 -112777390.3023212 0 0 0 0 16365221.106403116 -1386036.7742418896 0 -1386036.7742418896 -527191.63120398263 0 0 0 0 17939325.289013863 -11710402.822506905 0 -11710402.822506905 -2100383.1425683796 0 0 0 0 16721910.586754799 -4524905.1998872757 0 -4524905.1998872757 -13159159.518667221 0 0 0 0 17348857.057782173 -7699906.3404359818 0 -7699906.3404359818 -16426331.103404999 0 0 0 0 18796650.366951942 -8932035.942864418 0 -8932035.942864418 -15362174.19697237 0 0 0 0 17135862.161563873 -3161847.9013996124 0 -3161847.9013996124 -15256564.36293602 0 0 0 0 15187065.687452316 -6114794.791513443 0 -6114794.791513443 -17560732.405014038 0 0 0 0 14334722.204455102 -643924.26897156239 0 -643924.26897156239 -7033843.9866258968 0 0 0 0 114255082.17049026 12960095.044540405 0 12960095.044540405 -18718699.208677292 0 0 0 0 10406473.151346207 -6266352.2040348053 0 -6266352.2040348053 -15205189.381436348 0 0 0 0 14359737.381709099 -7998797.7672717571 0 -7998797.7672717571 -16965951.856243134 0 0 0 0 67336684.107578278 122656982.35237789 0 122656982.35237789 34978881.698230743 0 0 0 0 15844084.052840794 -1101510.5164006751 0 -1101510.5164006751 -6862056.257214657 0 0 0 0 109497339.14879227 39215634.46003437 0 39215634.46003437 -96583406.441364288 0 0 0 0 31966812.936252594 15941522.571971893 0 15941522.571971893 14451435.806447029 0 0 0 0 -44028381.611787796 91766998.898535252 0 91766998.898535252 31531127.520013809 0 0 0 0 33970832.574935913 5519595.1574597359 0 5519595.1574597359 -51032287.545583725 0 0 0 0 20551494.525360107 14377716.544548035 0 14377716.544548035 -29910844.158439636 0 0 0 0 -88002148.736621857 -171754610.4918642 0 -171754610.4918642 19531448.793941975 0 0 0 0 413690.58866802044 142019.81227256544 0 142019.81227256544 -855656.0004243697 0 0 0 0 40729389.030014038 -34129691.943096161 0 -34129691.943096161 -137469932.34672451 0 0 0 0 40345593.078409195 -52125429.397087336 0 -52125429.397087336 238777469.54059601 0 0 0 0 193910026.66162872 73696355.700965881 0 73696355.700965881 -31490825.433152139 0 0 0 0 167839788.3176651 -124624329.68614197 0 -124624329.68614197 -17034348.798530579 0 0 0 0 5549186.141330719 -26324529.96893692 0 -26324529.96893692 -27234552.681405067 0 0 0 0 202729771.80363584 -142296434.34878102 0 -142296434.34878102 2404955.2735939026 0 0 0 0 216722171.55973816 105706264.11972046 0 105706264.11972046 -10229050.24707222 0 0 0 0 17914459.392631531 2499647.6963558197 0 2499647.6963558197 -17485469.421412468 0 0 0 0 1568348.3551030625 -2568455.856125603 0 -2568455.856125603 -2338054.8931776639 0 0 0 0 14108373.084828801 494236.68664228963 0 494236.68664228963 -7045735.0480669597 0 0 0 0 6308447.2235641479 -16171354.820903778 0 -16171354.820903778 -10362732.369001389 0 0 0 0 18704226.148734331 2442810.7734217644 0 2442810.7734217644 -26855829.682735443 0 0 0 0 -5215545.1301784515 -12052820.880165577 0 -12052820.880165577 -15047602.502150536 0 0 0 0 237678.41538414918 -1703116.0704288902 0 -1703116.0704288902 -2841712.3791846642 0 0 0 0 8116638.8457831778 2901798.9310590602 0 2901798.9310590602 -3690452.0347662028 0 0 0 0 16984754.968276978 -4053028.688744545 0 -4053028.688744545 -14059452.352298737 0 0 0 0 25844704.190101147 -12330428.781457007 0 -12330428.781457007 -6523338.6616458893 0 0 0 0 85177911.60294342 107424542.57375097 0 107424542.57375097 80359381.534002304 0 0 0 0 -69828590.405288696 -4378835.0465736389 0 -4378835.0465736389 -8848818.0517301559 0 0 0 0 42252143.348144531 6980785.6976661682 0 6980785.6976661682 -53258700.378479958 0 0 0 0 232506.32082332484 -280246.56818062358 0 -280246.56818062358 -908845.47763681912 0 0 0 0 30448869.595169067 33783060.242586136 0 33783060.242586136 12687425.858779907 0 0 0 0 96420528.164627075 55899286.118679047 0 55899286.118679047 -11736322.334354401 0 0 0 0 94056993.188686371 33049200.379287243 0 33049200.379287243 -37718281.673179626 0 0 0 0 65047660.651964188 -22584160.015913486 0 -22584160.015913486 386142.23643493652 0 0 0 0 98790364.435211182 17817393.532888412 0 17817393.532888412 -18096185.767318726 0 0 0 0 12095173.773727417 7775933.5733294487 0 7775933.5733294487 -33775186.196908951 0 0 0 0 3284603.374052098 58256.418319402263 0 58256.418319402263 -3444128.9636008283 0 0 0 0 10316104.5510149 5344893.1173410416 0 5344893.1173410416 -11163948.657110214 0 0 0 0 8571405.2923965454 1015870.9437608719 0 1015870.9437608719 2340412.5780220032 0 0 0 0 40204080.337615967 253672718.21067429 0 253672718.21067429 -166808687.40717125 0 0 0 0 -61547942.985294342 -21048003.864139557 0 -21048003.864139557 29070887.013842583 0 0 0 0 122307.86058629118 -137824.29104539473 0 -137824.29104539473 -722113.49419416534 0 0 0 0 26460106.997360229 32837764.551956177 0 32837764.551956177 32129182.58925724 0 0 0 0 98997981.024224669 46215842.65120896 0 46215842.65120896 -26105895.695047379 0 0 0 0 182206980.69142914 38042336.661890984 0 38042336.661890984 -37217172.959394455 0 0 0 0 120559021.61254883 131773675.03963184 0 131773675.03963184 5495580.6910743713 0 0 0 0 149051892.43570709 -45560515.292227745 0 -45560515.292227745 -5259177.1543834209 0 0 0 0 521908.41272647865 57479.222545592114 0 57479.222545592114 -543647.09142700536 0 0 0 0 26584543.212905884 35419189.17115593 0 35419189.17115593 -9822304.8463859558 0 0 0 0 61408121.04119873 41403068.025381088 0 41403068.025381088 -38138454.967633247 0 0 0 0 96705691.921173096 -55901639.210731506 0 -55901639.210731506 64037677.05555892 0 0 0 0 88672197.359016418 92373969.33148098 0 92373969.33148098 73733071.41091156 0 0 0 0 822127.23904490285 476165.40002179286 0 476165.40002179286 -1555253.6679596333 0 0 0 0 -46813952.855384827 6484680.0826334953 0 6484680.0826334953 53718459.677004814 0 0 0 0 -46373388.241424561 -57690475.030882359 0 -57690475.030882359 -13929383.68314743 0 0 0 0 7626525.7654190063 1424363.5923910141 0 1424363.5923910141 -2835960.4462375641 0 0 0 0 54246709.753080368 -7488232.2568869591 0 -7488232.2568869591 -30421246.531124115 0 0 0 0 617074.29705047607 -5002129.6798181534 0 -5002129.6798181534 4877882.6427440643 0 0 0 0 5058377.3540039062 -5295830.0670280457 0 -5295830.0670280457 18285.450834274292 0 0 0 0 2976934.5405807495 -2705635.3546662331 0 -2705635.3546662331 -2745109.3826446533 0 0 0 0 1865183.2591400146 5634228.1567745209 0 5634228.1567745209 6866360.5860061646 0 0 0 0 -86784934.152015686 -16666084.831270695 0 -16666084.831270695 10634378.930918694 0 0 0 0 19477238.331001282 62519707.779414177 0 62519707.779414177 -76739184.897586823 0 0 0 0 100591760.58620453 58179385.265734196 0 58179385.265734196 -55583576.365526199 0 0 0 0 40441921.502227783 28123047.392024994 0 28123047.392024994 -30087365.243149012 0 0 0 0 49447647.367927551 7245463.3022623062 0 7245463.3022623062 -48021242.189443588 0 0 0 0 53433079.974807739 2040016.0225152969 0 2040016.0225152969 -120926642.14704323 0 0 0 0 3207440.2405509949 3837808.4146471024 0 3837808.4146471024 -9747554.2058563232 0 0 0 0 -2529698.5902175903 1229333.9014072418 0 1229333.9014072418 -1922906.0799655914 0 0 0 0 -661248.14823436737 -2954019.820168972 0 -2954019.820168972 -16031864.406803131 0 0 0 0 590075.58198928833 4302199.7696323395 0 4302199.7696323395 -6874806.2855968475 0 0 0 0 2849435.9308662415 12931306.200862885 0 12931306.200862885 -5101448.3249492645 0 0 0 0 1254548.3920097351 11028101.858622551 0 11028101.858622551 -7328790.8004426956 0 0 0 0 -8592327.2193984985 12721705.876115799 0 12721705.876115799 -12258971.060702384 0 0 0 0 1045527.5386924744 -12818734.99144578 0 -12818734.99144578 -5343449.1297969818 0 0 0 0 9407426.5556983948 9176773.9860916138 0 9176773.9860916138 -12323644.601989746 0 0 0 0 3103941.9462127686 2113334.1109466553 0 2113334.1109466553 -28115367.103567123 0 0 0 0 -3076064.630531311 -7271329.909198761 0 -7271329.909198761 -13872809.92190361 0 0 0 0 958546.60475576902 1214020.3990079844 0 1214020.3990079844 -912344.66527855257 0 0 0 0 1927444.6994094849 5815028.7470321655 0 5815028.7470321655 -9691785.8221578598 0 0 0 0 -8568987.2440109253 17955906.707460403 0 17955906.707460403 -15003901.802131653 0 0 0 0 14169194.22068882 -1042281.6281151772 0 -1042281.6281151772 -14636898.604040146 0 0 0 0 8589678.0030670166 13886952.684103012 0 13886952.684103012 -24918927.05629158 0 0 0 0 5666526.4367615841 4728733.8539184136 0 4728733.8539184136 -198519.92104900512 0 0 0 0 4995964.1540565491 3842095.7795071602 0 3842095.7795071602 -12244650.410154343 0 0 0 0 5960023.8486549612 -575005.38779999316 0 -575005.38779999316 -3988590.0574557502 0 0 0 0 -16762416.383626938 -11399589.626937389 0 -11399589.626937389 -3440261.1736526489 0 0 0 0 11025824.13799857 2129105.0742931841 0 2129105.0742931841 -3985038.742261494 0 0 0 0 1964913.840133667 1174929.7198574543 0 1174929.7198574543 -4653791.8812599182 0 0 0 0 5982143.892578125 3593419.3557882309 0 3593419.3557882309 -9837653.5166809559 0 0 0 0 5862544.6264205864 -710452.04011305328 0 -710452.04011305328 -5741530.6450443212 0 0 0 0 6408430.2002754211 -1003649.4586660862 0 -1003649.4586660862 -6137092.8552238941 0 0 0 0 7183387.1812705994 1841675.1796224117 0 1841675.1796224117 -8926925.0979543924 0 0 0 0 3712478.8705302458 993014.63031726424 0 993014.63031726424 -3182664.731364971 0 0 0 0 9060744.4073138237 -8264391.9646433592 0 -8264391.9646433592 -9065170.176525116 0 0 0 0 1425248.8124694824 464262.16029644012 0 464262.16029644012 -2120218.8221130371 0 0 0 0 586568.77956164815 -1616581.6563691734 0 -1616581.6563691734 -2851765.9835742079 0 0 0 0 60855812.925109863 -43635730.779031754 0 -43635730.779031754 -355665571.08158016 0 0 0 0 -62417590.646575928 353608941.60477543 0 353608941.60477543 161379754.02306938 0 0 0 0 482125394.69320679 -354836044.87544394 0 -354836044.87544394 -188211692.90583801 0 0 0 0 -286756476.20422363 -186314376.5577364 0 -186314376.5577364 386191965.53459358 0 0 0 0 -349418302.93167877 -12932231.229306221 0 -12932231.229306221 86451299.160562515 0 0 0 0 1356953.3806266785 -660589.6177418232 0 -660589.6177418232 -1778008.5531942844 0 0 0 0 2004483.4754892373 -1521644.0712872678 0 -1521644.0712872678 -3436979.5906369975 0 0 0 0 -78447753.721618652 -31527372.872486115 0 -31527372.872486115 -111731330.79611969 0 0 0 0 93410.211576461792 -637613.4046227932 0 -637613.4046227932 -3210293.9741063118 0 0 0 0 3016114.6802402558 211323.88711797167 0 211323.88711797167 -2604978.3851815644 0 0 0 0 1035540.4602966309 -406319.02555084229 0 -406319.02555084229 -1221486.4770336151 0 0 0 0 1040794.9351650216 -850341.23371576855 0 -850341.23371576855 -3782312.6375176026 0 0 0 0 983670.47254609317 -617449.29619069211 0 -617449.29619069211 -2837935.4864410711 0 0 0 0 2717443.4134713477 952304.58451325865 0 952304.58451325865 -2077414.0447027744 0 0 0 0 1784574.9309463501 625135.03809022903 0 625135.03809022903 -2168118.4160528183 0 0 0 0 1514903.8837051392 505846.23768591881 0 505846.23768591881 -2209447.6153726578 0 0 0 0 1479446.9804115519 1439152.2522547957 0 1439152.2522547957 -4065927.4963843133 0 0 0 0 757132.78570556641 851577.14007735252 0 851577.14007735252 -1149351.2409088612 0 0 0 0 913427.22004641965 -1012987.4418660258 0 -1012987.4418660258 -2564726.4181101262 0 0 0 0 812276.62773955055 522306.16054604761 0 522306.16054604761 -1253979.2598109287 0 0 0 0 847227.67926502228 -285072.10629016161 0 -285072.10629016161 -2756947.0614748001 0 0 0 0 -1550773.7587661743 -1958821.1615533829 0 -1958821.1615533829 -8835472.5001344681 0 0 0 0 1232877.5321655273 -862309.18364310265 0 -862309.18364310265 -4353343.093791008 0 0 0 0 682712.20599471685 -515957.19202982914 0 -515957.19202982914 -1843341.423744238 0 0 0 0 730022.25433444977 -987844.23622357845 0 -987844.23622357845 -3503541.6211090088 0 0 0 0 222749.60755723342 -491555.69935864327 0 -491555.69935864327 -718432.37154693389 0 0 0 0 1867462.9210739136 -3730601.2201042175 0 -3730601.2201042175 -15796360.384762764 0 0 0 0 1493064.9479560852 -6185188.9545955658 0 -6185188.9545955658 -25242063.943042755 0 0 0 0 -37056442.041938782 -86170467.021822929 0 -86170467.021822929 202905502.22765875 0 0 0 0 -21788501.428516388 -107283037.84615183 0 -107283037.84615183 114594236.23081017 0 0 0 0 -7783084.3404827118 -21628409.821805954 0 -21628409.821805954 36153075.103290558 0 0 0 0 11393306.047485352 -21937362.234218597 0 -21937362.234218597 31238807.882133484 0 0 0 0 1035325.8856817931 -2065106.3484559013 0 -2065106.3484559013 -2141812.8516574157 0 0 0 0 -14246603.718017578 -73241101.145658493 0 -73241101.145658493 119521442.28676033 0 0 0 0 15444524.652587891 -31562791.095841408 0 -31562791.095841408 1318016.8642778397 0 0 0 0 -45442163.848571777 -45178738.334384918 0 -45178738.334384918 -1594758.6590633392 0 0 0 0 358472.89016632736 -124558.03882463463 0 -124558.03882463463 -611563.52087856829 0 0 0 0 4911955.2868041992 -35635831.890960693 0 -35635831.890960693 24483015.914941788 0 0 0 0 132639520.86828613 -86595162.572443962 0 -86595162.572443962 34204994.20085144 0 0 0 0 6549118.9491462708 -136480516.40335226 0 -136480516.40335226 122728881.69262886 0 0 0 0 134924709.39395142 -210518896.38306904 0 -210518896.38306904 143759992.86285734 0 0 0 0 33084689.88133049 19700359.548789024 0 19700359.548789024 66050579.278695107 0 0 0 0 -15025895.142616272 -14465984.455146313 0 -14465984.455146313 41911527.215728283 0 0 0 0 36133512.080154419 7099313.5768527985 0 7099313.5768527985 -46810782.164855957 0 0 0 0 753390.45017382316 -2362753.73145313 0 -2362753.73145313 -3028352.1751201614 0 0 0 0 72472032.675323486 -11391095.507033825 0 -11391095.507033825 -39619855.994174957 0 0 0 0 780117257.15278625 375605730.17753124 0 375605730.17753124 -385921193.92823315 0 0 0 0 15148267.864330292 -2388612.8408126831 0 -2388612.8408126831 -8520834.4451522827 0 0 0 0 1960106.6482650042 -1511053.26858282 0 -1511053.26858282 -2386432.8538784902 0 0 0 0 6155105.5024490356 5934730.1799275875 0 5934730.1799275875 20824994.592004776 0 0 0 0 647990.68321750313 -2441480.6839793632 0 -2441480.6839793632 -5620812.8911611885 0 0 0 0 86238.923131868709 -1888009.5635435274 0 -1888009.5635435274 -4514860.2168498933 0 0 0 0 76120437.981752396 -22957695.477194905 0 -22957695.477194905 -35541889.086864471 0 0 0 0 85103179.972864151 -144732389.47610068 0 -144732389.47610068 86102170.302334785 0 0 0 0 166712447.64362335 -157805249.1672802 0 -157805249.1672802 75555059.511717558 0 0 0 0 156758299.42437363 -98677148.248101711 0 -98677148.248101711 -59440356.241271019 0 0 0 0 185526580.27831268 6729762.2412462234 0 6729762.2412462234 55044496.45702076 0 0 0 0 108663265.62348557 -191204577.82225466 0 -191204577.82225466 177635162.58309174 0 0 0 0 -62250958.6508255 -199105181.83299637 0 -199105181.83299637 249058485.13401794 0 0 0 0 -263578.50182554685 68893.268599424511 0 68893.268599424511 533878.26055939076 0 0 0 0 -246339475.88137054 -123850408.85340023 0 -123850408.85340023 222038413.32392979 0 0 0 0 231574474.75669098 -194099483.31049943 0 -194099483.31049943 5287407.7491569519 0 0 0 0 71763237.779205322 -100237004.03222871 0 -100237004.03222871 -104404544.69797087 0 0 0 0 -151412896.32910156 24591434.561465502 0 24591434.561465502 64732224.32886529 0 0 0 0 -127736054.17585754 -89759349.349115372 0 -89759349.349115372 208055072.54487514 0 0 0 0 -12300657.535825253 -82586195.604707718 0 -82586195.604707718 145579980.31183338 0 0 0 0 -20195674.869255066 37735864.007324219 0 37735864.007324219 -37584392.164156437 0 0 0 0 -28421839.315299988 6209063.8889536858 0 6209063.8889536858 -2046819.4728503227 0 0 0 0 327975.1205175072 351305.39988783654 0 351305.39988783654 -434072.94830242358 0 0 0 0 1104452.3117815312 52480.363752814475 0 52480.363752814475 -30600.47906982596 0 0 0 0 1214273.5227813721 291488.43244934082 0 291488.43244934082 -1680727.5148410797 0 0 0 0 1001445.1821365356 311557.73014259338 0 311557.73014259338 -1213358.6705856323 0 0 0 0 1294448.7773656845 36225.884744763374 0 36225.884744763374 -1439796.0315532684 0 0 0 0 1199508.1606216431 -193111.30833673477 0 -193111.30833673477 -555855.55647659302 0 0 0 0 1540766.7114411201 -493413.91271872784 0 -493413.91271872784 -323699.32777839003 0 0 0 0 1371326.8695526123 -312025.35776615143 0 -312025.35776615143 -1036256.9452514648 0 0 0 0 761356.30743408203 -98908.824348449707 0 -98908.824348449707 -933382.953540802 0 0 0 0 1632956.2162570171 -260439.19831147883 0 -260439.19831147883 -479331.06945551606 0 0 0 0 751503.56079101562 -2097.7308444976807 0 -2097.7308444976807 -1423985.9094867706 0 0 0 0 329103.56162643433 672300.51587772369 0 672300.51587772369 -1924670.4090843201 0 0 0 0 1628467.2691650391 -387310.13054656982 0 -387310.13054656982 -2307482.2869443893 0 0 0 0 60008.142864746042 -14658.844442617148 0 -14658.844442617148 -30059.518480761442 0 0 0 0 70835791.981407166 -17808351.181677818 0 -17808351.181677818 -80837586.346986771 0 0 0 0 803483.95947647095 1107108.7337694168 0 1107108.7337694168 -2565997.2525310516 0 0 0 0 854964.81987380981 932418.06283998489 0 932418.06283998489 -2566007.2153720856 0 0 0 0 1568527.8798003346 -133594.70119077014 0 -133594.70119077014 -117883.74036727869 0 0 0 0 1002866.1987271309 1426146.0847455473 0 1426146.0847455473 -945828.07888240251 0 0 0 0 35838064.431785583 34460272.761889458 0 34460272.761889458 -39888658.943401337 0 0 0 0 28150879.656349182 406886.08965158463 0 406886.08965158463 -9907635.3059864044 0 0 0 0 -133000310.67235756 11130405.008884668 0 11130405.008884668 65883242.195707321 0 0 0 0 -341975251.35025024 391220242.16517639 0 391220242.16517639 -270768215.915205 0 0 0 0 -21526.364051103592 131172.94810670055 0 131172.94810670055 -51179.325114818406 0 0 0 0 193969366.27980042 128716470.65898514 0 128716470.65898514 58121261.150950432 0 0 0 0 -173782799.00225449 -316373441.71664381 0 -316373441.71664381 7591141.429271698 0 0 0 0 518189209.58911133 -136893960.80606079 0 -136893960.80606079 13535073.900161743 0 0 0 0 -101908981.27842712 80514313.238357544 0 80514313.238357544 236917882.41756868 0 0 0 0 32388032.667358398 -69496218.026351929 0 -69496218.026351929 161581643.66085815 0 0 0 0 698382.22367423773 -363247.500155963 0 -363247.500155963 -710094.66418166377 0 0 0 0 849934.57827479206 554441.75783078931 0 554441.75783078931 -65850.141481089173 0 0 0 0 28676684.060470581 6342917.8762741089 0 6342917.8762741089 18475584.215763092 0 0 0 0 -501999042.16235352 -1074340541.1022666 0 -1074340541.1022666 588634729.2576828 0 0 0 0 659246494.22798157 -90610858.023766518 0 -90610858.023766518 -44957527.595264435 0 0 0 0 56540518.56803894 80104516.312968254 0 80104516.312968254 58006497.377700806 0 0 0 0 99253872.162094116 8442224.7364273071 0 8442224.7364273071 -18047220.384039402 0 0 0 0 219210494.78038788 26892738.486423492 0 26892738.486423492 -44643270.636316299 0 0 0 0 95555541.569519043 -63892352.671884537 0 -63892352.671884537 -44531808.045896053 0 0 0 0 101386101.10163116 -19157183.23774004 0 -19157183.23774004 -59070495.964709282 0 0 0 0 95340709.688362122 -3134065.4049477577 0 -3134065.4049477577 -47392614.993896484 0 0 0 0 -9519249.313293457 42535294.15694809 0 42535294.15694809 -45962265.817223549 0 0 0 0 36271121.178062439 -17407043.338469982 0 -17407043.338469982 -36702337.213274002 0 0 0 0 68489389.223567963 -14799490.218577385 0 -14799490.218577385 -38452277.123527527 0 0 0 0 65415146.792892456 -30319320.283370972 0 -30319320.283370972 -37368593.590116978 0 0 0 0 72593220.331039429 -8179804.1805992126 0 -8179804.1805992126 -57685175.125555038 0 0 0 0 62771611.956565857 -59145889.259943485 0 -59145889.259943485 -65541762.986857712 0 0 0 0 73523473.537746429 -30847229.060647964 0 -30847229.060647964 -7944259.2726259232 0 0 0 0 26816370.516300201 -26443120.040333509 0 -26443120.040333509 7427289.6172609329 0 0 0 0 44693719.182261467 -1295853.2166888118 0 -1295853.2166888118 -11810275.772893906 0 0 0 0 34940744.875300884 15619426.049262479 0 15619426.049262479 -131732924.40380669 0 0 0 0 -39812785.476715088 -66619948.268347263 0 -66619948.268347263 -62060753.60843277 0 0 0 0 16041846.603624344 36015829.543150902 0 36015829.543150902 -133230415.18717575 0 0 0 0 -8646657.7179880142 39209698.351752162 0 39209698.351752162 -89004964.280509949 0 0 0 0 41090387.542221069 -29757360.427136898 0 -29757360.427136898 -188229615.23974037 0 0 0 0 59884963.825271606 86447676.154798985 0 86447676.154798985 75370034.873239607 0 0 0 0 80350223.000274658 44288796.593912125 0 44288796.593912125 22408397.448131561 0 0 0 0 22316205.266029358 27562730.134716153 0 27562730.134716153 81012128.670690536 0 0 0 0 28826653.290328979 -27478795.269892693 0 -27478795.269892693 -22427092.732431412 0 0 0 0 6083254.2108459473 -3486193.1684494019 0 -3486193.1684494019 -8667749.4689764977 0 0 0 0 3697822.868270874 1898076.6455287933 0 1898076.6455287933 -6762060.1998326778 0 0 0 0 -1160407.9519729614 -6228027.5261259079 0 -6228027.5261259079 -6344648.9513306618 0 0 0 0 77297106.677307129 -90183951.626317024 0 -90183951.626317024 -14244950.367185593 0 0 0 0 1208107.3968419749 -259328.11283735745 0 -259328.11283735745 -488760.03436685773 0 0 0 0 87379820.12677002 68007609.365270615 0 68007609.365270615 53441249.35559845 0 0 0 0 -17920593.364212036 -8725454.2557888031 0 -8725454.2557888031 -61757406.201396942 0 0 0 0 101379205.36276245 32240492.809043884 0 32240492.809043884 -76866950.877922058 0 0 0 0 19945.282022159547 -32337.429384896182 0 -32337.429384896182 12922.419242072036 0 0 0 0 182174656.58284378 -202031039.08163214 0 -202031039.08163214 99411901.264633179 0 0 0 0 -23475312.272674561 101380443.76500225 0 101380443.76500225 -134356806.83525372 0 0 0 0 -42389982.620834351 227004105.39049149 0 227004105.39049149 -141215499.14312363 0 0 0 0 76622328.314186096 -42759854.320073128 0 -42759854.320073128 -62745439.408666611 0 0 0 0 113872248.89260483 15451990.12434721 0 15451990.12434721 -210509422.47917938 0 0 0 0 97722354.443099976 36364412.138479233 0 36364412.138479233 -54563273.083322525 0 0 0 0 93195562.386131287 104911997.85994196 0 104911997.85994196 12653919.397536278 0 0 0 0 85748571.837608337 65177335.757575035 0 65177335.757575035 35210788.394994736 0 0 0 0 109122066.94239044 83191180.427080154 0 83191180.427080154 -39770127.844825745 0 0 0 0 10968445.827804565 5603745.53850317 0 5603745.53850317 -1997899.6796221733 0 0 0 0 1429366.6227226257 3009099.8363786936 0 3009099.8363786936 822119.34041595459 0 0 0 0 1484780.8534088135 -1446013.6719064713 0 -1446013.6719064713 -428757.57640838623 0 0 0 0 3762869.8785705566 -1381667.1679468155 0 -1381667.1679468155 -6821271.9798994064 0 0 0 0 -36937487.566360474 40718027.778539658 0 40718027.778539658 -41975670.385993004 0 0 0 0 3331411.4688568115 -2467428.8076972961 0 -2467428.8076972961 -3963779.1127490997 0 0 0 0 1328782.5035349857 -65679.534951875336 0 -65679.534951875336 -246282.7586244198 0 0 0 0 1347624.3266029358 829871.70761287212 0 829871.70761287212 -4175826.57787323 0 0 0 0 339260.02261678502 98077.286848638672 0 98077.286848638672 -431544.32864680281 0 0 0 0 575697.01121181063 521177.39094174793 0 521177.39094174793 -1381235.6707841228 0 0 0 0 4203964.6694545746 2359274.3505274057 0 2359274.3505274057 -2900471.5523719788 0 0 0 0 23211470.133636475 -1211129.2587099075 0 -1211129.2587099075 -3164723.0165176392 0 0 0 0 1619854.6191343796 -33360.873734261026 0 -33360.873734261026 -350142.1773294115 0 0 0 0 27910272.360321045 -28908305.099840164 0 -28908305.099840164 -184472750.16096687 0 0 0 0 36198216.397590637 -4549113.1983985901 0 -4549113.1983985901 -187892123.94950104 0 0 0 0 57456917.543640137 -13066097.944881439 0 -13066097.944881439 -184753833.69608116 0 0 0 0 44995769.449401855 5234394.9557962418 0 5234394.9557962418 -264194128.47957993 0 0 0 0 59154124.195571899 -26475677.740537643 0 -26475677.740537643 -200962283.50146866 0 0 0 0 41267446.271717072 1648466.5842113495 0 1648466.5842113495 -105868061.52682877 0 0 0 0 37467288.248016357 -46186360.361521721 0 -46186360.361521721 -207192989.09273338 0 0 0 0 -35284726.679885864 -62469928.950878143 0 -62469928.950878143 -103454177.63503265 0 0 0 0 41415224.126213074 -5727464.7385110855 0 -5727464.7385110855 -218522366.2678299 0 0 0 0 -1196522.8896179199 -94642510.671388626 0 -94642510.671388626 -181955043.07863617 0 0 0 0 50903615.777389526 41786759.091334343 0 41786759.091334343 -223971765.89327049 0 0 0 0 -44982149.419548035 90167557.973278046 0 90167557.973278046 -82908126.276809692 0 0 0 0 117745299.12727737 36294855.854248047 0 36294855.854248047 -65189432.360336304 0 0 0 0 23897268.927127838 -51317606.422770023 0 -51317606.422770023 90939964.782382965 0 0 0 0 16174109.946250916 20897147.912807465 0 20897147.912807465 -31772967.62730217 0 0 0 0 89754197.006904602 116209049.13419342 0 116209049.13419342 42908295.764347076 0 0 0 0 -30122644.555038452 111274925.27700996 0 111274925.27700996 205505011.3924365 0 0 0 0 21027341.592346191 -21020942.397483826 0 -21020942.397483826 -87099201.942857742 0 0 0 0 -7357080.3294677734 29752497.664243698 0 29752497.664243698 59197179.492530823 0 0 0 0 -8312222.0726013184 100487111.32440758 0 100487111.32440758 73658946.640875816 0 0 0 0 39993649.022598267 118955002.85610199 0 118955002.85610199 -12983802.272300243 0 0 0 0 4092679.5495071411 13712111.071101189 0 13712111.071101189 -25914548.766101837 0 0 0 0 6905309.2541275024 63186857.781627655 0 63186857.781627655 -101301012.41566086 0 0 0 0 188468.99729951052 -334474.59137359168 0 -334474.59137359168 -99910.595989492722 0 0 0 0 -44072008.35319519 82044878.039188385 0 82044878.039188385 -25870610.087310791 0 0 0 0 1052969.9594564438 -50713.839141011238 0 -50713.839141011238 -565671.99206924438 0 0 0 0 1615741.2651827 293036.73759636306 0 293036.73759636306 -837765.12649191171 0 0 0 0 72066.021451935172 -77357.980202260427 0 -77357.980202260427 25089.755830519134 0 0 0 0 -55299667.091972351 1198500.0322704315 0 1198500.0322704315 -693750.52463150024 0 0 0 0 22590159.370292664 54274777.911492825 0 54274777.911492825 -88968299.624759674 0 0 0 0 24902567.138669968 -40164645.013801575 0 -40164645.013801575 -10682491.666330338 0 0 0 0 44285742.652236938 41916.221309661865 0 41916.221309661865 23534722.914794147 0 0 0 0 39705629.069473267 53195486.558948517 0 53195486.558948517 -51407520.352607727 0 0 0 0 94206179.472068787 -28391409.582232714 0 -28391409.582232714 -131672456.2734108 0 0 0 0 42095591.465364456 108470454.53107285 0 108470454.53107285 21388147.553318024 0 0 0 0 810127.0479834415 23030.440698355902 0 23030.440698355902 -515787.64326992258 0 0 0 0 -582665.61883544922 -152998.20154953003 0 -152998.20154953003 1948494.3269920349 0 0 0 0 642421.70960617065 -1272306.1647372246 0 -1272306.1647372246 -2696849.0221538544 0 0 0 0 -213287.85231018066 -2201024.7847709656 0 -2201024.7847709656 2194889.8900771141 0 0 0 0 1456787.8354343465 -670864.05156521033 0 -670864.05156521033 -287982.29023841489 0 0 0 0 1346057.6113967896 -211817.9360742569 0 -211817.9360742569 -890792.95091056824 0 0 0 0 575375.87199401855 332160.26979732513 0 332160.26979732513 -848011.2500038147 0 0 0 0 -2424338.299911499 -1878865.7189054489 0 -1878865.7189054489 1794228.7705116272 0 0 0 0 2973283.3102617264 675303.39853668213 0 675303.39853668213 -6043267.3831768036 0 0 0 0 610832.1811781195 -340236.04700597376 0 -340236.04700597376 52384.989299401641 0 0 0 0 190775.36480274145 -101308.6286473209 0 -101308.6286473209 13243.847721973434 0 0 0 0 -6343937.3310203552 11003732.215429306 0 11003732.215429306 -13555449.092971802 0 0 0 0 -7133719.9050292969 8083874.9204616547 0 8083874.9204616547 -3688578.9998636246 0 0 0 0 -5712285.624420166 5351453.0766906738 0 5351453.0766906738 -2017460.0361537933 0 0 0 0 2931506.5930786133 11760770.173085213 0 11760770.173085213 -10795748.917854309 0 0 0 0 -5221288.0320987701 11118482.943701267 0 11118482.943701267 -9424833.8047523499 0 0 0 0 -2330269.3837814331 7529849.7037181854 0 7529849.7037181854 -6953112.9253530502 0 0 0 0 -2641566.9498977661 8868646.7787466049 0 8868646.7787466049 -11946092.828966141 0 0 0 0 1398542.7126925644 118302.24174415506 0 118302.24174415506 -389035.20988832915 0 0 0 0 -1177476.3572921753 5209895.7678689957 0 5209895.7678689957 -8214359.3506317139 0 0 0 0 -1259665.6434516907 4227701.6677885056 0 4227701.6677885056 -8992667.4216098785 0 0 0 0 1405123.0696334839 -3154772.325717926 0 -3154772.325717926 -3213348.9151101112 0 0 0 0 -33317.847381591797 -4547907.1567134857 0 -4547907.1567134857 417860.5873260498 0 0 0 0 885274.40764811635 106637.69912811951 0 106637.69912811951 -194694.4497297561 0 0 0 0 6038979.8837909698 4980787.8933758736 0 4980787.8933758736 -7276600.6739673615 0 0 0 0 122386.32684326172 -5899755.1658649445 0 -5899755.1658649445 -9469027.1813488007 0 0 0 0 -6797361.3346481323 3195261.6209430695 0 3195261.6209430695 7975005.0363750458 0 0 0 0 21291137.964279175 -2995820.7570438385 0 -2995820.7570438385 -30898195.388980865 0 0 0 0 366291.69969804585 142301.38901805202 0 142301.38901805202 -292828.4961074756 0 0 0 0 -25442618.919754028 -17666131.192333221 0 -17666131.192333221 14891016.957386017 0 0 0 0 15772760.456127167 4992747.7349281311 0 4992747.7349281311 -21483957.560826302 0 0 0 0 41767427.059627533 -13197034.781299591 0 -13197034.781299591 -25733318.599571228 0 0 0 0 -981362.1463394165 -7298016.3072490692 0 -7298016.3072490692 -26474523.293628693 0 0 0 0 19509096.300556183 4517639.3888559341 0 4517639.3888559341 -21529699.952663422 0 0 0 0 7791640.0020217896 -2816785.4080810547 0 -2816785.4080810547 -26103619.10905838 0 0 0 0 -2108883.997795105 2268746.7818994522 0 2268746.7818994522 -15238889.870096207 0 0 0 0 6170200.8921127319 6812686.6012992859 0 6812686.6012992859 -18757606.117909431 0 0 0 0 3774657.4681854248 18116592.632923126 0 18116592.632923126 -5358214.7822532654 0 0 0 0 17150956.646736145 12092003.388925552 0 12092003.388925552 -16704079.343313217 0 0 0 0 -797064.53875732422 14541502.894599915 0 14541502.894599915 -5605259.231678009 0 0 0 0 49585818.280975342 22577077.113934517 0 22577077.113934517 -16502606.686988831 0 0 0 0 31209570.934706688 -24271.202699184418 0 -24271.202699184418 -5421949.5653362274 0 0 0 0 55388656.252540588 11423159.01031971 0 11423159.01031971 -18803093.581930161 0 0 0 0 22351358.413614273 20944728.517098188 0 20944728.517098188 -36723423.110414505 0 0 0 0 -13313306.447841644 39057175.138240814 0 39057175.138240814 -51152915.449270248 0 0 0 0 -140828735.21434784 -88414725.161659241 0 -88414725.161659241 -71057748.571153641 0 0 0 0 -34470905.021614075 11803226.912409782 0 11803226.912409782 13036425.369976044 0 0 0 0 -36332263.487649441 24440192.271848083 0 24440192.271848083 -1154947.109085083 0 0 0 0 140352.64986921009 6232.9490239005536 0 6232.9490239005536 -276983.67473269906 0 0 0 0 3693294.8996582031 -23937858.894340515 0 -23937858.894340515 10414924.780679941 0 0 0 0 -9745148.6242427826 -2005708.6444683075 0 -2005708.6444683075 -22192279.291950226 0 0 0 0 -7180834.6310348511 5448940.4176752567 0 5448940.4176752567 -7177794.2693881989 0 0 0 0 -5441083.333366394 7221881.1583652496 0 7221881.1583652496 -12947521.053395271 0 0 0 0 -5475120.8679924011 11256737.608661652 0 11256737.608661652 -8367555.0603475571 0 0 0 0 75685654.675636292 17728928.968927383 0 17728928.968927383 -39196076.783480644 0 0 0 0 59831513.700687408 55802819.545892239 0 55802819.545892239 2730605.9473438263 0 0 0 0 70044652.340759277 16835052.856035709 0 16835052.856035709 -37995679.750185013 0 0 0 0 8207107.0278892517 21960155.031297684 0 21960155.031297684 -16754968.347190857 0 0 0 0 9514719.6073646545 31149120.031718254 0 31149120.031718254 -25220051.297149658 0 0 0 0 47756399.001976013 26463095.284472466 0 26463095.284472466 -26993172.671388626 0 0 0 0 -32696485.974472046 42148897.268450737 0 42148897.268450737 -11767673.20687294 0 0 0 0 -16334105.158081055 -300275.91827368736 0 -300275.91827368736 -14621235.915912628 0 0 0 0 73097223.921972275 17683379.325051308 0 17683379.325051308 -37320109.68960762 0 0 0 0 55926748.679057121 7927581.1577541828 0 7927581.1577541828 -36831938.840862274 0 0 0 0 78973134.174491882 -1827738.6632595062 0 -1827738.6632595062 -29737496.984875679 0 0 0 0 2460105.8224992724 168990.10403951257 0 168990.10403951257 -339671.68873009365 0 0 0 0 24006103.923461914 -5033314.1993665695 0 -5033314.1993665695 -22896949.889053345 0 0 0 0 96856784.206798553 3693219.4097084999 0 3693219.4097084999 -15622736.353643417 0 0 0 0 61577734.281921387 -2552974.5324792862 0 -2552974.5324792862 8278366.3279838562 0 0 0 0 708086.59087311802 46776.444198197685 0 46776.444198197685 -116850.21166467015 0 0 0 0 63509983.08511734 -19907402.045800447 0 -19907402.045800447 -41917961.071725845 0 0 0 0 121703302.2036972 32778549.599496841 0 32778549.599496841 -17163269.484241009 0 0 0 0 -45451618.322280884 -73622646.183051109 0 -73622646.183051109 -28887489.126092911 0 0 0 0 138105896.6469965 97255136.719424725 0 97255136.719424725 56190974.051309586 0 0 0 0 204463747.36819458 -72481169.129205942 0 -72481169.129205942 -96805110.608133316 0 0 0 0 -38003166.581962585 -45510652.435903549 0 -45510652.435903549 25402020.039224625 0 0 0 0 -16617399.79045105 -15902704.886909485 0 -15902704.886909485 32170303.072843552 0 0 0 0 14523267.454421997 -34807846.59810257 0 -34807846.59810257 -42865188.964390755 0 0 0 0 54128785.721755981 95804664.875255585 0 95804664.875255585 187531486.18224907 0 0 0 0 328478.23305121437 89074.533291930449 0 89074.533291930449 -71555.572855519131 0 0 0 0 69887517.431632996 114446014.66283417 0 114446014.66283417 197878992.97258377 0 0 0 0 56207248.354307175 37314356.962010384 0 37314356.962010384 78966105.817642212 0 0 0 0 36866470.619979858 54419754.267038345 0 54419754.267038345 210894513.51536608 0 0 0 0 88290822.296783447 5114036.0206203461 0 5114036.0206203461 94826386.048444748 0 0 0 0 204484579.58560753 7891565.0375218391 0 7891565.0375218391 27734164.398347855 0 0 0 0 116330769.73361969 -84748346.837174892 0 -84748346.837174892 59290893.476554871 0 0 0 0 99532402.158943176 105157305.41837692 0 105157305.41837692 155983082.90692139 0 0 0 0 101286509.21352768 -37548912.466110229 0 -37548912.466110229 -50931010.875196457 0 0 0 0 84465387.051567078 -28901566.719543457 0 -28901566.719543457 27202989.611432552 0 0 0 0 56653218.027938843 -12449551.692061424 0 -12449551.692061424 147745640.08055878 0 0 0 0 53044571.498609543 11556739.400032759 0 11556739.400032759 9047893.2362003326 0 0 0 0 20367948.034690857 12984172.368331909 0 12984172.368331909 33059067.97542572 0 0 0 0 4949370.0319252014 39779689.181604385 0 39779689.181604385 11298434.198009491 0 0 0 0 -7524407.0173721313 24195125.104301453 0 24195125.104301453 4252315.952167511 0 0 0 0 -3222086.3013381958 13545683.391017914 0 13545683.391017914 22316534.909071922 0 0 0 0 7328797.6614952087 25076922.748010159 0 25076922.748010159 -9438712.7298526764 0 0 0 0 51447015.813217163 19964496.466680527 0 19964496.466680527 -14253837.613288879 0 0 0 0 155927807.34064102 40858266.318919182 0 40858266.318919182 -14440238.825192928 0 0 0 0 7333046.1858444214 95339654.926958084 0 95339654.926958084 57471403.242528915 0 0 0 0 149415499.87995529 -62997209.757143021 0 -62997209.757143021 -166397050.87284279 0 0 0 0 166709719.87987137 -13260778.311660767 0 -13260778.311660767 -45605743.164154053 0 0 0 0 350253.70017864183 271412.31565428677 0 271412.31565428677 -236636.31310074835 0 0 0 0 94607911.782432556 197196226.64060593 0 197196226.64060593 297290050.58113766 0 0 0 0 271566464.46365738 159504823.87894607 0 159504823.87894607 41282906.821702957 0 0 0 0 236826162.93447876 -30731618.159641266 0 -30731618.159641266 -13554891.106172562 0 0 0 0 35062427.350990295 18540080.497930527 0 18540080.497930527 -31521762.528266907 0 0 0 0 -24343493.212280273 -36589826.441612244 0 -36589826.441612244 35955754.102048874 0 0 0 0 65536562.678077698 -50745787.132732391 0 -50745787.132732391 90659257.173009872 0 0 0 0 26532140.05770874 309230.47860908508 0 309230.47860908508 -129729670.30923843 0 0 0 0 -24925429.618179321 47453628.372368813 0 47453628.372368813 -32892152.626585007 0 0 0 0 62959443.014762878 67529504.435979843 0 67529504.435979843 14954752.818717957 0 0 0 0 53626181.130413532 19395124.159133911 0 19395124.159133911 -22871528.745925903 0 0 0 0 18051142.796524048 14181462.544584274 0 14181462.544584274 81681021.652702332 0 0 0 0 40375968.111114502 21005119.637350082 0 21005119.637350082 -130659038.41514206 0 0 0 0 10074520.012680054 -59494482.088336945 0 -59494482.088336945 -94234737.59821701 0 0 0 0 86943755.920227051 11471591.131185532 0 11471591.131185532 -57596320.40222168 0 0 0 0 24050646.114387512 -45132853.020195007 0 -45132853.020195007 15843262.305169582 0 0 0 0 25118416.78679657 -143992018.25287437 0 -143992018.25287437 -214635930.14578152 0 0 0 0 35344364.362677097 24022593.365216255 0 24022593.365216255 -188884516.03040695 0 0 0 0 920203.41297715157 688645.3252111508 0 688645.3252111508 -684633.33589784789 0 0 0 0 2131328.0945129395 4904283.3964309692 0 4904283.3964309692 -306567398.22592664 0 0 0 0 41817191.451835632 -55641627.72961235 0 -55641627.72961235 -308492065.36515617 0 0 0 0 46585575.485473633 69912351.18980217 0 69912351.18980217 66144613.410069466 0 0 0 0 -95872674.781097412 10796742.251689911 0 10796742.251689911 -190260292.41136551 0 0 0 0 -23931335.409179688 -64719680.033546448 0 -64719680.033546448 -203840931.18548203 0 0 0 0 178896.71770123858 -10335.578822441865 0 -10335.578822441865 -168738.0606308477 0 0 0 0 -74961266.452941895 -166729039.09952164 0 -166729039.09952164 -384901169.99535751 0 0 0 0 -21378952.4296875 -13462912.872203827 0 -13462912.872203827 -185458859.57299805 0 0 0 0 -11636414.407363892 43520010.413475037 0 43520010.413475037 -354550143.23443079 0 0 0 0 1106589.8155822754 -43224609.675928116 0 -43224609.675928116 -161147562.82696724 0 0 0 0 -48994632.644012451 65389097.540523529 0 65389097.540523529 -183986829.01335144 0 0 0 0 33031465.862362862 56759353.920424938 0 56759353.920424938 55508832.019622803 0 0 0 0 51083733.891464233 55017116.195346832 0 55017116.195346832 32976309.619380951 0 0 0 0 88208741.74621582 76290847.517939568 0 76290847.517939568 17096500.280662537 0 0 0 0 80360362.381843567 85466131.001338482 0 85466131.001338482 11927906.934103966 0 0 0 0 64965270.414604187 70865316.400195122 0 70865316.400195122 50795853.387241364 0 0 0 0 55435558.042301178 79020701.381432533 0 79020701.381432533 73975421.704406738 0 0 0 0 102033127.83131409 115610947.63785458 0 115610947.63785458 50355226.055461884 0 0 0 0 85297368.061130524 72698413.534165859 0 72698413.534165859 57863592.489216805 0 0 0 0 96527188.763832092 82494856.792131424 0 82494856.792131424 12472526.551626205 0 0 0 0 83805322.448383331 80296903.678524971 0 80296903.678524971 51521167.718042374 0 0 0 0 101681145.74015808 81633187.072495461 0 81633187.072495461 4790676.1906571388 0 0 0 0 60969047.336677551 62802280.648237228 0 62802280.648237228 18201355.581485748 0 0 0 0 33605652.22618866 -36448546.220276833 0 -36448546.220276833 -9329351.1058018208 0 0 0 0 25618587.269340515 15618893.608437538 0 15618893.608437538 -66539290.427454948 0 0 0 0 32491976.145217896 -38450351.775915146 0 -38450351.775915146 -9755305.8246226311 0 0 0 0 9260959.6741867065 -61429033.092266083 0 -61429033.092266083 7192510.5686798096 0 0 0 0 36255248.540649414 -67696971.610601425 0 -67696971.610601425 5850425.1286907196 0 0 0 0 59738358.676624298 -48058918.614117622 0 -48058918.614117622 -10915645.218635559 0 0 0 0 49493950.324558258 -30426679.307785034 0 -30426679.307785034 28969805.556991577 0 0 0 0 28401352.937217712 78764841.363540649 0 78764841.363540649 51117418.622899413 0 0 0 0 129314375.82481766 105376723.6794405 0 105376723.6794405 -32914617.040561676 0 0 0 0 94473823.184463501 -41815760.279618263 0 -41815760.279618263 -24770274.534526825 0 0 0 0 -760701.73072751332 642476.89377758931 0 642476.89377758931 628742.54474005802 0 0 0 0 42519408.59262085 40006285.88003087 0 40006285.88003087 -6751333.7526397705 0 0 0 0 66085269.933349609 35358868.879055023 0 35358868.879055023 -13845334.651027441 0 0 0 0 -808415.2205911167 5211468.3348715501 0 5211468.3348715501 -5978887.7029782329 0 0 0 0 -27542102.212432861 23731322.874526024 0 23731322.874526024 -5714924.2737350464 0 0 0 0 -6466118.4468612671 74030767.408561707 0 74030767.408561707 55142149.067885876 0 0 0 0 38122267.013698578 82609823.732345581 0 82609823.732345581 56074930.003681183 0 0 0 0 -1747895.3485834636 5799308.6187905464 0 5799308.6187905464 -5219576.735558656 0 0 0 0 12490200.982124329 47586797.538879395 0 47586797.538879395 86615505.807319641 0 0 0 0 42100707.310770273 44096276.203033447 0 44096276.203033447 -16668784.151062012 0 0 0 0 25130709.347888947 -32232599.091271877 0 -32232599.091271877 -4212645.2841639519 0 0 0 0 11041067.787010193 92594080.130815506 0 92594080.130815506 -47306843.909799576 0 0 0 0 65741808.478982449 44145377.071129203 0 44145377.071129203 -79778081.740345001 0 0 0 0 8582438.8682727814 -14125319.331729889 0 -14125319.331729889 -7914687.1608276367 0 0 0 0 31831153.915325165 21125299.272411346 0 21125299.272411346 -18117965.46710968 0 0 0 0 73337657.077457428 4017530.7435970306 0 4017530.7435970306 -19731321.694347382 0 0 0 0 43680827.849345207 16933763.03182745 0 16933763.03182745 -1049781.5819015503 0 0 0 0 49075584.640509129 -2855439.6772830486 0 -2855439.6772830486 -27731056.603881836 0 0 0 0 88647469.388279915 -11580339.646107197 0 -11580339.646107197 -47136536.789049149 0 0 0 0 43937744.902387619 -22711424.343909264 0 -22711424.343909264 59465376.322240829 0 0 0 0 78002156.564754486 58189399.656626225 0 58189399.656626225 122567674.97488403 0 0 0 0 111854634.84624481 76535442.746363163 0 76535442.746363163 51757881.250698328 0 0 0 0 55380624.656959534 -63699676.695325851 0 -63699676.695325851 84206836.794163227 0 0 0 0 -967999.56318527181 3397494.1603884064 0 3397494.1603884064 -5866626.9626302104 0 0 0 0 90412639.738548279 96577740.631959438 0 96577740.631959438 66570856.931299448 0 0 0 0 2466439.3299114443 594050.71135757421 0 594050.71135757421 -2425266.8078185534 0 0 0 0 13832004.627571106 38365104.903470993 0 38365104.903470993 22125002.163089752 0 0 0 0 -95351546.857162476 -29679508.152434826 0 -29679508.152434826 188426677.99383545 0 0 0 0 -493202303.9118042 77921020.418140411 0 77921020.418140411 163493369.54181743 0 0 0 0 184188512.76091003 23938482.937627792 0 23938482.937627792 94631820.505455017 0 0 0 0 -192027566.8958416 202623443.93359137 0 202623443.93359137 54100395.887476921 0 0 0 0 -528986182.6140995 -286522534.11876237 0 -286522534.11876237 419764734.63665867 0 0 0 0 218325886.44485474 -35675503.304258823 0 -35675503.304258823 -145281252.84727669 0 0 0 0 301768185.1866684 31030113.757514954 0 31030113.757514954 -295572920.73527414 0 0 0 0 -146751117.46253967 383416702.08053446 0 383416702.08053446 -255220013.29135513 0 0 0 0 -525709.23404626083 2143348.8661135412 0 2143348.8661135412 -4892529.3666591831 0 0 0 0 -27497266.824790955 376716670.52699757 0 376716670.52699757 -815997555.78499985 0 0 0 0 -15199431.81794548 -3016141.9968595505 0 -3016141.9968595505 42321802.629493713 0 0 0 0 36196341.276443481 19378306.164821625 0 19378306.164821625 9928733.3522930145 0 0 0 0 50194988.19084549 83811208.807291031 0 83811208.807291031 70180529.213157654 0 0 0 0 28061064.914848328 104816302.52018166 0 104816302.52018166 154475124.04020309 0 0 0 0 57577939.198516846 102898800.45195866 0 102898800.45195866 116303154.14800262 0 0 0 0 74076298.755577087 105137059.14102173 0 105137059.14102173 65449641.927898407 0 0 0 0 75888093.244659424 101267351.5631218 0 101267351.5631218 52201187.828914642 0 0 0 0 -592699224.15919495 -122089707.72119045 0 -122089707.72119045 141894193.40267372 0 0 0 0 -172423.76644894108 376162.68395478837 0 376162.68395478837 -672079.38666091883 0 0 0 0 -318683.33247135673 1188856.7765521226 0 1188856.7765521226 -3059825.6686438718 0 0 0 0 72246382.7525177 88998183.983507752 0 88998183.983507752 100960677.26144028 0 0 0 0 38932556.599453926 116549220.97868705 0 116549220.97868705 261557584.49437904 0 0 0 0 65073390.506507874 42867083.930901527 0 42867083.930901527 118436307.83489799 0 0 0 0 46971639.639686584 57517402.099393845 0 57517402.099393845 107622357.3482008 0 0 0 0 25823027.465003967 13807710.971204758 0 13807710.971204758 61238083.122661591 0 0 0 0 31062081.504239082 68333233.396596909 0 68333233.396596909 113582921.36283112 0 0 0 0 56536191.978965759 146141940.08701229 0 146141940.08701229 174791351.20689249 0 0 0 0 33597269.412397861 92912532.326661348 0 92912532.326661348 211491741.64431763 0 0 0 0 39286270.800598145 80050491.380605698 0 80050491.380605698 103420799.30035973 0 0 0 0 59478385.824211121 117001670.57398367 0 117001670.57398367 299377492.32865524 0 0 0 0 100188841.24129295 250785333.79501009 0 250785333.79501009 237160287.85650253 0 0 0 0 112426745.12532043 227541293.03559637 0 227541293.03559637 100938964.12407494 0 0 0 0 70285797.305034637 199832349.75859547 0 199832349.75859547 160111732.8955431 0 0 0 0 65803650.82037735 210388197.40495253 0 210388197.40495253 159589317.44019306 0 0 0 0 77513263.292230606 204500615.07355714 0 204500615.07355714 96039356.238165855 0 0 0 0 44355245.689771652 136235620.81684494 0 136235620.81684494 186436320.13935471 0 0 0 0 57093234.747882843 136869960.11322308 0 136869960.11322308 139848176.20800304 0 0 0 0 53750680.667755127 130253302.32603073 0 130253302.32603073 127621315.48757362 0 0 0 0 84040687.571235657 115159675.8218174 0 115159675.8218174 118837635.51535749 0 0 0 0 99099034.740646362 148882225.65290546 0 148882225.65290546 135258076.54448605 0 0 0 0 79745759.813064575 106267075.27082634 0 106267075.27082634 114261001.5423584 0 0 0 0 107907444.10516357 72290420.576152802 0 72290420.576152802 107656834.48763657 0 0 0 0 153249637.41500854 63446796.847120285 0 63446796.847120285 104751122.40036869 0 0 0 0 138457955.44677734 105311432.24962234 0 105311432.24962234 107329308.5740757 0 0 0 0 98936768.712547302 136303650.12064171 0 136303650.12064171 83094499.210958481 0 0 0 0 257193140.32884216 98649305.127937317 0 98649305.127937317 31360391.183450699 0 0 0 0 253249396.92935443 205913398.83083522 0 205913398.83083522 -68219650.992076874 0 0 0 0 183546545.24233246 224561524.94566727 0 224561524.94566727 367199.57128143311 0 0 0 0 175709210.30353737 152884204.26726103 0 152884204.26726103 60332095.822372437 0 0 0 0 125358267.77251053 211486396.7647438 0 211486396.7647438 19824813.418764114 0 0 0 0 168653376.79559326 181751241.86403084 0 181751241.86403084 -46636449.638065338 0 0 0 0 164486524.34622955 235427067.13275337 0 235427067.13275337 10868283.36207962 0 0 0 0 65889067.811080933 322615458.30508327 0 322615458.30508327 -853162.19921457767 0 0 0 0 185300489.72462595 311986286.69335246 0 311986286.69335246 -197965970.28796768 0 0 0 0 88886967.662020683 214889929.63123393 0 214889929.63123393 103333163.9593153 0 0 0 0 88593612.561851501 189907345.57084846 0 189907345.57084846 102672092.49944115 0 0 0 0 129227828.56756592 196683756.74241638 0 196683756.74241638 70380952.86523819 0 0 0 0 80277078.361335754 235428976.36015987 0 235428976.36015987 55112708.6718297 0 0 0 0 49416375.681510925 241336155.88349664 0 241336155.88349664 142084654.89778328 0 0 0 0 58970111.530946732 228045605.41097355 0 228045605.41097355 99337682.83532238 0 0 0 0 11898514.141376495 279786935.2828908 0 279786935.2828908 106658172.63920696 0 0 0 0 -228039.01513671875 198931331.94738889 0 198931331.94738889 266638997.36310959 0 0 0 0 70141259.525802612 348586229.94974566 0 348586229.94974566 129195345.42765427 0 0 0 0 94373376.525829315 264109138.89453363 0 264109138.89453363 107647755.56022644 0 0 0 0 43889882.769374847 158415293.22027007 0 158415293.22027007 49429136.131415576 0 0 0 0 26207233.608573914 171694036.0779539 0 171694036.0779539 187769361.98064291 0 0 0 0 84065390.132137299 200752287.50255728 0 200752287.50255728 -1487055.6831448078 0 0 0 0 71696983.444339752 119888222.45331287 0 119888222.45331287 35976129.709773839 0 0 0 0 51214400.776609898 214521668.13486421 0 214521668.13486421 98199272.499789238 0 0 0 0 82974500.836606979 208743512.39385653 0 208743512.39385653 111277847.65329552 0 0 0 0 286683443.67925644 150192267.43875188 0 150192267.43875188 34861993.944673061 0 0 0 0 322856708.43276787 161351980.78765303 0 161351980.78765303 -9256997.8585305214 0 0 0 0 294634225.10149384 140849690.00790918 0 140849690.00790918 -15238284.258927464 0 0 0 0 264815588.88761902 90745876.414168358 0 90745876.414168358 5195341.3074365258 0 0 0 0 265264147.54969788 41953882.908251524 0 41953882.908251524 -64623242.128610253 0 0 0 0 310983922.07199097 85593816.2083354 0 85593816.2083354 -44470009.625655532 0 0 0 0 307991558.2920258 11178070.366015345 0 11178070.366015345 -116444225.83497787 0 0 0 0 338185908.37921906 97630270.842042565 0 97630270.842042565 -73465711.089447975 0 0 0 0 408000082.18849182 147858918.59230196 0 147858918.59230196 -41637886.050753236 0 0 0 0 364368525.09243774 160299009.13004255 0 160299009.13004255 -15954539.689166307 0 0 0 0 368023413.68730927 60372522.632978231 0 60372522.632978231 -70309240.882084846 0 0 0 0 450515899.56190491 165268918.79556903 0 165268918.79556903 96837455.690612555 0 0 0 0 486447274.29283142 100905479.42151856 0 100905479.42151856 -5138870.8147041798 0 0 0 0 420049477.29441833 130861434.5442332 0 130861434.5442332 -18410799.51789093 0 0 0 0 501460902.83790588 179744376.28044885 0 179744376.28044885 -13280076.605813861 0 0 0 0 263958532.62402213 165190074.29666892 0 165190074.29666892 36612182.93077445 0 0 0 0 456237311.89369202 243527041.67328715 0 243527041.67328715 23777354.159128964 0 0 0 0 6992636.3377990723 157992105.46284726 0 157992105.46284726 163067345.45670351 0 0 0 0 267493783.93489838 241243685.22204244 0 241243685.22204244 36002920.943351269 0 0 0 0 378343581.65023041 183495244.30158627 0 183495244.30158627 -16038750.258491755 0 0 0 0 518192878.39670563 182575284.68149954 0 182575284.68149954 195675503.18785024 0 0 0 0 311152.61984716915 61676.364294283092 0 61676.364294283092 -976706.26149187505 0 0 0 0 210096140.41931534 75456958.586185455 0 75456958.586185455 216873718.48777246 0 0 0 0 92131379.194099426 124950120.3563723 0 124950120.3563723 293150947.16233933 0 0 0 0 125782004.77729034 219286601.48887348 0 219286601.48887348 240661410.36918116 0 0 0 0 605670681.08997726 264405829.73931932 0 264405829.73931932 45648836.766621113 0 0 0 0 400589274.32666779 -196451915.2873435 0 -196451915.2873435 -245536405.37687111 0 0 0 0 -234521101.79866028 349642172.74449062 0 349642172.74449062 179695740.43253899 0 0 0 0 192723.41547302809 606695.21509122103 0 606695.21509122103 -2207411.3512639566 0 0 0 0 298505598.21875668 181356653.56119388 0 181356653.56119388 65349511.985704899 0 0 0 0 294730971.49987793 146595888.21825194 0 146595888.21825194 18266296.34416008 0 0 0 0 230509881.57184601 120200266.27935338 0 120200266.27935338 72872400.692173719 0 0 0 0 251741926.00970078 122216568.26039648 0 122216568.26039648 120172023.93787575 0 0 0 0 253424561.78362656 131903000.54471207 0 131903000.54471207 39631813.617815018 0 0 0 0 -1437264704.4885521 443029665.71061945 0 443029665.71061945 808229023.37266922 0 0 0 0 -1257022224.7269974 -1136200621.8402529 0 -1136200621.8402529 -424852235.61022568 0 0 0 0 -31843323.854606628 530846159.74152565 0 530846159.74152565 -89905367.893184662 0 0 0 0 23052609.278495789 88308096.063145638 0 88308096.063145638 -323403639.78451157 0 0 0 0 -26424.238491860218 285388.29857623857 0 285388.29857623857 -1066893.1824900149 0 0 0 0 343687983.32646465 178586168.76427555 0 178586168.76427555 19233379.614697456 0 0 0 0 -242132.95140560344 903844.52581402939 0 903844.52581402939 -1929063.9186668906 0 0 0 0 310238963.38037872 91563957.244637251 0 91563957.244637251 39502360.854653835 0 0 0 0 215248847.61729431 107730169.85446763 0 107730169.85446763 17238905.020324707 0 0 0 0 227378569.72261047 86218566.865531445 0 86218566.865531445 55254632.902930856 0 0 0 0 272906380.23686981 131386540.31047964 0 131386540.31047964 11349325.561450958 0 0 0 0 217769316.73252869 99676659.886369705 0 99676659.886369705 17393542.989351511 0 0 0 0 226359542.47544861 98687100.481805801 0 98687100.481805801 -26691806.071421623 0 0 0 0 168141659.44561768 74007109.584545135 0 74007109.584545135 9122933.3255836964 0 0 0 0 140348612.58935547 71395655.024775982 0 71395655.024775982 8271736.1846728325 0 0 0 0 173128642.54472351 62681282.579366207 0 62681282.579366207 -34040298.017656326 0 0 0 0 118675487.52929688 48432816.052168846 0 48432816.052168846 9642154.3499299288 0 0 0 0 140368627.7605896 31575723.183074951 0 31575723.183074951 -41471358.881086349 0 0 0 0 202877805.56710815 40820636.754859447 0 40820636.754859447 10077027.140215874 0 0 0 0 201955848.96131325 60490802.153582931 0 60490802.153582931 5885561.0783119202 0 0 0 0 257223777.73192406 89508818.512759745 0 89508818.512759745 12337210.148117542 0 0 0 0 169964161.30374908 58693373.680646539 0 58693373.680646539 36131994.987947226 0 0 0 0 261129459.14057922 -15151149.895695567 0 -15151149.895695567 -34709136.152023792 0 0 0 0 269811973.54087067 31734936.630925417 0 31734936.630925417 -47575721.521138668 0 0 0 0 197374462.3952713 -25489509.709243059 0 -25489509.709243059 15349333.601719856 0 0 0 0 128909454.27679443 -19564535.889641285 0 -19564535.889641285 15021222.373908281 0 0 0 0 135428922.67125702 423333.93712043762 0 423333.93712043762 -32083543.984438896 0 0 0 0 182113875.23641968 -180833021.06505656 0 -180833021.06505656 10126136.487735748 0 0 0 0 61760760.5105896 38918383.567065716 0 38918383.567065716 -231130252.00227165 0 0 0 0 -122542996.44569397 -31754983.207942724 0 -31754983.207942724 -20138631.928654671 0 0 0 0 77710664.664276123 -101143245.28067398 0 -101143245.28067398 -291485966.51359057 0 0 0 0 53624585.182830811 -53279203.828765869 0 -53279203.828765869 -62901242.619224072 0 0 0 0 83078994.505828857 8123619.4725465775 0 8123619.4725465775 -32653272.794258833 0 0 0 0 104453561.44954681 25254404.38465023 0 25254404.38465023 -126545644.1882019 0 0 0 0 163173257.83773804 55812639.412061214 0 55812639.412061214 -89929065.227048874 0 0 0 0 98990260.145904541 63094095.299391747 0 63094095.299391747 -32850287.018939614 0 0 0 0 54490190.562236786 11572503.283028841 0 11572503.283028841 -72546907.197483063 0 0 0 0 93424061.336051941 -3735255.1558060646 0 -3735255.1558060646 -150473995.67397976 0 0 0 0 -11831816.591339111 -46467848.976538658 0 -46467848.976538658 -105003704.89699984 0 0 0 0 -65483055.121032715 -35466114.563858032 0 -35466114.563858032 -111153195.07975149 0 0 0 0 49053612.26713562 -34597322.839914322 0 -34597322.839914322 -162213192.85116625 0 0 0 0 739081.05005949363 354010.18264773494 0 354010.18264773494 -343999.58315930958 0 0 0 0 -89981423.794540405 -191591917.61203861 0 -191591917.61203861 -192858157.81800175 0 0 0 0 -6847678.3237762451 4996878.6728339195 0 4996878.6728339195 14888586.883137226 0 0 0 0 15883509.974533081 -1691761.2858099937 0 -1691761.2858099937 -879881.12487268448 0 0 0 0 529775.67985053919 256444.58606539608 0 256444.58606539608 -277030.15981352649 0 0 0 0 253666.18711849675 100956.28121624701 0 100956.28121624701 -429088.30575212091 0 0 0 0 224703754.99796295 23630505.675018787 0 23630505.675018787 -41189079.76686573 0 0 0 0 291322438.85074615 34374806.179090858 0 34374806.179090858 -149490418.35986137 0 0 0 0 231770601.87719727 69282165.703632355 0 69282165.703632355 55628617.121160507 0 0 0 0 235863984.76173401 151903937.49695683 0 151903937.49695683 84530363.936459064 0 0 0 0 303223213.51092529 70139728.294289589 0 70139728.294289589 -87787099.511053562 0 0 0 0 252760160.35199738 89442148.297226906 0 89442148.297226906 -75666171.328036308 0 0 0 0 130573165.08320618 74562169.241215706 0 74562169.241215706 -56171699.730171204 0 0 0 0 222837091.14271927 100965266.37600064 0 100965266.37600064 -68413214.19380188 0 0 0 0 269776661.837677 123335698.72087932 0 123335698.72087932 -24037195.004356384 0 0 0 0 225806986.87783051 83353765.059488773 0 83353765.059488773 -5903720.3676357269 0 0 0 0 144277035.00785828 69576701.648921013 0 69576701.648921013 -18286321.138189197 0 0 0 0 149097622.14013672 64593867.742296696 0 64593867.742296696 -86664592.516085625 0 0 0 0 -3442798.0443496704 -31884269.205034256 0 -31884269.205034256 -67310772.286527157 0 0 0 0 78648014.475708008 113792286.88663721 0 113792286.88663721 -1067700.5314393044 0 0 0 0 273748864.74530792 156401228.9943738 0 156401228.9943738 -66131485.136235237 0 0 0 0 288271038.74028778 263585621.64801073 0 263585621.64801073 94788649.280475616 0 0 0 0 325338729.39479065 93558399.425167084 0 93558399.425167084 -124912769.39437962 0 0 0 0 330070715.17530823 93972723.471374989 0 93972723.471374989 -152920580.92196655 0 0 0 0 514683439.40512085 53398123.444012642 0 53398123.444012642 -270138558.27503204 0 0 0 0 504645741.25849915 193057209.46556377 0 193057209.46556377 -150344805.13929856 0 0 0 0 304000577.84495544 9395508.6251239777 0 9395508.6251239777 -161340120.00738716 0 0 0 0 363844034.74662781 62334079.333094597 0 62334079.333094597 -155957685.3982048 0 0 0 0 340196.81281900033 190956.43759416271 0 190956.43759416271 -136082.61729047308 0 0 0 0 627625.80773842707 108932.26785987942 0 108932.26785987942 -560478.58784261998 0 0 0 0 253626828.13430786 129735662.57021999 0 129735662.57021999 -179055339.11849403 0 0 0 0 503580976.35351562 -3086623.7451076508 0 -3086623.7451076508 -192553710.19691861 0 0 0 0 251138022.34498596 295892568.22475624 0 295892568.22475624 193421013.79319096 0 0 0 0 497845484.25756073 146118617.23873758 0 146118617.23873758 -10344812.713096619 0 0 0 0 -110069631.95992279 13009092.015492916 0 13009092.015492916 72310370.77073288 0 0 0 0 192462636.82326889 -196979598.64827323 0 -196979598.64827323 -26314153.023349762 0 0 0 0 196014202.98516846 -19624112.518270969 0 -19624112.518270969 -31027619.152314663 0 0 0 0 4651884.3204307556 -78773984.411053181 0 -78773984.411053181 8514482.8395433426 0 0 0 0 379482.99999889359 328066.32478876971 0 328066.32478876971 -977463.96776651079 0 0 0 0 162661217.91979218 204434926.10497189 0 204434926.10497189 220404141.69509363 0 0 0 0 110303716.6591568 5688561.6110582352 0 5688561.6110582352 41683492.131566048 0 0 0 0 75902923.167762756 108372897.3807621 0 108372897.3807621 78296078.891987801 0 0 0 0 3313832.6270370483 4252626.1450376511 0 4252626.1450376511 8990013.8657665253 0 0 0 0 3668419.6769447327 14955092.302209854 0 14955092.302209854 -17751798.297261238 0 0 0 0 6523275.671421051 12381511.846071005 0 12381511.846071005 168753.35337781906 0 0 0 0 410703.11508222017 242987.9179893313 0 242987.9179893313 -810556.15993987257 0 0 0 0 -101378727.06559372 23648768.520527363 0 23648768.520527363 -6275502.5471284389 0 0 0 0 6987708.7452945709 -2137087.2570075989 0 -2137087.2570075989 -2725625.6668558121 0 0 0 0 1142930.3355941772 -169972.88574457169 0 -169972.88574457169 2532353.4601311684 0 0 0 0 -207112.23481750488 2219562.5070753098 0 2219562.5070753098 -1606890.1653146744 0 0 0 0 -2153786.9228291512 -9513220.4735426605 0 -9513220.4735426605 -23373694.986963749 0 0 0 0 736639.37976296246 -115186.00628986582 0 -115186.00628986582 -362289.83564657206 0 0 0 0 -6775026.466217041 21610379.876285076 0 21610379.876285076 13792219.73093605 0 0 0 0 -4678800.3486633301 -63147.64282989502 0 -63147.64282989502 25524687.908423185 0 0 0 0 216503429.34399033 41031680.455572367 0 41031680.455572367 26364881.185163021 0 0 0 0 5593926.1999564171 -60315577.112297714 0 -60315577.112297714 5482065.5016956329 0 0 0 0 316441.01120982692 -35879.793554356322 0 -35879.793554356322 -182140.84183268505 0 0 0 0 66615686.147323608 7010498.7512478828 0 7010498.7512478828 33212771.731142044 0 0 0 0 83171589.329429626 -59556261.083457947 0 -59556261.083457947 -10000695.392017394 0 0 0 0 22777745.294364929 -58033119.732469559 0 -58033119.732469559 26542790.967573166 0 0 0 0 -33351.584607145283 -1371688.9861439839 0 -1371688.9861439839 -3477297.7806183402 0 0 0 0 96936526.762901306 -60914231.223909378 0 -60914231.223909378 18205395.327979088 0 0 0 0 139020557.00576782 5447499.2739255428 0 5447499.2739255428 -17724659.73673296 0 0 0 0 -13466935.885986328 16341593.326411486 0 16341593.326411486 85340523.648736477 0 0 0 0 42925.135926904157 -801219.23733541276 0 -801219.23733541276 -2368824.6343793171 0 0 0 0 418562671.60083199 -164479719.34089494 0 -164479719.34089494 -29779517.064770699 0 0 0 0 405283688.47742844 -99296962.311903179 0 -99296962.311903179 -3159240.4575231075 0 0 0 0 94594.612121966667 -329632.38910653349 0 -329632.38910653349 -1184519.2431787562 0 0 0 0 308062441.41531563 20532045.141923189 0 20532045.141923189 -18180538.206642866 0 0 0 0 76227644.632843018 45738566.856145859 0 45738566.856145859 -6938108.4441318512 0 0 0 0 88844601.673072815 32177788.735153437 0 32177788.735153437 -44822203.151919842 0 0 0 0 100479117.59381866 20126069.438523293 0 20126069.438523293 -54729039.770141602 0 0 0 0 41433946.018325806 -27755694.59206295 0 -27755694.59206295 -34065330.05216527 0 0 0 0 77059096.245615005 -140950055.72357768 0 -140950055.72357768 -93117218.567603111 0 0 0 0 210248978.56637573 -93840225.643301487 0 -93840225.643301487 -78696418.917425871 0 0 0 0 31664325.233703613 -114470107.65783024 0 -114470107.65783024 -105561773.76898551 0 0 0 0 26049711.952392578 -239486153.86436892 0 -239486153.86436892 -181830672.75831032 0 0 0 0 104812773.86709595 -252037663.68934965 0 -252037663.68934965 -246997034.3064723 0 0 0 0 74536930.119316101 -262813892.23548698 0 -262813892.23548698 -191441497.44549465 0 0 0 0 94051252.496871948 -130140501.30174065 0 -130140501.30174065 -318076467.56866074 0 0 0 0 95462615.801879883 -110971832.89521694 0 -110971832.89521694 -91437930.315867901 0 0 0 0 174906.38818613812 78990.544175268325 0 78990.544175268325 -82005.035758553888 0 0 0 0 -6251587.3667182922 -36100540.796573997 0 -36100540.796573997 161791935.74212742 0 0 0 0 36097785.930480957 16622034.112351179 0 16622034.112351179 20162903.907061577 0 0 0 0 89972521.429718018 -169363358.5949769 0 -169363358.5949769 19103481.639167309 0 0 0 0 16517687.025970459 -8347541.1570549011 0 -8347541.1570549011 -68953230.867021084 0 0 0 0 184737498.31642151 -83140442.809867859 0 -83140442.809867859 6833165.7188589573 0 0 0 0 139277750.17261726 -55464978.249516591 0 -55464978.249516591 127258688.25535488 0 0 0 0 174233899.75538635 21081511.979798317 0 21081511.979798317 -17874668.065820694 0 0 0 0 -107166745.24589539 -122192031.74810457 0 -122192031.74810457 -19237357.928307056 0 0 0 0 -372280.32112300582 42548.585827302188 0 42548.585827302188 883917.05866295053 0 0 0 0 -142187029.04704475 -200622633.15380764 0 -200622633.15380764 -12424151.233455658 0 0 0 0 -54616934.920146942 -47790729.273188472 0 -47790729.273188472 8394394.8207368851 0 0 0 0 -48938980.775592804 -59923902.878685832 0 -59923902.878685832 -40475694.633144259 0 0 0 0 106289592.20182037 -73723916.329615831 0 -73723916.329615831 -55635890.596369743 0 0 0 0 104280146.93793106 -133875913.88070738 0 -133875913.88070738 81003899.794673204 0 0 0 0 257309350.39016342 -110184743.49303722 0 -110184743.49303722 -39883806.747902393 0 0 0 0 307067481.57022667 -201585517.32411933 0 -201585517.32411933 47010253.619593143 0 0 0 0 295968677.83249664 -55754028.861888528 0 -55754028.861888528 20347954.299006164 0 0 0 0 245699952.70154381 -151495473.0615111 0 -151495473.0615111 -59455250.611718655 0 0 0 0 195383292.3596344 -51046738.720124394 0 -51046738.720124394 -8272535.6757873297 0 0 0 0 262532448.63609314 -181132394.67353484 0 -181132394.67353484 52089679.802028276 0 0 0 0 437631.28501482587 199595.30896298215 0 199595.30896298215 -100433.61941147281 0 0 0 0 36667632.072105408 -45911821.908985972 0 -45911821.908985972 57485474.898340821 0 0 0 0 -4090764.7878875732 -11229275.505975783 0 -11229275.505975783 -19110168.653551817 0 0 0 0 -35930282.525500178 -53030962.029679239 0 -53030962.029679239 -55752048.864404917 0 0 0 0 144779.49536064494 191176.02154711727 0 191176.02154711727 -34843.242984167649 0 0 0 0 178664082.1184845 -73336253.115147114 0 -73336253.115147114 18855931.414040089 0 0 0 0 -37136168.253135681 -109688586.76029217 0 -109688586.76029217 -22040090.206168652 0 0 0 0 -1551111.1482858658 -42397874.6791915 0 -42397874.6791915 -126029130.68725443 0 0 0 0 -11725446.975860596 -12059388.322115511 0 -12059388.322115511 -16380474.03018412 0 0 0 0 1012894.6324733384 -890753.43626329536 0 -890753.43626329536 -470970.43339249253 0 0 0 0 142987479.1593399 -77472837.279425621 0 -77472837.279425621 84734490.715708494 0 0 0 0 -133003334.09859467 -140983607.63823032 0 -140983607.63823032 -175042557.15014458 0 0 0 0 -177600466.28948593 -119148084.11592722 0 -119148084.11592722 -54778798.343871832 0 0 0 0 322841163.71142769 -242005440.15508041 0 -242005440.15508041 171621409.58142346 0 0 0 0 347949790.01094437 -219580905.27371871 0 -219580905.27371871 84016412.939813614 0 0 0 0 293730002.67289352 -262796990.65705168 0 -262796990.65705168 176524331.26489115 0 0 0 0 30382042.564884186 -100886577.62993103 0 -100886577.62993103 131782027.82381678 0 0 0 0 91552247.323939323 1379987.4221749902 0 1379987.4221749902 -31101328.379883766 0 0 0 0 1006896.2423928566 -1256744.1661119622 0 -1256744.1661119622 -624825.08656157041 0 0 0 0 -10056627.092197418 -30845829.761275411 0 -30845829.761275411 107324068.49200046 0 0 0 0 729301.29352399404 -626035.85591273941 0 -626035.85591273941 -857720.36836381687 0 0 0 0 -25134282.488823771 -24963004.39973769 0 -24963004.39973769 -22301232.561192751 0 0 0 0 100978304.53688812 -107181808.96725976 0 -107181808.96725976 73976285.050659657 0 0 0 0 2039267.4991258271 -413391.31214305852 0 -413391.31214305852 -702557.68573052261 0 0 0 0 142081310.48358154 -68007599.806609511 0 -68007599.806609511 37483969.519458055 0 0 0 0 11583939.053909302 -52789412.881282032 0 -52789412.881282032 -8707413.872338295 0 0 0 0 164597420.02063751 -26136523.878242731 0 -26136523.878242731 -34089511.640571535 0 0 0 0 -151703044.52898824 -76461474.457522854 0 -76461474.457522854 -8696283.6968921423 0 0 0 0 133055668.95648193 -154867400.06894791 0 -154867400.06894791 -55289536.228510618 0 0 0 0 355684.91892219096 -661054.31277489848 0 -661054.31277489848 -232841.27063135075 0 0 0 0 187667156.65570927 -145124767.17180955 0 -145124767.17180955 134227658.78036815 0 0 0 0 283264777.40792847 -266841249.95794576 0 -266841249.95794576 176908407.30017281 0 0 0 0 221966375.25027847 -62321329.481120378 0 -62321329.481120378 -12709649.994845212 0 0 0 0 488175252.32196045 -210083279.0287233 0 -210083279.0287233 38510476.01534915 0 0 0 0 508793815.78648758 -412891850.99499309 0 -412891850.99499309 194706388.52099299 0 0 0 0 356480495.02807617 -215847481.69981244 0 -215847481.69981244 178536511.33584267 0 0 0 0 -130027686.68250275 -165931256.86740363 0 -165931256.86740363 -152489429.26537919 0 0 0 0 -142611022.33094788 -100060592.8429985 0 -100060592.8429985 -122986234.45928264 0 0 0 0 220938435.09925079 28957607.75017035 0 28957607.75017035 -29408059.220295906 0 0 0 0 91822561.21269989 17143712.153067589 0 17143712.153067589 -28330306.46128881 0 0 0 0 -239899796.94703674 -396895407.10575509 0 -396895407.10575509 -160369143.87246546 0 0 0 0 401001377.9080143 14011276.961571634 0 14011276.961571634 -57657601.04882288 0 0 0 0 243813.740814914 -211085.59225918818 0 -211085.59225918818 -128118.3459523085 0 0 0 0 -300325347.89690018 -197905918.11455822 0 -197905918.11455822 -12153784.725483894 0 0 0 0 -129921656.93127441 -225298735.31627274 0 -225298735.31627274 -140555560.30593491 0 0 0 0 -33781640.424720764 -70089530.156101227 0 -70089530.156101227 -67653387.283041 0 0 0 0 -256771412.94730377 -118378927.64139903 0 -118378927.64139903 -29673649.174797058 0 0 0 0 -50143279.645881653 -51821532.752140045 0 -51821532.752140045 -63086459.389631212 0 0 0 0 44249384.796829224 61206621.114403844 0 61206621.114403844 23248326.075888634 0 0 0 0 -147362563.4957037 -84932519.091432422 0 -84932519.091432422 31690774.504344463 0 0 0 0 137992908.70617676 157776232.85737276 0 157776232.85737276 37098250.238198817 0 0 0 0 505210616.92432404 -446655271.01493907 0 -446655271.01493907 358554857.62651443 0 0 0 0 726057.59820539132 -137627.95356819686 0 -137627.95356819686 -213223.4743427028 0 0 0 0 1013581123.6925125 98290688.314997911 0 98290688.314997911 -296977161.71579266 0 0 0 0 168968652.39958191 -48193715.418920815 0 -48193715.418920815 -169125542.69575483 0 0 0 0 622750828.55303955 73237529.932191253 0 73237529.932191253 -136694662.62363291 0 0 0 0 -138210494.84078979 -146112169.99959111 0 -146112169.99959111 -79773518.465616703 0 0 0 0 153061769.88716316 -63811499.991365284 0 -63811499.991365284 -67086893.728377342 0 0 0 0 484399012.32442474 -583022225.63127601 0 -583022225.63127601 463407128.63138533 0 0 0 0 6049.5716972667724 -126436.62943573855 0 -126436.62943573855 -250958.37134017877 0 0 0 0 410547362.02030277 -240141760.29498857 0 -240141760.29498857 -286895987.95081735 0 0 0 0 -120201752.64151001 -240276648.03681731 0 -240276648.03681731 -44206110.282514386 0 0 0 0 428808986.67552948 -171100354.11317512 0 -171100354.11317512 -132924235.92609727 0 0 0 0 458448874.1526618 -319347530.01384139 0 -319347530.01384139 -66204396.098020673 0 0 0 0 135115417.20415497 -129356528.5751394 0 -129356528.5751394 -100202308.17283359 0 0 0 0 511554696.34388351 16470164.011686623 0 16470164.011686623 -35860064.127783626 0 0 0 0 -232179638.40312949 -425189743.27265316 0 -425189743.27265316 18164097.802340746 0 0 0 0 186246.38975625299 -177186.95770526864 0 -177186.95770526864 -55487.098722837953 0 0 0 0 -229564148.16104889 5924338.0082579255 0 5924338.0082579255 17801999.017625213 0 0 0 0 -160068163.16958618 -68326173.344807506 0 -68326173.344807506 26198491.294648707 0 0 0 0 115764489.57374573 -158870913.83123377 0 -158870913.83123377 15507501.519178629 0 0 0 0 -39412839.369613647 70360989.381639242 0 70360989.381639242 -200222975.21104598 0 0 0 0 147238237.43809509 -84693883.378973842 0 -84693883.378973842 -106632047.44922471 0 0 0 0 422987.64699508902 -383611.93106363527 0 -383611.93106363527 -175767.35421184369 0 0 0 0 150921643.68312073 -62672168.027717352 0 -62672168.027717352 -236363383.59138 0 0 0 0 -3016231.0642471313 -150319562.21588469 0 -150319562.21588469 -109539987.47210479 0 0 0 0 -59965749.661102295 -123912402.74948251 0 -123912402.74948251 -283893047.90142059 0 0 0 0 256507905.55651855 27518437.689151287 0 27518437.689151287 -106277575.9855648 0 0 0 0 227774402.75798798 -23302065.74803108 0 -23302065.74803108 -99913649.301796675 0 0 0 0 133068565.41639709 -84503863.072409391 0 -84503863.072409391 -128103884.14860821 0 0 0 0 275567898.66670227 -3908093.6845707893 0 -3908093.6845707893 -164734786.99112099 0 0 0 0 358941455.3052063 77985864.420403481 0 77985864.420403481 -101473679.12054482 0 0 0 0 264043444.34370422 -12854244.982973337 0 -12854244.982973337 -102465743.49055386 0 0 0 0 340946714.12046814 64800827.535329461 0 64800827.535329461 -76122421.30087328 0 0 0 0 153160223.75596762 -443313.48894438893 0 -443313.48894438893 -91123000.08012867 0 0 0 0 300643445.7938385 66260136.110466838 0 66260136.110466838 -45623577.770156145 0 0 0 0 263088794.64012146 -42762074.988153338 0 -42762074.988153338 -90957252.130943418 0 0 0 0 367919557.20809937 29031875.535247922 0 29031875.535247922 -35884959.125498056 0 0 0 0 440892553.90478516 103026365.14330387 0 103026365.14330387 -7206239.6667706966 0 0 0 0 531491361.537117 150882661.64080781 0 150882661.64080781 102441656.0184902 0 0 0 0 410993000.41323853 58724032.146836281 0 58724032.146836281 171817323.71716964 0 0 0 0 435135028.21035767 70097696.88058126 0 70097696.88058126 65945851.314356789 0 0 0 0 318248787.41682434 13341183.39829731 0 13341183.39829731 62386969.551544309 0 0 0 0 445422750.80368042 10756341.003779233 0 10756341.003779233 208620039.36574817 0 0 0 0 274906584.12365723 51028088.49459523 0 51028088.49459523 208795532.29596603 0 0 0 0 615182632.21820068 146225548.61082482 0 146225548.61082482 171462746.29116234 0 0 0 0 589607386.46281433 131656129.17791247 0 131656129.17791247 387425789.27559865 0 0 0 0 536160449.55905151 194233852.12980598 0 194233852.12980598 314236064.54171199 0 0 0 0 481281088.07624054 -72432117.870637953 0 -72432117.870637953 166507071.80559909 0 0 0 0 335854143.41058159 -6368519.0125791207 0 -6368519.0125791207 344825545.87069178 0 0 0 0 166521433.86446381 -67270073.037592649 0 -67270073.037592649 205638297.43355238 0 0 0 0 349693817.02421379 -55417037.78073597 0 -55417037.78073597 31605177.105342984 0 0 0 0 262212391.60779572 -273558771.1388216 0 -273558771.1388216 -85203708.785355359 0 0 0 0 133314235.81546402 -63943312.170837581 0 -63943312.170837581 53453848.534333348 0 0 0 0 288669648.86968613 -200988672.1143035 0 -200988672.1143035 72973664.444193125 0 0 0 0 373704073.05490875 -98399086.994028568 0 -98399086.994028568 -22539920.201396108 0 0 0 0 377045474.97245789 82276351.766097784 0 82276351.766097784 181775024.84619856 0 0 0 0 394883165.84309387 112947366.21217072 0 112947366.21217072 94355074.655261397 0 0 0 0 230635041.42697716 -10430349.01579845 0 -10430349.01579845 174047766.87807655 0 0 0 0 443865699.71239471 -14069495.748994827 0 -14069495.748994827 73804666.014158726 0 0 0 0 612422258.62090302 238841338.83157516 0 238841338.83157516 186946791.56069264 0 0 0 0 661454702.17771721 265547431.25927317 0 265547431.25927317 83932619.132462025 0 0 0 0 677878438.50875854 297225506.69065642 0 297225506.69065642 131465790.80602646 0 0 0 0 1011592960.7215424 587539733.53312302 0 587539733.53312302 307612047.44521987 0 0 0 0 1212502007.9844894 77376621.905000925 0 77376621.905000925 385193668.6546275 0 0 0 0 511038925.59103775 211782174.46023411 0 211782174.46023411 674078202.61118734 0 0 0 0 570079357.21028137 222614481.88390952 0 222614481.88390952 274458952.3005296 0 0 0 0 619850518.56586075 -434051356.99762964 0 -434051356.99762964 142100392.65259659 0 0 0 0 497104883.53069305 -415454377.17932189 0 -415454377.17932189 148339525.31234503 0 0 0 0 453876401.31309128 -381738114.26388407 0 -381738114.26388407 201605049.53034735 0 0 0 0 592228677.21069336 -321475502.21837735 0 -321475502.21837735 113251406.49781865 0 0 0 0 86121.569389238488 -104754.68957775831 0 -104754.68957775831 64646.585276579775 0 0 0 0 635315154.5715332 -321557678.15076578 0 -321557678.15076578 110702029.9008919 0 0 0 0 194629.85368751863 -450106.72606493812 0 -450106.72606493812 71596.110773813678 0 0 0 0 -438600744.25856018 -91868392.946628094 0 -91868392.946628094 69212408.832543045 0 0 0 0 -708578117.91613388 -125429488.24345541 0 -125429488.24345541 130327250.96904224 0 0 0 0 79289695.710026741 -224683216.27429006 0 -224683216.27429006 -87917331.346237898 0 0 0 0 385806875.71857262 -334154270.05798072 0 -334154270.05798072 -5720575.2440109253 0 0 0 0 483962088.44526672 -268285724.64784908 0 -268285724.64784908 34960134.77716732 0 0 0 0 487819042.02574921 -383600617.68201041 0 -383600617.68201041 15492708.246072054 0 0 0 0 1378170433.5004096 -502651857.16471624 0 -502651857.16471624 4957449.5792577267 0 0 0 0 565778881.7270546 -543017148.97752213 0 -543017148.97752213 126379427.16714478 0 0 0 0 510056404.51916504 -369038932.8644799 0 -369038932.8644799 23931740.108724117 0 0 0 0 492252401.94606781 -289297350.62699604 0 -289297350.62699604 -242420092.28362989 0 0 0 0 318200455.70952606 -410784397.25717807 0 -410784397.25717807 -32070479.636131287 0 0 0 0 554591303.79514062 -327222620.59086025 0 -327222620.59086025 -19816853.266697407 0 0 0 0 394160046.10136032 -464114149.89102888 0 -464114149.89102888 191431340.00773919 0 0 0 0 9449171.3959245682 -4635239.1827236414 0 -4635239.1827236414 1682493.3056354523 0 0 0 0 846930.68672701158 -88603.898789074272 0 -88603.898789074272 -58651.862297866028 0 0 0 0 8876565.5311393738 -3945623.8832458258 0 -3945623.8832458258 12696847.387001038 0 0 0 0 346191966.51748848 -47446875.808141172 0 -47446875.808141172 -4875603.4013662338 0 0 0 0 303713801.07989502 -182416957.00439787 0 -182416957.00439787 -38383886.669206142 0 0 0 0 521444583.73514748 -372146161.25429034 0 -372146161.25429034 -36798809.022482872 0 0 0 0 392647963.25389099 -275869597.83398485 0 -275869597.83398485 59794469.555767059 0 0 0 0 453048584.8221817 -256046650.6316247 0 -256046650.6316247 -41855744.957340673 0 0 0 0 217773276.91140747 -197490402.15812635 0 -197490402.15812635 136818792.24286079 0 0 0 0 480247832.25180626 -345553417.40929008 0 -345553417.40929008 76822816.440788746 0 0 0 0 640496474.0043869 -298650513.54475689 0 -298650513.54475689 65584432.172096968 0 0 0 0 596992503.74172974 -342261140.50787759 0 -342261140.50787759 -6955986.875316143 0 0 0 0 687576386.74974823 -251518617.34493303 0 -251518617.34493303 20018355.31051445 0 0 0 0 597000538.62176037 -274545140.50053054 0 -274545140.50053054 45817494.796013355 0 0 0 0 976300067.03342438 -271792056.26369762 0 -271792056.26369762 27794995.398475528 0 0 0 0 650149024.71338081 -334873065.11055881 0 -334873065.11055881 111322979.97197819 0 0 0 0 1606427063.0295258 -377656364.07312083 0 -377656364.07312083 70851654.548482895 0 0 0 0 1427899.6919222251 -378704.20300206088 0 -378704.20300206088 -212776.88027301559 0 0 0 0 391397843.25501633 -605911159.44842291 0 -605911159.44842291 673274815.59528446 0 0 0 0 358383042.22423172 -395502287.3961637 0 -395502287.3961637 243472164.15382671 0 0 0 0 2485638.2848605551 116726.42202388309 0 116726.42202388309 -1264576.4262388335 0 0 0 0 1951850.1355667114 52452.776471614838 0 52452.776471614838 -664435.03743743896 0 0 0 0 2331315.0064870883 -547288.72435590439 0 -547288.72435590439 -1156740.2070482923 0 0 0 0 3272753.6225471497 -846014.27756822109 0 -846014.27756822109 -2834559.2556090355 0 0 0 0 137098124.17078018 3820847.8828225136 0 3820847.8828225136 170137292.98175836 0 0 0 0 2711439.1513366699 -1297002.6198606491 0 -1297002.6198606491 -2373026.7162489891 0 0 0 0 2795734.5938415527 -574790.5956531167 0 -574790.5956531167 -1535497.5808010101 0 0 0 0 3319064.9902496338 -1395663.5382562876 0 -1395663.5382562876 -1122725.3882768154 0 0 0 0 2479578.574669675 120565.41166152339 0 120565.41166152339 -1448952.303477969 0 0 0 0 498306659.94247818 169878572.09115553 0 169878572.09115553 73027726.191854954 0 0 0 0 753228249.85080338 325894069.56374824 0 325894069.56374824 38012591.937650442 0 0 0 0 724415856.49257278 258272483.64943784 0 258272483.64943784 -16037627.989020824 0 0 0 0 715448564.320858 253777614.80346292 0 253777614.80346292 84066223.008239269 0 0 0 0 688215392.58622134 28520001.690497864 0 28520001.690497864 79083554.040379524 0 0 0 0 831371518.40401459 36701965.002388477 0 36701965.002388477 28097952.339356422 0 0 0 0 1032568922.259758 83555814.362407684 0 83555814.362407684 36080269.010792732 0 0 0 0 946075631.98478699 193514155.31421089 0 193514155.31421089 61003598.866273612 0 0 0 0 697289142.46826553 234309398.91863084 0 234309398.91863084 63267857.28145647 0 0 0 0 858367776.96808052 100479830.86422431 0 100479830.86422431 113155077.04692554 0 0 0 0 1228610989.5972977 144163881.69633007 0 144163881.69633007 117897193.1370554 0 0 0 0 1346512293.3747158 360677745.21359479 0 360677745.21359479 491523458.46306896 0 0 0 0 1066053053.9249878 -118306689.56431007 0 -118306689.56431007 1099632577.366282 0 0 0 0 877335975.36997175 166753193.99839658 0 166753193.99839658 122665877.28674507 0 0 0 0 1058692946.7037964 -12014893.611470222 0 -12014893.611470222 249959480.89080811 0 0 0 0 867121048.18440247 119641235.77883053 0 119641235.77883053 526523302.72478104 0 0 0 0 752707986.0369339 44055442.406131268 0 44055442.406131268 307717767.31294417 0 0 0 0 687234243.10841751 165019766.63599038 0 165019766.63599038 137576998.48143578 0 0 0 0 697010094.90708542 204005198.65724421 0 204005198.65724421 240459762.93741035 0 0 0 0 696211124.68109298 189975870.20371816 0 189975870.20371816 4826283.2681026459 0 0 0 0 258993.5260322215 462390.43668809347 0 462390.43668809347 2803624.3681604252 0 0 0 0 407511513.58283234 123611281.33824444 0 123611281.33824444 177534983.53331804 0 0 0 0 749135909.29128265 198370149.97723389 0 198370149.97723389 -46503800.98446846 0 0 0 0 -505486.76039886475 2475957.1083716154 0 2475957.1083716154 2233302.7061955929 0 0 0 0 1730306.3511209488 1317289.1140724272 0 1317289.1140724272 2745557.6248481274 0 0 0 0 1634414.7946777344 1870794.1754100323 0 1870794.1754100323 1180996.469892025 0 0 0 0 3008897.6884307861 2232126.5160028934 0 2232126.5160028934 671474.59780323505 0 0 0 0 4855861.2590866089 3087912.463005662 0 3087912.463005662 -2225414.4054741859 0 0 0 0 3124596.2410583496 2763272.7494571209 0 2763272.7494571209 223935.37999379635 0 0 0 0 2388150.2986412048 3779535.2502787113 0 3779535.2502787113 1756057.1286029816 0 0 0 0 8391533.4981136322 22032782.741012394 0 22032782.741012394 866322.82835769653 0 0 0 0 -13652695.163803101 2381178.1145160198 0 2381178.1145160198 6157821.2480920553 0 0 0 0 311878.8918272797 552703.5722484123 0 552703.5722484123 2528517.160356577 0 0 0 0 16037501.519065857 -21531738.748335361 0 -21531738.748335361 9580651.1086454391 0 0 0 0 304189.72768211737 24802.894954096526 0 24802.894954096526 -26270.639253533911 0 0 0 0 25004414.677822113 -2470421.1333546638 0 -2470421.1333546638 -1887642.0866398811 0 0 0 0 25526253.537620544 25672293.294248939 0 25672293.294248939 -17142753.841223955 0 0 0 0 475114.63837619126 1067858.8021517824 0 1067858.8021517824 2246225.3360307366 0 0 0 0 -16843193.283653259 -21818895.395706892 0 -21818895.395706892 18289093.773401022 0 0 0 0 1691400.3485511802 3043281.157160772 0 3043281.157160772 3240200.3212480284 0 0 0 0 1078506.8064308167 11480800.218608856 0 11480800.218608856 -44457865.948091626 0 0 0 0 -21616315.720916748 2447786.5594753027 0 2447786.5594753027 19212572.014932632 0 0 0 0 -12583182.148788452 -19162752.923634291 0 -19162752.923634291 24799511.669922829 0 0 0 0 -11188867.085548401 13139497.376860976 0 13139497.376860976 -885476.61458158493 0 0 0 0 10902275.15322876 1716515.3403890133 0 1716515.3403890133 2839086.3803982735 0 0 0 0 -5705437.2764511108 1151477.6173036098 0 1151477.6173036098 8884504.8939659595 0 0 0 0 -6654402.5463485718 -1398322.7958488464 0 -1398322.7958488464 4024911.0850954056 0 0 0 0 541846.46330565307 497789.03982867021 0 497789.03982867021 403208.95917601371 0 0 0 0 5784502.2862167358 3607643.3224114776 0 3607643.3224114776 383488.52562713623 0 0 0 0 6770804.1856479496 1088593.3112519197 0 1088593.3112519197 232699.91168592393 0 0 0 0 7654749.1713027954 -582526.27446973324 0 -582526.27446973324 2863872.649263382 0 0 0 0 61823292.08265686 -33484155.623643756 0 -33484155.623643756 7674992.0983805656 0 0 0 0 -4110875.6184234619 9503479.4278378487 0 9503479.4278378487 2362320.8973552883 0 0 0 0 -1951046.1363525391 -6246069.7692502737 0 -6246069.7692502737 -3078835.1412451267 0 0 0 0 4903871.6811668761 329724.78331971448 0 329724.78331971448 704793.3627609578 0 0 0 0 42716503.502731323 42286289.511212945 0 42286289.511212945 -10917959.624089241 0 0 0 0 -1023196.2814025879 22404342.963872194 0 22404342.963872194 5380388.491191864 0 0 0 0 7087175.2200012207 518408.66807234287 0 518408.66807234287 -722712.08134770393 0 0 0 0 8608378.2339172363 -2969712.9961984158 0 -2969712.9961984158 -1186977.8614022732 0 0 0 0 1209515.6614143448 226950.07613769919 0 226950.07613769919 -278811.0248358926 0 0 0 0 1216956.1425024439 740436.50893790182 0 740436.50893790182 1164681.6616001944 0 0 0 0 1107134.2403297424 -268112.03464362025 0 -268112.03464362025 -308849.9519585371 0 0 0 0 2881273.7540054321 376192.68859124184 0 376192.68859124184 -170213.31687629223 0 0 0 0 2538530.1538422927 -1078544.7070716005 0 -1078544.7070716005 -1427708.1676801161 0 0 0 0 43760158.164001465 11358624.328938484 0 11358624.328938484 -14950330.082540631 0 0 0 0 40435119.92691803 20872545.735547923 0 20872545.735547923 -13225535.64774704 0 0 0 0 40700842.727578163 14978067.006899409 0 14978067.006899409 -12954721.911868572 0 0 0 0 14268161.588928223 810264.33575129509 0 810264.33575129509 -2480490.6697518229 0 0 0 0 10454131.50328064 -12804835.530848861 0 -12804835.530848861 2439648.0452933311 0 0 0 0 1170104.4389953613 -967861.56839060783 0 -967861.56839060783 972685.94198441505 0 0 0 0 10254440.42276001 -23970922.243340492 0 -23970922.243340492 1506647.8413446248 0 0 0 0 21255958.525733948 -6503960.7839361429 0 -6503960.7839361429 -9843133.7710871696 0 0 0 0 22987416.867797852 -11356735.486010313 0 -11356735.486010313 -10854280.269397736 0 0 0 0 47171259.473220825 7525108.2292896509 0 7525108.2292896509 -36311798.56051445 0 0 0 0 69262975.395751953 2450677.4980244637 0 2450677.4980244637 -36859616.548866272 0 0 0 0 88693471.1875 -24099827.98106575 0 -24099827.98106575 -57548703.463580608 0 0 0 0 53951749.315490723 -34387640.779505014 0 -34387640.779505014 1053838.0479741096 0 0 0 0 66944994.123260498 18076735.707573652 0 18076735.707573652 -46193419.906283855 0 0 0 0 7480765.1715393066 -24815515.653505921 0 -24815515.653505921 -41035523.113537908 0 0 0 0 67571537.930960655 27197689.628323548 0 27197689.628323548 -21442382.880764008 0 0 0 0 983466.12817004882 539107.07349556871 0 539107.07349556871 168721.72357485798 0 0 0 0 103954824.27096558 -114555982.03684878 0 -114555982.03684878 -48098061.878011584 0 0 0 0 85234281.743438721 -12401629.616669893 0 -12401629.616669893 -96108787.005506516 0 0 0 0 67470830.848449707 10440509.679278851 0 10440509.679278851 -72239563.045526028 0 0 0 0 57720635.524536133 22243548.584907055 0 22243548.584907055 -16654652.005777836 0 0 0 0 18082156.117759705 1167657.326941967 0 1167657.326941967 -11643994.483780026 0 0 0 0 63568548.684143066 13130291.293808937 0 13130291.293808937 -73110158.204522371 0 0 0 0 31042379.796188354 27067919.347691178 0 27067919.347691178 6106220.0197372437 0 0 0 0 9527051.3377380371 8194806.4933800697 0 8194806.4933800697 -7342637.7804584503 0 0 0 0 18730471.459350586 18217341.291482329 0 18217341.291482329 1704797.8856499195 0 0 0 0 26148843.468338013 12302202.165943861 0 12302202.165943861 -24878305.93630147 0 0 0 0 9757110.2996063232 8581434.4394929409 0 8581434.4394929409 -5044996.0740638971 0 0 0 0 13846937.787372589 6625604.7477061749 0 6625604.7477061749 -6774181.9670519829 0 0 0 0 14840780.627426147 4979456.593744278 0 4979456.593744278 -5873149.4492918253 0 0 0 0 14162312.33631897 4694519.7220915705 0 4694519.7220915705 -5596747.7145986557 0 0 0 0 3091491.6134952344 1871800.2486287393 0 1871800.2486287393 690443.50661226828 0 0 0 0 25361662.193244934 -1685334.3262292743 0 -1685334.3262292743 16823629.811294675 0 0 0 0 1742964.4030646868 1172497.4218439059 0 1172497.4218439059 -162216.73139071325 0 0 0 0 64889740.728988647 9161978.192599535 0 9161978.192599535 -5231578.0353078842 0 0 0 0 60469280.740081787 4121226.8821417093 0 4121226.8821417093 6762795.0916056633 0 0 0 0 56090751.974853516 27492788.055473089 0 27492788.055473089 -16003814.516498089 0 0 0 0 57366744.891485214 18454576.709925413 0 18454576.709925413 4709093.5813250542 0 0 0 0 3891282.9329910278 7878146.42471838 0 7878146.42471838 1553081.4320633411 0 0 0 0 -3129960.1007146835 7978126.2725506872 0 7978126.2725506872 -2478536.2855641842 0 0 0 0 3685280.5243396759 5069016.9272925854 0 5069016.9272925854 38049.01322555542 0 0 0 0 3795221.9233038127 2982933.6559000844 0 2982933.6559000844 1779594.5759566189 0 0 0 0 -2504105.3515844345 13707260.097799912 0 13707260.097799912 5113844.2465982437 0 0 0 0 5654582.0783686228 2781754.8706806665 0 2781754.8706806665 1511962.1233657862 0 0 0 0 3070325.3464050293 7183562.9130897522 0 7183562.9130897522 9829626.8569431305 0 0 0 0 455506.96116638184 2251636.3889789581 0 2251636.3889789581 2937173.0417151451 0 0 0 0 -3608579.0846939087 -930015.94499015808 0 -930015.94499015808 9679893.5283870697 0 0 0 0 -1843980.9831848145 -2536747.6126508713 0 -2536747.6126508713 2496906.0662136078 0 0 0 0 -1433413.8509521484 -1785149.6310939789 0 -1785149.6310939789 3234941.1158351898 0 0 0 0 -849792.35386037827 708832.28478744626 0 708832.28478744626 280307.62428283691 0 0 0 0 -705006.48803329468 2206432.2038469315 0 2206432.2038469315 6126189.904302597 0 0 0 0 -1763599.5371055603 -3962744.6144833565 0 -3962744.6144833565 1043510.9602909088 0 0 0 0 33611833.836837769 22987549.877023697 0 22987549.877023697 -1882406.2042193413 0 0 0 0 2715089.7254942367 1196116.1267775092 0 1196116.1267775092 -623399.95398789924 0 0 0 0 8244413.3425101135 641572.99669203907 0 641572.99669203907 -76095.031511508394 0 0 0 0 -2971928.5406036377 -3134801.2961397171 0 -3134801.2961397171 3309904.5064125061 0 0 0 0 -7161896.8941574097 -20844463.083622456 0 -20844463.083622456 -13906660.794645309 0 0 0 0 -2623132.5764503479 -2428639.349383831 0 -2428639.349383831 3970242.6723175049 0 0 0 0 7862032.045908656 -511316.92726021353 0 -511316.92726021353 -1923759.1936364481 0 0 0 0 11703886.101097107 3015570.4790744781 0 3015570.4790744781 611626.52520370483 0 0 0 0 17090556.347717285 3677578.7799867392 0 3677578.7799867392 11675296.652150774 0 0 0 0 8894346.2153244019 6477657.7872266769 0 6477657.7872266769 4641536.0641326904 0 0 0 0 6507946.5440063477 37748899.120855153 0 37748899.120855153 12007747.13902235 0 0 0 0 6469360.4194161668 2601413.8524713684 0 2601413.8524713684 -476780.01476009004 0 0 0 0 9483873.4566574097 3236971.9319229126 0 3236971.9319229126 1339604.3479728699 0 0 0 0 6902716.0031759366 1616863.2397682043 0 1616863.2397682043 -1015958.0266509891 0 0 0 0 15570247.686523438 9205337.8002467155 0 9205337.8002467155 5475548.6816606522 0 0 0 0 13994811.785835266 5987111.0127716064 0 5987111.0127716064 4192624.9686088562 0 0 0 0 3724311.2525598574 3751329.3750525918 0 3751329.3750525918 2507496.1049728813 0 0 0 0 2914730.5675201416 906237.43438243866 0 906237.43438243866 -724588.147315979 0 0 0 0 6354092.4131338708 2708797.8555168044 0 2708797.8555168044 1661541.6470317403 0 0 0 0 5908712.4979076758 3476833.4134978009 0 3476833.4134978009 1097736.0109952961 0 0 0 0 4234699.7662649155 623681.14051026106 0 623681.14051026106 -120551.41354163922 0 0 0 0 12366543.921447754 6371093.4779586792 0 6371093.4779586792 5279169.1111679077 0 0 0 0 21214678.803985596 6452335.0799160004 0 6452335.0799160004 5160191.1365890503 0 0 0 0 853890.0314332461 60161.173544611316 0 60161.173544611316 -662895.96618583752 0 0 0 0 13959559.474128723 5926331.0021896362 0 5926331.0021896362 6822375.595249176 0 0 0 0 29272776.540328979 11978751.171095848 0 11978751.171095848 1881441.2825050354 0 0 0 0 4048106.2862548828 615629.13433647156 0 615629.13433647156 -1444648.2542076111 0 0 0 0 4938471.3436446041 3009343.1802754924 0 3009343.1802754924 1748645.1507888427 0 0 0 0 8043018.5931055956 1232036.4191314271 0 1232036.4191314271 -2157599.6838414306 0 0 0 0 2967409.4023338966 1749912.3492265623 0 1749912.3492265623 -376834.95151094534 0 0 0 0 12058513.705493927 5001940.9163331985 0 5001940.9163331985 5252958.2629776001 0 0 0 0 11752941.696609497 6205882.9334077835 0 6205882.9334077835 4231884.8622293472 0 0 0 0 2731567.8116875887 -16575353.789455324 0 -16575353.789455324 -40209758.288223267 0 0 0 0 16628168.673221588 14335583.526664734 0 14335583.526664734 7099525.8540496826 0 0 0 0 21231125.150756836 7851843.6410293579 0 7851843.6410293579 1473806.2729797363 0 0 0 0 -23894921.20602417 -1824787.3529410362 0 -1824787.3529410362 -4519993.1356773376 0 0 0 0 16315636.695734024 -11211757.536921024 0 -11211757.536921024 -46363777.585739136 0 0 0 0 31051624.744159698 6124865.5831327438 0 6124865.5831327438 13033755.697921753 0 0 0 0 23924672.429428101 16744960.608115196 0 16744960.608115196 4327615.759759903 0 0 0 0 29477049.886829376 10318897.881037235 0 10318897.881037235 6795303.1725120544 0 0 0 0 29397129.990868807 13822243.985920906 0 13822243.985920906 4253568.6232280731 0 0 0 0 2431762.3465037551 318864.40580503922 0 318864.40580503922 -1424325.3373722804 0 0 0 0 19465504.01210022 -10080275.825135231 0 -10080275.825135231 -44729830.861744404 0 0 0 0 -36986936.450069427 -68803251.49904871 0 -68803251.49904871 -2427735.9253101349 0 0 0 0 2788892.5583610535 -25773819.724584579 0 -25773819.724584579 78330714.731129646 0 0 0 0 36743413.392559052 6597018.0849277973 0 6597018.0849277973 34425222.420698166 0 0 0 0 7562141.6605186462 -33443876.224378586 0 -33443876.224378586 24737340.8195467 0 0 0 0 28196377.979188919 12836514.327114582 0 12836514.327114582 -3725105.1683015823 0 0 0 0 8605882.7836007122 -1398057.5019237115 0 -1398057.5019237115 -39131.076209078543 0 0 0 0 9133453.7753195763 -13486370.31101191 0 -13486370.31101191 2857110.2177686691 0 0 0 0 18221081.575933456 6910934.3225898743 0 6910934.3225898743 5373680.3773536682 0 0 0 0 37241236.751365662 7081264.2889766693 0 7081264.2889766693 4245995.5528969765 0 0 0 0 1495759.7739155921 -104996.6140259169 0 -104996.6140259169 -302377.72695158282 0 0 0 0 45755632.696468353 31226793.419726729 0 31226793.419726729 4916111.7655353546 0 0 0 0 39108551.249698639 10111843.806109428 0 10111843.806109428 -1079179.0869088173 0 0 0 0 39158515.345413208 9859085.3348813057 0 9859085.3348813057 -4668037.220477581 0 0 0 0 37209584.445213079 6614167.9008097649 0 6614167.9008097649 -2556388.4800662994 0 0 0 0 32094905.40838623 9189517.9316422343 0 9189517.9316422343 -17056132.668999672 0 0 0 0 34878840.192343712 20138384.341529489 0 20138384.341529489 10458094.160014153 0 0 0 0 21854016.559427261 32099564.238861084 0 32099564.238861084 7848810.8240938187 0 0 0 0 30857878.471761703 22437955.987538874 0 22437955.987538874 17382003.614833832 0 0 0 0 1843008.516724864 -210208.86801409023 0 -210208.86801409023 -1473726.9519840556 0 0 0 0 55020568.551456451 24429830.041125774 0 24429830.041125774 -1241981.9198613167 0 0 0 0 55947139.109580994 19732834.554516912 0 19732834.554516912 13518549.074324608 0 0 0 0 68691366.849798679 104707907.75285706 0 104707907.75285706 106908674.92726892 0 0 0 0 919013.93153555458 -229773.52698577056 0 -229773.52698577056 -831178.76060618879 0 0 0 0 -7321174.2314376831 60172162.204227388 0 60172162.204227388 3268162.651142478 0 0 0 0 9435379.5221099854 18594366.143734932 0 18594366.143734932 176408365.86595669 0 0 0 0 4768153.5953445435 57438011.848308563 0 57438011.848308563 83459034.928971291 0 0 0 0 -39185624.711177826 7953755.006601572 0 7953755.006601572 90226917.269933224 0 0 0 0 -27339858.78263855 50036544.78932023 0 50036544.78932023 49498196.902350426 0 0 0 0 -6375047.8367900848 15629966.529232621 0 15629966.529232621 100905044.96333981 0 0 0 0 11339120.828369141 86957612.659347296 0 86957612.659347296 142191851.58879796 0 0 0 0 6826340.3783035278 40175995.138744593 0 40175995.138744593 56920945.402391255 0 0 0 0 25325287.409683228 157367513.15101653 0 157367513.15101653 161872268.04893136 0 0 0 0 25192963.418229148 178024985.94839185 0 178024985.94839185 262131207.15092021 0 0 0 0 -8571646.764919281 83766078.774703935 0 83766078.774703935 191027198.99469504 0 0 0 0 19825362.433753967 102137825.62342225 0 102137825.62342225 175473423.90601555 0 0 0 0 27958609.792919159 65578889.851631306 0 65578889.851631306 259842211.12172112 0 0 0 0 179746179.64227676 213702061.21484417 0 213702061.21484417 269286191.54451346 0 0 0 0 70919265.058204651 104570164.11407709 0 104570164.11407709 363451130.75803351 0 0 0 0 91448164.641479492 106167781.99349427 0 106167781.99349427 233883456.50100851 0 0 0 0 41310398.955627441 22890255.825760841 0 22890255.825760841 237168930.66571251 0 0 0 0 39134386.424057007 72101276.914548874 0 72101276.914548874 330921091.32457638 0 0 0 0 137242030.52313614 135901883.1390214 0 135901883.1390214 292339429.98404264 0 0 0 0 82054783.439689636 65897020.754422665 0 65897020.754422665 202749043.72194862 0 0 0 0 84757673.886825562 -8834833.7213153839 0 -8834833.7213153839 143673268.04286814 0 0 0 0 40147262.879383087 57746152.459058523 0 57746152.459058523 143922532.83562183 0 0 0 0 5668780.1817016602 -74788090.764365196 0 -74788090.764365196 366516274.96639013 0 0 0 0 84300662.256118774 -67483554.981807709 0 -67483554.981807709 99117943.75326252 0 0 0 0 42472805.91809082 5246521.4028367996 0 5246521.4028367996 246916377.09987736 0 0 0 0 59995272.060592651 42851144.155313492 0 42851144.155313492 277576912.23410225 0 0 0 0 52244956.453369141 200896982.16821146 0 200896982.16821146 484382615.44676971 0 0 0 0 -12502228.283355713 3042155.7285180092 0 3042155.7285180092 421082403.63669205 0 0 0 0 -183531459.3664856 2019893.359869957 0 2019893.359869957 621148385.52436781 0 0 0 0 14598583.119785309 49153192.154449224 0 49153192.154449224 432425565.31824398 0 0 0 0 -58646853.371620178 275932835.46742857 0 275932835.46742857 884451428.56551409 0 0 0 0 -3360629.399810791 597663639.47587299 0 597663639.47587299 546511746.62899697 0 0 0 0 140390711.18098831 452213362.81320488 0 452213362.81320488 474917233.8737964 0 0 0 0 598574636.48246384 519198071.65172023 0 519198071.65172023 310954991.15044987 0 0 0 0 324301839.50172424 284079383.94042468 0 284079383.94042468 349839976.58783269 0 0 0 0 44461030.416175842 177413092.82070875 0 177413092.82070875 435790955.92963195 0 0 0 0 160401860.2290802 242246865.18066022 0 242246865.18066022 401056654.92333126 0 0 0 0 153608666.70868683 451019739.77599823 0 451019739.77599823 239966960.05854702 0 0 0 0 815108974.27696991 539647126.96509039 0 539647126.96509039 13187499.219232887 0 0 0 0 499268504.52622223 184887767.27249998 0 184887767.27249998 516478782.31595701 0 0 0 0 556913063.88026428 330058534.92693573 0 330058534.92693573 614641048.20382857 0 0 0 0 1332757811.8752747 -81070287.8136127 0 -81070287.8136127 185777454.48595503 0 0 0 0 125176641.35577393 979275125.18072438 0 979275125.18072438 1406857520.2308331 0 0 0 0 522607507.98677063 221780924.12998235 0 221780924.12998235 249111426.74350703 0 0 0 0 408866328.15335846 86630758.858453333 0 86630758.858453333 98714902.800988674 0 0 0 0 426723817.10674286 185590574.9836458 0 185590574.9836458 105095811.26262784 0 0 0 0 508508820.94273376 110474298.10047179 0 110474298.10047179 124111706.84335116 0 0 0 0 552802129.9155426 251293964.54019189 0 251293964.54019189 139086173.16391879 0 0 0 0 602009211.7061615 377409932.97967601 0 377409932.97967601 500833674.37875068 0 0 0 0 559593999.09333801 288745596.362831 0 288745596.362831 481571584.60962778 0 0 0 0 550857476.49025726 124534857.45296326 0 124534857.45296326 229511575.40270174 0 0 0 0 532423893.2824707 232139781.6095531 0 232139781.6095531 576321249.73050165 0 0 0 0 527677030.81166267 141430207.72948077 0 141430207.72948077 375758320.71190506 0 0 0 0 548721236.45462418 277625839.26249659 0 277625839.26249659 347034697.34389186 0 0 0 0 485778658.40135193 122849020.72328365 0 122849020.72328365 225370721.03616768 0 0 0 0 713858407.48516464 674398196.75987697 0 674398196.75987697 350927366.00626278 0 0 0 0 534412716.77848816 265193600.4570865 0 265193600.4570865 369699280.78322464 0 0 0 0 923826794.59684753 510233118.68613899 0 510233118.68613899 460374030.43006116 0 0 0 0 492123096.06464386 406633044.15894306 0 406633044.15894306 919134519.94325829 0 0 0 0 733359334.96194458 798595720.0562048 0 798595720.0562048 636458554.14356303 0 0 0 0 253392.37270031963 -374607.11147112586 0 -374607.11147112586 801637.76971985819 0 0 0 0 765024701.06702423 946067739.09892607 0 946067739.09892607 1077766323.816457 0 0 0 0 -242716691.62649918 -238350096.70765805 0 -238350096.70765805 492099387.6449337 0 0 0 0 -223327820.5039978 46690688.61193943 0 46690688.61193943 1299681506.8899422 0 0 0 0 575957526.20414734 77909239.963755041 0 77909239.963755041 1428053491.7901764 0 0 0 0 29761770.469406128 -114318729.16863871 0 -114318729.16863871 -33077186.945134163 0 0 0 0 381971.34033268504 -563990.89873211458 0 -563990.89873211458 2365293.6950477352 0 0 0 0 -4535107.5400772095 107814547.97676325 0 107814547.97676325 -51440121.567941666 0 0 0 0 -148866193.13375092 35669228.071183205 0 35669228.071183205 -1922116.1852283478 0 0 0 0 58105308.282409668 196620785.79912317 0 196620785.79912317 670660967.10621381 0 0 0 0 963358482.13939476 654126570.20185924 0 654126570.20185924 320864264.87572736 0 0 0 0 52365.077842941508 373554.5865822332 0 373554.5865822332 875457.183569332 0 0 0 0 1172629803.4336615 7307114.3617378324 0 7307114.3617378324 -42574079.974844933 0 0 0 0 397249517.87140274 -59599235.16897881 0 -59599235.16897881 67139055.315869093 0 0 0 0 -17041431.012477875 53456750.966197729 0 53456750.966197729 -25259678.494787216 0 0 0 0 -135701.63913395442 1710432.1184585765 0 1710432.1184585765 3659720.6649785461 0 0 0 0 24618874.172302246 -934929.12188959122 0 -934929.12188959122 -25451165.252884865 0 0 0 0 -9256247.0067176819 65604933.518620729 0 65604933.518620729 -17387777.35572052 0 0 0 0 32830242.170829773 9087329.5150461197 0 9087329.5150461197 -44313004.403675079 0 0 0 0 10415613.803012848 -7192698.1543793678 0 -7192698.1543793678 -23107443.673027039 0 0 0 0 53919301.668807983 -6857540.7142486572 0 -6857540.7142486572 -24795196.232988596 0 0 0 0 35645782.600765228 22389997.286629438 0 22389997.286629438 5586222.8554134369 0 0 0 0 36773061.228096008 -27319334.681858063 0 -27319334.681858063 106923576.35293341 0 0 0 0 51461350.890033722 29875025.875673294 0 29875025.875673294 119225984.07518387 0 0 0 0 79398577.921546936 -26340040.378297806 0 -26340040.378297806 30426420.005572319 0 0 0 0 52542226.018684387 37946466.117774963 0 37946466.117774963 80863968.451692104 0 0 0 0 50425670.212320328 -329216.74612045288 0 -329216.74612045288 -10728808.534513474 0 0 0 0 1061229768.7142744 -739737307.21657121 0 -739737307.21657121 -353805580.1981703 0 0 0 0 558983172.46043396 -726934464.94365621 0 -726934464.94365621 105525519.00939712 0 0 0 0 2199190973.3702374 -1130730814.4009113 0 -1130730814.4009113 -320423662.23441637 0 0 0 0 1036846834.3306999 -623076823.43506622 0 -623076823.43506622 -540700469.89021957 0 0 0 0 1351932283.4468908 -669007458.8762114 0 -669007458.8762114 -626746799.38136172 0 0 0 0 1120893630.8180561 -403447637.34601498 0 -403447637.34601498 -931479214.72454584 0 0 0 0 2205723762.88591 359105081.09566355 0 359105081.09566355 -1326117846.3419156 0 0 0 0 736268430.86631012 -503191188.18135381 0 -503191188.18135381 -385370390.23581994 0 0 0 0 732796795.2351141 -483236444.63236332 0 -483236444.63236332 -437025999.24379277 0 0 0 0 513553889.95447922 -448579766.71035874 0 -448579766.71035874 -147120763.38420337 0 0 0 0 726962605.54446793 -462610186.30602622 0 -462610186.30602622 -223864991.46312761 0 0 0 0 489376188.57264364 -232924258.00775447 0 -232924258.00775447 -155214458.98542738 0 0 0 0 241536170.08930969 -429475050.71021324 0 -429475050.71021324 47544883.079696268 0 0 0 0 533166052.87691116 -548786711.13254905 0 -548786711.13254905 -17914607.255475029 0 0 0 0 72527709.903543472 -201930336.13711965 0 -201930336.13711965 293478578.44185293 0 0 0 0 407101391.28494644 -612053982.2115643 0 -612053982.2115643 208741085.18523169 0 0 0 0 110284486.79870605 -112089841.95573449 0 -112089841.95573449 -105024983.9199428 0 0 0 0 388147980.22903061 -335439866.15234923 0 -335439866.15234923 -79461452.571188807 0 0 0 0 111880787.35528946 -74818197.651772067 0 -74818197.651772067 -105560618.59786324 0 0 0 0 101682899.44456291 -40767169.830804229 0 -40767169.830804229 -323667315.56726742 0 0 0 0 91772944.688694 -201449352.80831194 0 -201449352.80831194 -276968478.37469006 0 0 0 0 35196689.898204803 -135003209.48539448 0 -135003209.48539448 -191099082.79104006 0 0 0 0 263483021.91526794 -240768167.36725497 0 -240768167.36725497 -197255432.31652999 0 0 0 0 126062883.50075626 -89421349.666309953 0 -89421349.666309953 -204520864.18583679 0 0 0 0 245790233.30402374 -202226907.48448992 0 -202226907.48448992 -380608469.05852056 0 0 0 0 410679021.25980186 -652768084.90946221 0 -652768084.90946221 84806989.595859081 0 0 0 0 907263535.67107534 -1477133838.966815 0 -1477133838.966815 696083772.21778929 0 0 0 0 2202866969.6661563 1202281783.6494114 0 1202281783.6494114 473815136.55430567 0 0 0 0 -365297931.05610466 -664664741.43027878 0 -664664741.43027878 1032391338.1153147 0 0 0 0 1029286.1055780789 -618551.02410805458 0 -618551.02410805458 668821.22466481396 0 0 0 0 1141346662.0707431 515527194.49550784 0 515527194.49550784 37404753.537931651 0 0 0 0 -121149083.24420166 -305110038.54736662 0 -305110038.54736662 -345166113.68795681 0 0 0 0 2493739.8884048145 -1931419.1186689124 0 -1931419.1186689124 1136600.3579108671 0 0 0 0 1145459599.1491337 315338135.35231441 0 315338135.35231441 9416733.4596884698 0 0 0 0 368780858.77298737 269003645.20240825 0 269003645.20240825 95802333.351371139 0 0 0 0 2204884453.3068199 474349898.22671801 0 474349898.22671801 -344728359.27316809 0 0 0 0 1531535109.9610758 130754264.66382489 0 130754264.66382489 -317686044.1513285 0 0 0 0 1536902291.8650584 97060892.688432455 0 97060892.688432455 -146462847.513897 0 0 0 0 390528277.8107295 -223391331.96438476 0 -223391331.96438476 -17825184.52261737 0 0 0 0 1763946420.1345587 -561334608.60299098 0 -561334608.60299098 46457927.032766283 0 0 0 0 696828.03812966566 -544571.88630843232 0 -544571.88630843232 -433924.10875609476 0 0 0 0 217036976.34241867 84633530.701786757 0 84633530.701786757 -208884884.44272837 0 0 0 0 1772864281.1667235 -953104382.82225931 0 -953104382.82225931 -357713792.10080242 0 0 0 0 1895606044.991395 114680785.50197875 0 114680785.50197875 -320338025.32924342 0 0 0 0 2204727713.9640636 203917266.83614111 0 203917266.83614111 -204958738.76201868 0 0 0 0 2953386701.2904968 -275736816.43311507 0 -275736816.43311507 -569749459.94297814 0 0 0 0 -252169.63377952576 -1675812.2802232504 0 -1675812.2802232504 -21838981.281115986 0 0 0 0 12479198.633957863 -17543283.299448967 0 -17543283.299448967 -3425587.5612792969 0 0 0 0 -43511232.762307882 -14045958.865849972 0 -14045958.865849972 15077766.119225025 0 0 0 0 -63306581.67574358 5032240.2904996872 0 5032240.2904996872 165128682.94443822 0 0 0 0 -3732132.8907661438 -19579094.283446074 0 -19579094.283446074 14145674.612293243 0 0 0 0 226337226.67991555 146141924.49530375 0 146141924.49530375 6641100.6656178832 0 0 0 0 1772326.0212524591 -1805098.3445189984 0 -1805098.3445189984 -1245859.0560811255 0 0 0 0 1338532.4006299973 5933814.1229518056 0 5933814.1229518056 29359755.735999107 0 0 0 0 14201221.233283043 1660673.5413851738 0 1660673.5413851738 -3943952.0207109451 0 0 0 0 794772.96072252188 28179.465577039286 0 28179.465577039286 -718270.73563346441 0 0 0 0 3306194.8806484938 -14115759.226702422 0 -14115759.226702422 -76007716.338459015 0 0 0 0 4997503.9987626597 -1305021.482023922 0 -1305021.482023922 -2255019.0339456862 0 0 0 0 -2167681.6426696777 126877066.44068956 0 126877066.44068956 -249927681.74456215 0 0 0 0 217765200.85078955 -138730507.18709677 0 -138730507.18709677 48097384.812702417 0 0 0 0 3090958.1324463487 -19781794.365647078 0 -19781794.365647078 -214489430.1030302 0 0 0 0 3603995.5732041467 -2866868.6515123448 0 -2866868.6515123448 805892.73566420772 0 0 0 0 81373538.764801025 -63823360.889676094 0 -63823360.889676094 -219951689.2126509 0 0 0 0 100787668.87181854 12815083.952767134 0 12815083.952767134 -322371140.85149288 0 0 0 0 86639608.602214813 -11625180.157216072 0 -11625180.157216072 -345273666.2254529 0 0 0 0 155954876.47040939 -89770636.954507113 0 -89770636.954507113 -335307216.16027784 0 0 0 0 56428695.87468338 -117148738.77896786 0 -117148738.77896786 -443950447.2412197 0 0 0 0 94860949.594055176 63560448.2629776 0 63560448.2629776 -411044018.47785926 0 0 0 0 -169392119.41520309 -68071786.753119469 0 -68071786.753119469 -482407200.96613216 0 0 0 0 -197942334.57791138 328837721.60595345 0 328837721.60595345 -231691846.29622364 0 0 0 0 700509.81930000708 -95164.264321481343 0 -95164.264321481343 -620516.75691054459 0 0 0 0 86998778.832977295 17244075.88492775 0 17244075.88492775 -645866911.81895876 0 0 0 0 -610932170.97056961 -175713598.84181845 0 -175713598.84181845 -3322302.3808164597 0 0 0 0 -200351524.73690414 193744442.92981923 0 193744442.92981923 -560808156.39560008 0 0 0 0 -78721995.74471283 -53321006.76284337 0 -53321006.76284337 -963713078.61049581 0 0 0 0 637908.49075789377 -624663.24934120942 0 -624663.24934120942 -444937.24894510681 0 0 0 0 -1700310.3770103455 80480529.173332691 0 80480529.173332691 -940792108.63325691 0 0 0 0 -183931637.79890442 -279885316.00282836 0 -279885316.00282836 -692598119.86440516 0 0 0 0 -269664232.15910721 -87551209.823255658 0 -87551209.823255658 -53043596.504198551 0 0 0 0 1709041.7447636127 -6989274.9095543623 0 -6989274.9095543623 1126124.2915372849 0 0 0 0 1627516.6948802727 -2906390.3098979662 0 -2906390.3098979662 2021778.5125003206 0 0 0 0 -1197285.7450370789 24479905.38157177 0 24479905.38157177 -163070280.64023662 0 0 0 0 4428212.4449281283 -1218900.7371104341 0 -1218900.7371104341 -2077361.9767664196 0 0 0 0 2341978.4038500786 -3963585.3622515202 0 -3963585.3622515202 -1359717.7658805847 0 0 0 0 5259373.8106880188 -5635958.7905836105 0 -5635958.7905836105 -820364.35794234276 0 0 0 0 56151.423862457275 -7425973.9384478331 0 -7425973.9384478331 15044541.737730503 0 0 0 0 10522988.9522295 -11042171.801860929 0 -11042171.801860929 4460865.0007972717 0 0 0 0 -2584058.1605119705 -2332646.4371609688 0 -2332646.4371609688 2131668.9098727703 0 0 0 0 -3134143.9814662933 -1883348.1160202026 0 -1883348.1160202026 5532881.4794650078 0 0 0 0 3361589.2592945099 -8411093.767349124 0 -8411093.767349124 1989562.1557397842 0 0 0 0 -964295.76486873627 985304.16173291206 0 985304.16173291206 1971375.3709878922 0 0 0 0 5333220.1182484627 10958195.287341565 0 10958195.287341565 6023359.3821892738 0 0 0 0 4011430.3813285828 318451.1366263628 0 318451.1366263628 -14385925.924014203 0 0 0 0 -368639769.55626297 -253370993.45509121 0 -253370993.45509121 -1037410.4719557762 0 0 0 0 270381764.20523071 -10746185.911706686 0 -10746185.911706686 -123866871.07693172 0 0 0 0 2247567.6289868411 -1306102.9688767723 0 -1306102.9688767723 -189683.21755411749 0 0 0 0 854585.75853157043 -412411.10585188866 0 -412411.10585188866 -4813273.0915780589 0 0 0 0 1619498.8332177205 -2007045.8366769876 0 -2007045.8366769876 1352712.8018956475 0 0 0 0 -363328238.88732529 -260631231.94254106 0 -260631231.94254106 -59573797.626662016 0 0 0 0 -305247480.77923822 -84980986.247537509 0 -84980986.247537509 39358978.220809221 0 0 0 0 282733632.23278618 -206222952.09982863 0 -206222952.09982863 -119849245.32533383 0 0 0 0 -53324757.890846252 25601191.908827424 0 25601191.908827424 -55269220.643375278 0 0 0 0 -308850963.45891953 -144320693.64305663 0 -144320693.64305663 -62329369.34975332 0 0 0 0 -127544954.86809921 -235052039.50565222 0 -235052039.50565222 -158236504.80789661 0 0 0 0 61183692.386919022 -67697079.003111243 0 -67697079.003111243 -485395219.9266119 0 0 0 0 -90354637.206066132 -51098405.867144823 0 -51098405.867144823 -133236163.09945396 0 0 0 0 103954899.25347233 86715554.452495277 0 86715554.452495277 -114455859.12546396 0 0 0 0 371612061.9087677 -42094588.560581326 0 -42094588.560581326 -221173992.0956215 0 0 0 0 295699884.75610542 210304678.15216658 0 210304678.15216658 -207930921.80612469 0 0 0 0 203120778.44755936 234315051.28511474 0 234315051.28511474 28444714.49366403 0 0 0 0 101365559.4929533 64055067.119711474 0 64055067.119711474 -245118054.09708691 0 0 0 0 5426.4604383213446 -166481.54601261194 0 -166481.54601261194 41824.354807692267 0 0 0 0 25314225.696062088 167201484.03012598 0 167201484.03012598 -273911430.74863982 0 0 0 0 -114920613.14831161 22363127.530295968 0 22363127.530295968 -218076406.83310556 0 0 0 0 -566947529.30877113 -195787581.9312079 0 -195787581.9312079 -422613891.48653316 0 0 0 0 -148178582.20474625 66998540.862472773 0 66998540.862472773 -296249246.58961511 0 0 0 0 -5995610.7115440369 -34689577.86763525 0 -34689577.86763525 -185565673.7341367 0 0 0 0 40577268.536478519 -26803697.520204097 0 -26803697.520204097 -490774734.35251999 0 0 0 0 -227469055.44062805 -211656120.68299651 0 -211656120.68299651 -321742844.0030632 0 0 0 0 -56333064.527996063 -148577244.6906634 0 -148577244.6906634 -113930412.54436305 0 0 0 0 -147684826.42815876 -68389128.352799714 0 -68389128.352799714 -136123658.18729854 0 0 0 0 46018.039198430255 -388574.88858637004 0 -388574.88858637004 97421.641825675775 0 0 0 0 -125053758.65148926 46824643.55178757 0 46824643.55178757 -1929522.8668955564 0 0 0 0 121642320.95397377 -4083760.3697808981 0 -4083760.3697808981 -246301263.90387696 0 0 0 0 257644693.4665966 -335620177.01022577 0 -335620177.01022577 -99444405.797627509 0 0 0 0 11061.580900324509 -300065.04004649341 0 -300065.04004649341 80995.576142617865 0 0 0 0 93773644.459851742 101249289.75147448 0 101249289.75147448 -35796457.837374091 0 0 0 0 185021882.96669388 145876115.36853862 0 145876115.36853862 -37312643.852998376 0 0 0 0 206993969.51896429 144822990.80201107 0 144822990.80201107 -71436292.783003569 0 0 0 0 208896895.03896332 154287425.3323611 0 154287425.3323611 -34903860.650330245 0 0 0 0 317957304.68967438 175148945.15478426 0 175148945.15478426 -63382908.203531072 0 0 0 0 72085203.41391325 172293953.02093863 0 172293953.02093863 10352749.603356123 0 0 0 0 282734218.63665009 84832033.308179274 0 84832033.308179274 -85647226.930955127 0 0 0 0 264208624.56890106 101671698.02240799 0 101671698.02240799 -100948772.86249453 0 0 0 0 208644371.87234879 124699910.60450137 0 124699910.60450137 -46606245.913708925 0 0 0 0 199090761.13646698 47457332.876181722 0 47457332.876181722 -102327842.03287756 0 0 0 0 -5274218.1826057434 -74965782.834287524 0 -74965782.834287524 -70907582.139666319 0 0 0 0 239025556.11575508 -107597475.03062481 0 -107597475.03062481 -76933597.929847956 0 0 0 0 272591178.08352661 -91580001.008396626 0 -91580001.008396626 -69290169.63477087 0 0 0 0 203871486.55117035 -85177114.381587043 0 -85177114.381587043 -45390655.145330012 0 0 0 0 493197816.15631485 -175033153.69389337 0 -175033153.69389337 13453535.198498547 0 0 0 0 241915721.88134384 -64713333.569251597 0 -64713333.569251597 -34511000.898213387 0 0 0 0 418485885.31623173 -441559225.60990322 0 -441559225.60990322 151534321.3402288 0 0 0 0 451391700.3784101 -217421256.62171623 0 -217421256.62171623 -17101346.217896461 0 0 0 0 588835602.3480835 -306065343.22199547 0 -306065343.22199547 38278147.420521975 0 0 0 0 677977891.31619263 -64277699.511918187 0 -64277699.511918187 -127714467.71384484 0 0 0 0 355929614.52409363 10895738.305306405 0 10895738.305306405 -69038471.566951632 0 0 0 0 441189178.45319366 62753100.476338089 0 62753100.476338089 -120089243.62324554 0 0 0 0 491887629.29934883 119001084.19962844 0 119001084.19962844 -51793222.520291567 0 0 0 0 663954950.30793953 -148284769.48490253 0 -148284769.48490253 -26718491.324812174 0 0 0 0 735542818.04988241 -344885877.17718571 0 -344885877.17718571 456345919.88791466 0 0 0 0 880431079.6034317 -50621676.84771955 0 -50621676.84771955 -6844463.4095058441 0 0 0 0 756849737.8882885 -239762415.19638759 0 -239762415.19638759 -33378827.997115888 0 0 0 0 501148350.85177612 -351918027.28277457 0 -351918027.28277457 91646994.479801416 0 0 0 0 412469680.33311558 5954536.8572919667 0 5954536.8572919667 -15525488.999392748 0 0 0 0 1030762956.063015 -346486528.42483521 0 -346486528.42483521 242285201.38310492 0 0 0 0 1174053378.640728 -974693622.40527105 0 -974693622.40527105 535585580.55382061 0 0 0 0 1295196504.6399765 -903722981.62217999 0 -903722981.62217999 279295976.8090806 0 0 0 0 974388930.96289778 -940790857.76827729 0 -940790857.76827729 295815575.48582363 0 0 0 0 1059064562.5465832 -285472812.02627498 0 -285472812.02627498 -218089842.65510476 0 0 0 0 2082677514.6550426 -744830018.03904891 0 -744830018.03904891 -142471284.02513433 0 0 0 0 947356.12919400819 -777452.91776905162 0 -777452.91776905162 -230405.17054302129 0 0 0 0 91491440.46156311 24800882.354938269 0 24800882.354938269 -46586517.008336544 0 0 0 0 12034988.915008545 -28267497.681578398 0 -28267497.681578398 -23448269.3825984 0 0 0 0 65129.917912105098 -85878.608919166727 0 -85878.608919166727 22513.963120481487 0 0 0 0 1023534911.2752683 -501086768.60207021 0 -501086768.60207021 -123588659.01201677 0 0 0 0 1630991849.114151 -946733454.2794174 0 -946733454.2794174 91840724.073340654 0 0 0 0 1375822666.76297 -521961780.85351288 0 -521961780.85351288 432975162.59733319 0 0 0 0 2352074800.2502317 -965729648.4890691 0 -965729648.4890691 128399104.70011282 0 0 0 0 -55564.230982210473 -39404.014347983524 0 -39404.014347983524 795765.52927613631 0 0 0 0 1235785467.2614975 -970856255.62364042 0 -970856255.62364042 1479545786.5959108 0 0 0 0 23777755.112776458 105348981.64555171 0 105348981.64555171 478927687.31419086 0 0 0 0 65683981.353191376 -575725403.98304939 0 -575725403.98304939 783924178.46943855 0 0 0 0 852407228.17961788 -768772984.65421343 0 -768772984.65421343 347918867.97412634 0 0 0 0 1201224870.51297 -259014654.68268794 0 -259014654.68268794 223497426.31901264 0 0 0 0 920530047.2633667 -441901940.64685273 0 -441901940.64685273 105875266.62173152 0 0 0 0 674418034.8530364 -301521117.30871147 0 -301521117.30871147 27189378.83468914 0 0 0 0 636462738.7430315 -585687503.93121481 0 -585687503.93121481 175287710.42321897 0 0 0 0 306461152.14751053 -437653150.6340034 0 -437653150.6340034 192972606.81342411 0 0 0 0 294776832.09294891 -479985088.00124824 0 -479985088.00124824 237241758.36096251 0 0 0 0 399732158.41895676 -245215718.87975413 0 -245215718.87975413 151928324.84443757 0 0 0 0 118232180.87316227 -443991110.02381092 0 -443991110.02381092 249646788.3687222 0 0 0 0 -22739410.856365204 -174834335.90621704 0 -174834335.90621704 193840419.25224805 0 0 0 0 291111367.13933182 -571481653.49736691 0 -571481653.49736691 285711991.76187587 0 0 0 0 141983895.10938644 -186578722.65042806 0 -186578722.65042806 99428872.938494325 0 0 0 0 1151386.3540038196 -559624.75599160907 0 -559624.75599160907 -459701.12825996184 0 0 0 0 248697843.43451309 -153298333.28782129 0 -153298333.28782129 57834447.687241793 0 0 0 0 237985292.46021748 -171047314.869865 0 -171047314.869865 55951239.101597309 0 0 0 0 192737424.80499649 -95490817.990253329 0 -95490817.990253329 9131796.1572003365 0 0 0 0 26868874.052171707 -43527293.913347483 0 -43527293.913347483 25731019.428042889 0 0 0 0 350437383.80657959 -134017579.68840241 0 -134017579.68840241 -83128937.699411273 0 0 0 0 322128446.6135025 -209874099.2477777 0 -209874099.2477777 -8413220.5713515282 0 0 0 0 46814284.609073639 -4253077.3976837397 0 -4253077.3976837397 -22858889.972901821 0 0 0 0 553703158.13473129 -190940675.95958197 0 -190940675.95958197 -102331917.07593814 0 0 0 0 -159291026.27479267 -49501974.289123982 0 -49501974.289123982 -81703604.419564486 0 0 0 0 -195403.56128210668 40046.685749246739 0 40046.685749246739 442770.96838988189 0 0 0 0 353447717.24642181 -109675307.42496765 0 -109675307.42496765 -42189672.048836231 0 0 0 0 553302.5581568107 -242007.21201460669 0 -242007.21201460669 -260018.38821187796 0 0 0 0 402931713.27250671 -496127905.8579073 0 -496127905.8579073 392853947.99535644 0 0 0 0 583922721.01143646 -18944027.986716747 0 -18944027.986716747 -851498709.82401752 0 0 0 0 743161590.37832642 -507869842.72064781 0 -507869842.72064781 210025112.31465816 0 0 0 0 678882691.71775818 -96053818.689611912 0 -96053818.689611912 -791598866.57364178 0 0 0 0 497711035.8493042 -634811049.89034355 0 -634811049.89034355 674354827.94086874 0 0 0 0 837288523.80070496 186307643.05697072 0 186307643.05697072 -807898986.11958671 0 0 0 0 -496997503.71173096 67065760.091715932 0 67065760.091715932 -121239875.09150988 0 0 0 0 512347.39211479761 -390176.80445477669 0 -390176.80445477669 -210203.30103026517 0 0 0 0 300509431.15856361 -273604818.86430508 0 -273604818.86430508 128070350.93040508 0 0 0 0 624664617.62870026 -477088694.84363317 0 -477088694.84363317 253895252.77752256 0 0 0 0 174202045.34154606 -283823083.16568518 0 -283823083.16568518 398956848.50823593 0 0 0 0 515918307.62948608 -358027573.8682186 0 -358027573.8682186 135122825.03877345 0 0 0 0 592791031.63521719 -361017048.68176168 0 -361017048.68176168 165110129.14372444 0 0 0 0 452292153.51894379 -447599430.51421201 0 -447599430.51421201 115930912.13545515 0 0 0 0 375643496.7265625 -409337015.82519633 0 -409337015.82519633 199516312.89892021 0 0 0 0 371498612.98117447 -465174628.61104172 0 -465174628.61104172 227306429.44588494 0 0 0 0 370468230.24889755 -475378294.03273827 0 -475378294.03273827 131899605.4370001 0 0 0 0 89022664.648723602 -337801037.40718585 0 -337801037.40718585 180805849.73282257 0 0 0 0 385638711.70790863 -405802230.51350838 0 -405802230.51350838 121321557.57498854 0 0 0 0 671678096.15927887 -407254648.55583888 0 -407254648.55583888 76753967.648898065 0 0 0 0 348102044.87830544 -545166412.67057741 0 -545166412.67057741 114365868.60588908 0 0 0 0 -541335847.15242767 -405947546.21717739 0 -405947546.21717739 98847050.223389536 0 0 0 0 231587.77889107354 -306011.43625377677 0 -306011.43625377677 418029.58093748882 0 0 0 0 830639921.17314148 -576753058.24227369 0 -576753058.24227369 292191611.40043306 0 0 0 0 591379188.33140945 -330362258.31231207 0 -330362258.31231207 188759469.62160647 0 0 0 0 519875012.2420578 -331958974.8171863 0 -331958974.8171863 181406201.40097833 0 0 0 0 501823048.55694103 -349753608.85963601 0 -349753608.85963601 335068843.50687468 0 0 0 0 602301098.60824966 -285256103.07600498 0 -285256103.07600498 187207380.81202346 0 0 0 0 569276405.64191437 -63900546.100335956 0 -63900546.100335956 48118498.079564571 0 0 0 0 482454946.77350998 -402095249.94695127 0 -402095249.94695127 169049138.20654154 0 0 0 0 482518726.47446537 -368132898.61270696 0 -368132898.61270696 216659282.88815379 0 0 0 0 1379540438.2333736 50212113.361194968 0 50212113.361194968 61510506.594904184 0 0 0 0 87831625.641508102 -177403841.47821164 0 -177403841.47821164 -262169415.33148718 0 0 0 0 -355563935.6000824 -306091790.07953668 0 -306091790.07953668 -166435693.16252518 0 0 0 0 777164.73317933921 -913563.07597018173 0 -913563.07597018173 737490.84150966164 0 0 0 0 461115906.67116165 160668822.25380248 0 160668822.25380248 127410137.63252163 0 0 0 0 393657320.44196701 32522630.605314016 0 32522630.605314016 62187801.132035099 0 0 0 0 247956821.09253836 112469506.10506055 0 112469506.10506055 155156658.83400989 0 0 0 0 295225362.54989529 -47010474.027350903 0 -47010474.027350903 -124650545.40636349 0 0 0 0 177362226.96760559 -77835062.104226112 0 -77835062.104226112 -24383505.984118462 0 0 0 0 295078309.81203651 -19784184.894057035 0 -19784184.894057035 -269159128.7815938 0 0 0 0 275978095.61897278 32113186.444879115 0 32113186.444879115 -423851452.88566399 0 0 0 0 194746116.46224594 172597513.34317231 0 172597513.34317231 -488536890.07766485 0 0 0 0 232166099.27620888 -72294069.289830863 0 -72294069.289830863 -133974606.04445362 0 0 0 0 290162196.54745483 54603063.352891684 0 54603063.352891684 -217209127.16635513 0 0 0 0 199418110.92182922 16469993.178188324 0 16469993.178188324 -231524107.00485492 0 0 0 0 257461041.7594986 -12634768.275558472 0 -12634768.275558472 -364674225.30690765 0 0 0 0 180195179.07069397 -78300194.99386096 0 -78300194.99386096 -293670347.5408988 0 0 0 0 169243639.78448486 18174716.878150702 0 18174716.878150702 -220325032.56387544 0 0 0 0 -16285711.460266113 -137169353.57988548 0 -137169353.57988548 -106027596.56672812 0 0 0 0 313850056.58242416 -112214149.7583952 0 -112214149.7583952 -110358810.10694218 0 0 0 0 175757498.98776627 -90959487.706583321 0 -90959487.706583321 50073599.722847939 0 0 0 0 192592255.23908234 -351417482.37866282 0 -351417482.37866282 43814521.87707901 0 0 0 0 423868559.17060757 -299294986.58707255 0 -299294986.58707255 42417902.936427355 0 0 0 0 329433495.65786886 -222489402.30847991 0 -222489402.30847991 -197398085.2534976 0 0 0 0 90534501.2135849 -410508640.76467013 0 -410508640.76467013 -343848174.9038775 0 0 0 0 -123860371.67823029 -45989048.13728261 0 -45989048.13728261 -178159872.18484402 0 0 0 0 -41366432.531265259 -147628599.86569929 0 -147628599.86569929 -489999165.2023263 0 0 0 0 521582.01532113366 67972.63042501267 0 67972.63042501267 -338468.1532243744 0 0 0 0 -247403729.43008423 -196684321.50482655 0 -196684321.50482655 -48121663.3813591 0 0 0 0 416235.12072348595 -138999.15331615414 0 -138999.15331615414 -389963.38462387887 0 0 0 0 37892020.387870789 -231638326.5863452 0 -231638326.5863452 -564766189.74711609 0 0 0 0 28829644.463691711 64685362.672236443 0 64685362.672236443 -428738967.12947559 0 0 0 0 121662059.74139404 -63645525.315974355 0 -63645525.315974355 -232217821.66738224 0 0 0 0 -10253634.564985514 -109095378.24933241 0 -109095378.24933241 -204375296.24572515 0 0 0 0 3718155.1124687195 -35259169.789194822 0 -35259169.789194822 -34486588.394431591 0 0 0 0 2897907.1937789917 -785037.21550107002 0 -785037.21550107002 -120916.41050434113 0 0 0 0 1471156.7986727785 -1292854.2494575856 0 -1292854.2494575856 -300180.92760069645 0 0 0 0 -19766851.993553162 9932893.4590325356 0 9932893.4590325356 -42516377.901041731 0 0 0 0 2410076.0950418878 483935.04279107694 0 483935.04279107694 -1027924.1300255987 0 0 0 0 2278708.844581604 -656772.37270092964 0 -656772.37270092964 -138735.08134013414 0 0 0 0 2420418.6717720032 -923582.43640351295 0 -923582.43640351295 -1067739.7055809498 0 0 0 0 4776751.6931228638 16727383.180270076 0 16727383.180270076 -28007430.644841433 0 0 0 0 1521767.4560778197 -1291078.1935362853 0 -1291078.1935362853 -375243.6418072189 0 0 0 0 1764958.4058685303 -1211505.3181402683 0 -1211505.3181402683 -1102052.6068662405 0 0 0 0 2059514.4641368389 -1559449.4643269479 0 -1559449.4643269479 -2213940.9411325455 0 0 0 0 2920533.7227172852 -1061674.7260437012 0 -1061674.7260437012 -3054067.6359615326 0 0 0 0 1318652.0431267247 -115469.96571057383 0 -115469.96571057383 -1340220.1349752641 0 0 0 0 464359230.70290756 -11373582.654813766 0 -11373582.654813766 60756726.897824287 0 0 0 0 401769914.13327026 73577289.55092442 0 73577289.55092442 15018145.909557104 0 0 0 0 5411621.592376709 -4623184.2087430954 0 -4623184.2087430954 7196794.7306380272 0 0 0 0 1775035.4329683417 -1475747.815780248 0 -1475747.815780248 -781453.13683795556 0 0 0 0 2087632.3904371262 -1043915.7792449966 0 -1043915.7792449966 -1607026.6066832542 0 0 0 0 -13986123.254714966 -7740403.5070803165 0 -7740403.5070803165 6849378.9903824329 0 0 0 0 653412.78949088231 -192773.52732076589 0 -192773.52732076589 -1088328.2449503769 0 0 0 0 804919459.31045532 -116890476.20089415 0 -116890476.20089415 -295833996.01947975 0 0 0 0 -4479365.8834381104 6076785.8857352734 0 6076785.8857352734 -50211972.538555384 0 0 0 0 18113647.898479462 7145396.6854190826 0 7145396.6854190826 -53599583.553110123 0 0 0 0 21864797.920505524 10065964.427425504 0 10065964.427425504 -226299669.97014284 0 0 0 0 141460636.56877899 24184471.05791688 0 24184471.05791688 -225190001.42882103 0 0 0 0 98909716.920528412 116441575.37407392 0 116441575.37407392 -352916072.38503265 0 0 0 0 121750733.07715416 -40009709.018576682 0 -40009709.018576682 -359395203.47566319 0 0 0 0 171865.82991001802 -142327.72684059013 0 -142327.72684059013 -446555.79636239709 0 0 0 0 -235393067.7053833 314617124.46433753 0 314617124.46433753 -274269787.46384883 0 0 0 0 -90865218.308021545 128947186.39043522 0 128947186.39043522 -132737361.80374432 0 0 0 0 85204436.477798462 106596358.95401073 0 106596358.95401073 -343414072.04156327 0 0 0 0 88815069.675814867 271785166.49425966 0 271785166.49425966 -490574800.36650085 0 0 0 0 260169791.64211655 -246673190.06120563 0 -246673190.06120563 -215745777.45107269 0 0 0 0 440247871.04069901 -491859072.34659517 0 -491859072.34659517 -198828804.42598009 0 0 0 0 173789458.37767792 -508701819.43583411 0 -508701819.43583411 -152137580.93566012 0 0 0 0 1603159.5941175325 -2016577.9747265521 0 -2016577.9747265521 1413903.909933344 0 0 0 0 -20244554.7351408 -99695133.378377378 0 -99695133.378377378 -83578391.972957611 0 0 0 0 329043644.62931061 -147674707.03959531 0 -147674707.03959531 276678365.67045283 0 0 0 0 329385851.87582397 -184292539.22342449 0 -184292539.22342449 -615345352.41188526 0 0 0 0 417785970.63270569 -66351568.477810502 0 -66351568.477810502 -195912557.81661081 0 0 0 0 416663858.24796295 35503339.318780899 0 35503339.318780899 26259462.357092857 0 0 0 0 -256952614.68729401 204388733.2602154 0 204388733.2602154 -152386783.01717031 0 0 0 0 -789207594.66364479 -453447963.2263304 0 -453447963.2263304 -19146417.655057907 0 0 0 0 -669416889.40499067 -1133697873.5895638 0 -1133697873.5895638 5580123.9898896217 0 0 0 0 698728824.89694214 -322707471.23545414 0 -322707471.23545414 -123024502.15838051 0 0 0 0 272654372.66822052 -1152366671.108783 0 -1152366671.108783 -284721305.0235045 0 0 0 0 409877378.41275024 -62923474.275289416 0 -62923474.275289416 14600444.243176937 0 0 0 0 442966885.73300171 -196509801.14356482 0 -196509801.14356482 383128824.15279353 0 0 0 0 348326175.16993713 124451573.6309669 0 124451573.6309669 180582465.70799184 0 0 0 0 776484.20922411047 -214660.9987344158 0 -214660.9987344158 -105049.79215495777 0 0 0 0 1159264179.2317238 376357259.0606854 0 376357259.0606854 -408069454.22245073 0 0 0 0 959359219.59527588 388042191.43156862 0 388042191.43156862 -388544907.30241299 0 0 0 0 -71638530.130962372 68402660.469023705 0 68402660.469023705 -86265394.084544659 0 0 0 0 1429756806.7245827 309213292.84899783 0 309213292.84899783 -471350160.7057569 0 0 0 0 -995514017.77733231 29196521.306829333 0 29196521.306829333 539401941.68523085 0 0 0 0 1273210910.1703033 254829815.43886375 0 254829815.43886375 -362649650.26683521 0 0 0 0 273663225.81933594 -69773022.20627284 0 -69773022.20627284 31215709.196609497 0 0 0 0 509028377.44996262 704897848.01758194 0 704897848.01758194 972119842.46963596 0 0 0 0 1267522.2459254554 -1959954.8740076544 0 -1959954.8740076544 2141704.2888850616 0 0 0 0 131535209.33633041 -243111220.83863258 0 -243111220.83863258 419752100.15081596 0 0 0 0 655152977.74766159 -355383771.54504919 0 -355383771.54504919 -909017.09625196457 0 0 0 0 292003464.17158884 -283545493.84214687 0 -283545493.84214687 -136876935.71285439 0 0 0 0 295207929.73757941 -167921659.25813276 0 -167921659.25813276 -97626622.30417347 0 0 0 0 349723581.69749832 -211668033.57753086 0 -211668033.57753086 -175695468.99471807 0 0 0 0 336023443.21333694 71910327.541068554 0 71910327.541068554 -76075893.837652445 0 0 0 0 206621394.01082993 -86485002.443647146 0 -86485002.443647146 -135766153.03039169 0 0 0 0 12459268.827113152 -39131132.807108045 0 -39131132.807108045 -95502089.792888641 0 0 0 0 227808978.88158798 -193027806.74197578 0 -193027806.74197578 -163100358.06210232 0 0 0 0 216231387.14381909 -287665462.39912301 0 -287665462.39912301 -219170055.40960312 0 0 0 0 176320325.00880051 -187817904.54771757 0 -187817904.54771757 -137750401.76935434 0 0 0 0 119042944.16482103 -180074650.17671952 0 -180074650.17671952 -121360168.90154266 0 0 0 0 109541839.51336288 -145825320.66254902 0 -145825320.66254902 -55659704.04856348 0 0 0 0 106126471.32232285 -67924963.001277685 0 -67924963.001277685 -84622078.527286172 0 0 0 0 95920707.370857239 -78030987.506510735 0 -78030987.506510735 -33646122.642504692 0 0 0 0 96046039.272754669 -96103790.576310396 0 -96103790.576310396 -140179102.10952139 0 0 0 0 91441418.86300087 -103709922.21761894 0 -103709922.21761894 -141308974.12706375 0 0 0 0 39231365.631820679 -127004261.99701357 0 -127004261.99701357 -124595227.81992102 0 0 0 0 -141819656.64026642 -93120530.930272579 0 -93120530.930272579 -89367574.496146917 0 0 0 0 19008633.255376816 -73433135.337408006 0 -73433135.337408006 -103740841.82021141 0 0 0 0 1286114.9525588825 -1449452.1407884313 0 -1449452.1407884313 805694.84915396397 0 0 0 0 15051342.202915192 500370510.61630708 0 500370510.61630708 -67184068.482800007 0 0 0 0 -194302777.96435738 -222514657.34033275 0 -222514657.34033275 -128584700.78267384 0 0 0 0 29137968.705944061 -122436028.52248716 0 -122436028.52248716 -172498997.78640842 0 0 0 0 29572529.056678772 -95532430.738324881 0 -95532430.738324881 -96218546.508537769 0 0 0 0 -62401886.057003021 -103250995.33325756 0 -103250995.33325756 -111760353.199332 0 0 0 0 51989601.36447525 -120210632.35075212 0 -120210632.35075212 -184865262.85545158 0 0 0 0 -50468393.350154877 -142196276.76147485 0 -142196276.76147485 -199896180.3606497 0 0 0 0 150645223.8466835 -25216066.917081833 0 -25216066.917081833 -173581373.2307353 0 0 0 0 129506033.26161432 37822426.110468626 0 37822426.110468626 -72559315.072005272 0 0 0 0 152033459.44000816 36293245.995714903 0 36293245.995714903 -33498041.579596043 0 0 0 0 118248462.56740189 -21666626.955379963 0 -21666626.955379963 -116229159.6911335 0 0 0 0 93389229.612896919 -25533597.76475662 0 -25533597.76475662 -89066327.816521645 0 0 0 0 178483033.57481003 66281307.788616657 0 66281307.788616657 96341951.028675556 0 0 0 0 150486536.92418671 89706622.23662281 0 89706622.23662281 89639886.327666759 0 0 0 0 127284086.51700592 41199609.139027238 0 41199609.139027238 5805771.3732862473 0 0 0 0 193245695.26647186 133128566.29997098 0 133128566.29997098 -26468006.785621881 0 0 0 0 170519854.12477303 166607573.915429 0 166607573.915429 66851465.978466511 0 0 0 0 435054512.63943863 121380165.45506001 0 121380165.45506001 54641419.759997368 0 0 0 0 247481048.15950394 11970355.50667882 0 11970355.50667882 941660.65839803219 0 0 0 0 388995113.13854694 -85632404.538638473 0 -85632404.538638473 -38307288.09349966 0 0 0 0 596413886.2539773 47669889.52739495 0 47669889.52739495 144183893.29322433 0 0 0 0 569627607.56121254 190283360.4805758 0 190283360.4805758 175093443.62749481 0 0 0 0 812118128.27691269 113968990.25080895 0 113968990.25080895 48296338.166749954 0 0 0 0 352999182.71883774 40618271.468486786 0 40618271.468486786 91875956.559795976 0 0 0 0 238665757.86455727 145590937.45797992 0 145590937.45797992 192682559.45265579 0 0 0 0 250313293.42623711 123418256.76449585 0 123418256.76449585 442626084.18239021 0 0 0 0 193703044.78308868 -3111640.0490846634 0 -3111640.0490846634 227548226.78366166 0 0 0 0 732092767.70457458 -119095219.98113823 0 -119095219.98113823 465151743.70035076 0 0 0 0 466191198.94450951 109432524.25869703 0 109432524.25869703 471044119.9182291 0 0 0 0 327151256.06321716 -98983870.749501228 0 -98983870.749501228 293184720.27487612 0 0 0 0 219104078.62059593 2853768.0173170567 0 2853768.0173170567 209110886.67644453 0 0 0 0 25200596.497207642 -128445079.25251579 0 -128445079.25251579 223606179.62769032 0 0 0 0 74331851.481372833 -124945009.4283967 0 -124945009.4283967 107238328.11275387 0 0 0 0 154306292.4109726 40061058.089511156 0 40061058.089511156 194615232.2683177 0 0 0 0 82742935.952484131 -47140324.60155201 0 -47140324.60155201 109748037.30536336 0 0 0 0 108887684.32188129 -43258395.311470032 0 -43258395.311470032 59203894.205092907 0 0 0 0 41249616.014461517 -190393942.98475742 0 -190393942.98475742 26019244.060119629 0 0 0 0 118955317.52723053 -195372268.23567551 0 -195372268.23567551 -23825211.686681747 0 0 0 0 51830501.657526016 -272566876.50349337 0 -272566876.50349337 -70002700.299962997 0 0 0 0 44525594.628715515 -300567569.29892683 0 -300567569.29892683 -94624282.405958176 0 0 0 0 -241720704.49633527 -112529116.77657732 0 -112529116.77657732 -54937595.783657074 0 0 0 0 74518181.146762848 -135916569.99645698 0 -135916569.99645698 -53806634.473237038 0 0 0 0 -65991061.796226501 -270182108.85800791 0 -270182108.85800791 78515918.897075057 0 0 0 0 -193926448.56254196 -417308966.09795046 0 -417308966.09795046 -152692013.44256496 0 0 0 0 152743947.990345 -219578925.31726217 0 -219578925.31726217 -148132259.71300602 0 0 0 0 131772044.79029083 -321031242.24966097 0 -321031242.24966097 -494284782.78313017 0 0 0 0 12398353.692321777 -52494278.948090553 0 -52494278.948090553 114818459.1637907 0 0 0 0 22370196.932510376 -46458137.083405018 0 -46458137.083405018 -34643386.291580677 0 0 0 0 32619168.66884613 42677524.979481697 0 42677524.979481697 -175791256.94242668 0 0 0 0 20486674.393281937 38031118.931312084 0 38031118.931312084 -18200226.027521133 0 0 0 0 162733.29427141976 184769.96694856649 0 184769.96694856649 -522067.95845276397 0 0 0 0 2432223.4561500549 -15921962.79800415 0 -15921962.79800415 -9314349.6452703476 0 0 0 0 1768504.414392516 -643372.13696080446 0 -643372.13696080446 -357546.67068343371 0 0 0 0 -10895433.790913582 -6682321.8722296953 0 -6682321.8722296953 29419382.270511627 0 0 0 0 -54492354.675437927 -248351121.17074585 0 -248351121.17074585 -339912558.82533717 0 0 0 0 -51887153.58356142 -435167102.11147392 0 -435167102.11147392 97394325.722308159 0 0 0 0 362460.46708955057 -46950.314878362697 0 -46950.314878362697 -213098.10543723102 0 0 0 0 417883840.58675766 -215506934.20615435 0 -215506934.20615435 109397459.20275652 0 0 0 0 66900755.71222496 122024592.32687539 0 122024592.32687539 -431618003.76855373 0 0 0 0 -110749.6183198113 -80317.428461788222 0 -80317.428461788222 -76682.273864610615 0 0 0 0 2392097.6644665031 -629809.53569778462 0 -629809.53569778462 -950447.16622435406 0 0 0 0 -25687634.654823303 -154410491.40394425 0 -154410491.40394425 -334844901.10988855 0 0 0 0 911721.70581427403 514594.61481788615 0 514594.61481788615 -1912250.1772377447 0 0 0 0 16098592.219295502 -5033304.3253045082 0 -5033304.3253045082 -3676021.7998821735 0 0 0 0 -270844387.37135315 -517616501.83687711 0 -517616501.83687711 -489348784.89391756 0 0 0 0 107478276.78832245 -121287133.28894615 0 -121287133.28894615 -327670342.48177135 0 0 0 0 535929258.79959106 84075556.504513979 0 84075556.504513979 -430786554.57077575 0 0 0 0 137075998.55802155 -149530353.81912804 0 -149530353.81912804 -335937471.77083349 0 0 0 0 566604035.66174173 79172065.601981282 0 79172065.601981282 -290245395.6184864 0 0 0 0 586359564.49424744 -85072869.829526663 0 -85072869.829526663 -400274498.90949583 0 0 0 0 147100621.05036736 -170373521.01092994 0 -170373521.01092994 -92463644.945393562 0 0 0 0 183472140.1186142 -110430981.28327751 0 -110430981.28327751 -510925293.99085242 0 0 0 0 421448026.0188942 -73976845.500365257 0 -73976845.500365257 -104428584.58485317 0 0 0 0 49756361.377487183 -207156899.47581625 0 -207156899.47581625 217246295.10709822 0 0 0 0 594338665.2585144 -329121151.77412081 0 -329121151.77412081 270623868.90463829 0 0 0 0 746590983.60639954 -64677627.564186335 0 -64677627.564186335 -176654949.16692829 0 0 0 0 963398903.96549606 85714576.097950459 0 85714576.097950459 -117558941.93290997 0 0 0 0 742972607.43327236 310673394.08992958 0 310673394.08992958 -73420790.347595215 0 0 0 0 929272258.53255463 316187339.77850389 0 316187339.77850389 -74352486.521169782 0 0 0 0 741274208.59651566 86312065.654451847 0 86312065.654451847 -388396477.72760439 0 0 0 0 987094030.82731438 91800867.412363768 0 91800867.412363768 -393357039.20762444 0 0 0 0 719981433.2709198 -26903588.96006155 0 -26903588.96006155 -450063659.81810999 0 0 0 0 676646213.73606873 136228522.49404287 0 136228522.49404287 -338656641.77499235 0 0 0 0 779549462.30693436 198701876.88425189 0 198701876.88425189 -413142284.27706957 0 0 0 0 800756635.96139908 140749722.69985032 0 140749722.69985032 -338592747.71893597 0 0 0 0 582235075.27514648 320133214.0498594 0 320133214.0498594 -217086089.96924061 0 0 0 0 744143060.33674622 209780780.34225881 0 209780780.34225881 -281597992.92891359 0 0 0 0 534345341.29205322 190116998.34030196 0 190116998.34030196 -33702215.259872556 0 0 0 0 557579224.68746948 117724081.50684443 0 117724081.50684443 -99065848.653755546 0 0 0 0 658623130.21006012 60383406.556236863 0 60383406.556236863 -205268393.6188674 0 0 0 0 677358444.47993851 -24646336.313986957 0 -24646336.313986957 -132252789.34410238 0 0 0 0 584294604.74530029 118682420.84946477 0 118682420.84946477 -154464733.81902513 0 0 0 0 1446667954.7785091 244337069.24235663 0 244337069.24235663 -795068689.89043355 0 0 0 0 2198627796.6939278 760846926.41086829 0 760846926.41086829 -592322486.69481587 0 0 0 0 643262305.9765625 430319200.15426064 0 430319200.15426064 -43676113.894543409 0 0 0 0 723289810.76670825 -233251028.36792183 0 -233251028.36792183 -901264500.54772997 0 0 0 0 764636998.23865509 254205493.79524302 0 254205493.79524302 -346963314.88032365 0 0 0 0 2204306359.4711876 313389397.7663427 0 313389397.7663427 -258181125.18566608 0 0 0 0 1512233.8689038083 -117646.3875662908 0 -117646.3875662908 -757196.27833854454 0 0 0 0 -157999099.57455063 -425535160.06783867 0 -425535160.06783867 -456692762.2046864 0 0 0 0 2200590900.8410416 315614867.84302866 0 315614867.84302866 -259337732.77661964 0 0 0 0 525186889.54089928 104174517.82253218 0 104174517.82253218 -254560395.71617699 0 0 0 0 519073431.59347343 29877892.30136776 0 29877892.30136776 -150743399.80760479 0 0 0 0 1461393.548981484 235146.29591476079 0 235146.29591476079 -1243307.2556681379 0 0 0 0 282241548.12756729 -442308413.26699364 0 -442308413.26699364 429148540.77935016 0 0 0 0 341871775.31027603 -82314948.307808936 0 -82314948.307808936 29328281.783768177 0 0 0 0 2543155.377039792 -4463952.0475149788 0 -4463952.0475149788 153762.15771229612 0 0 0 0 -146817176.5545311 -68569462.169649839 0 -68569462.169649839 105790459.02346647 0 0 0 0 34573487.728363037 61818583.077687621 0 61818583.077687621 11370890.323955327 0 0 0 0 -6166520.9625778198 -23384054.92310071 0 -23384054.92310071 -38725616.578183413 0 0 0 0 2099274.0115958042 -538753.04168805107 0 -538753.04168805107 474732.33608353027 0 0 0 0 2173820054.8670998 -177561864.98378307 0 -177561864.98378307 14012663.950912289 0 0 0 0 97449811.982719421 -3279290.1597961187 0 -3279290.1597961187 -53391057.422125578 0 0 0 0 10440619.37934494 -3095453.7757099867 0 -3095453.7757099867 -13963067.443543196 0 0 0 0 25936522.576290131 -37026918.965907812 0 -37026918.965907812 55096275.5335536 0 0 0 0 1431352.23960298 268509.15586775402 0 268509.15586775402 -1671590.7811763198 0 0 0 0 2111973643.8154583 459132323.96494401 0 459132323.96494401 99710737.693330914 0 0 0 0 523677.55421639979 -1714754.9034655213 0 -1714754.9034655213 -1409246.2466127046 0 0 0 0 3519305.6713576876 -1279926.3990163617 0 -1279926.3990163617 -1538027.1587508305 0 0 0 0 43430993.131565094 9288495.5739021301 0 9288495.5739021301 -35484906.213175774 0 0 0 0 140603807.13903809 -236687673.77814913 0 -236687673.77814913 209459348.00104904 0 0 0 0 181135657.58151627 -132882302.28845501 0 -132882302.28845501 71617893.878911018 0 0 0 0 -47121597.015995026 -97318775.907779694 0 -97318775.907779694 163839145.48742676 0 0 0 0 3094407.9349525971 -1526742.2734317693 0 -1526742.2734317693 -1381271.248515011 0 0 0 0 176230628.37387848 -40903888.240851402 0 -40903888.240851402 -5093035.3983240128 0 0 0 0 3690914.0851364136 6485075.2175962329 0 6485075.2175962329 -6792141.3523328304 0 0 0 0 -20684039.386964798 15088295.970958948 0 15088295.970958948 -9247015.7658903599 0 0 0 0 1763661.8264053538 812270.36618255358 0 812270.36618255358 -2265996.7176499595 0 0 0 0 1463349747.8681831 692214757.15879536 0 692214757.15879536 8756876.8114128113 0 0 0 0 168244412.32350922 140326361.9468236 0 140326361.9468236 318436260.77655458 0 0 0 0 673214496.84205246 786717429.74569559 0 786717429.74569559 692746713.42564774 0 0 0 0 1113806.0810090406 139874.82142570196 0 139874.82142570196 -370484.68932206376 0 0 0 0 1539829355.8797188 -419661541.63543487 0 -419661541.63543487 322081352.80426598 0 0 0 0 906205531.81209946 291598459.55131912 0 291598459.55131912 1291258668.9136887 0 0 0 0 1828474292.5905914 472915258.69883299 0 472915258.69883299 393207867.33972073 0 0 0 0 960012029.45370483 -47261453.816888332 0 -47261453.816888332 115301431.74041128 0 0 0 0 1014390207.3070564 389448630.99546337 0 389448630.99546337 410697745.21614206 0 0 0 0 -161167096.66055298 -32679544.733571053 0 -32679544.733571053 443907944.87961721 0 0 0 0 400822.60739984829 -209677.00931896176 0 -209677.00931896176 -339424.7994985017 0 0 0 0 503522916.52043915 -706397755.63196278 0 -706397755.63196278 992009538.35809612 0 0 0 0 2014353597.8448615 -699477613.32142186 0 -699477613.32142186 243197109.05178165 0 0 0 0 682593343.92167664 -305823045.69322586 0 -305823045.69322586 155558202.06809235 0 0 0 0 510165757.27068329 -458425573.99969196 0 -458425573.99969196 317090674.73868442 0 0 0 0 702564216.94769669 -304194729.8043232 0 -304194729.8043232 83253033.386400223 0 0 0 0 771006319.74606323 -261342620.14471292 0 -261342620.14471292 -107313873.77332547 0 0 0 0 672230564.02000427 -386458795.18309498 0 -386458795.18309498 78153876.012131482 0 0 0 0 580512663.20037651 -288324179.65035582 0 -288324179.65035582 7316058.1984796524 0 0 0 0 681819064.23934174 -359902141.7985754 0 -359902141.7985754 139804753.66060352 0 0 0 0 805079847.15634346 -254505663.34084415 0 -254505663.34084415 -254905364.65794134 0 0 0 0 1352107164.9059639 -202087660.35069084 0 -202087660.35069084 -102640570.40428925 0 0 0 0 921116297.11176538 -201322853.10034698 0 -201322853.10034698 -200792857.01955938 0 0 0 0 700813065.92835236 -198556705.0779717 0 -198556705.0779717 -153909230.57782638 0 0 0 0 659330352.3686142 -240365724.86169195 0 -240365724.86169195 -191028435.98015451 0 0 0 0 725426537.08875656 -343265378.60316133 0 -343265378.60316133 -252057100.8688426 0 0 0 0 737306918.01067829 -358541362.12810266 0 -358541362.12810266 -299314665.32164049 0 0 0 0 706483286.86252975 -284836699.02334332 0 -284836699.02334332 -402116825.06188381 0 0 0 0 762828751.4322567 -235476746.04020333 0 -235476746.04020333 -384170975.22193432 0 0 0 0 437120451.02989197 -73065392.339186668 0 -73065392.339186668 -379291113.30434597 0 0 0 0 -25605121.6720047 169586285.89105165 0 169586285.89105165 -234366960.67652369 0 0 0 0 473376.13376275613 294189.47054481413 0 294189.47054481413 -567684.06606273504 0 0 0 0 441714347.85695267 166125681.55474949 0 166125681.55474949 -879544600.07214582 0 0 0 0 2268208713.8967762 101082714.925762 0 101082714.925762 -550225263.59808195 0 0 0 0 179903610.05744934 -54124611.831038475 0 -54124611.831038475 -3980946.0973796844 0 0 0 0 2203979698.4108768 236249468.59609339 0 236249468.59609339 207839908.00270733 0 0 0 0 78899535.337543488 -27331687.048738718 0 -27331687.048738718 1582127.2135467529 0 0 0 0 128264505.21186829 -147582453.17401028 0 -147582453.17401028 94910125.759750366 0 0 0 0 365218901.96157074 -218315730.72068977 0 -218315730.72068977 -14181041.024009228 0 0 0 0 711732902.11986732 -316757424.33781219 0 -316757424.33781219 -170441114.78855228 0 0 0 0 181183234.7726326 -37741461.846285343 0 -37741461.846285343 -114697201.02929783 0 0 0 0 369261387.83773255 -154442865.69793162 0 -154442865.69793162 -46996917.954471588 0 0 0 0 1742550889.4919472 -375746691.41273791 0 -375746691.41273791 35428165.913330957 0 0 0 0 1826259793.4400406 -161388966.63866436 0 -161388966.63866436 -245343148.01724806 0 0 0 0 2204451453.4869041 96044233.309824422 0 96044233.309824422 -435764500.1182183 0 0 0 0 1654910541.4326782 -87264217.036854625 0 -87264217.036854625 -246643339.80085582 0 0 0 0 1665250433.2787857 -163625695.15492374 0 -163625695.15492374 -210963834.15199637 0 0 0 0 35973745.271389008 -95179884.582766324 0 -95179884.582766324 -40980053.683930874 0 0 0 0 1495507000.2611542 -163101522.14070278 0 -163101522.14070278 -146946722.22438791 0 0 0 0 -62672484.600841522 -26868347.206212372 0 -26868347.206212372 1752825.3809289932 0 0 0 0 300722.66808752995 -251013.3789948998 0 -251013.3789948998 -156845.9893809924 0 0 0 0 -923044.37245178223 -12381753.059524715 0 -12381753.059524715 -5499747.2973570824 0 0 0 0 7787388.7415618896 -20887326.327586055 0 -20887326.327586055 920006.55128543079 0 0 0 0 869015.01131294249 -688154.72093216516 0 -688154.72093216516 -435297.90952400945 0 0 0 0 22805581.839542389 -16303228.986685932 0 -16303228.986685932 -11434189.232980967 0 0 0 0 20445713.205747604 -5940021.1658445299 0 -5940021.1658445299 -49484689.364005566 0 0 0 0 5400860.3246571384 2644975.9182117954 0 2644975.9182117954 -228897.01691977479 0 0 0 0 5102118.0631408691 1919900.4959672689 0 1919900.4959672689 -25324057.808891773 0 0 0 0 11228283.256244659 12504678.018503606 0 12504678.018503606 -7321103.8643119335 0 0 0 0 7298401.9941558838 -5872060.9483878613 0 -5872060.9483878613 -621378.38798391819 0 0 0 0 1829674914.1418495 -578276125.59126782 0 -578276125.59126782 -12280262.241880685 0 0 0 0 1576038938.7753696 -427555733.17717141 0 -427555733.17717141 25490570.673337877 0 0 0 0 2204251835.4129257 -414284929.87241298 0 -414284929.87241298 -194704237.02081648 0 0 0 0 2206227357.6448555 -695051668.51177931 0 -695051668.51177931 -75828539.283397362 0 0 0 0 1884980609.9235191 -459210401.73331517 0 -459210401.73331517 -160243826.39011332 0 0 0 0 1875682910.9799986 -663811413.97767782 0 -663811413.97767782 444857970.67691803 0 0 0 0 1786421991.0317602 -1171418357.8085039 0 -1171418357.8085039 624753887.80572224 0 0 0 0 2999211877.2026291 -609307885.82395971 0 -609307885.82395971 434338153.23779184 0 0 0 0 1795314.4289983464 -750667.85027792398 0 -750667.85027792398 -948732.17531598872 0 0 0 0 972777450.39608765 -502893502.94583923 0 -502893502.94583923 304727290.67692196 0 0 0 0 62219319.009836197 147867528.57324275 0 147867528.57324275 387233865.89180082 0 0 0 0 -610280606.24223328 172946596.37606525 0 172946596.37606525 -552420872.75750828 0 0 0 0 -1083478909.469738 247077486.73954737 0 247077486.73954737 328473820.3329069 0 0 0 0 671639.0246223174 142957.61673251446 0 142957.61673251446 30298.743689519004 0 0 0 0 -573930615.30827332 899311009.5414412 0 899311009.5414412 897645133.9677906 0 0 0 0 2606276750.3004303 769755339.64845705 0 769755339.64845705 -443437476.48158419 0 0 0 0 2201999778.4972115 72818405.078723863 0 72818405.078723863 1277891076.3882828 0 0 0 0 2249053435.1122742 -1208672033.8171601 0 -1208672033.8171601 619687028.55504084 0 0 0 0 1505393.3659808934 67160.245623829775 0 67160.245623829775 -109031.97952679446 0 0 0 0 832851403.37400818 -301611751.23373568 0 -301611751.23373568 -1075149065.7601922 0 0 0 0 1184387032.5241318 1398819937.4818165 0 1398819937.4818165 622032597.30121231 0 0 0 0 127570829.73342896 823493999.7690438 0 823493999.7690438 698260785.34503496 0 0 0 0 66626.29535510391 976715.00654084398 0 976715.00654084398 601923.95588415535 0 0 0 0 -636492213.38198853 31531508.020945311 0 31531508.020945311 261308459.77924633 0 0 0 0 -327353235.72817039 -458783743.41526556 0 -458783743.41526556 -484782309.00985003 0 0 0 0 124192164.92517853 -86835039.628680825 0 -86835039.628680825 -272710116.32731962 0 0 0 0 372404334.18375397 552341390.20878541 0 552341390.20878541 382508506.51450652 0 0 0 0 -530843673.17190933 227919838.16787094 0 227919838.16787094 441713740.39211822 0 0 0 0 535246176.31250763 434636281.77293968 0 434636281.77293968 -42043055.264446139 0 0 0 0 -51809788.144542694 176850660.58955663 0 176850660.58955663 166181616.25496906 0 0 0 0 421074157.01995468 374905709.08781207 0 374905709.08781207 208695469.29604 0 0 0 0 2202501264.500102 1270592697.0127552 0 1270592697.0127552 -180807103.30267882 0 0 0 0 1082671732.0329552 941089907.06679416 0 941089907.06679416 202076336.46814948 0 0 0 0 1420051872.3142548 681675412.09085202 0 681675412.09085202 -528035176.85525548 0 0 0 0 227692901.83047104 730546302.28655553 0 730546302.28655553 261476651.93326077 0 0 0 0 446838447.1841507 120255341.35813937 0 120255341.35813937 30303236.515712619 0 0 0 0 499279119.75001526 1741492.195353508 0 1741492.195353508 -99293442.400168628 0 0 0 0 572949116.32967377 106303785.38470517 0 106303785.38470517 -92516114.02323997 0 0 0 0 586552960.43803406 122456030.4863112 0 122456030.4863112 -83407184.564574599 0 0 0 0 600822917.47470284 88326780.586476535 0 88326780.586476535 -89038691.371126592 0 0 0 0 291721853.76507568 171323454.49498108 0 171323454.49498108 -17285260.592997611 0 0 0 0 514751818.47712326 60854774.997843727 0 60854774.997843727 2345637.6888350248 0 0 0 0 579662421.51767731 111619526.58784246 0 111619526.58784246 -179338072.25625253 0 0 0 0 313418520.28964233 32032976.425672293 0 32032976.425672293 -679157.07520669699 0 0 0 0 96367658.254760742 -25124810.127428293 0 -25124810.127428293 -62142465.547068596 0 0 0 0 361064780.68732452 103128884.03935897 0 103128884.03935897 -8490900.1226558685 0 0 0 0 429486876.27529144 -52856479.215365052 0 -52856479.215365052 -346434441.93735743 0 0 0 0 461005862.9563446 506051333.11796463 0 506051333.11796463 -311014011.44700396 0 0 0 0 367069.34888768476 -310147.8097163639 0 -310147.8097163639 -66974.901753041137 0 0 0 0 875352363.52247047 284303541.12903523 0 284303541.12903523 -4226571.9999572635 0 0 0 0 640151330.15897369 -8355095.091154933 0 -8355095.091154933 53318407.249749899 0 0 0 0 255138559.67721081 -158395344.44683444 0 -158395344.44683444 76699379.271437645 0 0 0 0 461526614.84480286 475304756.37473404 0 475304756.37473404 264237452.28174829 0 0 0 0 473762286.40927029 422237668.71502048 0 422237668.71502048 346311485.31048799 0 0 0 0 195006295.585495 -84272579.743029594 0 -84272579.743029594 102164697.36242008 0 0 0 0 464568107.73770142 234757280.64950609 0 234757280.64950609 -892276008.61708915 0 0 0 0 -768544909.54425049 546165087.46779013 0 546165087.46779013 298636288.58777273 0 0 0 0 344492.38984253071 681544.53684321954 0 681544.53684321954 396770.94044221757 0 0 0 0 984562875.61872482 516958057.41612577 0 516958057.41612577 -437965572.67176437 0 0 0 0 213921449.31511688 989308557.41629338 0 989308557.41629338 232793174.73181549 0 0 0 0 180618671.70151901 866314989.58419824 0 866314989.58419824 -711957423.01651156 0 0 0 0 4990184.845442526 2503740.4985110126 0 2503740.4985110126 69407.301223897899 0 0 0 0 10136650.90899086 231341.48775285482 0 231341.48775285482 -8798023.6879184246 0 0 0 0 -319784194.80326843 621902955.488832 0 621902955.488832 -400687786.96995938 0 0 0 0 143936873.5561409 -120272371.7924118 0 -120272371.7924118 -835359800.96599269 0 0 0 0 141544666.81906652 -219899833.44422072 0 -219899833.44422072 -272337414.6061883 0 0 0 0 188624639.38477707 151275789.46426666 0 151275789.46426666 -265984291.76182508 0 0 0 0 -247665271.35534668 -136453568.35554481 0 -136453568.35554481 -425734188.55001307 0 0 0 0 58061876.212440491 -73388426.991133004 0 -73388426.991133004 -473868883.17916656 0 0 0 0 -41604075.41368103 34666405.959105849 0 34666405.959105849 -204016833.11836624 0 0 0 0 -9343018.317024231 41294949.729264498 0 41294949.729264498 -410189151.48278999 0 0 0 0 121933377.48397064 163699342.63071045 0 163699342.63071045 -465000530.78112549 0 0 0 0 -4109775.3117370605 -96528493.775039554 0 -96528493.775039554 -212015971.23786354 0 0 0 0 100529672.18638921 -11704116.093127642 0 -11704116.093127642 -144543482.8683362 0 0 0 0 -11514646.714355469 -90076442.185550451 0 -90076442.185550451 -54575280.962011456 0 0 0 0 -34907704.561410904 -64616121.993189424 0 -64616121.993189424 42396160.163702965 0 0 0 0 37520257.869365692 -35631296.348756313 0 -35631296.348756313 5689569.4465904236 0 0 0 0 6573472.668056488 -113178777.5098927 0 -113178777.5098927 -139080014.71696961 0 0 0 0 -19851529.91676712 -20176468.178565383 0 -20176468.178565383 22395037.125577569 0 0 0 0 -5303077.073097229 -2065693.7382568121 0 -2065693.7382568121 24266430.612983942 0 0 0 0 -2629595.1489334106 18110077.809679627 0 18110077.809679627 145328212.48347127 0 0 0 0 8115791.4533576965 -15595116.923107862 0 -15595116.923107862 12818245.636786461 0 0 0 0 -8350204.0154495239 -14573916.845920086 0 -14573916.845920086 49583403.150800198 0 0 0 0 -11925471.95172596 -28215566.38040179 0 -28215566.38040179 4872268.3159344196 0 0 0 0 1578300.4337596893 -2424220.6611680388 0 -2424220.6611680388 12309466.914423704 0 0 0 0 371965.45768356323 -7724514.5457780659 0 -7724514.5457780659 7777032.6228694916 0 0 0 0 695902.86540689506 -1671959.3284173389 0 -1671959.3284173389 -737619.18460945669 0 0 0 0 -127796394.02021408 -12226792.007757187 0 -12226792.007757187 -3480606.377756834 0 0 0 0 285248090.42665863 39487840.589634895 0 39487840.589634895 4132580.8105789721 0 0 0 0 1872256.9952764511 -1309171.9478924572 0 -1309171.9478924572 15734269.596781492 0 0 0 0 1112409.6188721741 -1013598.2474280749 0 -1013598.2474280749 -331971.75017309457 0 0 0 0 914654.79893493652 -5080984.5303792655 0 -5080984.5303792655 20642244.227832317 0 0 0 0 293853019.65813446 11031150.096391857 0 11031150.096391857 -7225535.1955473423 0 0 0 0 -224968777.22264862 -84993839.45100975 0 -84993839.45100975 72134053.62046051 0 0 0 0 -205883006.56662369 -266637017.09226608 0 -266637017.09226608 490756658.77480125 0 0 0 0 -274900716.97819901 -87367311.710128546 0 -87367311.710128546 121982618.75781536 0 0 0 0 -114316411.26600266 -119466463.50108218 0 -119466463.50108218 31780676.352711201 0 0 0 0 6717787.0688576698 -7854656.7809523791 0 -7854656.7809523791 100072.2798948288 0 0 0 0 -505035137.58227712 -45733619.98398082 0 -45733619.98398082 750612203.42859697 0 0 0 0 717948.99183004722 -1525849.0309358356 0 -1525849.0309358356 -588339.98432662024 0 0 0 0 -491850145.60152054 488345590.25501752 0 488345590.25501752 54981582.56279707 0 0 0 0 -43370872.511096954 108745272.90472251 0 108745272.90472251 39990759.132242918 0 0 0 0 29929.970888908021 -588197.2785262214 0 -588197.2785262214 26569.68300140847 0 0 0 0 21755430.957893372 -6343631.971164465 0 -6343631.971164465 145353.31875056773 0 0 0 0 19798994.052406311 -12810399.202966034 0 -12810399.202966034 -14326977.718321085 0 0 0 0 97523911.276525497 57990658.691828072 0 57990658.691828072 -3440302.0910108089 0 0 0 0 -78548335.919094086 -176087964.24746013 0 -176087964.24746013 -357187504.96126676 0 0 0 0 -71992.531227300875 -180087.29736557789 0 -180087.29736557789 67368.990396897309 0 0 0 0 44123567.519649506 109015512.44240981 0 109015512.44240981 -237778396.23760056 0 0 0 0 -71541523.77419281 85361513.992113411 0 85361513.992113411 -431256390.92413527 0 0 0 0 -2172021.3836994171 -127447011.17754723 0 -127447011.17754723 -203838246.0175612 0 0 0 0 -6826470.4535942078 34174797.346955419 0 34174797.346955419 54758436.994547367 0 0 0 0 50757056.457517624 24849064.400995016 0 24849064.400995016 -24145823.22872591 0 0 0 0 -178925.90002632141 -4819961.5492812395 0 -4819961.5492812395 -34565339.94865799 0 0 0 0 27640517.190768242 41493229.971118927 0 41493229.971118927 -38872590.556499481 0 0 0 0 6744383.1262891833 307721.36665720912 0 307721.36665720912 -1378703.5140573848 0 0 0 0 -10567166.276763916 40928704.181655526 0 40928704.181655526 -36173765.956807375 0 0 0 0 -1120559.0999941789 225047.53485362272 0 225047.53485362272 10266.807755201018 0 0 0 0 8133091.7515106201 -13597954.524586678 0 -13597954.524586678 -14096375.225949287 0 0 0 0 123056857.0578537 -109489510.45129892 0 -109489510.45129892 -853212581.98234153 0 0 0 0 -1509094.1549455114 3076738.3813489941 0 3076738.3813489941 -425625.69725114765 0 0 0 0 66265648.419952393 -21473470.229484677 0 -21473470.229484677 -677946441.86159384 0 0 0 0 -9631766.0190243721 29364206.794579089 0 29364206.794579089 954818.42877388 0 0 0 0 7739973.0246863132 1415205.3283694708 0 1415205.3283694708 -1108771.2475558689 0 0 0 0 489408.92184198089 1863886.8791233667 0 1863886.8791233667 -369164.45106607006 0 0 0 0 95934230.127342224 228399062.17843044 0 228399062.17843044 -911381403.86199689 0 0 0 0 19517645.664154053 -11068569.43078959 0 -11068569.43078959 -59193442.030560136 0 0 0 0 -129446053.42188263 158021011.30542552 0 158021011.30542552 -480956801.36727804 0 0 0 0 25402902.034599304 -13462153.286103964 0 -13462153.286103964 -41073590.560271621 0 0 0 0 -1545871.8281288147 9187172.6167752743 0 9187172.6167752743 -51691627.058850288 0 0 0 0 51691216.659835815 10183171.150311232 0 10183171.150311232 -52146097.805257738 0 0 0 0 21526400.945053101 32632740.171620965 0 32632740.171620965 -64141196.485426068 0 0 0 0 3650561.1139221191 8104101.4141856432 0 8104101.4141856432 -50146870.699697256 0 0 0 0 19261906.439376831 33678866.740613699 0 33678866.740613699 -18103444.136466384 0 0 0 0 18299787.843734741 17062109.322807252 0 17062109.322807252 -15755137.694140472 0 0 0 0 -921579.73888015747 37516579.77067098 0 37516579.77067098 9199072.2288005352 0 0 0 0 112823777.1894989 6439711.64392066 0 6439711.64392066 -37074698.424201593 0 0 0 0 45956466.065979004 57942794.812125653 0 57942794.812125653 44252837.583410025 0 0 0 0 -272301.81709289551 -2754841.7067221999 0 -2754841.7067221999 83094796.209047794 0 0 0 0 2026770.2538299561 -2123144.6652710885 0 -2123144.6652710885 16065190.881946728 0 0 0 0 -9637565.6357879639 13295818.72965008 0 13295818.72965008 -654121.56821036339 0 0 0 0 -14089068.506858826 11192156.111814141 0 11192156.111814141 33238064.240172982 0 0 0 0 -15385430.386360168 12132037.871393651 0 12132037.871393651 8579636.8039727807 0 0 0 0 -15028482.105773926 14001419.750293061 0 14001419.750293061 -220830.69429838657 0 0 0 0 -12294783.187420845 20797472.888191119 0 20797472.888191119 -12847275.376147747 0 0 0 0 1654519.6822738647 21180185.617806673 0 21180185.617806673 -29893536.17153886 0 0 0 0 4168086.1618318427 -1592971.5475527598 0 -1592971.5475527598 -1361555.8625772905 0 0 0 0 -64010052.256385803 71748425.614578247 0 71748425.614578247 -73936414.283061981 0 0 0 0 -53388049.558746338 73244195.592370987 0 73244195.592370987 -89821535.687630653 0 0 0 0 -63468352.398529053 107743350.0887146 0 107743350.0887146 -78237259.491363049 0 0 0 0 -26264087.422935486 68776075.928802013 0 68776075.928802013 -74246981.03536725 0 0 0 0 5448991.8317711912 -621340.81212125393 0 -621340.81212125393 -1448082.7653383052 0 0 0 0 -9050304.8834152222 10035027.714747965 0 10035027.714747965 -4511491.0140405297 0 0 0 0 -6247813.6694412231 3596314.68910712 0 3596314.68910712 4265479.9302604198 0 0 0 0 -6640057.8233032227 3482031.1647623777 0 3482031.1647623777 4752646.493681699 0 0 0 0 -5041039.5230255127 3868996.4845471978 0 3868996.4845471978 2589007.6129126549 0 0 0 0 -7051411.5043907166 2023821.5342173725 0 2023821.5342173725 4412486.7545285225 0 0 0 0 91766.715744018555 2559709.6194837093 0 2559709.6194837093 2650953.1152096987 0 0 0 0 7995978.5980224609 -2208974.601647377 0 -2208974.601647377 1604139.1433963776 0 0 0 0 -2452956.2975463867 1281200.5515639782 0 1281200.5515639782 4058511.653316617 0 0 0 0 -686518.8503112793 -2028609.1876776218 0 -2028609.1876776218 2483369.5095220804 0 0 0 0 -2201635.9700937271 -1809838.0249019787 0 -1809838.0249019787 2752152.7823252678 0 0 0 0 19735595.883392334 70141014.857215881 0 70141014.857215881 -226855638.09712029 0 0 0 0 2802549.5811920166 -4340156.8943029046 0 -4340156.8943029046 1978255.104777813 0 0 0 0 -1996679.3863830566 -4182164.0651420355 0 -4182164.0651420355 2331522.0456539989 0 0 0 0 2340638.604858974 -2454489.665418528 0 -2454489.665418528 -1424906.6993548574 0 0 0 0 2214269.916595459 -7729923.2121763229 0 -7729923.2121763229 4641135.7771383524 0 0 0 0 1147777.0362854004 -7271107.9302066565 0 -7271107.9302066565 5087432.2275687456 0 0 0 0 234395.40803841874 -319518.77070019441 0 -319518.77070019441 369752.52913663106 0 0 0 0 22418538.597229004 95110077.287731171 0 95110077.287731171 -222296168.99689865 0 0 0 0 6384641.7066650391 -1548285.5916779041 0 -1548285.5916779041 1426304.8461632729 0 0 0 0 -154756.53482055664 -1104131.5730071068 0 -1104131.5730071068 1692707.1783084869 0 0 0 0 3139589.8788146973 -5355825.0267243385 0 -5355825.0267243385 2452263.3272218704 0 0 0 0 4109001.3374023438 -5978019.9425172806 0 -5978019.9425172806 2323295.6544028521 0 0 0 0 870293.73324584961 -5501165.275758028 0 -5501165.275758028 2714048.2521333694 0 0 0 0 1803075.6731109619 -6937749.9904885292 0 -6937749.9904885292 3278106.1880431175 0 0 0 0 1651738.2186355591 -7001421.0150268674 0 -7001421.0150268674 3038965.5656275749 0 0 0 0 275588.51403808594 -6891573.3320906162 0 -6891573.3320906162 4221801.748484984 0 0 0 0 1031517.8027038574 -6192498.2364611626 0 -6192498.2364611626 2554314.650354743 0 0 0 0 1188695.8018188477 -7634333.0036392212 0 -7634333.0036392212 4166420.2177106142 0 0 0 0 1010165.6547317505 -6787928.1918261647 0 -6787928.1918261647 3690310.0527107716 0 0 0 0 674365.42333984375 -6947331.0130093098 0 -6947331.0130093098 3579512.2582755089 0 0 0 0 2531940.7875061035 -7879695.8165011406 0 -7879695.8165011406 3680299.5792193413 0 0 0 0 32789427.820343018 88650034.687492371 0 88650034.687492371 -216250966.11084175 0 0 0 0 32599506.046264648 94773209.16860199 0 94773209.16860199 -208978035.46180534 0 0 0 0 28142393.936126709 86189300.582256317 0 86189300.582256317 -194643380.96430588 0 0 0 0 26599631.180114746 85396760.442985535 0 85396760.442985535 -197341186.29322815 0 0 0 0 28769057.742584229 83400477.94361496 0 83400477.94361496 -211317021.8800106 0 0 0 0 16670398.271484375 68882536.715888977 0 68882536.715888977 -216575436.27368498 0 0 0 0 11423949.741699219 71176982.111831665 0 71176982.111831665 -201062459.42857361 0 0 0 0 -8460940.9309387207 49843197.211433411 0 49843197.211433411 -217454837.39771652 0 0 0 0 -23276608.366668701 45092761.660102844 0 45092761.660102844 -206723047.46387482 0 0 0 0 8707102.0057983398 -4553997.3893409371 0 -4553997.3893409371 2124884.831469059 0 0 0 0 5646067.517578125 -7186954.4466443062 0 -7186954.4466443062 3076206.0844168663 0 0 0 0 5720667.484161377 -10619039.698342204 0 -10619039.698342204 11486363.965173841 0 0 0 0 -47615618.74080658 11491288.554895401 0 11491288.554895401 -161844146.93084717 0 0 0 0 -4694997.1359825134 -779146.03685195744 0 -779146.03685195744 9880817.5195977688 0 0 0 0 -6016996.847869873 -5428043.3684073687 0 -5428043.3684073687 19505392.794065475 0 0 0 0 -59054541.800262451 89483436.871643066 0 89483436.871643066 -183054486.40878296 0 0 0 0 -80044750.760284424 53984299.223358154 0 53984299.223358154 -162808184.52073669 0 0 0 0 1416003.4301757812 -6621169.1161841154 0 -6621169.1161841154 5423137.8119910955 0 0 0 0 3233903.6951904297 -5185269.9189021587 0 -5185269.9189021587 5745826.1191182137 0 0 0 0 825224.47175598145 -6811396.6250428557 0 -6811396.6250428557 4671759.6302928925 0 0 0 0 -20542851.809204102 102740534.7412262 0 102740534.7412262 -197061259.46995544 0 0 0 0 29628031.983838677 84740912.402642459 0 84740912.402642459 -194484971.05778503 0 0 0 0 29718797.642242432 95082212.424476624 0 95082212.424476624 -205639137.25375366 0 0 0 0 4919139.601348877 81324710.096485138 0 81324710.096485138 -187996161.01783752 0 0 0 0 31386748.564819336 86398976.065647125 0 86398976.065647125 -198383501.03982544 0 0 0 0 1722546.4309692383 101226554.82566833 0 101226554.82566833 -201207636.6261034 0 0 0 0 -6031961.2190475464 72656278.229991913 0 72656278.229991913 -178172228.30204773 0 0 0 0 -8312012.2623901367 40046533.121551514 0 40046533.121551514 -164244414.86123657 0 0 0 0 -26385083.331665039 64413297.35389328 0 64413297.35389328 -176936640.7303772 0 0 0 0 26178701.445892334 52589212.141918182 0 52589212.141918182 -176711300.33638197 0 0 0 0 10135154.008857727 38708433.380430222 0 38708433.380430222 -177780047.64746475 0 0 0 0 42294041.600463867 15872888.118598938 0 15872888.118598938 -172280381.19721937 0 0 0 0 23492386.398391724 -7721184.8146629333 0 -7721184.8146629333 -164568620.75034332 0 0 0 0 -23525734.57699585 25575020.623832703 0 25575020.623832703 -172871963.84065151 0 0 0 0 80517259.394317627 34019789.47164917 0 34019789.47164917 -181105516.67020798 0 0 0 0 70064940.586395264 36321785.769589424 0 36321785.769589424 -178716444.45998383 0 0 0 0 60198567.308532715 28031431.188892365 0 28031431.188892365 -175750445.30195808 0 0 0 0 33575348.505531311 63723923.898838043 0 63723923.898838043 -183233601.51621246 0 0 0 0 81765779.800369263 49941172.174430847 0 49941172.174430847 -179330747.60167313 0 0 0 0 53930571.482337952 81816611.659966469 0 81816611.659966469 -171305486.73056793 0 0 0 0 32714900.857574463 87333709.678958893 0 87333709.678958893 -192898641.80601311 0 0 0 0 38997801.538696289 66855215.778018951 0 66855215.778018951 -181856779.8348465 0 0 0 0 32139588.919891357 79284649.552013397 0 79284649.552013397 -180166120.87397003 0 0 0 0 35878148.185264587 89759761.525513172 0 89759761.525513172 -193028554.97145081 0 0 0 0 41743719.922908783 95798875.100507259 0 95798875.100507259 -169321848.91120148 0 0 0 0 50515795.967971802 76073610.484592438 0 76073610.484592438 -180960394.15636158 0 0 0 0 64151168.362869263 118725446.88732338 0 118725446.88732338 -150043108.95196152 0 0 0 0 91329747.550231934 74112042.67868042 0 74112042.67868042 -169997645.20324278 0 0 0 0 137841273.46109772 35840320.183587074 0 35840320.183587074 -180090414.98245239 0 0 0 0 87697078.500244141 70539747.925673485 0 70539747.925673485 -171860704.86450958 0 0 0 0 -54949013.208526611 64668313.06606102 0 64668313.06606102 -136738060.34248352 0 0 0 0 -16560689.648803711 82522910.595672607 0 82522910.595672607 -143676105.34873199 0 0 0 0 -36742493.012573242 76971453.214717865 0 76971453.214717865 -129608631.14236832 0 0 0 0 -42296248.281738281 89304778.677394867 0 89304778.677394867 -98568204.361190796 0 0 0 0 -40985123.204299927 45823056.296508789 0 45823056.296508789 -179423297.25196838 0 0 0 0 -32022858.875930786 60299853.727668762 0 60299853.727668762 -156218765.14992523 0 0 0 0 -10352664.556045532 65159786.021697998 0 65159786.021697998 -175892400.25263977 0 0 0 0 -5797149.6277313232 59668134.7330513 0 59668134.7330513 -192903521.97595215 0 0 0 0 8362980.5319633484 71668711.967697144 0 71668711.967697144 -192296688.31917572 0 0 0 0 5349354.5769348145 77604668.337200165 0 77604668.337200165 -169730232.74922943 0 0 0 0 21563297.680389404 82191918.05922699 0 82191918.05922699 -178342214.27511597 0 0 0 0 22555284.283233643 86465182.881931305 0 86465182.881931305 -179913414.82486343 0 0 0 0 -2998259.4719238281 82849255.901662827 0 82849255.901662827 -155468337.47988129 0 0 0 0 17333558.137481689 96765357.090484619 0 96765357.090484619 -150923450.92956638 0 0 0 0 -10877995.94203186 72545774.153970718 0 72545774.153970718 -168527754.48631287 0 0 0 0 -19710797.225662231 104942121.22448158 0 104942121.22448158 -125792596.96464539 0 0 0 0 45283436.101287842 102468122.33402443 0 102468122.33402443 -152473897.24482822 0 0 0 0 15691769.236923218 93605336.665189743 0 93605336.665189743 -154862783.87032318 0 0 0 0 6194174.8920593262 120219529.43342781 0 120219529.43342781 -136347531.37205887 0 0 0 0 4325072.5731964111 121288904.49511719 0 121288904.49511719 -119866724.79642105 0 0 0 0 -31755205.347122192 128763850.27714348 0 128763850.27714348 -112634011.78206062 0 0 0 0 -61381980.272209167 119725442.58540344 0 119725442.58540344 -92543495.542022705 0 0 0 0 -28267901.825653076 99227162.163928986 0 99227162.163928986 -117953948.3534565 0 0 0 0 -34111606.04788208 111249009.40165329 0 111249009.40165329 -93326254.900449753 0 0 0 0 -92340753.968658447 150330531.10532761 0 150330531.10532761 -80526312.433719635 0 0 0 0 -34147309.336212158 139147007.91521418 0 139147007.91521418 -79191633.008823395 0 0 0 0 7844087.633605957 149329530.55519772 0 149329530.55519772 -115672651.47924423 0 0 0 0 47126356.924697876 125089326.01097107 0 125089326.01097107 -135837836.07769799 0 0 0 0 14170600.651275635 150342498.26487923 0 150342498.26487923 -116139446.65571785 0 0 0 0 40989812.750534058 166818083.30616236 0 166818083.30616236 -142271601.17962265 0 0 0 0 138533561.4624176 159374188.83487797 0 159374188.83487797 -150023331.22987485 0 0 0 0 -25225034.658721924 190354454.24397755 0 190354454.24397755 -94368915.882526398 0 0 0 0 -61281439.196517944 188475453.12730312 0 188475453.12730312 -94167057.570664465 0 0 0 0 145707696.56936646 20823457.923335552 0 20823457.923335552 -166948026.32077217 0 0 0 0 181415790.1333046 81003476.077280998 0 81003476.077280998 -172692723.08961487 0 0 0 0 121974569.81364441 129335875.67994213 0 129335875.67994213 -151403305.54497147 0 0 0 0 105566588.7756424 104239762.54220295 0 104239762.54220295 -149746190.95903397 0 0 0 0 43371770.410240173 117564020.25307655 0 117564020.25307655 -145511116.95108414 0 0 0 0 218826774.80870056 106080406.25523567 0 106080406.25523567 -164149750.64775467 0 0 0 0 125234330.08956146 139945869.06141949 0 139945869.06141949 -156657621.15988636 0 0 0 0 192294491.26631546 67058121.10625267 0 67058121.10625267 -143174475.08305168 0 0 0 0 434575563.83922577 31102835.195781231 0 31102835.195781231 -184081661.99414158 0 0 0 0 271789594.50315666 11449723.971111059 0 11449723.971111059 -130643357.72949791 0 0 0 0 286295598.03102875 72300226.499790192 0 72300226.499790192 -160817297.00082588 0 0 0 0 256727192.99003887 133834166.49141136 0 133834166.49141136 -199459126.72435093 0 0 0 0 301136362.22044373 81241079.738565445 0 81241079.738565445 -156707333.59323549 0 0 0 0 -44774986.212936401 227951824.19900084 0 227951824.19900084 -143070093.56477726 0 0 0 0 -42727860.336366653 220700769.01813567 0 220700769.01813567 -150243394.80202293 0 0 0 0 39461168.346282959 236122607.86878014 0 236122607.86878014 -145621315.32647228 0 0 0 0 28360193.975624084 194624515.87418592 0 194624515.87418592 -218964639.29557151 0 0 0 0 215801151.18793106 263210656.84228808 0 263210656.84228808 -267447041.31490517 0 0 0 0 -244858998.31156921 313818174.99572992 0 313818174.99572992 -190515798.26403189 0 0 0 0 -200094697.62215424 225322100.19516516 0 225322100.19516516 -409380275.83426529 0 0 0 0 -174770669.73523712 94994717.055249453 0 94994717.055249453 -22955127.278512001 0 0 0 0 -372420966.92966461 232228338.71052194 0 232228338.71052194 -45119247.405920982 0 0 0 0 -117622325.92314148 248778409.41451144 0 248778409.41451144 -125307310.13455009 0 0 0 0 -99734022.059600353 51245059.794890285 0 51245059.794890285 -20153989.190026283 0 0 0 0 -220450579.7016983 167322902.02852392 0 167322902.02852392 -42928707.41856575 0 0 0 0 -92089125.746599197 118801909.58217096 0 118801909.58217096 -63872865.602416992 0 0 0 0 -88386264.883270264 133196745.76119423 0 133196745.76119423 -35840837.6591084 0 0 0 0 -44377594.446521759 4876061.4634404182 0 4876061.4634404182 -33741570.944413662 0 0 0 0 -195887973.47800446 83957442.424099445 0 83957442.424099445 -17484721.232358336 0 0 0 0 -69607250.613769531 -35326066.989691734 0 -35326066.989691734 24090765.48656559 0 0 0 0 -230300640.75061798 36302394.479594231 0 36302394.479594231 110249217.41096413 0 0 0 0 -434239.75554578565 -307673.09503007424 0 -307673.09503007424 60671.251367697972 0 0 0 0 113341745.80506897 -11659057.534892201 0 -11659057.534892201 -1004883230.2878995 0 0 0 0 -79946450.834179759 -179172180.16383296 0 -179172180.16383296 -582114837.91408396 0 0 0 0 15874001.54322052 -233029197.50314522 0 -233029197.50314522 -369065394.98393458 0 0 0 0 -11831873.544013977 209098533.69512272 0 209098533.69512272 -216310652.59424376 0 0 0 0 -302861516.05998993 354100817.28710294 0 354100817.28710294 -453067576.23422241 0 0 0 0 -651368100.87030792 12826849.949024469 0 12826849.949024469 -389697033.8171407 0 0 0 0 -680881623.64326477 51134134.040030837 0 51134134.040030837 -418658734.12366545 0 0 0 0 88425.938100446016 -393068.5608188617 0 -393068.5608188617 -331194.45746434154 0 0 0 0 -815198593.35800934 -136106303.63204545 0 -136106303.63204545 26111425.528236747 0 0 0 0 -165312381.65226746 -105788985.99517572 0 -105788985.99517572 -687184047.71182501 0 0 0 0 -429390273.12201691 98111287.102723598 0 98111287.102723598 126472265.69131064 0 0 0 0 -762939441.58055878 383835001.91828984 0 383835001.91828984 -67614967.691352367 0 0 0 0 -345381613.40188599 126693507.39313936 0 126693507.39313936 -5306227.8158604503 0 0 0 0 -507660375.83949661 29092033.962490499 0 29092033.962490499 226447665.75616479 0 0 0 0 -186671135.07691193 -84762924.197379231 0 -84762924.197379231 136418438.88308954 0 0 0 0 -186226091.25664902 -1201557.9244759083 0 -1201557.9244759083 -4609529.405780077 0 0 0 0 -55794554.802073956 -95990863.97578527 0 -95990863.97578527 83970444.056625366 0 0 0 0 157093.74816298485 -1053273.2688610815 0 -1053273.2688610815 -524985.24510134058 0 0 0 0 -356347810.54139709 -90163391.792780757 0 -90163391.792780757 5060644.3442696929 0 0 0 0 533294.98841280583 -1792879.5732601583 0 -1792879.5732601583 1347860.6851137788 0 0 0 0 1691265691.6716003 -1081399826.0495033 0 -1081399826.0495033 195593520.19962883 0 0 0 0 -356451157.20471954 -45387159.025067806 0 -45387159.025067806 135653136.94267845 0 0 0 0 -213064735.19538116 -140677015.75300109 0 -140677015.75300109 190871979.35663652 0 0 0 0 116232.21474429406 -788264.84166014474 0 -788264.84166014474 826938.02797078015 0 0 0 0 -27360848.145042419 -91402065.667808533 0 -91402065.667808533 -193824423.54852152 0 0 0 0 -1091319542.2755623 333648975.11638963 0 333648975.11638963 -385834484.05703926 0 0 0 0 475858.65206146613 -803335.39977033623 0 -803335.39977033623 1170736.3412517826 0 0 0 0 1525960764.9576569 139467453.84929299 0 139467453.84929299 -499866553.7122221 0 0 0 0 1530575132.3384933 -515834500.85572982 0 -515834500.85572982 -53612571.54726696 0 0 0 0 1219687846.711441 -322094387.11162758 0 -322094387.11162758 21173716.540390015 0 0 0 0 738830631.7060318 -743564020.15377665 0 -743564020.15377665 679515906.72577858 0 0 0 0 687032010.28932953 -114027039.81665444 0 -114027039.81665444 -15802160.529004693 0 0 0 0 737512180.89045715 -420174527.83016729 0 -420174527.83016729 -44741371.902403831 0 0 0 0 739910563.0057174 -150195827.34447253 0 -150195827.34447253 -173206793.30027294 0 0 0 0 243862393.50828171 -444151505.38318563 0 -444151505.38318563 92854357.235995293 0 0 0 0 268511462.85361481 -519033550.5155164 0 -519033550.5155164 -222687372.88958907 0 0 0 0 264396559.31493759 -528003046.53936279 0 -528003046.53936279 257713583.98990154 0 0 0 0 557879420.51382446 -398397661.96162105 0 -398397661.96162105 -17471755.189898491 0 0 0 0 203294588.90617371 -333063742.24566841 0 -333063742.24566841 41959935.914605141 0 0 0 0 -117565419.00295258 -61604329.561785221 0 -61604329.561785221 149734467.66307086 0 0 0 0 4741186.5827178955 -277892485.22529471 0 -277892485.22529471 380984105.5526371 0 0 0 0 233387913.83563995 -231706874.42953253 0 -231706874.42953253 260642572.66312265 0 0 0 0 1078078944.6036301 -844292404.4463129 0 -844292404.4463129 361522810.31352544 0 0 0 0 298152403.15788269 -482708562.58845139 0 -482708562.58845139 1104286132.2890058 0 0 0 0 1487840176.7830391 -357117546.1383611 0 -357117546.1383611 -246846805.76939917 0 0 0 0 1467733966.1826401 -84820079.949472696 0 -84820079.949472696 2177346.2887228727 0 0 0 0 608142374.70388031 278793235.39527881 0 278793235.39527881 685576373.79393053 0 0 0 0 -203437888.56208801 -153617369.03506625 0 -153617369.03506625 446217914.4935813 0 0 0 0 260870114.36486053 -132034880.14810356 0 -132034880.14810356 219956153.40883404 0 0 0 0 -150277953.11599731 -181309549.8714354 0 -181309549.8714354 -40592179.160839081 0 0 0 0 126825899.84119415 66406312.287001312 0 66406312.287001312 169628444.56197882 0 0 0 0 -13995500.685028076 188923733.91502798 0 188923733.91502798 -142719625.57128271 0 0 0 0 214416310.95953751 -38587718.646835476 0 -38587718.646835476 -241048075.81220138 0 0 0 0 609532610.95384216 243477010.27542734 0 243477010.27542734 -46647198.881429851 0 0 0 0 360934805.1605835 228316171.17106283 0 228316171.17106283 -319822605.14954579 0 0 0 0 26798517.196456909 172243584.35680091 0 172243584.35680091 -444212882.62863934 0 0 0 0 580419847.93636322 -71412373.779757023 0 -71412373.779757023 -152087745.93895698 0 0 0 0 695210345.19067192 -238127972.80187413 0 -238127972.80187413 -26997453.575581104 0 0 0 0 492371197.42286682 -100975834.67866123 0 -100975834.67866123 -146434598.51489019 0 0 0 0 724829438.65578461 -373832115.58613002 0 -373832115.58613002 15134318.09745121 0 0 0 0 561825355.40396881 -425550285.60678107 0 -425550285.60678107 218167090.34633291 0 0 0 0 521033209.2791748 -331938091.94855118 0 -331938091.94855118 136877312.50442028 0 0 0 0 210918064.12286377 -236997112.61794472 0 -236997112.61794472 290780407.14492297 0 0 0 0 -274843033.3610611 -137819953.97022459 0 -137819953.97022459 -49871101.809180021 0 0 0 0 1386905.0639969707 -432479.74031645432 0 -432479.74031645432 -497092.14794782479 0 0 0 0 572914595.47571373 -619406951.28154993 0 -619406951.28154993 668893944.9838388 0 0 0 0 772070399.96339035 342940837.59260839 0 342940837.59260839 143271248.76722884 0 0 0 0 1123790.0368113313 -1122925.1221021521 0 -1122925.1221021521 -101447.21546327934 0 0 0 0 2534645.0318451347 -1775886.9830331998 0 -1775886.9830331998 -1287606.3027534075 0 0 0 0 1457685.9254608154 -1721656.8955402374 0 -1721656.8955402374 -2187840.4950637817 0 0 0 0 -1368283.1555290222 -3285347.7914478183 0 -3285347.7914478183 5016926.6882061213 0 0 0 0 -167288.99935430009 -88818.196583353914 0 -88818.196583353914 -353454.47569763276 0 0 0 0 678724642.55434036 99309510.207272381 0 99309510.207272381 13956087.846353531 0 0 0 0 2267834.3650630713 -2432416.163470421 0 -2432416.163470421 -4355137.2533855438 0 0 0 0 3255121.1189550292 -2530691.6428249781 0 -2530691.6428249781 -1071344.839072715 0 0 0 0 2223099.9412460327 -1484950.1755318642 0 -1484950.1755318642 -2358505.9896156788 0 0 0 0 269512.91174316406 -74123387.891857147 0 -74123387.891857147 -60354920.063951612 0 0 0 0 1949812.9615287781 -1988469.8263678551 0 -1988469.8263678551 -2861965.9783220291 0 0 0 0 1851840.551229747 -2876385.0006164741 0 -2876385.0006164741 -194897.4387896696 0 0 0 0 45103423.3046875 -13232878.814871073 0 -13232878.814871073 -138671523.31887388 0 0 0 0 7927434.9309921265 -78425441.205371499 0 -78425441.205371499 -225585951.29214287 0 0 0 0 304096482.29476166 -111178103.94487843 0 -111178103.94487843 -223392838.05174172 0 0 0 0 133266315.47583771 54225133.654923394 0 54225133.654923394 -162015470.43371165 0 0 0 0 1220183.3677825928 -289560450.45510685 0 -289560450.45510685 -134562593.60200846 0 0 0 0 480101666.72241211 -315112182.19244003 0 -315112182.19244003 -134526513.94913402 0 0 0 0 618028759.78356838 168071839.04619789 0 168071839.04619789 -136218672.94811571 0 0 0 0 707171714.82733154 -615986797.00265837 0 -615986797.00265837 575103692.67217541 0 0 0 0 1834402978.6250324 250556398.47048253 0 250556398.47048253 -74582761.435863018 0 0 0 0 34796.0675683273 -363865.72241004184 0 -363865.72241004184 1098005.6893488772 0 0 0 0 1639761075.3691139 -416053757.28434688 0 -416053757.28434688 -6991162.7954530716 0 0 0 0 871474811.27661133 203488904.15588689 0 203488904.15588689 102085003.54434562 0 0 0 0 721861327.44257355 -295522749.4638238 0 -295522749.4638238 107335049.65623665 0 0 0 0 1095046678.9200592 -175719156.30174422 0 -175719156.30174422 -109592992.41077709 0 0 0 0 -365528021.89985657 -108131250.09493804 0 -108131250.09493804 193869584.50149918 0 0 0 0 -244484523.5690155 -119313001.06433725 0 -119313001.06433725 -55823720.290164948 0 0 0 0 614375.42430645041 275630.26169685088 0 275630.26169685088 -324932.10131556471 0 0 0 0 -1031537713.4811783 -385944446.00176096 0 -385944446.00176096 568621000.64683056 0 0 0 0 107121814.01806641 -437312950.21718693 0 -437312950.21718693 241963671.97825432 0 0 0 0 806290221.33734322 -576924024.60588253 0 -576924024.60588253 85313496.994715214 0 0 0 0 372239798.07910156 -162720456.47153282 0 -162720456.47153282 -278125.23411798477 0 0 0 0 617168202.87363434 -235425842.34585512 0 -235425842.34585512 -95776796.562554836 0 0 0 0 227521890.61056519 -79829790.736179352 0 -79829790.736179352 -104635903.92857265 0 0 0 0 330782821.41230774 -52280047.949039459 0 -52280047.949039459 -102392511.6779747 0 0 0 0 202494353.00518417 -31145036.707119226 0 -31145036.707119226 -163477236.65326691 0 0 0 0 277675089.1316452 33228953.263020515 0 33228953.263020515 -178053050.18149567 0 0 0 0 -166830511.91940308 -265807746.25030804 0 -265807746.25030804 139126465.41456127 0 0 0 0 407210387.08925629 -270326208.7523737 0 -270326208.7523737 -55535404.496013641 0 0 0 0 115119728.69467163 -162599023.94484043 0 -162599023.94484043 -90797225.722019196 0 0 0 0 227877197.3649826 -86581450.629478931 0 -86581450.629478931 -192236130.39703369 0 0 0 0 140563501.42500305 -192828705.37713623 0 -192828705.37713623 -131157173.10637856 0 0 0 0 -38718821.801513672 -163642557.20546913 0 -163642557.20546913 -130453157.3456192 0 0 0 0 -110481702.32025909 -83483730.970911026 0 -83483730.970911026 -189492956.6737709 0 0 0 0 95426192.720125198 -85180761.624336243 0 -85180761.624336243 -187392785.67372513 0 0 0 0 110547489.89814758 -134248068.18194962 0 -134248068.18194962 -227061575.87874222 0 0 0 0 -4536900.7915039062 -146210326.87218857 0 -146210326.87218857 -183612156.14276695 0 0 0 0 48390620.609832764 -93161007.190137863 0 -93161007.190137863 -173440598.86458206 0 0 0 0 50022718.117767334 -119763466.06921577 0 -119763466.06921577 -172671805.41041946 0 0 0 0 3167562.050617218 -169797024.362463 0 -169797024.362463 -243659413.72149658 0 0 0 0 -131366142.81770325 -202504386.90809631 0 -202504386.90809631 -150635610.91197777 0 0 0 0 125765615.3968811 30911372.017997742 0 30911372.017997742 -171483984.25586319 0 0 0 0 180626945.68949127 -25790342.351048946 0 -25790342.351048946 -193853093.42100906 0 0 0 0 171243628.38877869 -101747266.49338913 0 -101747266.49338913 -196012716.9635582 0 0 0 0 135255787.51664734 -45909792.498872757 0 -45909792.498872757 -165959576.40058947 0 0 0 0 118721468.18588638 -45763799.420171738 0 -45763799.420171738 -190134919.26782227 0 0 0 0 102081132.97642517 -97334099.072257996 0 -97334099.072257996 -200403261.10758972 0 0 0 0 92504853.736190796 -24596935.748165131 0 -24596935.748165131 -192870387.83467579 0 0 0 0 100285146.8965683 -16653265.871727467 0 -16653265.871727467 -185250141.07396317 0 0 0 0 1025146.0880553853 -4244872.2065085387 0 -4244872.2065085387 -864940.53337184084 0 0 0 0 18743419.081420898 -23755365.039123535 0 -23755365.039123535 -150104163.82314777 0 0 0 0 258295.35092163086 -2019215.5688632727 0 -2019215.5688632727 -1352572.7604343891 0 0 0 0 18593296.114471436 -17431418.133144379 0 -17431418.133144379 -149382150.19927645 0 0 0 0 44092561.982589722 -24220083.336921692 0 -24220083.336921692 -171506869.02793884 0 0 0 0 28618353.756164551 -7145888.2515277863 0 -7145888.2515277863 -174823623.97166443 0 0 0 0 39718828.429847717 -10620243.977042913 0 -10620243.977042913 -173761957.91201019 0 0 0 0 55809259.465881348 -10612174.349330902 0 -10612174.349330902 -185568494.53633118 0 0 0 0 75530638.679534912 -32311791.50459671 0 -32311791.50459671 -181968490.12962341 0 0 0 0 37204504.666900635 -24211906.911361694 0 -24211906.911361694 -171234858.12699509 0 0 0 0 43468946.258163452 -28433025.661903381 0 -28433025.661903381 -181162189.13650513 0 0 0 0 35426746.149932861 -28977187.910835266 0 -28977187.910835266 -165869360.76277542 0 0 0 0 45349931.53868866 -46282586.577829361 0 -46282586.577829361 -160372481.3208313 0 0 0 0 27711070.507263184 -42773499.95880127 0 -42773499.95880127 -160985805.28749084 0 0 0 0 48418565.799713135 -36364502.172595978 0 -36364502.172595978 -169687317.08595657 0 0 0 0 61810451.321960449 -48620301.081184387 0 -48620301.081184387 -189495629.48833561 0 0 0 0 55943789.195983887 -51939322.696838379 0 -51939322.696838379 -172916221.07361984 0 0 0 0 51200226.824352264 -79111000.107054234 0 -79111000.107054234 -161541348.81732178 0 0 0 0 21389916.411560059 -40804591.512832642 0 -40804591.512832642 -130561672.3835907 0 0 0 0 20243108.391693115 -52705111.97155571 0 -52705111.97155571 -129745625.01345062 0 0 0 0 28783561.359848022 -48071981.793281555 0 -48071981.793281555 -146653273.83604431 0 0 0 0 20621659.858856201 -35336361.399597168 0 -35336361.399597168 -142654524.79977417 0 0 0 0 27172017.784599304 -30844636.871585846 0 -30844636.871585846 -158209162.05118561 0 0 0 0 39675963.357635498 -35201096.33190918 0 -35201096.33190918 -157823092.70211792 0 0 0 0 2571561.7802124023 -11610604.188877106 0 -11610604.188877106 -153572849.13749695 0 0 0 0 -11361320.956512451 -7999993.2422828674 0 -7999993.2422828674 -36716983.604385376 0 0 0 0 -65740771.861024857 -4817708.0658926964 0 -4817708.0658926964 1760614.5258560181 0 0 0 0 -14023162.327222824 -53759033.224232435 0 -53759033.224232435 -63690456.82559967 0 0 0 0 -51433793.181045532 -79422611.79410553 0 -79422611.79410553 -81065801.506685257 0 0 0 0 -26075616.816513062 -106029091.24891663 0 -106029091.24891663 -62239522.692462921 0 0 0 0 -18854535.325469971 -122356570.78142929 0 -122356570.78142929 -143604153.94432068 0 0 0 0 16700529.328796387 -74608288.231243134 0 -74608288.231243134 -143199033.46282196 0 0 0 0 16036877.6587677 -83694097.348125458 0 -83694097.348125458 -107904382.87674332 0 0 0 0 -9871017.0453662872 -74215080.877646446 0 -74215080.877646446 -108810375.14183807 0 0 0 0 3113816.068145752 -49420700.072822571 0 -49420700.072822571 -90390456.12033844 0 0 0 0 1044845.786895752 -217234.21100616455 0 -217234.21100616455 -116639547.69981003 0 0 0 0 -836721.76361083984 -43710196.620948792 0 -43710196.620948792 -94263944.91122818 0 0 0 0 4460956.5207519531 -46917752.487968445 0 -46917752.487968445 -131853465.23078156 0 0 0 0 4409714.4844970703 -52801332.300720215 0 -52801332.300720215 -111567851.58827209 0 0 0 0 8866860.1407470703 -29701627.459899902 0 -29701627.459899902 -134729672.37522697 0 0 0 0 -1423366.9312744141 -26030041.734573364 0 -26030041.734573364 -109475287.94296932 0 0 0 0 -3158790.3317871094 -40937463.27363205 0 -40937463.27363205 -69045988.929748535 0 0 0 0 -5229009.9686584473 3040308.7439575195 0 3040308.7439575195 -86344323.583906174 0 0 0 0 -5637862.382598877 6575011.2556877136 0 6575011.2556877136 -35172947.069858551 0 0 0 0 -1121912.7097015381 -31108847.541982651 0 -31108847.541982651 -70095561.687011719 0 0 0 0 -13571938.300392151 -33837645.910564423 0 -33837645.910564423 -18689150.341197968 0 0 0 0 7949769.8938598633 -30101088.044931412 0 -30101088.044931412 -72602226.146354675 0 0 0 0 -360174.4577875752 -2183654.4159778394 0 -2183654.4159778394 2962171.4690469103 0 0 0 0 621683717.32543182 15951093.490837932 0 15951093.490837932 -83963169.190271139 0 0 0 0 594309.80706638843 -1449450.7743468229 0 -1449450.7743468229 1173898.9359685443 0 0 0 0 283018433.78974152 -44902112.12685889 0 -44902112.12685889 93895028.907639384 0 0 0 0 383798051.30187988 -112432435.48163265 0 -112432435.48163265 -13438019.410327435 0 0 0 0 638144688.11612558 -242088346.1991213 0 -242088346.1991213 -26864770.338612795 0 0 0 0 464952134.3653717 -102766924.75486875 0 -102766924.75486875 -94070766.477993488 0 0 0 0 124963.41792341974 -94987.960368329659 0 -94987.960368329659 53546.037834751536 0 0 0 0 648976691.13301086 -93100901.726715803 0 -93100901.726715803 -128077225.89757699 0 0 0 0 663785516.3527298 -149525877.81632435 0 -149525877.81632435 -101016783.35221958 0 0 0 0 517921732.15245438 26035912.931515336 0 26035912.931515336 23203451.825325966 0 0 0 0 779480483.77809143 -102529069.76266146 0 -102529069.76266146 -128848094.71905196 0 0 0 0 282190.98258073907 -1488974.0165043334 0 -1488974.0165043334 2827909.845220888 0 0 0 0 505419412.97268677 -16711767.219236016 0 -16711767.219236016 8302232.4239497185 0 0 0 0 -174985019.54042816 -177748634.67034817 0 -177748634.67034817 -166314395.02375793 0 0 0 0 -181712395.7964325 -235486256.62882137 0 -235486256.62882137 -44057377.228265762 0 0 0 0 -245081339.14683533 -96868670.068166733 0 -96868670.068166733 19859546.786024094 0 0 0 0 -43879.827318589203 -533319.76794188842 0 -533319.76794188842 349007.28494974738 0 0 0 0 1374924.3823356628 -1735770.5400341749 0 -1735770.5400341749 811719.48786258698 0 0 0 0 1156320.285484314 -2529558.312871933 0 -2529558.312871933 42225.190053939819 0 0 0 0 1177158.1196594238 -1497429.258831501 0 -1497429.258831501 726145.59334087372 0 0 0 0 1183174.7464332581 -1372423.4048540592 0 -1372423.4048540592 1820583.5889225006 0 0 0 0 1363284.2671051025 -3216202.21378088 0 -3216202.21378088 3175421.4267516136 0 0 0 0 1514070.1579208374 -2334622.103461504 0 -2334622.103461504 -448331.66416788101 0 0 0 0 1605355.9650115967 -1484379.8324494362 0 -1484379.8324494362 1565655.9221730232 0 0 0 0 633189430.15131617 -138664564.33315802 0 -138664564.33315802 96140801.587397218 0 0 0 0 1163480.5015821522 -1296809.7699192837 0 -1296809.7699192837 1050145.1185534361 0 0 0 0 499637977.46510124 -293011949.73564047 0 -293011949.73564047 50364991.417647541 0 0 0 0 430588431.71169281 42026898.327500537 0 42026898.327500537 6303017.97876513 0 0 0 0 355601.9037048826 -88504.609612727538 0 -88504.609612727538 90829.744267069764 0 0 0 0 627945396.29663181 -328444582.98442227 0 -328444582.98442227 152310029.94807982 0 0 0 0 317614.91728717089 -396915.03601083951 0 -396915.03601083951 33377.488183923197 0 0 0 0 429545865.90645599 -169645284.52041489 0 -169645284.52041489 52887504.262833834 0 0 0 0 311450063.53772736 -324026664.34161484 0 -324026664.34161484 178128283.57362163 0 0 0 0 744357.58354949951 -1339712.423555851 0 -1339712.423555851 84559.795192718506 0 0 0 0 1921213.7942962646 -967240.51189565659 0 -967240.51189565659 -359009.98029899597 0 0 0 0 1206861.6148708835 -1528588.8369558891 0 -1528588.8369558891 492069.70182298357 0 0 0 0 1939766.376739502 -637856.96685290337 0 -637856.96685290337 456000.51651000977 0 0 0 0 6258702.1993713379 2068038.6560964584 0 2068038.6560964584 -1034032.8769643307 0 0 0 0 2691109.8761488404 -1644657.3631924335 0 -1644657.3631924335 -1199156.1243651633 0 0 0 0 3351975.4656924084 -3186921.8298335448 0 -3186921.8298335448 -2051719.8477975396 0 0 0 0 -27945584.983947754 -14388255.305639267 0 -14388255.305639267 74540804.1929245 0 0 0 0 1229435.2285919189 -6230900.1931203902 0 -6230900.1931203902 -1632281.1719736122 0 0 0 0 940383.04323577881 -6299981.4882415831 0 -6299981.4882415831 -1432377.493778944 0 0 0 0 1566309.3048629761 -5957982.368163541 0 -5957982.368163541 -1485169.2205487937 0 0 0 0 996512.35661506653 -6122161.7651945967 0 -6122161.7651945967 -1408128.9940440059 0 0 0 0 3102085.845375061 -5770014.274915643 0 -5770014.274915643 -4232196.9774064198 0 0 0 0 595593.08259878494 -167793.67130810767 0 -167793.67130810767 -218514.79502632353 0 0 0 0 1847099.5622825623 -894772.88874313235 0 -894772.88874313235 1967160.3298511505 0 0 0 0 7812882.1747360229 -7054293.6344566345 0 -7054293.6344566345 -62275.221904754639 0 0 0 0 12797136.661010742 7409747.1476159096 0 7409747.1476159096 -511008.04554514587 0 0 0 0 9379856.1216430664 -6962020.4857792854 0 -6962020.4857792854 2929746.5803076029 0 0 0 0 1788403.0991210938 -2353179.8915557861 0 -2353179.8915557861 4003219.175775528 0 0 0 0 4008282.6848449707 -2581469.989657402 0 -2581469.989657402 -634227.19061946869 0 0 0 0 5060079.1608276367 -186255.09986639023 0 -186255.09986639023 -4654514.9052715302 0 0 0 0 384799.90472412109 -1620864.1829955578 0 -1620864.1829955578 -851526.45267248154 0 0 0 0 -1387538.3843765259 459513.08134758472 0 459513.08134758472 -1465370.0568659306 0 0 0 0 7613791.1879386902 -3072124.5603961945 0 -3072124.5603961945 -6496913.6141701937 0 0 0 0 3980333.0837080907 -1289702.1876278184 0 -1289702.1876278184 -1294440.7630615621 0 0 0 0 2729684.8411992602 -1338739.6364014472 0 -1338739.6364014472 55562.06526998066 0 0 0 0 3562502.364654541 -1630872.188749518 0 -1630872.188749518 40956.29803348321 0 0 0 0 3251150.4428329468 -932558.85587199614 0 -932558.85587199614 93361.015332930721 0 0 0 0 3959239.9682693481 -1043401.6476242743 0 -1043401.6476242743 -315699.71600355301 0 0 0 0 3852187.6124267578 -793693.25794626819 0 -793693.25794626819 157638.37091619335 0 0 0 0 2556660.0380020142 -2867915.0493896008 0 -2867915.0493896008 -2941726.2393138409 0 0 0 0 3065336.300009869 -790387.59308088152 0 -790387.59308088152 -223402.7445028316 0 0 0 0 1936466.974822998 -4055294.1851801872 0 -4055294.1851801872 -441149.49749279022 0 0 0 0 371226710.92510986 -77778457.361629426 0 -77778457.361629426 87115458.765188813 0 0 0 0 1429452.6438095327 -990312.69319010526 0 -990312.69319010526 760928.2143091294 0 0 0 0 2064154.3927001953 -719328.70849323273 0 -719328.70849323273 -528739.52982163429 0 0 0 0 3664613.3145217896 -232571.99289714056 0 -232571.99289714056 273851.63295951486 0 0 0 0 3217993.0223274231 -547887.31857020152 0 -547887.31857020152 94898.52996938955 0 0 0 0 3539337.4424285889 -1195641.833325563 0 -1195641.833325563 236475.59769807197 0 0 0 0 1722054.3045499995 -192381.76129136048 0 -192381.76129136048 376820.95708590897 0 0 0 0 4547190.3718414307 -757991.91365622543 0 -757991.91365622543 -112645.99042339623 0 0 0 0 4297496.829864502 -631510.11343215965 0 -631510.11343215965 -25620.246527703013 0 0 0 0 1086.3670667177066 -229.68919747136533 0 -229.68919747136533 371.94428316889093 0 0 0 0 4671899.3865432739 -1078953.8637947687 0 -1078953.8637947687 -2368.5630843439139 0 0 0 0 4240955.186088562 -995952.81312627904 0 -995952.81312627904 129757.96168264654 0 0 0 0 4075288.9018859863 -815942.41161256726 0 -815942.41161256726 160405.51093153044 0 0 0 0 4199932.0681304932 -1029521.9967029428 0 -1029521.9967029428 344014.75719209178 0 0 0 0 3974468.9148445129 -883369.98775665625 0 -883369.98775665625 58116.578678408638 0 0 0 0 3856112.7093378901 -1060667.8096677787 0 -1060667.8096677787 7829.3485351926647 0 0 0 0 4001472.0234527588 -910454.83244129433 0 -910454.83244129433 55827.385291025508 0 0 0 0 4063016.1080245972 -800971.30156611092 0 -800971.30156611092 -203376.43794933846 0 0 0 0 4082399.4257049561 -723771.6979491649 0 -723771.6979491649 66852.274901926983 0 0 0 0 4037652.8365020752 -755803.66762201814 0 -755803.66762201814 94397.818463387899 0 0 0 0 4018758.1095123291 -766476.27641541325 0 -766476.27641541325 217892.50578074076 0 0 0 0 4099708.634475708 -729588.13875904551 0 -729588.13875904551 41312.270071458537 0 0 0 0 3936519.6441955566 -625935.14036843646 0 -625935.14036843646 39335.764906928103 0 0 0 0 3962486.5954799652 -758212.54919147375 0 -758212.54919147375 128527.96722529549 0 0 0 0 4060895.7405014038 -567289.97801136365 0 -567289.97801136365 -61853.692630850477 0 0 0 0 4181036.4952316284 -635695.30827924365 0 -635695.30827924365 -120122.64800269133 0 0 0 0 4112754.7079391479 -428995.55895263539 0 -428995.55895263539 -675.05608651588591 0 0 0 0 3913017.6409606934 -580855.53713605436 0 -580855.53713605436 -63096.316729868297 0 0 0 0 3811494.0995674133 -467765.37052142702 0 -467765.37052142702 314.83086658302005 0 0 0 0 4698143.1420440674 -272995.32140597445 0 -272995.32140597445 2285.8847447689509 0 0 0 0 4444635.0003395081 -579006.14936736645 0 -579006.14936736645 -258437.08642648492 0 0 0 0 4134832.6431732178 -735137.65987251466 0 -735137.65987251466 -312793.91387010092 0 0 0 0 4386423.6389465332 -900380.54456742026 0 -900380.54456742026 -1086866.7437927546 0 0 0 0 4341829.2104110718 -817755.31783850363 0 -817755.31783850363 -300053.60228358977 0 0 0 0 3964218.2257447243 -1195751.7928245103 0 -1195751.7928245103 -626402.72036621859 0 0 0 0 3945081.3201141357 -930447.44537703029 0 -930447.44537703029 -11728.192027726676 0 0 0 0 4155576.1486816406 -1628282.1200256557 0 -1628282.1200256557 -130678.81092149718 0 0 0 0 9476909.8641090393 1457022.6854797322 0 1457022.6854797322 -4769564.2470403872 0 0 0 0 4190294.3489761353 -1714173.0501479988 0 -1714173.0501479988 -913255.79295417794 0 0 0 0 2234676.534605328 -50819.444358889014 0 -50819.444358889014 -428498.69724232005 0 0 0 0 5933670.2905731201 1113597.0886143595 0 1113597.0886143595 825482.68878043443 0 0 0 0 502497.56432120502 78969.672962579876 0 78969.672962579876 -18063.420082269033 0 0 0 0 18346986.452350616 4106406.2506280532 0 4106406.2506280532 -1246327.5375050195 0 0 0 0 1910634.0546989441 -2312674.0596320061 0 -2312674.0596320061 -466181.78831647366 0 0 0 0 11438848.350246429 32320.060839496051 0 32320.060839496051 -2954.4143082481814 0 0 0 0 7856037.4259185791 -2814940.5975952945 0 -2814940.5975952945 -484373.67445050215 0 0 0 0 8701523.7061538696 -672315.69285400026 0 -672315.69285400026 1371.6838781368692 0 0 0 0 9214174.4095535278 935395.63150933234 0 935395.63150933234 1526977.4486545918 0 0 0 0 9419382.7659454346 -793924.89667758439 0 -793924.89667758439 -1268303.8051717337 0 0 0 0 9847964.7419509888 -2116210.166267531 0 -2116210.166267531 2186080.021990818 0 0 0 0 6199480.5604248047 -781776.46449005196 0 -781776.46449005196 1431016.7539892595 0 0 0 0 5505241.0619426966 -3218991.0179181406 0 -3218991.0179181406 -2567549.3072082028 0 0 0 0 5449330.9876708984 -950372.74791484606 0 -950372.74791484606 -47500.879662659951 0 0 0 0 8789155.8264884949 -2458136.0784244724 0 -2458136.0784244724 -7767103.9308021124 0 0 0 0 -9780029.0296268463 -13485015.603562012 0 -13485015.603562012 -3070127.812132597 0 0 0 0 -138375.3165088594 59233.773794383276 0 59233.773794383276 134384.76817225988 0 0 0 0 -32236998.314014912 13257746.126302762 0 13257746.126302762 237080.90898126364 0 0 0 0 -31324818.0545578 -13327263.823413879 0 -13327263.823413879 -4115552.4197994173 0 0 0 0 1239198.5383033752 -9568335.7936731577 0 -9568335.7936731577 -11810762.814179897 0 0 0 0 -7052397.730802536 -16182107.065028697 0 -16182107.065028697 -17085051.804352045 0 0 0 0 6250131.1310481131 -475977.39051077934 0 -475977.39051077934 -500525.11763174576 0 0 0 0 6268053.5464889985 -1069454.1874694377 0 -1069454.1874694377 -685964.62009719096 0 0 0 0 3243742.6541442871 -4990576.1314092278 0 -4990576.1314092278 -3800656.3412576765 0 0 0 0 1118135.3830757141 -2819358.4188544452 0 -2819358.4188544452 -5954297.4537231922 0 0 0 0 -4135549.9119739532 -4600781.9186367784 0 -4600781.9186367784 -2658619.8250520229 0 0 0 0 -2856924.1788578033 -7520421.001960054 0 -7520421.001960054 -3575203.8109260201 0 0 0 0 2231120.0868835449 -6773983.3975654691 0 -6773983.3975654691 -3465701.242397204 0 0 0 0 -2400403.3444824219 -5502863.8984790668 0 -5502863.8984790668 -2918465.511963293 0 0 0 0 3946705.3389968872 -6994794.1040303409 0 -6994794.1040303409 -8759176.3304365128 0 0 0 0 3871337.7363815308 -4862066.5383702815 0 -4862066.5383702815 -3707126.9232151657 0 0 0 0 3819625.6077423096 -7328229.7556549013 0 -7328229.7556549013 -2125772.0052438974 0 0 0 0 4815931.3990631104 -5911858.5674121976 0 -5911858.5674121976 -1263009.8829099238 0 0 0 0 3132672.3869171143 -5274030.0320542194 0 -5274030.0320542194 -980715.49951660633 0 0 0 0 5481848.9441719055 -5289679.0011899546 0 -5289679.0011899546 -1029706.7726127505 0 0 0 0 1620864.7568206787 -6239617.6493830979 0 -6239617.6493830979 2962968.7108378708 0 0 0 0 4520561.4417114258 -4866577.3179690838 0 -4866577.3179690838 3612510.7418652773 0 0 0 0 5567157.5147399902 -3648562.3319584131 0 -3648562.3319584131 4855013.1456537247 0 0 0 0 2035583.128112793 -7818805.1768035889 0 -7818805.1768035889 2722749.224260211 0 0 0 0 4406298.6352233887 -6699808.367593199 0 -6699808.367593199 1890699.1465320587 0 0 0 0 12180613.000900269 -6787703.2685397863 0 -6787703.2685397863 1697060.8817259073 0 0 0 0 5219263.9906616211 -13422854.154528975 0 -13422854.154528975 11053625.506760895 0 0 0 0 3156737.0715942383 -7890288.2926924229 0 -7890288.2926924229 2607303.1834706068 0 0 0 0 -2571492.6217803955 -3971197.7535274178 0 -3971197.7535274178 775427.08754968643 0 0 0 0 -1934819.2705955505 -4434788.0306662545 0 -4434788.0306662545 -468262.70494431257 0 0 0 0 -827636.19253540039 -6331737.9475035071 0 -6331737.9475035071 524228.55860897899 0 0 0 0 1231965.9575271606 -5069210.9407116175 0 -5069210.9407116175 2216906.4798665047 0 0 0 0 1366518.9929504395 -5182339.5291260779 0 -5182339.5291260779 1122034.2040709257 0 0 0 0 659285.37371826172 -5890396.9601473808 0 -5890396.9601473808 3866822.6622469425 0 0 0 0 645825.961769104 -6418524.3013678789 0 -6418524.3013678789 1609254.1528948545 0 0 0 0 144868.00157165527 -4610124.8844535053 0 -4610124.8844535053 1420124.0914182663 0 0 0 0 -2807707.0522918701 -5134631.0046075583 0 -5134631.0046075583 1700881.8392617106 0 0 0 0 -886046.07052612305 -5887612.6995016336 0 -5887612.6995016336 2910217.1321277022 0 0 0 0 -9846317.879486084 206542.30163674802 0 206542.30163674802 3290954.5172169805 0 0 0 0 -5702186.7087097168 -2435645.3330869973 0 -2435645.3330869973 2825725.2739696801 0 0 0 0 -4687999.8860778809 -672846.56790085882 0 -672846.56790085882 2466440.46526438 0 0 0 0 -11156754.646835327 -1106561.4040660709 0 -1106561.4040660709 2515252.1274892278 0 0 0 0 -7042022.8535614014 -6205579.4216046557 0 -6205579.4216046557 -291131.82303484529 0 0 0 0 -8807889.8496551514 -20470.416508257389 0 -20470.416508257389 3896165.6744526029 0 0 0 0 -16487096.653831482 2236999.5955996588 0 2236999.5955996588 5057486.3918227218 0 0 0 0 -13078398.738810539 9757448.8542185836 0 9757448.8542185836 591657.20635679364 0 0 0 0 -8972828.0787353516 3723643.9183605015 0 3723643.9183605015 4729309.9903154746 0 0 0 0 -16647619.156831741 11175231.681319818 0 11175231.681319818 91827.993254512548 0 0 0 0 -30382897.334884644 -831655.5603719987 0 -831655.5603719987 3267641.2768470347 0 0 0 0 -7122797.3882369995 -7292759.2381286398 0 -7292759.2381286398 -2779468.4505921789 0 0 0 0 -210535.34525450319 119737.71812648047 0 119737.71812648047 241255.39531936107 0 0 0 0 -47086663.47694397 -16560176.453581691 0 -16560176.453581691 59677773.284969151 0 0 0 0 -7333052.5969543457 2700124.8564765602 0 2700124.8564765602 8198438.9348390233 0 0 0 0 -9004632.918756485 1347155.132595621 0 1347155.132595621 16537045.369695559 0 0 0 0 -104863.35076915286 76965.307869210839 0 76965.307869210839 139402.88165867067 0 0 0 0 83871590.286758423 90900236.643313676 0 90900236.643313676 -12022242.914054215 0 0 0 0 50140414.661300659 40593278.014673084 0 40593278.014673084 132765678.27185017 0 0 0 0 51417573.29523468 -39327277.483874373 0 -39327277.483874373 89885556.357964039 0 0 0 0 1123907.3900985718 -30873536.236693352 0 -30873536.236693352 32948748.220827773 0 0 0 0 -47154611.249340057 -13598183.811156943 0 -13598183.811156943 87299895.777796268 0 0 0 0 -21547621.948274709 -46579800.41448573 0 -46579800.41448573 37944891.491230965 0 0 0 0 -21636078.939582825 -14073702.701755941 0 -14073702.701755941 103308378.60705388 0 0 0 0 48963575.698875427 -25600259.403309464 0 -25600259.403309464 9869790.1493458748 0 0 0 0 11332583.660125732 -83117687.10523355 0 -83117687.10523355 16706602.16280961 0 0 0 0 1440073.4732666016 -32478801.907987118 0 -32478801.907987118 -91916429.631245852 0 0 0 0 -49575685.073814392 -29120148.644734144 0 -29120148.644734144 28843219.356263936 0 0 0 0 -22536522.799331665 -90442344.363013029 0 -90442344.363013029 -33809033.635650516 0 0 0 0 -16579452.409294128 -26126260.55297637 0 -26126260.55297637 -141655728.31429005 0 0 0 0 152018.44144439697 -21623712.397633314 0 -21623712.397633314 -37937261.881119251 0 0 0 0 -26438756.430047989 -54368770.187596679 0 -54368770.187596679 -8464471.4714940786 0 0 0 0 -42064678.124252319 -46971265.97664237 0 -46971265.97664237 -35910516.330900729 0 0 0 0 -18002713.689346313 -46479263.487434089 0 -46479263.487434089 -36201039.145004898 0 0 0 0 6290755.6243057251 -60167464.534165144 0 -60167464.534165144 22869792.534349978 0 0 0 0 16917499.596504211 -12855230.967171133 0 -12855230.967171133 17201111.954138994 0 0 0 0 19393749.320919037 -34366531.774040639 0 -34366531.774040639 -62175856.093899488 0 0 0 0 6022385.012362089 -393915.39325876231 0 -393915.39325876231 -399931.77388216002 0 0 0 0 6340475.7369995117 -2344912.8541296101 0 -2344912.8541296101 -5895432.8228976345 0 0 0 0 6315449.9076347351 -2209706.5866844957 0 -2209706.5866844957 -3443464.6209475892 0 0 0 0 5578392.3972014319 -810039.48229787545 0 -810039.48229787545 -295044.25718382944 0 0 0 0 -6626487.7068367004 -44418441.823465347 0 -44418441.823465347 -105119409.3754549 0 0 0 0 5233976.9522171021 -1926886.6160778357 0 -1926886.6160778357 -2106703.8073154818 0 0 0 0 5739458.9391098022 -2010104.718422245 0 -2010104.718422245 -2104870.0934056025 0 0 0 0 4816344.3802337646 -1392092.6022451848 0 -1392092.6022451848 246662.65729062585 0 0 0 0 6383183.2361602783 -752456.61181734072 0 -752456.61181734072 -297023.56340823654 0 0 0 0 6001573.6318473816 -1387235.1134608919 0 -1387235.1134608919 -729260.79740535747 0 0 0 0 5580591.4237747192 -1655911.837905674 0 -1655911.837905674 -804698.23146904493 0 0 0 0 5621998.7228507996 -1288400.3477000049 0 -1288400.3477000049 270.85751318214204 0 0 0 0 9961279.4500999451 -4161586.9329987909 0 -4161586.9329987909 242330.67422582186 0 0 0 0 1935304.528889684 -727543.58229780383 0 -727543.58229780383 100173.07894224711 0 0 0 0 5820162.8799819946 -1436275.402708645 0 -1436275.402708645 156429.9988508427 0 0 0 0 7410218.3244476318 -1012808.0622454155 0 -1012808.0622454155 2970.9864520852839 0 0 0 0 5317588.5683288574 -2598094.7690041643 0 -2598094.7690041643 331325.20950819761 0 0 0 0 5502961.7300720215 -1279097.4353684662 0 -1279097.4353684662 -1586075.324968047 0 0 0 0 7712446.1801147461 -1750872.0206738662 0 -1750872.0206738662 -1531237.992420899 0 0 0 0 5983185.3996318076 -213992.44972070493 0 -213992.44972070493 -448358.21997692721 0 0 0 0 6367895.3779449463 -1849113.6990290047 0 -1849113.6990290047 -2739676.3189357044 0 0 0 0 10488128.310806274 -18882780.655842304 0 -18882780.655842304 -2263284.4839129448 0 0 0 0 6483419.6485214233 -1541285.0091516413 0 -1541285.0091516413 -2652671.5366741344 0 0 0 0 7292085.6079101562 16961411.01791358 0 16961411.01791358 -72828236.810739875 0 0 0 0 -37425753.049993038 -109632460.76655459 0 -109632460.76655459 -177370060.5742929 0 0 0 0 865323.8049037084 515730.89266645815 0 515730.89266645815 -507591.35819453851 0 0 0 0 26935947.357223511 -100799422.61330128 0 -100799422.61330128 -238349924.79984856 0 0 0 0 -385176.91159668565 -867320.18923596083 0 -867320.18923596083 100376.54268656517 0 0 0 0 -31822810.28692627 -101407715.89403677 0 -101407715.89403677 -155354025.85524178 0 0 0 0 -28927501.338768005 -36747309.8203969 0 -36747309.8203969 -165719341.20704937 0 0 0 0 -18411623.347961426 -88265933.006023884 0 -88265933.006023884 -89901450.044249713 0 0 0 0 51791991.092071533 -72651763.083537102 0 -72651763.083537102 -166611813.91324806 0 0 0 0 21290333.684288025 -33220663.422589183 0 -33220663.422589183 -135007936.34175158 0 0 0 0 66048599.015960693 -77496224.293776393 0 -77496224.293776393 -96781808.149877548 0 0 0 0 103627104.97523499 -20517032.438629389 0 -20517032.438629389 -157868239.1100111 0 0 0 0 65680926.15145874 -27236082.125923634 0 -27236082.125923634 -166667183.60325432 0 0 0 0 54327601.923408508 -23272351.032525301 0 -23272351.032525301 -156127937.00361919 0 0 0 0 46942623.817504883 -59426381.07815218 0 -59426381.07815218 -146532153.83221745 0 0 0 0 4069985.9939041138 -32254454.634665012 0 -32254454.634665012 -146368453.40492916 0 0 0 0 95700497.954421997 30047701.090928078 0 30047701.090928078 -252204335.53883672 0 0 0 0 105432167.43338776 -69377667.080735445 0 -69377667.080735445 -191144674.65811372 0 0 0 0 1455167.7168393172 58743.91274487786 0 58743.91274487786 -237240.87941853481 0 0 0 0 -16836759.020782471 89442443.527941465 0 89442443.527941465 -177104808.41166186 0 0 0 0 2677433.4103546143 -1202982.2555214167 0 -1202982.2555214167 1693502.0355584621 0 0 0 0 26226981.179748535 3889229.162932992 0 3889229.162932992 2447094.0489132404 0 0 0 0 2655114.0653845109 856476.067143308 0 856476.067143308 960979.15802084305 0 0 0 0 5425284.7907775566 -121911.65992292389 0 -121911.65992292389 -248098.12594961 0 0 0 0 -23213400.958557129 24141405.434477329 0 24141405.434477329 -44617580.771908954 0 0 0 0 5080469.5431318283 -3110316.2235610844 0 -3110316.2235610844 -1630717.2387781707 0 0 0 0 -18444397.162879944 28699269.673549652 0 28699269.673549652 -78194160.98263216 0 0 0 0 8575292.5359191895 -31796889.450453758 0 -31796889.450453758 -44229233.65723896 0 0 0 0 5513977.4624404907 -83550336.217475772 0 -83550336.217475772 -138333642.61759281 0 0 0 0 2622758.8869781494 435873.99988555908 0 435873.99988555908 -168683059.15465522 0 0 0 0 5518884.8111724854 -2168245.1470433045 0 -2168245.1470433045 -1178108.5099216579 0 0 0 0 7124723.1377868652 1416806.0684546046 0 1416806.0684546046 -843480.60153764579 0 0 0 0 2994175.8630085941 -712900.22657747194 0 -712900.22657747194 -402862.23149580037 0 0 0 0 4620956.3292121887 1126298.6926884528 0 1126298.6926884528 721984.94234028459 0 0 0 0 982536.5897064209 308829.71637460589 0 308829.71637460589 -363499.01974385977 0 0 0 0 3883012.1133321971 -11367.334533831105 0 -11367.334533831105 524405.76638566272 0 0 0 0 8193759.9943237305 -4141107.288182958 0 -4141107.288182958 -2378717.5340953469 0 0 0 0 4779581.9982299805 2999740.947560817 0 2999740.947560817 383298.89460361563 0 0 0 0 207413.06545439735 -129219.62353982031 0 -129219.62353982031 -154286.76891883981 0 0 0 0 2745877.3896365277 714030.25525057781 0 714030.25525057781 -28352.421960493419 0 0 0 0 5158903.3922729492 90382.175460564904 0 90382.175460564904 -361913.66000344977 0 0 0 0 7056812.0932922363 1392247.4097160203 0 1392247.4097160203 -805353.4040106074 0 0 0 0 6549563.9427490234 317133.51406010333 0 317133.51406010333 -414071.11003099591 0 0 0 0 7168021.4201049805 1505437.2418020084 0 1505437.2418020084 -727946.474272158 0 0 0 0 8027032.4770278931 -63329.051407596671 0 -63329.051407596671 -1318034.7372197502 0 0 0 0 2650016.1624902608 -163249.91757753491 0 -163249.91757753491 -157778.97196248057 0 0 0 0 5698767.3192443848 1531306.6938333753 0 1531306.6938333753 -1947.8097677911996 0 0 0 0 2555957.9757232666 449133.10128390463 0 449133.10128390463 -265326.33137636585 0 0 0 0 7115768.8970794678 1365730.2272217928 0 1365730.2272217928 -877021.07276758691 0 0 0 0 1430011691.6968384 43620232.21297168 0 43620232.21297168 440906.51458457456 0 0 0 0 2201278186.2407341 -236779263.1390793 0 -236779263.1390793 -342483875.27641934 0 0 0 0 2074831440.9497986 -235029420.90085 0 -235029420.90085 116999270.79342495 0 0 0 0 1499979040.4392776 829950210.55135775 0 829950210.55135775 147562122.48310104 0 0 0 0 489081.639785368 10211.163640293293 0 10211.163640293293 -4979.9213604965935 0 0 0 0 3298728.0474510193 -328106.17062884197 0 -328106.17062884197 1066455.2661568224 0 0 0 0 1813224.4615783691 482345.14777413011 0 482345.14777413011 2554504.7468362097 0 0 0 0 1208936.5203476548 86555.234622804448 0 86555.234622804448 -26541.260900491819 0 0 0 0 2209202.5267446078 -102196.49723688513 0 -102196.49723688513 133065.81666345516 0 0 0 0 555410398.26424026 -176133296.20614046 0 -176133296.20614046 81866087.202124 0 0 0 0 162309137.66068268 151540039.80564094 0 151540039.80564094 97357879.874328449 0 0 0 0 459962624.97691345 12840858.645364732 0 12840858.645364732 -54908630.050878048 0 0 0 0 247089385.3293457 1519912.9168300293 0 1519912.9168300293 158764440.5342783 0 0 0 0 1145449173.5817299 -1161407479.1771419 0 -1161407479.1771419 588439254.81521606 0 0 0 0 1085684705.7458982 -191310360.07003742 0 -191310360.07003742 -109116940.13596085 0 0 0 0 2406266.7120500542 533474.16772047617 0 533474.16772047617 426382.63452703058 0 0 0 0 770905.36831540987 -207556.78610635735 0 -207556.78610635735 -791255.08439547289 0 0 0 0 96402527.191810608 -176859606.5556083 0 -176859606.5556083 216306651.25824836 0 0 0 0 353910057.79338837 102952159.3008959 0 102952159.3008959 28249469.075420022 0 0 0 0 2154864.9288635254 517256124.02680397 0 517256124.02680397 1081181836.9717302 0 0 0 0 1061572.7160437945 42478.102401614189 0 42478.102401614189 416952.87168191909 0 0 0 0 1743529247.1679764 1073319068.1845959 0 1073319068.1845959 395167379.15657735 0 0 0 0 2201501395.2581253 1017903273.0701505 0 1017903273.0701505 -142097289.96680757 0 0 0 0 1674251857.9365082 557614219.24266088 0 557614219.24266088 192619831.53351355 0 0 0 0 1674031060.2597733 566512371.82020581 0 566512371.82020581 -93691321.557590008 0 0 0 0 1148218911.3417206 701877570.56165171 0 701877570.56165171 233241636.33862719 0 0 0 0 -230585850.65332794 289695091.62699735 0 289695091.62699735 186279463.39649081 0 0 0 0 1071513719.5980072 -114677471.60090238 0 -114677471.60090238 -245032484.69581121 0 0 0 0 672439.32412614301 287376.5268323496 0 287376.5268323496 548697.56975606491 0 0 0 0 327722369.83032227 532867225.63172358 0 532867225.63172358 291727442.06971627 0 0 0 0 55951067.385055542 -49243552.940709233 0 -49243552.940709233 -39606502.681758165 0 0 0 0 146614189.84152222 12244104.083746493 0 12244104.083746493 -19849604.999892712 0 0 0 0 10599367.747806549 -3411948.7548475862 0 -3411948.7548475862 163158597.44792008 0 0 0 0 60914528.28742981 -14092573.757858157 0 -14092573.757858157 -64934411.178683221 0 0 0 0 68140768.710960388 -76957885.343832254 0 -76957885.343832254 61664092.419299603 0 0 0 0 40876346.946624756 -45863914.068429977 0 -45863914.068429977 105542271.00456017 0 0 0 0 111344958.55231476 28635248.295144737 0 28635248.295144737 100335674.39411402 0 0 0 0 188091858.37786102 -25166138.965213604 0 -25166138.965213604 134472853.18881035 0 0 0 0 119021658.87519073 41476653.551168531 0 41476653.551168531 110586398.26973119 0 0 0 0 300629236.73556519 284472149.34551919 0 284472149.34551919 192800759.97111428 0 0 0 0 349354151.71886444 232781046.08479404 0 232781046.08479404 242031376.90647942 0 0 0 0 948165532.440979 367923660.3157602 0 367923660.3157602 120812642.32762834 0 0 0 0 367061434.57007599 80132800.588518023 0 80132800.588518023 144274868.79789209 0 0 0 0 321159021.73641205 127867004.76673913 0 127867004.76673913 131096954.25452128 0 0 0 0 125171622.32524109 -1105121.8016178906 0 -1105121.8016178906 97787563.684410572 0 0 0 0 101758695.76033783 39474883.733529612 0 39474883.733529612 210788656.00296745 0 0 0 0 350300933.00753784 -30710821.471312791 0 -30710821.471312791 -42137370.159640253 0 0 0 0 81245306.418075562 100901759.25748831 0 100901759.25748831 114841075.24413615 0 0 0 0 630763415.84222412 205307896.78833774 0 205307896.78833774 24872385.748474002 0 0 0 0 889032891.90075684 -137918323.55167797 0 -137918323.55167797 -103161198.78034863 0 0 0 0 1633173744.6819687 199920599.44359988 0 199920599.44359988 -391341118.68250132 0 0 0 0 2205349563.4709191 501428923.33835471 0 501428923.33835471 -313619535.69479555 0 0 0 0 1035229642.4910507 304574812.75575799 0 304574812.75575799 -52846613.338013947 0 0 0 0 1572730791.1436157 333742286.63338214 0 333742286.63338214 -174297139.40396988 0 0 0 0 -1153034.3661785126 -13472229.198695242 0 -13472229.198695242 -18511580.46117115 0 0 0 0 2103610.6522786357 -2329813.6974496087 0 -2329813.6974496087 1667428.2404508074 0 0 0 0 26225094.17414856 5127306.1529147625 0 5127306.1529147625 -39992019.623579264 0 0 0 0 13690272.276885986 -22696023.304772377 0 -22696023.304772377 -8321857.8555493355 0 0 0 0 87331752.752990723 -20065525.352645278 0 -20065525.352645278 -17890697.732373238 0 0 0 0 69002005.020874023 -15224336.01697576 0 -15224336.01697576 -18034490.306387901 0 0 0 0 86710229.464195251 29778117.64641434 0 29778117.64641434 30662591.286256909 0 0 0 0 -142629470.68753052 -153043129.65707898 0 -153043129.65707898 -74766215.508706808 0 0 0 0 -113977238.45698547 15717242.751995564 0 15717242.751995564 17171044.41692543 0 0 0 0 469880.4825345031 -446117.18993071467 0 -446117.18993071467 -193604.60164668586 0 0 0 0 -183229291.48219299 -93858152.027803659 0 -93858152.027803659 86594202.163306236 0 0 0 0 -3170139.1022262573 15759806.45409584 0 15759806.45409584 -2403437.6517534256 0 0 0 0 -3023066.0740203857 4829323.0230488777 0 4829323.0230488777 123684566.09360886 0 0 0 0 196787693.54327393 46918331.644860148 0 46918331.644860148 129061540.5562706 0 0 0 0 189669198.49145508 8380221.2109341621 0 8380221.2109341621 28699161.965260506 0 0 0 0 171459052.62593842 -74854892.961806774 0 -74854892.961806774 -144267430.8784554 0 0 0 0 122484061.45488358 56042399.381825149 0 56042399.381825149 -86753230.577534676 0 0 0 0 119022440.49507904 37758247.555739045 0 37758247.555739045 116368626.49239635 0 0 0 0 165172616.68118668 -103902904.19383764 0 -103902904.19383764 39156584.120770454 0 0 0 0 -124883701.34075165 29817241.231315613 0 29817241.231315613 93302821.764783144 0 0 0 0 -22098249.073997498 -83202389.851725981 0 -83202389.851725981 -84315390.592377663 0 0 0 0 2757754.8838681877 -2330676.0434830459 0 -2330676.0434830459 1178247.9854012276 0 0 0 0 -10260846.329200745 -11338030.030768663 0 -11338030.030768663 -44999576.982586384 0 0 0 0 -163220361.62828827 -262179179.0352962 0 -262179179.0352962 17928666.308701277 0 0 0 0 -134970408.01085663 131366226.22205091 0 131366226.22205091 31674328.386438847 0 0 0 0 50319413.225723267 -49182322.040849209 0 -49182322.040849209 -109228194.85131693 0 0 0 0 67102395.77248764 22564151.406766891 0 22564151.406766891 -65081456.347881317 0 0 0 0 58779080.078765869 170620497.17079449 0 170620497.17079449 -41142883.198695242 0 0 0 0 34980678.702796936 30012990.467676163 0 30012990.467676163 -36339530.591351986 0 0 0 0 -59874908.34967041 -78144561.221912384 0 -78144561.221912384 -27179676.52335453 0 0 0 0 798816.51247192919 10389.640459485352 0 10389.640459485352 -132293.8163464556 0 0 0 0 39527375.234970093 -612172.74799418449 0 -612172.74799418449 -73774590.023221254 0 0 0 0 19158015.219268799 14455242.319310665 0 14455242.319310665 -38345697.638715267 0 0 0 0 32232354.511314392 -12113482.306043983 0 -12113482.306043983 -39049219.089876652 0 0 0 0 34788804.49357605 14112198.925949097 0 14112198.925949097 -44309178.489991188 0 0 0 0 21850534.496109009 7558759.4665441513 0 7558759.4665441513 -45651858.735490799 0 0 0 0 -6166922.1860046387 -5675839.103025198 0 -5675839.103025198 -21776994.667940378 0 0 0 0 463146207.61060715 273513845.49279535 0 273513845.49279535 74955881.240043879 0 0 0 0 9855491.7441253662 12674480.406255245 0 12674480.406255245 -37361836.728607655 0 0 0 0 -470435131.75404358 251869073.61435175 0 251869073.61435175 915395888.88153934 0 0 0 0 19799110.194473267 151717446.18048859 0 151717446.18048859 66855400.876072884 0 0 0 0 510004472.91375732 393854318.00497913 0 393854318.00497913 175615721.8856554 0 0 0 0 241700328.61642456 310335191.36923885 0 310335191.36923885 157446303.76557374 0 0 0 0 541607604.94291306 102977311.4734078 0 102977311.4734078 35429656.252970695 0 0 0 0 369121225.44418335 25810812.202222824 0 25810812.202222824 5277521.6324901581 0 0 0 0 253173069.54431915 -66434722.530075788 0 -66434722.530075788 31864477.977593899 0 0 0 0 277344177.48719788 339808514.02174807 0 339808514.02174807 65586843.260484993 0 0 0 0 619863.30476856977 355749.71786333364 0 355749.71786333364 84228.129850906378 0 0 0 0 11857771.47631073 -103096121.52076733 0 -103096121.52076733 -109249559.37664986 0 0 0 0 -38184111.43145752 -105948824.05804944 0 -105948824.05804944 107473230.59666014 0 0 0 0 -26992587.707115173 147366791.85398811 0 147366791.85398811 259673101.44522992 0 0 0 0 561400.17370802164 84066.967673958745 0 84066.967673958745 -140386.25102453749 0 0 0 0 38245034.942237854 -68792714.007146955 0 -68792714.007146955 -8389124.5441830158 0 0 0 0 -23967509.208755493 7552929.5249989033 0 7552929.5249989033 -73225366.798210859 0 0 0 0 -16522039.465784073 -9518499.9804372787 0 -9518499.9804372787 -109703330.7879734 0 0 0 0 -20239402.531951904 32112209.084399462 0 32112209.084399462 -52918668.220632076 0 0 0 0 38069332.014656067 4693470.6141672134 0 4693470.6141672134 -217480969.01120949 0 0 0 0 1686844.0157470629 713242.18925630092 0 713242.18925630092 60743.758628631709 0 0 0 0 5966691.4630126953 87788420.293231249 0 87788420.293231249 36095247.42495811 0 0 0 0 -41835698.523918152 15290224.414444447 0 15290224.414444447 100406604.57864046 0 0 0 0 -25827392.359584808 5584448.5308627486 0 5584448.5308627486 -72016977.211584091 0 0 0 0 -19230001.635906219 51594584.566404819 0 51594584.566404819 -65659372.57156086 0 0 0 0 -28862546.921081543 62183507.027932286 0 62183507.027932286 22617043.44687748 0 0 0 0 -9931348.6483268738 106129129.64028922 0 106129129.64028922 42360202.436225981 0 0 0 0 -18825702.375213623 57242091.938877106 0 57242091.938877106 23648004.21400106 0 0 0 0 39907024.723358154 66454088.714199632 0 66454088.714199632 -39476374.075530291 0 0 0 0 79793339.382833481 -40538688.246754989 0 -40538688.246754989 -65066806.814328671 0 0 0 0 129410922.46001434 -80176810.743052661 0 -80176810.743052661 -44339215.519107103 0 0 0 0 192729900.94561768 167060638.5808154 0 167060638.5808154 12456489.934977293 0 0 0 0 105142936.31797409 23812355.468972355 0 23812355.468972355 -88189303.263103485 0 0 0 0 111657591.60654449 63375042.753135689 0 63375042.753135689 -40573546.617758699 0 0 0 0 5361548.2034416199 -42599181.284428768 0 -42599181.284428768 12288707.281584304 0 0 0 0 301112.9766384773 95889.10031261947 0 95889.10031261947 -219959.96294419281 0 0 0 0 -37030946.466323853 -18569567.145754188 0 -18569567.145754188 17176786.767355859 0 0 0 0 22086704.441238403 41780324.267068177 0 41780324.267068177 24753934.760706499 0 0 0 0 105517294.39077759 21582162.333695173 0 21582162.333695173 1683874.279332757 0 0 0 0 38300691.057603836 73162322.202898562 0 73162322.202898562 52549458.998453736 0 0 0 0 758631.75009128079 466511.51272337418 0 466511.51272337418 -407655.35467225069 0 0 0 0 -17568372.418762207 20021776.045045972 0 20021776.045045972 43883210.294370577 0 0 0 0 -13660595.880283356 17435334.010117531 0 17435334.010117531 23480725.727698088 0 0 0 0 1675236.9658712484 1119076.2230553618 0 1119076.2230553618 -558060.79223620263 0 0 0 0 -7838029.7284393311 -55186507.260573268 0 -55186507.260573268 27386765.179756641 0 0 0 0 -14521024.197337866 9856988.3720681835 0 9856988.3720681835 10543000.761466384 0 0 0 0 10280400.699172974 18241926.631091356 0 18241926.631091356 4950213.4304804802 0 0 0 0 -15278237.990529776 -1378650.3320801966 0 -1378650.3320801966 5228665.3817081451 0 0 0 0 -12665558.191467285 -19659577.170135021 0 -19659577.170135021 -27680976.115599632 0 0 0 0 570609.57847910374 75129.642834794708 0 75129.642834794708 -514962.74534043239 0 0 0 0 111613615.63856506 -2072844.1254091859 0 -2072844.1254091859 -9058641.9871250391 0 0 0 0 71138580.312728882 35849819.920023203 0 35849819.920023203 1867234.9565645615 0 0 0 0 16825504.589775085 12428917.259700775 0 12428917.259700775 -368949.62209489942 0 0 0 0 18342369.412612915 7751209.9274351597 0 7751209.9274351597 13952926.649829745 0 0 0 0 18348426.899055481 18573020.398377955 0 18573020.398377955 18988424.72144556 0 0 0 0 15421119.544380188 11723353.528860211 0 11723353.528860211 3197967.7228369713 0 0 0 0 41446492.227264404 16932485.5236094 0 16932485.5236094 4389827.5995036066 0 0 0 0 58085728.594573975 12685341.10533917 0 12685341.10533917 6602007.0083233118 0 0 0 0 64671953.781669617 -3293759.4519481957 0 -3293759.4519481957 5351456.8471770287 0 0 0 0 76460755.608566284 3669685.5638863444 0 3669685.5638863444 -1899560.4490487576 0 0 0 0 108048147.18280029 -27097726.693624496 0 -27097726.693624496 12010253.002932608 0 0 0 0 34384419.794692993 -5684566.2492461205 0 -5684566.2492461205 80561111.340043068 0 0 0 0 68077729.823364258 96246648.186383963 0 96246648.186383963 17690686.076865435 0 0 0 0 30880413.014465332 -87021090.816769361 0 -87021090.816769361 121270302.22267628 0 0 0 0 81380.156335905194 -404633.99672785902 0 -404633.99672785902 3837.4601587849884 0 0 0 0 91206538.520744324 37172778.231399298 0 37172778.231399298 3730792.3459701538 0 0 0 0 -1403607.214193657 -1619593.7152711134 0 -1619593.7152711134 300494.55463128386 0 0 0 0 17076440.466400146 -14641591.071993053 0 -14641591.071993053 2327200.6204247475 0 0 0 0 863789.38609313965 -253018.68562865257 0 -253018.68562865257 -172352.51960431784 0 0 0 0 1801566.3350563049 569153.41431641579 0 569153.41431641579 -7849358.7523155212 0 0 0 0 1527525.880568536 -561287.63583594002 0 -561287.63583594002 883026.70949711511 0 0 0 0 26613940.20753479 4912227.7343286872 0 4912227.7343286872 13292157.626582861 0 0 0 0 395075.62924213894 -448669.38958869502 0 -448669.38958869502 624801.87484456098 0 0 0 0 -12338265.329177856 9641119.7248430252 0 9641119.7248430252 -8457762.4962921143 0 0 0 0 427799.22594187036 -561227.87628111592 0 -561227.87628111592 79368.749118749023 0 0 0 0 -13924816.976570129 42335657.095219135 0 42335657.095219135 -37774437.075549126 0 0 0 0 -18536773.515258789 38632629.137971401 0 38632629.137971401 -6129683.091802597 0 0 0 0 -35315362.384399414 12168517.440499306 0 12168517.440499306 -6225950.0268321037 0 0 0 0 -46540658.759536743 36130707.98486805 0 36130707.98486805 -6351659.9722622633 0 0 0 0 6458352.9851379395 1284605.4534487426 0 1284605.4534487426 7658090.0167146921 0 0 0 0 -63770450.845542908 19928667.807301044 0 19928667.807301044 6690589.3725624084 0 0 0 0 537880.11291315407 -194254.41868067719 0 -194254.41868067719 94995.440128959686 0 0 0 0 1104756.6572770518 -1626848.4818858458 0 -1626848.4818858458 1900435.8190261412 0 0 0 0 110237605.23758316 -9447428.0735835023 0 -9447428.0735835023 -22616836.989582837 0 0 0 0 -52014627.836456299 36464425.401567459 0 36464425.401567459 10452496.515892029 0 0 0 0 -29624840.507659912 66728869.835495949 0 66728869.835495949 23653524.272641182 0 0 0 0 -73649883.556379318 19023697.957856059 0 19023697.957856059 47010921.121528625 0 0 0 0 -64791241.627311707 -3917027.3557877541 0 -3917027.3557877541 -22210828.712080479 0 0 0 0 -163871985.74217796 -26075052.189243197 0 -26075052.189243197 53778179.019938469 0 0 0 0 1596029.4835436707 -2159159.1796374116 0 -2159159.1796374116 1839484.0618678001 0 0 0 0 -6646177.6128845215 -1406942.5767725855 0 -1406942.5767725855 12211084.627210706 0 0 0 0 -589164.70872360654 -48202.302112855949 0 -48202.302112855949 576022.39431475592 0 0 0 0 104729085.40726471 82137606.146996677 0 82137606.146996677 -3113379.4007991329 0 0 0 0 206168202.10665894 -12889763.467092991 0 -12889763.467092991 60339002.255015373 0 0 0 0 225807131.97042084 27840645.828361988 0 27840645.828361988 119259155.30845928 0 0 0 0 109086897.39012909 78872602.237175465 0 78872602.237175465 65492731.922255516 0 0 0 0 -25778679.624008179 47963403.398895741 0 47963403.398895741 40633840.595836163 0 0 0 0 -20759640.529602051 29993858.029243946 0 29993858.029243946 98355384.65136528 0 0 0 0 -108077128.82684708 -4202873.8288071156 0 -4202873.8288071156 82834349.627496719 0 0 0 0 73926599.117614746 45136700.883931637 0 45136700.883931637 30629721.906707764 0 0 0 0 4388778.1748962402 75663375.828564644 0 75663375.828564644 45326110.225578785 0 0 0 0 66971881.555351257 35242856.358471036 0 35242856.358471036 106741636.39527321 0 0 0 0 156940779.10147095 59709539.189255714 0 59709539.189255714 27298266.066518784 0 0 0 0 63610702.901395798 59368457.410496712 0 59368457.410496712 -25161064.220950127 0 0 0 0 74411009.081741333 13728873.017524719 0 13728873.017524719 3811333.2567157745 0 0 0 0 -21506984.054885864 4073311.7242202759 0 4073311.7242202759 -58987504.186892509 0 0 0 0 -5405557.6660461426 58907177.194396973 0 58907177.194396973 -9150556.1511781812 0 0 0 0 -4431331.0989837646 52327646.14556241 0 52327646.14556241 -9032997.1009969711 0 0 0 0 18619258.367233276 72142754.691110611 0 72142754.691110611 -71090033.571466446 0 0 0 0 1926627.9898685534 911927.25385513052 0 911927.25385513052 418205.80010266131 0 0 0 0 -19647252.13608551 11295888.813180923 0 11295888.813180923 -807413.38142681122 0 0 0 0 9722719.8011474609 8994849.1300730705 0 8994849.1300730705 -29216469.924448729 0 0 0 0 9731299.5587192327 1169177.244201201 0 1169177.244201201 -108146152.88195896 0 0 0 0 -86535.27539970912 236021.6180895362 0 236021.6180895362 484736.28992389492 0 0 0 0 1921828.6395861711 921790.1286379107 0 921790.1286379107 470048.55344661803 0 0 0 0 16589061.006736755 -323853.21918773651 0 -323853.21918773651 -25265140.837343216 0 0 0 0 78207341.267730713 4055754.9111144543 0 4055754.9111144543 -118829043.18731689 0 0 0 0 15847598.227508545 32091373.183049202 0 32091373.183049202 -105024073.69222379 0 0 0 0 44950496.727207184 -36588292.714629889 0 -36588292.714629889 -98472949.057115555 0 0 0 0 -26540238.175270081 -46861272.411953926 0 -46861272.411953926 -75296328.758348465 0 0 0 0 567230.97304236982 676358.21042276546 0 676358.21042276546 733667.32512792922 0 0 0 0 631642291.81530762 -78502112.58727932 0 -78502112.58727932 74278294.173454285 0 0 0 0 780834518.91311646 -15849320.660975456 0 -15849320.660975456 -60166293.392932177 0 0 0 0 7894.8149121291935 103360.42182647763 0 103360.42182647763 187324.31170784193 0 0 0 0 243916.46119195502 132532.26924869232 0 132532.26924869232 227760.14881079621 0 0 0 0 -113061008.5875473 -342157351.54433179 0 -342157351.54433179 49378314.441768646 0 0 0 0 103333889.07822227 -32848923.455150247 0 -32848923.455150247 -98707598.928627014 0 0 0 0 89500462.850440979 7196446.7404999733 0 7196446.7404999733 -18609530.982618332 0 0 0 0 1012937929.3875198 -10185386.613668442 0 -10185386.613668442 -1713820.6694507599 0 0 0 0 1465018557.5025177 -122203889.56406307 0 -122203889.56406307 4233588.4020390511 0 0 0 0 717227511.2709198 14355779.343233109 0 14355779.343233109 83729274.611984253 0 0 0 0 746422430.89387512 -16295881.697729111 0 -16295881.697729111 123704693.55056226 0 0 0 0 939200877.73852539 -132618476.15291119 0 -132618476.15291119 202462744.47303295 0 0 0 0 888349490.4752655 11817511.656893969 0 11817511.656893969 59616581.22561264 0 0 0 0 1070020213.9579315 -300400163.73554516 0 -300400163.73554516 508938324.57353544 0 0 0 0 1003858878.3596764 -129546331.19601941 0 -129546331.19601941 89114801.703015327 0 0 0 0 1543383096.1130676 -560348078.48276472 0 -560348078.48276472 485641830.18134069 0 0 0 0 1312751743.7582626 -233084235.62338972 0 -233084235.62338972 21407970.480138779 0 0 0 0 1115904007.5079117 -122073968.47385168 0 -122073968.47385168 -64452857.059112549 0 0 0 0 1203638864.4825058 -209576511.52757716 0 -209576511.52757716 21546114.024855614 0 0 0 0 1064670283.5825872 -219499538.81148869 0 -219499538.81148869 149701521.16951275 0 0 0 0 1146656497.7203903 -262273041.44802713 0 -262273041.44802713 76730587.624925137 0 0 0 0 1057948478.2737427 -124968612.70499182 0 -124968612.70499182 -53161984.389268398 0 0 0 0 1144534574.8946438 -159316813.39191926 0 -159316813.39191926 -116167395.50756264 0 0 0 0 1199958331.9398956 -68309177.852339745 0 -68309177.852339745 -154363129.6423378 0 0 0 0 943128116.80955505 -35171504.455087662 0 -35171504.455087662 -133244962.04970002 0 0 0 0 1248950697.9116745 -116263261.36893225 0 -116263261.36893225 -112616181.53440857 0 0 0 0 1140369342.6535568 -179488474.15482068 0 -179488474.15482068 -213847750.94285583 0 0 0 0 1044187323.4332581 1366762.2803163528 0 1366762.2803163528 -182904828.40701389 0 0 0 0 895848706.10736084 -58241908.972263813 0 -58241908.972263813 -160286405.24376965 0 0 0 0 712894862.19676399 -366230369.4489342 0 -366230369.4489342 -366835680.61717224 0 0 0 0 866715153.37903976 -22643805.454339266 0 -22643805.454339266 -198357189.85071945 0 0 0 0 1787476983.1566353 -185617755.85772157 0 -185617755.85772157 -370696552.14482152 0 0 0 0 1017104411.1565857 19577513.39341259 0 19577513.39341259 -80712436.549962997 0 0 0 0 1185503037.6460114 -114115041.19438457 0 -114115041.19438457 -278956668.25945473 0 0 0 0 946388330.27384567 -146134803.35919976 0 -146134803.35919976 -64136674.447207451 0 0 0 0 881998814.96217346 -156209400.55548 0 -156209400.55548 -10344434.754025459 0 0 0 0 1187246430.4815216 -207733033.08109665 0 -207733033.08109665 -83261967.719958305 0 0 0 0 563774388.85901642 -69876738.381493568 0 -69876738.381493568 72381467.175187588 0 0 0 0 555182412.74295044 37685967.004620075 0 37685967.004620075 38033647.682352543 0 0 0 0 899118536.69618988 -69997207.626585484 0 -69997207.626585484 -28374718.877560616 0 0 0 0 491248300.17676544 -23738331.117589474 0 -23738331.117589474 -1167560.1564445496 0 0 0 0 493532215.97571564 -140308978.0554598 0 -140308978.0554598 35942504.131973267 0 0 0 0 171362949.92256927 -98405727.133254707 0 -98405727.133254707 75932550.034929276 0 0 0 0 918791363.4143219 -280381595.8498683 0 -280381595.8498683 -20583240.887559414 0 0 0 0 1098125793.475708 -233862125.62080646 0 -233862125.62080646 53398662.077544212 0 0 0 0 890564445.90180969 -105002665.46294498 0 -105002665.46294498 -24772101.834368706 0 0 0 0 -38723995.28622818 129983186.24065173 0 129983186.24065173 -212692859.56349707 0 0 0 0 10989420.182914734 -2617199.4716529846 0 -2617199.4716529846 -5335684.2109417915 0 0 0 0 2440664.9726611488 -815809.15646232478 0 -815809.15646232478 -2804802.4143257448 0 0 0 0 3222840.421207428 -1537260.4717208147 0 -1537260.4717208147 -3649796.9057474136 0 0 0 0 5587975.0117340088 415566.1140127182 0 415566.1140127182 -1496706.2744135857 0 0 0 0 3407350.7301239129 778859.14088242268 0 778859.14088242268 -1852049.0061167192 0 0 0 0 2006298.3158998974 539851.08279031981 0 539851.08279031981 -1022001.3639450679 0 0 0 0 1436750.1223731888 312885.08166982606 0 312885.08166982606 -97585.311587234959 0 0 0 0 -915613.46804046631 5920457.7848861217 0 5920457.7848861217 -3873567.5731563568 0 0 0 0 10650626.773338318 4427376.0690956116 0 4427376.0690956116 -10000642.001582623 0 0 0 0 169461240.98263931 154654723.13558578 0 154654723.13558578 134538856.87489223 0 0 0 0 686148914.81445312 -16781756.676558495 0 -16781756.676558495 -92671955.327654839 0 0 0 0 909978606.79697418 572159510.14039445 0 572159510.14039445 360171849.21836853 0 0 0 0 5325055.7504577637 -4162920.0799779892 0 -4162920.0799779892 9469505.9464263916 0 0 0 0 612426.53679947741 -63613.486816695891 0 -63613.486816695891 -453122.58804091346 0 0 0 0 1839616366.688652 -1798705.0148649216 0 -1798705.0148649216 -148950962.40511227 0 0 0 0 1030949952.2457581 209844677.20506287 0 209844677.20506287 -151438385.40921658 0 0 0 0 1021687070.0452805 84661878.147314548 0 84661878.147314548 -168065976.9330883 0 0 0 0 1433839119.2854843 14620119.009539127 0 14620119.009539127 -168094246.52257442 0 0 0 0 975169666.2702713 79273791.632139206 0 79273791.632139206 -122822957.25856876 0 0 0 0 982777167.11088562 52743211.35982275 0 52743211.35982275 -115099406.24044895 0 0 0 0 976816475.75553131 -24739683.797263622 0 -24739683.797263622 -215823176.48701382 0 0 0 0 960526455.18650436 -35380137.711156368 0 -35380137.711156368 -36321323.319959641 0 0 0 0 1005024168.3354874 73785301.52065587 0 73785301.52065587 -99173073.531331062 0 0 0 0 379670.43464316707 23040.428241800517 0 23040.428241800517 109925.1557720236 0 0 0 0 1985133.4885864258 35844282.019711256 0 35844282.019711256 -5287004.3501367569 0 0 0 0 998093186.98493958 41932871.293092728 0 41932871.293092728 -109612991.69452858 0 0 0 0 1041052966.4573059 43958173.655621052 0 43958173.655621052 -124516146.74336576 0 0 0 0 1710362.1947190221 60131.108669087291 0 60131.108669087291 -1695268.4997838507 0 0 0 0 17875037.283151627 -11264056.927344799 0 -11264056.927344799 -1944162.9187421799 0 0 0 0 -280110013.58350372 441215150.63462174 0 441215150.63462174 -164227143.27661145 0 0 0 0 10802071.418655396 108107189.4569664 0 108107189.4569664 -265329570.19564027 0 0 0 0 141952667.68697357 44646288.729839265 0 44646288.729839265 -245379214.0282023 0 0 0 0 713686412.73979187 -260731593.1063323 0 -260731593.1063323 -38398917.598721921 0 0 0 0 318679851.43297577 -366757307.82158607 0 -366757307.82158607 188364475.84848738 0 0 0 0 465590226.18130493 -46788997.282735586 0 -46788997.282735586 78089817.426680565 0 0 0 0 220381788.5821228 35185479.244716883 0 35185479.244716883 545241181.54054451 0 0 0 0 199303728.93345785 334636606.66647178 0 334636606.66647178 6868848.3322052956 0 0 0 0 88676777.959831238 -180498472.47542763 0 -180498472.47542763 228675970.51492739 0 0 0 0 13849942.973991394 129391502.11990094 0 129391502.11990094 -172117689.54640961 0 0 0 0 -500519894.00575256 73885869.394804001 0 73885869.394804001 85399976.340287209 0 0 0 0 -117361552.86692047 -117943485.7621274 0 -117943485.7621274 86984682.043753624 0 0 0 0 229017116.4710331 -95971264.199247122 0 -95971264.199247122 -116645986.58994722 0 0 0 0 -101075954.10864305 157836501.98492771 0 157836501.98492771 -441584483.37638521 0 0 0 0 -188570039.47607422 -101367856.76099586 0 -101367856.76099586 -108194186.04395199 0 0 0 0 -544760537.79888916 719976084.6172179 0 719976084.6172179 -342635068.06475496 0 0 0 0 -661084782.80192947 537348413.06276691 0 537348413.06276691 -160663812.00973368 0 0 0 0 823750774.79492188 -97021311.110767603 0 -97021311.110767603 -50341375.797259331 0 0 0 0 824936438.772789 -65924334.930198431 0 -65924334.930198431 -298501.88578999043 0 0 0 0 1111612.4292574637 350138.11751916539 0 350138.11751916539 -715412.54536942637 0 0 0 0 1143541496.6109238 -403695396.06662512 0 -403695396.06662512 142833549.19357061 0 0 0 0 905268771.88162994 -171329137.07402515 0 -171329137.07402515 -39496021.421809196 0 0 0 0 1061951167.4183197 -135415648.04786396 0 -135415648.04786396 -174537022.8110106 0 0 0 0 1915682150.4454651 -626814823.92515016 0 -626814823.92515016 -30298975.63451004 0 0 0 0 358480.28641025908 133165.74525341857 0 133165.74525341857 -107879.67014855566 0 0 0 0 1428978876.9588852 283519218.37712502 0 283519218.37712502 13718330.286321163 0 0 0 0 739583585.56977081 275890201.86583853 0 275890201.86583853 -346467662.58745575 0 0 0 0 1110903246.9736786 75019724.131060243 0 75019724.131060243 -261924196.67056274 0 0 0 0 1068255101.4683294 277539597.72540081 0 277539597.72540081 73787414.869169235 0 0 0 0 1539338296.304306 393341130.70910418 0 393341130.70910418 -173474481.19882816 0 0 0 0 1270015691.2472839 8639940.2216818929 0 8639940.2216818929 -26236740.16979447 0 0 0 0 506716987.68586731 119067756.12592578 0 119067756.12592578 -7162256.1910774708 0 0 0 0 616830037.9412384 11922594.677156925 0 11922594.677156925 19841826.238986015 0 0 0 0 258545264.0056076 -93424956.304374635 0 -93424956.304374635 129446801.35351503 0 0 0 0 -38807713.085586548 95570602.839054823 0 95570602.839054823 10109679.725378752 0 0 0 0 240229521.32537842 -312073868.76886511 0 -312073868.76886511 -7562853.4856902361 0 0 0 0 318218818.57854462 -210242270.94492996 0 -210242270.94492996 -55884280.77166748 0 0 0 0 63314601.480751038 15340371.946661472 0 15340371.946661472 -158437606.69512486 0 0 0 0 387854079.04224396 -132754986.725968 0 -132754986.725968 10466871.152601957 0 0 0 0 363533966.87076187 -261859506.52138627 0 -261859506.52138627 22747539.186539173 0 0 0 0 418431725.11636353 -201111710.97679627 0 -201111710.97679627 77720159.604182959 0 0 0 0 429347443.46923828 -215416463.29186845 0 -215416463.29186845 -1989559.0109881163 0 0 0 0 482940197.15330505 -201942230.73209572 0 -201942230.73209572 -28035954.980818033 0 0 0 0 477508084.2290802 -243451264.17402887 0 -243451264.17402887 -56231558.471777678 0 0 0 0 509170453.39019012 -247625439.65789998 0 -247625439.65789998 -95549792.234291553 0 0 0 0 455835289.67566681 -276041439.27031577 0 -276041439.27031577 -61825540.006785393 0 0 0 0 380033798.52819824 -219679669.33451998 0 -219679669.33451998 -46772047.483147621 0 0 0 0 478439467.76095581 -347047876.12772751 0 -347047876.12772751 -14493871.465704441 0 0 0 0 719785314.62397766 -223698000.15129483 0 -223698000.15129483 -93301815.514622688 0 0 0 0 1061926889.8934002 279334252.93071294 0 279334252.93071294 144602214.96480083 0 0 0 0 1066673773.0171432 -39754141.282931328 0 -39754141.282931328 138285126.38517982 0 0 0 0 946238702.82078934 165717017.60712004 0 165717017.60712004 -7005136.5211448669 0 0 0 0 656142413.91716003 -45287960.436380386 0 -45287960.436380386 70354226.317112029 0 0 0 0 458436676.10653687 185558531.31462193 0 185558531.31462193 29966234.657282829 0 0 0 0 589132638.19973755 184427524.83506727 0 184427524.83506727 91281511.11052829 0 0 0 0 535255234.82964325 -6347516.1489634514 0 -6347516.1489634514 41927255.016823769 0 0 0 0 948001559.93408203 119619391.33987093 0 119619391.33987093 8959630.2758750916 0 0 0 0 1542510824.2173347 111811701.71493936 0 111811701.71493936 -162139524.66400623 0 0 0 0 933039167.97301483 -24147696.925467968 0 -24147696.925467968 20231376.369235992 0 0 0 0 450427.29841819638 -328702.92596153729 0 -328702.92596153729 -279247.03227400524 0 0 0 0 925638237.52825928 197768637.24231982 0 197768637.24231982 146909853.9013648 0 0 0 0 472803.29408425745 -409784.2168001309 0 -409784.2168001309 -118348.53884409694 0 0 0 0 185351079.06263733 -312093812.68140411 0 -312093812.68140411 -12760678.746738434 0 0 0 0 309565622.92508698 89119699.095172882 0 89119699.095172882 37991598.745187759 0 0 0 0 842862808.13985825 263602343.72899914 0 263602343.72899914 -123807287.1270504 0 0 0 0 717756721.03871155 -154789829.5687542 0 -154789829.5687542 -219795206.51742482 0 0 0 0 889482871.26555634 65577730.833936214 0 65577730.833936214 -215821421.88484955 0 0 0 0 1222585959.4717178 -72551725.852101922 0 -72551725.852101922 -219357839.07680511 0 0 0 0 923443627.84700394 8249080.3038064837 0 8249080.3038064837 -21632565.926300049 0 0 0 0 1163176917.1632614 -65996851.61750412 0 -65996851.61750412 53206353.891957939 0 0 0 0 906119.12652911339 -794247.49259798415 0 -794247.49259798415 -235393.48081250256 0 0 0 0 923210238.95554352 12925342.920061827 0 12925342.920061827 18744223.783983707 0 0 0 0 942678879.91886902 25493979.773272812 0 25493979.773272812 -30516766.667731524 0 0 0 0 943637145.49550629 19661702.782631099 0 19661702.782631099 -62663183.681126356 0 0 0 0 954707.22939051199 -768590.61456029862 0 -768590.61456029862 -576488.66342611855 0 0 0 0 350246836.58604431 -108493091.10048926 0 -108493091.10048926 133562714.41706789 0 0 0 0 497232.7784631215 -417417.25032399595 0 -417417.25032399595 -139729.79317643307 0 0 0 0 585236107.08038712 200460880.59516817 0 200460880.59516817 88907744.207532644 0 0 0 0 1027159289.0766296 -50394111.183641195 0 -50394111.183641195 11061132.481042236 0 0 0 0 998467381.91698456 255108671.27990973 0 255108671.27990973 78662613.264238119 0 0 0 0 671979016.61801147 -23368646.321852684 0 -23368646.321852684 60396996.773065209 0 0 0 0 1392087402.6415653 109560147.4557023 0 109560147.4557023 -134719065.2489357 0 0 0 0 672633735.35028839 -20245978.720018625 0 -20245978.720018625 -107320079.27374208 0 0 0 0 220071118.69739723 234425432.79282236 0 234425432.79282236 -122791922.92611742 0 0 0 0 484282444.08135223 -144977556.98214769 0 -144977556.98214769 -44170676.052605152 0 0 0 0 2467456.4853091054 -1846236.9681129111 0 -1846236.9681129111 783703.42226011725 0 0 0 0 57360105.636581421 -409777223.65597296 0 -409777223.65597296 -104167555.47826385 0 0 0 0 108283788.67040253 42196108.1835742 0 42196108.1835742 -380454577.47991228 0 0 0 0 -207714458.81700134 125683704.90914392 0 125683704.90914392 -55458987.358861923 0 0 0 0 25208802.798461914 -35285082.561826944 0 -35285082.561826944 48868691.719749451 0 0 0 0 1069724.7468509972 -706484.14157018065 0 -706484.14157018065 277049.73592153064 0 0 0 0 -221829942.80341637 -414398451.98900431 0 -414398451.98900431 90788918.541602373 0 0 0 0 1962400945.1271973 671943077.36612797 0 671943077.36612797 -306052246.98168361 0 0 0 0 502026945.11728287 133573913.50084606 0 133573913.50084606 94258667.200318813 0 0 0 0 1071541151.9998856 218417547.23227715 0 218417547.23227715 -2221158.6778495908 0 0 0 0 1057896.3143620444 -877639.63848746754 0 -877639.63848746754 -110722.39584279968 0 0 0 0 1357519228.2376823 120477650.27580786 0 120477650.27580786 -160909732.07099414 0 0 0 0 1120858375.1869431 117000491.20736495 0 117000491.20736495 -131383655.1766521 0 0 0 0 808466809.83664322 -151624696.26313806 0 -151624696.26313806 -87384360.914530635 0 0 0 0 1062832559.9026375 81003012.739947334 0 81003012.739947334 29536579.090988696 0 0 0 0 668098102.19865417 -141768462.95648804 0 -141768462.95648804 1081729648.6641016 0 0 0 0 1170259397.5007477 59789859.664900839 0 59789859.664900839 -16514736.464511931 0 0 0 0 1628374526.5884476 -268097585.53687871 0 -268097585.53687871 -304865028.0458293 0 0 0 0 822082.07275324501 -537910.12318875641 0 -537910.12318875641 488487.00145518291 0 0 0 0 1139003258.4434052 71794739.104636788 0 71794739.104636788 54697169.116878152 0 0 0 0 1139941542.0808887 -27172047.007135887 0 -27172047.007135887 7557906.4739004374 0 0 0 0 1465693133.2538376 75930249.631560743 0 75930249.631560743 -33047078.838898867 0 0 0 0 1068146068.1477737 16390671.100738436 0 16390671.100738436 85312968.063020825 0 0 0 0 353486.88476689206 -111348.39567372203 0 -111348.39567372203 298739.41906626208 0 0 0 0 716518172.89620972 58195462.645070672 0 58195462.645070672 -226007185.1314199 0 0 0 0 698546015.89473343 82662728.674823418 0 82662728.674823418 -93406554.751120508 0 0 0 0 637570114.01617432 -40928767.846434474 0 -40928767.846434474 -59551219.41529429 0 0 0 0 345476903.55055237 -109518281.14637637 0 -109518281.14637637 -17180741.032200456 0 0 0 0 617527985.16244507 -83631959.313596606 0 -83631959.313596606 -19348012.351338297 0 0 0 0 337135654.86452484 -94121224.648628831 0 -94121224.648628831 65239006.742474556 0 0 0 0 141159260.59025574 -29425110.762109518 0 -29425110.762109518 67682718.083029553 0 0 0 0 190134221.09402466 -45528415.865032136 0 -45528415.865032136 39948970.57411623 0 0 0 0 79490702.06886673 -276097241.21672827 0 -276097241.21672827 104874649.1157465 0 0 0 0 856192353.17533875 -90593858.228941441 0 -90593858.228941441 -340805979.39605355 0 0 0 0 575506806.53683472 -550230364.27290297 0 -550230364.27290297 112866889.54118395 0 0 0 0 787869924.17910767 -330663835.76308393 0 -330663835.76308393 36762985.808113337 0 0 0 0 401607095.62646484 -196285122.76601472 0 -196285122.76601472 76983468.311722204 0 0 0 0 379574747.81492615 -146951113.58091828 0 -146951113.58091828 97999111.882808506 0 0 0 0 415705854.00914001 -160932100.22500074 0 -160932100.22500074 52506951.63621974 0 0 0 0 428364705.18171692 -175798860.39379454 0 -175798860.39379454 31906687.355034828 0 0 0 0 437035326.1048584 -166031709.43341112 0 -166031709.43341112 61938473.428358972 0 0 0 0 429880579.06588745 -188962998.02449334 0 -188962998.02449334 57001725.142597675 0 0 0 0 411971960.55634308 -162884562.06014365 0 -162884562.06014365 89926704.105456352 0 0 0 0 413551988.59646606 -167301670.43082443 0 -167301670.43082443 101235630.86005127 0 0 0 0 473359995.50460815 -190594998.9568454 0 -190594998.9568454 75351819.799476504 0 0 0 0 453543761.39516354 -106861003.54480673 0 -106861003.54480673 125360263.46011341 0 0 0 0 631050242.97153473 -78753824.040478081 0 -78753824.040478081 91522877.483670354 0 0 0 0 496629706.90821075 -127354131.74601777 0 -127354131.74601777 115275906.84545779 0 0 0 0 501400476.18473816 -145722454.63855666 0 -145722454.63855666 84725967.426384881 0 0 0 0 668074986.05064392 -124287795.76242343 0 -124287795.76242343 50432243.905897602 0 0 0 0 766040447.73506165 -67609316.798577338 0 -67609316.798577338 59901695.54337763 0 0 0 0 708432703.53251648 -34952944.674757943 0 -34952944.674757943 91472852.628620982 0 0 0 0 657181123.30000305 -107752398.44531053 0 -107752398.44531053 100742192.68143912 0 0 0 0 673689328.95285034 -43350344.771508038 0 -43350344.771508038 89784534.192784101 0 0 0 0 693116873.2206459 -87552168.28144899 0 -87552168.28144899 138196716.94745618 0 0 0 0 770213192.13206482 8015808.7423108667 0 8015808.7423108667 145388479.50265068 0 0 0 0 975409981.47879028 15056092.537586242 0 15056092.537586242 57001596.621294297 0 0 0 0 994257792.78926468 -7996327.8250943338 0 -7996327.8250943338 26656800.485889107 0 0 0 0 958267152.19639969 -94873612.2436288 0 -94873612.2436288 46579058.772362471 0 0 0 0 1012821105.9705276 39701959.777258813 0 39701959.777258813 31528048.147669774 0 0 0 0 1056729349.088623 -38670002.845758706 0 -38670002.845758706 10014007.431013048 0 0 0 0 911270678.96598911 -56153005.791772529 0 -56153005.791772529 74130582.84936142 0 0 0 0 913188744.10758972 -76993245.550940931 0 -76993245.550940931 1387272.1780197024 0 0 0 0 721958497.13104248 -126994406.0667877 0 -126994406.0667877 77317796.638254166 0 0 0 0 877861565.92805481 -25066775.942475535 0 -25066775.942475535 29954873.167358056 0 0 0 0 712901238.95431519 -101913196.51979774 0 -101913196.51979774 28074163.381293952 0 0 0 0 551815258.17684937 -118397828.06433284 0 -118397828.06433284 87895275.80470711 0 0 0 0 760676316.54914856 -156070066.76554567 0 -156070066.76554567 -10350231.4600216 0 0 0 0 522830205.2193222 -215903628.43973765 0 -215903628.43973765 67369992.895856798 0 0 0 0 562038187.63317108 -210115660.6326251 0 -210115660.6326251 51300719.116379239 0 0 0 0 555338.56643659342 80552.124547448009 0 80552.124547448009 135397.05658849175 0 0 0 0 434195012.91893768 -93893449.848023251 0 -93893449.848023251 92518769.623347983 0 0 0 0 542558131.17154694 -128015406.55798025 0 -128015406.55798025 23125709.088178992 0 0 0 0 551207592.69591546 -130100798.80453157 0 -130100798.80453157 14548403.331397958 0 0 0 0 4153752.9205245972 -360141.54730995919 0 -360141.54730995919 499573.40060363663 0 0 0 0 2560.699795329012 -248.212581763044 0 -248.212581763044 532.39350435528695 0 0 0 0 974260.13330003805 57443.612489055842 0 57443.612489055842 -32589.571994228936 0 0 0 0 3956363.4302520752 -1500093.8125570633 0 -1500093.8125570633 72493.128186782124 0 0 0 0 556475303.72590637 -187389768.00455335 0 -187389768.00455335 71516278.880687624 0 0 0 0 1330056.6657352345 49432.683114504442 0 49432.683114504442 94793.276431773033 0 0 0 0 617287.78902768251 183854.71915987507 0 183854.71915987507 154304.85595817986 0 0 0 0 697258569.50974274 -101494516.72591943 0 -101494516.72591943 81243610.529813856 0 0 0 0 560519236.74153519 -201226653.56999153 0 -201226653.56999153 105172285.33664048 0 0 0 0 761073580.60662079 -191712809.12776473 0 -191712809.12776473 75004938.687041491 0 0 0 0 637120764.28551483 -243228229.40127289 0 -243228229.40127289 3835582.1299878955 0 0 0 0 1116468559.619873 -219673809.1897696 0 -219673809.1897696 48738329.370825335 0 0 0 0 1098142065.2770615 10544803.715691322 0 10544803.715691322 41961981.681379452 0 0 0 0 979864913.4659729 -89654278.642922282 0 -89654278.642922282 29845917.056216061 0 0 0 0 762443454.29631805 -109640344.26277713 0 -109640344.26277713 64164392.739878893 0 0 0 0 961101557.23392868 -28791362.041547596 0 -28791362.041547596 65279205.855178714 0 0 0 0 1076797460.7980499 -1112314.4887921512 0 -1112314.4887921512 42555970.681586653 0 0 0 0 1085240238.2181473 -5162062.1726591364 0 -5162062.1726591364 23938466.059434384 0 0 0 0 1082701273.35884 -2758397.1458494738 0 -2758397.1458494738 91255601.784399956 0 0 0 0 1134838629.6811285 13485908.687921416 0 13485908.687921416 15655464.458276164 0 0 0 0 1152377016.2218552 -46440298.557990812 0 -46440298.557990812 75494359.555384621 0 0 0 0 1125705858.5817127 -64610264.609398387 0 -64610264.609398387 50482585.868963927 0 0 0 0 1146224377.7749557 -24734358.015372436 0 -24734358.015372436 114366967.23343794 0 0 0 0 1301102388.6944427 -130298377.08983713 0 -130298377.08983713 109302.02425343871 0 0 0 0 1266253440.562973 7535534.0101919882 0 7535534.0101919882 65205965.068885483 0 0 0 0 1399561820.8258896 -173704340.25468627 0 -173704340.25468627 -1183867.0102336705 0 0 0 0 337762.62715436611 96372.121964778751 0 96372.121964778751 60011.93519598509 0 0 0 0 606235025.93769073 -220335533.30213195 0 -220335533.30213195 189824035.25872195 0 0 0 0 3931528.8218078613 -102429.65295407301 0 -102429.65295407301 2418.5204630744083 0 0 0 0 1190634079.4345551 -23912950.435795024 0 -23912950.435795024 -96723.688053194666 0 0 0 0 780103.84751911461 -37493.848895223811 0 -37493.848895223811 -47307.033067985714 0 0 0 0 3119.2691473308951 -333.30527589842677 0 -333.30527589842677 215.92333342723316 0 0 0 0 3351125.6869735718 -583190.78104857029 0 -583190.78104857029 108844.43475566374 0 0 0 0 4598701.6551246643 -1009568.5680543222 0 -1009568.5680543222 91579.293540796265 0 0 0 0 4536689.9592971802 -1071299.6742140907 0 -1071299.6742140907 82694.68497767509 0 0 0 0 834215348.15726471 -153057753.28562438 0 -153057753.28562438 26289210.785961799 0 0 0 0 398319630.51739502 -38664541.581328779 0 -38664541.581328779 73359656.499818087 0 0 0 0 597444329.52615356 -10435643.781275045 0 -10435643.781275045 -6934735.4035230875 0 0 0 0 365708674.79360962 -30658457.798136204 0 -30658457.798136204 12757777.685465515 0 0 0 0 586309465.96096563 -79513269.26583001 0 -79513269.26583001 110593522.89669842 0 0 0 0 628666699.00885773 65779894.459192872 0 65779894.459192872 33400178.327714711 0 0 0 0 1317281071.7992973 -80920860.400415584 0 -80920860.400415584 17088271.888211399 0 0 0 0 1125483402.762661 -73767832.021656409 0 -73767832.021656409 97145034.187812597 0 0 0 0 1031849803.4320297 33868674.605181597 0 33868674.605181597 65054079.262576751 0 0 0 0 1049632731.2567196 13825580.612045582 0 13825580.612045582 -11760053.734073725 0 0 0 0 1032063337.4327507 15643781.737166746 0 15643781.737166746 18898.02374981283 0 0 0 0 912500016.31954575 -100322264.25390342 0 -100322264.25390342 726690.48345803097 0 0 0 0 768025610.0590477 15931437.220264349 0 15931437.220264349 -40130.450581049809 0 0 0 0 591441556.0557518 16346839.595369566 0 16346839.595369566 17426537.180078983 0 0 0 0 429839873.37753296 35658284.206861548 0 35658284.206861548 73264.157534053869 0 0 0 0 612725327.50014877 -107432081.98537798 0 -107432081.98537798 30905033.772285216 0 0 0 0 349453144.2221756 -54818054.589821666 0 -54818054.589821666 7173876.0221318454 0 0 0 0 197581924.60172653 40221489.721215032 0 40221489.721215032 5779.8992048135842 0 0 0 0 203820509.98232269 9047288.1407443136 0 9047288.1407443136 -26501808.122556329 0 0 0 0 205857918.04088593 25014409.705301881 0 25014409.705301881 47759655.244189508 0 0 0 0 33699542.159217834 40209204.724039644 0 40209204.724039644 18839.850718758225 0 0 0 0 127870343.70938492 -14515902.267019711 0 -14515902.267019711 -32955.621254265308 0 0 0 0 97827432.96131897 47462269.20877324 0 47462269.20877324 7137224.5388266519 0 0 0 0 28671941.42408371 -7646115.6101338789 0 -7646115.6101338789 -18365337.067531794 0 0 0 0 76638.402926828712 68571.089863476343 0 68571.089863476343 16554.936032331228 0 0 0 0 94059863.997154236 54074001.649470955 0 54074001.649470955 -38586086.164920285 0 0 0 0 103256840.61067581 31584682.115740411 0 31584682.115740411 -6015186.3550412059 0 0 0 0 -37030112.63911438 4220528.3543614745 0 4220528.3543614745 71377697.244980812 0 0 0 0 117011697.12808228 23262314.730629832 0 23262314.730629832 -38506796.993607283 0 0 0 0 9044129.5319747925 67156780.481415123 0 67156780.481415123 87568651.382784963 0 0 0 0 -74505612.012565613 99475865.125006974 0 99475865.125006974 83731570.270603299 0 0 0 0 394053076.59473419 -1238876.8517675996 0 -1238876.8517675996 -34718133.127993345 0 0 0 0 -16122.25780492276 87837.846803739667 0 87837.846803739667 56733.210614861455 0 0 0 0 234281357.00696182 5288866.0993262827 0 5288866.0993262827 45026588.068175316 0 0 0 0 215180999.34419632 53239920.634269178 0 53239920.634269178 10643507.044043064 0 0 0 0 374040294.97870636 -8751348.9210992903 0 -8751348.9210992903 17072551.848143816 0 0 0 0 247267314.75134277 36516243.231463313 0 36516243.231463313 59468811.116215467 0 0 0 0 245952483.41618347 2020446.9280534983 0 2020446.9280534983 42684181.79021132 0 0 0 0 255648881.31434631 27066373.735399008 0 27066373.735399008 15860298.760814905 0 0 0 0 201346970.07849121 33933084.361083984 0 33933084.361083984 48218029.813462019 0 0 0 0 189677720.76574707 64070042.134516001 0 64070042.134516001 14138964.741497278 0 0 0 0 211809522.6054306 82916153.990731955 0 82916153.990731955 -593855.81423783302 0 0 0 0 209766392.07697296 20944190.754057646 0 20944190.754057646 -29331351.752042055 0 0 0 0 198884588.36969519 69038886.944062769 0 69038886.944062769 -11928104.301124573 0 0 0 0 161680484.7404623 41189019.468380377 0 41189019.468380377 2804944.8442840576 0 0 0 0 160210285.97859192 51296013.353449225 0 51296013.353449225 23488931.717732191 0 0 0 0 247336853.24366879 58267838.355962522 0 58267838.355962522 -10921519.239748001 0 0 0 0 30599019.909476757 -11615496.593695998 0 -11615496.593695998 23109112.894275904 0 0 0 0 6637.0765650905669 325347.46093244664 0 325347.46093244664 -4420.8972052569152 0 0 0 0 37723801.272064209 82396240.322234988 0 82396240.322234988 45070891.446862936 0 0 0 0 1585055.4062538147 24693287.058194324 0 24693287.058194324 15490679.698319674 0 0 0 0 3087034.4878768921 -19526275.533145964 0 -19526275.533145964 -15961044.773381919 0 0 0 0 79362838.014556885 4965243.0827441216 0 4965243.0827441216 -8706309.2264664173 0 0 0 0 47367991.112258911 35160791.41950345 0 35160791.41950345 -5408410.4631516933 0 0 0 0 77079328.737930298 31373291.83876729 0 31373291.83876729 9319523.8552699089 0 0 0 0 101810878.24784851 -22640569.681983113 0 -22640569.681983113 -22017210.077710629 0 0 0 0 361575612.81288147 -42171207.509041071 0 -42171207.509041071 -21176886.350667953 0 0 0 0 201099.08446749486 136168.46128704585 0 136168.46128704585 -27750.46022415359 0 0 0 0 -1438376.1044750214 -53502097.992500454 0 -53502097.992500454 -204671016.18469906 0 0 0 0 -18713.18736053817 174704.7422617916 0 174704.7422617916 -15609.81475416047 0 0 0 0 504403.00453560799 371520.08441274706 0 371520.08441274706 -87942.487343501532 0 0 0 0 7414414.8645782471 23887010.593322039 0 23887010.593322039 -117240874.6256156 0 0 0 0 44976102.951217651 84016866.675827503 0 84016866.675827503 -148790536.3521421 0 0 0 0 118485096.5570755 117374209.19017124 0 117374209.19017124 -211526473.27117825 0 0 0 0 34346893.219760895 99203281.148637176 0 99203281.148637176 -2312939.1149673462 0 0 0 0 33389187.791984558 207794610.1143024 0 207794610.1143024 58359538.23568821 0 0 0 0 175362978.08129883 69132780.41232872 0 69132780.41232872 -2265791.8375253677 0 0 0 0 194779311.79373169 77667922.92894578 0 77667922.92894578 -212969.63335704803 0 0 0 0 -38336631.636142731 199989715.96298075 0 199989715.96298075 90832630.491969109 0 0 0 0 -63571544.812416077 139462198.82831883 0 139462198.82831883 41102526.632362366 0 0 0 0 113800125.10116577 258240835.94595098 0 258240835.94595098 23185145.535084724 0 0 0 0 27310729.441467285 203417197.08696651 0 203417197.08696651 58886420.477390051 0 0 0 0 54508283.511444092 206721670.03911877 0 206721670.03911877 -10655989.318328857 0 0 0 0 289230.64395011961 -16223.986062561162 0 -16223.986062561162 -37752.873341002967 0 0 0 0 43881450.26769352 -121554108.13763136 0 -121554108.13763136 114609368.57163715 0 0 0 0 140801394.52855682 -118362040.78302562 0 -118362040.78302562 -140904485.88114405 0 0 0 0 130976472.18135071 -46777191.311684608 0 -46777191.311684608 -38963594.462282419 0 0 0 0 174987092.40180969 62329253.035766125 0 62329253.035766125 -107332187.10961747 0 0 0 0 81764752.049711227 116057909.05003911 0 116057909.05003911 -42362160.722386837 0 0 0 0 153065725.11384583 52397365.902591228 0 52397365.902591228 10541208.971957445 0 0 0 0 182452194.37817383 102295382.64033443 0 102295382.64033443 -12398810.988810539 0 0 0 0 272477930.65196228 153581652.82293868 0 153581652.82293868 57239428.265375197 0 0 0 0 167982821.05728149 53038916.618010759 0 53038916.618010759 -28141315.367943764 0 0 0 0 34638998.03383255 15477386.990883172 0 15477386.990883172 -41482359.781649113 0 0 0 0 30974308.374095917 385212.9853079915 0 385212.9853079915 -52778138.700838089 0 0 0 0 46200546.160293579 13691914.566924334 0 13691914.566924334 -42148586.109819889 0 0 0 0 15524271.846557617 17434145.830221415 0 17434145.830221415 -33754734.000451088 0 0 0 0 15647980.162536621 29138772.448058844 0 29138772.448058844 -21015788.263513088 0 0 0 0 -2506189.1028251648 27551329.17167367 0 27551329.17167367 -4544596.0557813644 0 0 0 0 -2612767.0947618484 26447045.411281943 0 26447045.411281943 -8404635.7182407379 0 0 0 0 1357188.5037097931 22490619.809360653 0 22490619.809360653 -23882099.608696938 0 0 0 0 2366657.8832092285 14423067.121590137 0 14423067.121590137 -33171011.376166821 0 0 0 0 3491703.6823564023 510691.11704745074 0 510691.11704745074 -169464.09906201711 0 0 0 0 6252241.8098831177 18762838.158210993 0 18762838.158210993 -54076584.054921627 0 0 0 0 -272003.04504776001 20388763.652135611 0 20388763.652135611 -38505116.64705658 0 0 0 0 26390061.977851868 -1619684.3124427795 0 -1619684.3124427795 -68607645.311056614 0 0 0 0 511782.17094345018 917779.97420206992 0 917779.97420206992 -47391.508604700517 0 0 0 0 2954093.994430542 9359863.4524459839 0 9359863.4524459839 -4719722.3152441978 0 0 0 0 2692343.4363937378 -522044.06927227974 0 -522044.06927227974 -48676807.449147701 0 0 0 0 -16478320.521560669 -13389797.937346935 0 -13389797.937346935 -5571036.3677554131 0 0 0 0 14996537.551086426 1163092.979159832 0 1163092.979159832 -51860271.738241196 0 0 0 0 12749107.338592529 -17772123.858868122 0 -17772123.858868122 -24672105.328076363 0 0 0 0 4156483.7375488281 -142313633.77486038 0 -142313633.77486038 25924361.465481281 0 0 0 0 157188475.60345459 -100920340.04681778 0 -100920340.04681778 37851211.271598518 0 0 0 0 -12822494.445114136 -62445641.490148067 0 -62445641.490148067 78500841.779611588 0 0 0 0 129685.47007796168 84957.299193746177 0 84957.299193746177 20193.880844202329 0 0 0 0 46238634.066488266 -172429443.65660512 0 -172429443.65660512 -56299127.385433197 0 0 0 0 -17409720.758705139 38894527.254158616 0 38894527.254158616 -19719395.539397717 0 0 0 0 84213698.763381958 -110163142.15202451 0 -110163142.15202451 -178415270.03221607 0 0 0 0 55657603.330505371 41985831.492527008 0 41985831.492527008 -180115287.96042913 0 0 0 0 38392937.24684906 -21689158.438610077 0 -21689158.438610077 -77781994.152347565 0 0 0 0 46252660.215240479 -7266503.9579787254 0 -7266503.9579787254 -52565926.637387365 0 0 0 0 51009476.710372925 -45436318.417779922 0 -45436318.417779922 -48201873.120387554 0 0 0 0 50490803.603805542 -48522723.524745464 0 -48522723.524745464 -63603545.225378036 0 0 0 0 60180700.122283936 4690186.2683291435 0 4690186.2683291435 -60439361.388951302 0 0 0 0 59250353.10395813 -961369.11102581024 0 -961369.11102581024 -73042857.797251105 0 0 0 0 53271808.12651062 23710623.932182312 0 23710623.932182312 -31627366.014228344 0 0 0 0 122653717.76782227 32707569.188672423 0 32707569.188672423 -33893170.051717043 0 0 0 0 74459884.94744873 10352120.184355378 0 10352120.184355378 -63203724.455841064 0 0 0 0 29394576.072372437 -11518683.945035815 0 -11518683.945035815 -6280337.6990745366 0 0 0 0 15829670.299591064 19606120.666823268 0 19606120.666823268 -12209978.363016009 0 0 0 0 417569.76871567219 398002.33501221519 0 398002.33501221519 51355.833097851719 0 0 0 0 -32099779.038543701 16248898.914388418 0 16248898.914388418 25705020.94444716 0 0 0 0 43322954.334136963 -3158835.9578224421 0 -3158835.9578224421 6473569.1186676025 0 0 0 0 203632148.4491272 4668141.355469346 0 4668141.355469346 6580058.8978266977 0 0 0 0 174656.74695375934 131313.81149061769 0 131313.81149061769 4254.6401324011968 0 0 0 0 93345053.769195557 115860708.67065382 0 115860708.67065382 105868021.13427436 0 0 0 0 41354070.269241333 66315580.476937413 0 66315580.476937413 25963581.848807335 0 0 0 0 -13463024.881973267 33390982.187067211 0 33390982.187067211 109984194.93172872 0 0 0 0 40187672.030227661 49696265.571374416 0 49696265.571374416 27787460.854608059 0 0 0 0 17218252.094741821 41811639.791678429 0 41811639.791678429 1702630.021109879 0 0 0 0 13869384.959442139 39816265.941412687 0 39816265.941412687 1416516.6187586784 0 0 0 0 51328099.590343952 39314273.322744347 0 39314273.322744347 -22439035.993937016 0 0 0 0 50109179.206634521 15021467.322949171 0 15021467.322949171 -43269461.012653351 0 0 0 0 13440420.302688599 38521617.136709452 0 38521617.136709452 -1781225.5000424385 0 0 0 0 7554228.7037963867 53815588.76744628 0 53815588.76744628 24278354.236042738 0 0 0 0 -14168879.074020386 38184958.177708864 0 38184958.177708864 13340074.919308424 0 0 0 0 -35353730.809127808 28790709.189882636 0 28790709.189882636 44112981.361655831 0 0 0 0 -11724593.919039726 27653245.357234553 0 27653245.357234553 29941741.012337923 0 0 0 0 -60168227.80581665 7316523.1081564426 0 7316523.1081564426 54245541.087751746 0 0 0 0 -7072964.6392822266 -15374088.466004491 0 -15374088.466004491 21263666.43119967 0 0 0 0 13758109.821678162 24687613.022912383 0 24687613.022912383 46508595.398569822 0 0 0 0 13408978.771823883 2520570.1263148487 0 2520570.1263148487 224574295.29852915 0 0 0 0 -11053811.047637939 -11627899.607136905 0 -11627899.607136905 89229311.10255307 0 0 0 0 70616352.338302612 -40151140.02504909 0 -40151140.02504909 7635221.0631177425 0 0 0 0 5009762.8337860107 8667528.2162241936 0 8667528.2162241936 -27515260.349328101 0 0 0 0 -9622563.7169799805 -35983436.55416891 0 -35983436.55416891 6096773.7837696671 0 0 0 0 -73400859.973586559 -54892849.930977225 0 -54892849.930977225 2179708.7439388037 0 0 0 0 -67836316.91674614 3092005.3680964708 0 3092005.3680964708 -12147053.356428742 0 0 0 0 -39161440.821098328 -29960435.00251779 0 -29960435.00251779 -24171989.365941167 0 0 0 0 -56058876.431289673 -12283771.590141177 0 -12283771.590141177 30270775.48019588 0 0 0 0 -18502152.855461121 -24073134.593439952 0 -24073134.593439952 144377689.08849859 0 0 0 0 80126258.658195496 122411615.33794111 0 122411615.33794111 118210622.04668409 0 0 0 0 169252493.04608154 -58654677.468623072 0 -58654677.468623072 20382705.738169849 0 0 0 0 77501778.61978054 16773060.659657206 0 16773060.659657206 -38392261.186537266 0 0 0 0 59189839.465270996 11574910.51618129 0 11574910.51618129 -39867843.028827727 0 0 0 0 -38977178.097892761 -3939666.1119343787 0 -3939666.1119343787 -15569366.867212176 0 0 0 0 -33466022.452049255 61789339.745391272 0 61789339.745391272 -14873926.872646928 0 0 0 0 6533435.8232269287 107799486.98188445 0 107799486.98188445 -47149248.954853088 0 0 0 0 152885.68908914179 127427.71909020003 0 127427.71909020003 8639.7567417764512 0 0 0 0 49676585.667728424 -2562972.7984742299 0 -2562972.7984742299 -59071118.890861273 0 0 0 0 124474.97353997827 73009.788034165278 0 73009.788034165278 -67066.581207253694 0 0 0 0 -52098248.236732483 33694804.824245714 0 33694804.824245714 -23629.507769648564 0 0 0 0 106084649.80080414 -23469774.823222172 0 -23469774.823222172 -51631237.018268108 0 0 0 0 -12057809.941757202 5391345.9556690203 0 5391345.9556690203 -9617338.8729910702 0 0 0 0 -93241389.230392456 -41227204.776150614 0 -41227204.776150614 -4360284.2357378602 0 0 0 0 -90524604.733612061 15695682.389302254 0 15695682.389302254 -49206978.134191111 0 0 0 0 -153727438.73040771 -5966245.717852816 0 -5966245.717852816 -15676392.193567775 0 0 0 0 -86334215.882583618 -25984814.403027788 0 -25984814.403027788 -50888806.352353439 0 0 0 0 -111917265.9876709 -72456079.576567173 0 -72456079.576567173 -56104462.14907515 0 0 0 0 -13766.004765752703 5527.3002001550049 0 5527.3002001550049 -528.00853591620762 0 0 0 0 -55812666.925994873 -18969808.730591238 0 -18969808.730591238 -17342278.018164158 0 0 0 0 32758765.311386108 2601269.9057529867 0 2601269.9057529867 -41399747.244139493 0 0 0 0 46954915.493659973 28077030.876627207 0 28077030.876627207 -62112689.450875342 0 0 0 0 -23659001.228374481 44173989.611274369 0 44173989.611274369 -39156010.807158172 0 0 0 0 -87367867.220169067 18397951.567907646 0 18397951.567907646 -37621657.450920105 0 0 0 0 -94171939.96522522 87656512.183426961 0 87656512.183426961 77523.065429618917 0 0 0 0 118839066.30083656 18326279.183881968 0 18326279.183881968 -80054129.391573489 0 0 0 0 56980088.880393982 81294531.869987965 0 81294531.869987965 -48375631.202264249 0 0 0 0 -197049041.5690918 -17486513.558126047 0 -17486513.558126047 16439590.189705342 0 0 0 0 -120785.37112322729 63512.282353460789 0 63512.282353460789 9022.1512379523756 0 0 0 0 -103973.00193786621 50906.648287882497 0 50906.648287882497 -155.27588384775572 0 0 0 0 -86007.425399780273 42744.599664380119 0 42744.599664380119 -35266.894759273338 0 0 0 0 -33223.481781374663 22465.628546914086 0 22465.628546914086 -41291.921810300504 0 0 0 0 330459.26873016357 410375.51605277695 0 410375.51605277695 -697232.51258517615 0 0 0 0 490899.35936737061 -347939.99465821963 0 -347939.99465821963 27884.765576730948 0 0 0 0 671075.60828971863 82016.085779115791 0 82016.085779115791 -1670074.9793684054 0 0 0 0 -74640.825618743896 21999.220263024319 0 21999.220263024319 421.06284469249226 0 0 0 0 -1373172.3757629395 -122246.94675173704 0 -122246.94675173704 234550.12278507138 0 0 0 0 -19204.40358216688 7708.131649913732 0 7708.131649913732 -17707.738429792789 0 0 0 0 120889.63732147217 116951.67384568273 0 116951.67384568273 27081.466486057961 0 0 0 0 374302.93371582031 56929.473073877904 0 56929.473073877904 -1216.7850474115114 0 0 0 0 -864647.62449645996 1598270.501421215 0 1598270.501421215 -1343271.3708679508 0 0 0 0 -61511.599105834961 874502.34600086138 0 874502.34600086138 -2479401.5629032403 0 0 0 0 -36030.968635421246 -122524.81106700073 0 -122524.81106700073 39128.602434163644 0 0 0 0 -897223.9556427002 900038.04324722849 0 900038.04324722849 -1747824.3755849507 0 0 0 0 -3331435.6150970459 1223286.8586779218 0 1223286.8586779218 -350632.17278211564 0 0 0 0 -1084994.7574768066 1469964.320306398 0 1469964.320306398 -1033347.5331776636 0 0 0 0 -1198286.0239334106 -645512.21440972947 0 -645512.21440972947 157758.39344207244 0 0 0 0 -593474.05794866942 -79497.469581957906 0 -79497.469581957906 45431.373886243819 0 0 0 0 -2539191.6563148499 -1003866.829173252 0 -1003866.829173252 2618706.8288905621 0 0 0 0 -1772152.830039978 1183209.3139028549 0 1183209.3139028549 -446211.3341473341 0 0 0 0 -95268.3974609375 496886.06333210319 0 496886.06333210319 -98004.196654643863 0 0 0 0 -260078.83905349858 34795.456853928044 0 34795.456853928044 111633.71497000067 0 0 0 0 -254221.13592529297 658107.47459520772 0 658107.47459520772 -151114.37272180337 0 0 0 0 -213735.13386620022 347840.05253636651 0 347840.05253636651 -280321.28639724816 0 0 0 0 -55694421.628158569 13584025.25915879 0 13584025.25915879 8462967.3208860159 0 0 0 0 -75942444.559970856 -10506754.483775705 0 -10506754.483775705 23100467.127595901 0 0 0 0 -181976.99088240787 188212.07655702718 0 188212.07655702718 -78981.087228099423 0 0 0 0 14448524.571487427 -8713870.5211750939 0 -8713870.5211750939 -9328835.5199862085 0 0 0 0 34947903.125900269 7621295.177773146 0 7621295.177773146 -3473806.6531932652 0 0 0 0 13884064.827293396 2463835.8186703552 0 2463835.8186703552 -4603832.7593738036 0 0 0 0 12785981.82198143 1732270.2737504286 0 1732270.2737504286 -7009.4513573554141 0 0 0 0 14063280.153297424 895142.44422147702 0 895142.44422147702 -1333646.1758961761 0 0 0 0 12191976.7722435 3526161.7595098815 0 3526161.7595098815 -1650024.5852367948 0 0 0 0 15671079.274429321 4826674.1968374709 0 4826674.1968374709 -1507917.0721334289 0 0 0 0 8138117.7158813477 2893984.0324126673 0 2893984.0324126673 -4226.4558619614099 0 0 0 0 1723810.8543014526 2072357.0345758665 0 2072357.0345758665 1399372.7258204957 0 0 0 0 7676095.1685638428 7236655.427728191 0 7236655.427728191 3011740.6611117003 0 0 0 0 6710334.7690429688 10549476.619125361 0 10549476.619125361 11405365.024303073 0 0 0 0 3001129.4789123535 1319280.8337170822 0 1319280.8337170822 1619890.2727380816 0 0 0 0 1818069.9194755554 765915.9188624688 0 765915.9188624688 -310650.75404633721 0 0 0 0 -462137.35418701172 316311.6170959156 0 316311.6170959156 852492.78990751319 0 0 0 0 -7323.2411609496921 31925.664047108963 0 31925.664047108963 -32105.702022984988 0 0 0 0 -6806809.0241088867 675913.8775653214 0 675913.8775653214 4433.5771835814121 0 0 0 0 7025065.6036872864 3726466.9598820806 0 3726466.9598820806 418211.82608423568 0 0 0 0 -134709.92394850776 96949.081348008476 0 96949.081348008476 -51726.491911276593 0 0 0 0 -5502412.0025024414 -5513879.1276690373 0 -5513879.1276690373 -1875469.4145771181 0 0 0 0 -6841.0367414057255 2986.405406339094 0 2986.405406339094 -4593.6798114591711 0 0 0 0 -322508.96343994141 4794627.6359156501 0 4794627.6359156501 39485.815304094926 0 0 0 0 18005.844505310059 2662031.0963290227 0 2662031.0963290227 -3840040.8937222348 0 0 0 0 -1066881.738494873 -191221.50345880349 0 -191221.50345880349 133619.13239274707 0 0 0 0 -247434.77636455558 138676.96999121923 0 138676.96999121923 -5565.2144053260472 0 0 0 0 -449817.82024383545 506030.0966170074 0 506030.0966170074 178160.90536248381 0 0 0 0 -1035542.1412448883 401146.71784292045 0 401146.71784292045 -818615.24944443628 0 0 0 0 -987101.30318783224 266781.54350205511 0 266781.54350205511 190435.48638819542 0 0 0 0 -2896217.3077354431 1490501.5468035191 0 1490501.5468035191 658607.85249400139 0 0 0 0 -1838368.4823894501 771940.3860784322 0 771940.3860784322 -890023.5907099247 0 0 0 0 -3859427.8424491882 6083556.9065523893 0 6083556.9065523893 8156751.5576783717 0 0 0 0 1585943.3484573364 -3858139.796664685 0 -3858139.796664685 1061632.9308392107 0 0 0 0 729368.91319614276 501602.40819600038 0 501602.40819600038 -244500.60582908889 0 0 0 0 3658084.7906417847 1461948.3736363202 0 1461948.3736363202 -12438625.2137843 0 0 0 0 198712.42704001442 141023.82925982028 0 141023.82925982028 -136645.70573177148 0 0 0 0 8714732.004322052 12891356.546147808 0 12891356.546147808 11481715.609763741 0 0 0 0 4037942.9335861206 -12111038.849431366 0 -12111038.849431366 27758482.216231734 0 0 0 0 5457177.3811950684 -6023860.1190136671 0 -6023860.1190136671 12911005.182542384 0 0 0 0 5563925.5623703003 15745077.579382062 0 15745077.579382062 20488090.324251413 0 0 0 0 989978.44485473633 -37539.372883200645 0 -37539.372883200645 21249572.073452592 0 0 0 0 77484718.289825439 20240885.387241714 0 20240885.387241714 1726778.9217129201 0 0 0 0 65155.637905385345 21942.137727920897 0 21942.137727920897 -36144.384260396539 0 0 0 0 35049635.350257874 -22341714.599261634 0 -22341714.599261634 -8981157.1145732515 0 0 0 0 47758.963246548548 26443.377746522427 0 26443.377746522427 -3932.410590331885 0 0 0 0 40143493.173950195 30612137.30865366 0 30612137.30865366 23443423.801975571 0 0 0 0 42996871.553123474 -92412422.197057575 0 -92412422.197057575 -11058118.140319303 0 0 0 0 84342948.664337158 3506241.4193293676 0 3506241.4193293676 -10005206.473621335 0 0 0 0 39866085.325172424 -168707.47392947972 0 -168707.47392947972 -6814982.6877686381 0 0 0 0 4302440.6567921638 -2972422.4122805204 0 -2972422.4122805204 -6978940.1618491411 0 0 0 0 4492738.8140548021 725463.70924142515 0 725463.70924142515 -224500.73681034354 0 0 0 0 10531658.412574768 4799427.9838095605 0 4799427.9838095605 -24435511.445747256 0 0 0 0 6210698.8107299805 -8095871.4703171253 0 -8095871.4703171253 -3235578.355394721 0 0 0 0 4605715.3519973755 -792574.58269993961 0 -792574.58269993961 -14726075.397257805 0 0 0 0 363193.39274597168 -4392369.5096076131 0 -4392369.5096076131 2046002.722825408 0 0 0 0 1216803.4992345944 388377.57884944417 0 388377.57884944417 -478902.88466553157 0 0 0 0 -7346752.1781845093 4306265.6299176216 0 4306265.6299176216 320520.94112870097 0 0 0 0 584148.44363975525 -4448359.8126332909 0 -4448359.8126332909 -433728.89156699181 0 0 0 0 2410379.7978172302 -203129.45302204788 0 -203129.45302204788 -126449.89710652828 0 0 0 0 -61827520.326591492 161044151.30644536 0 161044151.30644536 -196989238.93424487 0 0 0 0 -83231007.524368286 98106454.300098896 0 98106454.300098896 -57075810.869429588 0 0 0 0 -81197277.104511261 224942193.49810243 0 224942193.49810243 -386572891.11308837 0 0 0 0 4174341.1808773652 1140376.7084631072 0 1140376.7084631072 -28319.347108866728 0 0 0 0 93356183.500328064 28075624.360121965 0 28075624.360121965 -435374233.26338243 0 0 0 0 -181047245.50475311 57231409.98683548 0 57231409.98683548 -2678098.9352564812 0 0 0 0 -16961150.330215454 113807987.81378746 0 113807987.81378746 2227941.1249880791 0 0 0 0 -51221086.499188423 -129324.78688004613 0 -129324.78688004613 229956309.98929739 0 0 0 0 533906480.83550262 -292179977.96925282 0 -292179977.96925282 325398636.27712917 0 0 0 0 -171858461.93985748 341713655.86640596 0 341713655.86640596 303268886.04594755 0 0 0 0 -115992827.97122574 -190402873.88804701 0 -190402873.88804701 -446714281.33516645 0 0 0 0 93557704.740264893 592628810.30663896 0 592628810.30663896 -814580438.7226423 0 0 0 0 19470098.502380371 8132916.7160406113 0 8132916.7160406113 6445318.2949762344 0 0 0 0 -6430864.8276519775 -9870614.0273447037 0 -9870614.0273447037 38539262.625282288 0 0 0 0 -30202019.871063232 9969993.5232610703 0 9969993.5232610703 44262864.003068328 0 0 0 0 -2123599.2023620605 3225153.1026668549 0 3225153.1026668549 32963002.080588341 0 0 0 0 1654280.2134857178 7691216.5241467953 0 7691216.5241467953 -5565023.4115200043 0 0 0 0 -2110093.4459686279 11804571.705705643 0 11804571.705705643 6938281.0183281302 0 0 0 0 117971.71215820312 6512614.0405163765 0 6512614.0405163765 1019403.8592905998 0 0 0 0 -15963337.387939453 13492020.589050293 0 13492020.589050293 16045753.302686691 0 0 0 0 -15102579.987487793 8397005.696023941 0 8397005.696023941 17372250.755032539 0 0 0 0 -14564334.125305176 22754588.02001667 0 22754588.02001667 8105437.508991003 0 0 0 0 -14774554.564498901 20214035.641733646 0 20214035.641733646 5001842.0133104324 0 0 0 0 -17046088.778213501 30037234.821680486 0 30037234.821680486 12626030.682256699 0 0 0 0 -24699556.711288452 29596976.422653675 0 29596976.422653675 26008641.910298824 0 0 0 0 -19258444.143554688 8291578.2674574852 0 8291578.2674574852 17664216.256253242 0 0 0 0 -30763468.642913818 20294397.324446201 0 20294397.324446201 19847956.878042102 0 0 0 0 -24004893.464477539 11109131.975189209 0 11109131.975189209 31524487.738916397 0 0 0 0 -48635663.396087646 28765604.689437866 0 28765604.689437866 -4989763.1384043694 0 0 0 0 -33148640.960121155 6762131.1671853065 0 6762131.1671853065 -8743613.6863255501 0 0 0 0 -34683631.668121338 24755039.439979553 0 24755039.439979553 25018224.346093178 0 0 0 0 -42174514.852336884 7912206.1190865636 0 7912206.1190865636 10782672.603068352 0 0 0 0 -33693602.358673096 11685927.724268913 0 11685927.724268913 6559343.8370909691 0 0 0 0 -35907763.865692139 23658810.571914673 0 23658810.571914673 27736525.020169556 0 0 0 0 1582707.4103088379 -1297767.6785917282 0 -1297767.6785917282 2631866.4850883484 0 0 0 0 8084907.2708740234 -8595362.7086909413 0 -8595362.7086909413 4538247.8554692268 0 0 0 0 9193424.4141235352 13723632.159840584 0 13723632.159840584 17672169.522713184 0 0 0 0 -114981.78400843777 82687.790939083323 0 82687.790939083323 99668.108815028216 0 0 0 0 -16835.434686962515 15406.040027011186 0 15406.040027011186 -20858.127158911142 0 0 0 0 -763884.32793426514 -3203313.4802111387 0 -3203313.4802111387 7000894.5157251358 0 0 0 0 -1592309.2503566742 3648665.2805479467 0 3648665.2805479467 3540423.96717453 0 0 0 0 -5126570.2547073364 137530.13758671284 0 137530.13758671284 1979095.7249238491 0 0 0 0 -6002906.2668533325 9220502.8603498936 0 9220502.8603498936 -2030932.0861718655 0 0 0 0 -4428021.4344787598 8314678.9857087135 0 8314678.9857087135 -3372897.4872906208 0 0 0 0 -4969256.8087921143 7214363.8643445969 0 7214363.8643445969 10390379.091926098 0 0 0 0 -3736432.2105560303 7162057.3445603848 0 7162057.3445603848 -2126197.4699306488 0 0 0 0 939342.0835723877 15135880.300943375 0 15135880.300943375 -2264933.372546196 0 0 0 0 -5888855.4267349243 8366349.5837450027 0 8366349.5837450027 -1244288.4353528023 0 0 0 0 178249.30941772461 9011651.4171683788 0 9011651.4171683788 -12791412.758071899 0 0 0 0 4534566.045242887 598326.64944926044 0 598326.64944926044 -418413.11221197748 0 0 0 0 387927.86784362793 12786052.644554853 0 12786052.644554853 -15365697.185744643 0 0 0 0 -37895285.186828613 135330279.92945433 0 135330279.92945433 -259427433.47498512 0 0 0 0 2272114.6375951469 323375.91643912531 0 323375.91643912531 -923970.55021496979 0 0 0 0 3494991.1282466911 1645282.0329659046 0 1645282.0329659046 213570.25683295383 0 0 0 0 4736154.5466918945 -913483.831032902 0 -913483.831032902 -4385808.134963274 0 0 0 0 466933.47450995259 113520.84301336668 0 113520.84301336668 -244139.63263629237 0 0 0 0 -79839668.252506256 145515251.27283311 0 145515251.27283311 -126315275.78975916 0 0 0 0 -59155651.7445755 136328112.26036525 0 136328112.26036525 -180875935.74917221 0 0 0 0 -76046000.370513916 92948951.610934258 0 92948951.610934258 -162365320.04307079 0 0 0 0 6773230.9475784302 2641171.7118979692 0 2641171.7118979692 -60384416.768920898 0 0 0 0 -90377106.987533569 69768865.701676369 0 69768865.701676369 -58256866.520567417 0 0 0 0 -23230451.979553223 72024076.658708096 0 72024076.658708096 -81120635.051454544 0 0 0 0 -121550776.00779724 163366450.42595196 0 163366450.42595196 -136722184.50842619 0 0 0 0 3990340.5170859918 607209.0477273236 0 607209.0477273236 -220367.53683105973 0 0 0 0 -64165366.122299194 51061142.766049385 0 51061142.766049385 30689956.307605028 0 0 0 0 17161286.609703064 -1819603.9083399773 0 -1819603.9083399773 -11473690.069321394 0 0 0 0 29535913.59274292 -1055638.4118790627 0 -1055638.4118790627 -19919809.320483685 0 0 0 0 2159058.2974853516 17273760.686369181 0 17273760.686369181 -34902623.978718281 0 0 0 0 -580137.12963104248 5249875.2194827199 0 5249875.2194827199 -20302563.994406223 0 0 0 0 1496219.1628570557 16375354.828347921 0 16375354.828347921 -14567828.52589798 0 0 0 0 -6762463.1436004639 13434105.059051991 0 13434105.059051991 -3287727.9935083389 0 0 0 0 -5271954.0563812256 16379670.587111473 0 16379670.587111473 -13738197.854825497 0 0 0 0 -6166700.2547912598 11755613.537404299 0 11755613.537404299 -4508962.9695074558 0 0 0 0 -4634879.9217529297 19788474.518907547 0 19788474.518907547 -19461698.064043522 0 0 0 0 -5934584.7229614258 12772627.769245625 0 12772627.769245625 -21179872.259182096 0 0 0 0 -1853103.0828704834 8973934.274525404 0 8973934.274525404 -39906163.198638916 0 0 0 0 -176658.70833970606 1563925.9059594029 0 1563925.9059594029 -77740.047926428088 0 0 0 0 -8199059.2313537598 11422892.851752281 0 11422892.851752281 5297581.523058176 0 0 0 0 -15204354.596969604 22055958.052579641 0 22055958.052579641 -115266813.14421606 0 0 0 0 1436801.423324585 6890261.65315485 0 6890261.65315485 -148272598.82289761 0 0 0 0 -17186658.349765778 24533591.69913125 0 24533591.69913125 -117708938.29001713 0 0 0 0 -81917.000908717513 422727.45404377009 0 422727.45404377009 -33594.173646688912 0 0 0 0 -15403717.454917908 8584983.6701834202 0 8584983.6701834202 -191705120.44275999 0 0 0 0 -5673023.9732894897 73205746.601318836 0 73205746.601318836 -322899200.94624519 0 0 0 0 -39012847.352272034 44151669.940702558 0 44151669.940702558 -48957646.577454567 0 0 0 0 -60886545.779316902 91135332.877367929 0 91135332.877367929 -111346243.26427937 0 0 0 0 -57103910.041006088 44912555.502703324 0 44912555.502703324 -117668327.45691156 0 0 0 0 -29529833.780525208 47797857.750091791 0 47797857.750091791 -18888858.255099773 0 0 0 0 -29022631.226097107 71921574.098806858 0 71921574.098806858 -88121903.175385714 0 0 0 0 -38256288.500259399 88946780.934066653 0 88946780.934066653 18999541.784261465 0 0 0 0 -9914825.159230601 66489169.822160177 0 66489169.822160177 34681908.093976498 0 0 0 0 -15880648.786643982 73913353.452419519 0 73913353.452419519 -36056618.555916786 0 0 0 0 -58998308.48074913 20373055.36684379 0 20373055.36684379 17795592.950526237 0 0 0 0 -146607706.1678009 29786914.469361067 0 29786914.469361067 124937340.68713379 0 0 0 0 -103547.83979503252 499805.69808774441 0 499805.69808774441 892856.16521735676 0 0 0 0 -31127103.462865293 -16786297.532024752 0 -16786297.532024752 46255958.784910917 0 0 0 0 -30279785.697937012 29017322.136813521 0 29017322.136813521 20088584.780992031 0 0 0 0 -74899123.566764832 -2285114.1650586128 0 -2285114.1650586128 24989783.199728012 0 0 0 0 -6674076.4403686523 16232008.140335917 0 16232008.140335917 26549743.751551151 0 0 0 0 -72042061.315917969 27077503.134098589 0 27077503.134098589 -14885846.62045145 0 0 0 0 -2367722.5930557251 22130041.361637831 0 22130041.361637831 -26328893.295525789 0 0 0 0 -45356232.671081543 52387492.119027615 0 52387492.119027615 -105769025.11022472 0 0 0 0 -42829664.749206543 43855820.137266159 0 43855820.137266159 -28572186.715999365 0 0 0 0 -122153039.99699402 55212784.620484352 0 55212784.620484352 -24190709.302735329 0 0 0 0 -126622655.95220184 143803421.92272544 0 143803421.92272544 -172082441.87659836 0 0 0 0 -147907310.85347366 43067108.718088418 0 43067108.718088418 -99106179.719198704 0 0 0 0 -49126473.657447815 76447977.419345915 0 76447977.419345915 -83154086.668474197 0 0 0 0 -53484524.817337036 100906143.69932985 0 100906143.69932985 -214398660.93771076 0 0 0 0 -31277551.897460938 69466814.487123013 0 69466814.487123013 -94143780.117887259 0 0 0 0 -45028010.943756104 20200944.948338032 0 20200944.948338032 10397392.041840553 0 0 0 0 3306973.8999710083 66180195.751309633 0 66180195.751309633 -79239076.355975151 0 0 0 0 -75567003.247364044 21542143.779932201 0 21542143.779932201 85730824.20179987 0 0 0 0 357380.26283831522 316642.16775423568 0 316642.16775423568 360621.40232415474 0 0 0 0 37059413.668358803 -97467590.193830952 0 -97467590.193830952 100755234.92717743 0 0 0 0 -40925758.701507568 -8618841.1130809784 0 -8618841.1130809784 69625288.358289063 0 0 0 0 19468945.547375679 23414555.325213358 0 23414555.325213358 2764273.4429197311 0 0 0 0 614199754.34855652 -316532187.07701397 0 -316532187.07701397 44718792.099439144 0 0 0 0 39796352.81224823 -154502636.56195307 0 -154502636.56195307 216144563.80364504 0 0 0 0 160985.90750170872 64747.427629859187 0 64747.427629859187 85148.132012072834 0 0 0 0 80808288.521789551 -47174507.828549862 0 -47174507.828549862 28215526.322155654 0 0 0 0 184800343.97811127 -59098046.392979383 0 -59098046.392979383 -140753943.9357028 0 0 0 0 176187612.4860611 -85152343.297461748 0 -85152343.297461748 41499007.032994747 0 0 0 0 167062.8768567557 149194.28895719536 0 149194.28895719536 1439865.1287776397 0 0 0 0 235719539.13637543 -111183803.12364078 0 -111183803.12364078 24747726.960546017 0 0 0 0 197589206.02378082 -110411675.16961145 0 -110411675.16961145 71225814.826713622 0 0 0 0 220130284.39485168 -91476300.00297451 0 -91476300.00297451 181031.19988203049 0 0 0 0 95213155.51600647 -94955518.557104111 0 -94955518.557104111 4457395.058513999 0 0 0 0 94239035.925828695 -87154399.700773135 0 -87154399.700773135 363546593.99813557 0 0 0 0 38587676.856483459 -44736150.457111359 0 -44736150.457111359 118139335.87729025 0 0 0 0 130522.06142767658 64287.662198865786 0 64287.662198865786 986254.34069730272 0 0 0 0 300612206.53679657 483769793.52929163 0 483769793.52929163 -70354031.109088898 0 0 0 0 252968.02240492404 558142.14287135936 0 558142.14287135936 747796.37174343097 0 0 0 0 22511817.226577759 -70494941.987575054 0 -70494941.987575054 57365012.217808187 0 0 0 0 112516347.67552948 -302717851.68467355 0 -302717851.68467355 34624363.835400343 0 0 0 0 220862951.29026794 160784044.83355856 0 160784044.83355856 225613180.07268238 0 0 0 0 34185.138427710626 92095.963303701952 0 92095.963303701952 673879.81881377939 0 0 0 0 333163695.27458572 100445558.80004179 0 100445558.80004179 65176258.779946327 0 0 0 0 -229857223.56056976 -230716866.82023168 0 -230716866.82023168 334557372.63500774 0 0 0 0 207496068.31905174 -213385292.14775559 0 -213385292.14775559 132736065.34486318 0 0 0 0 -70631233.250747681 -65551758.004321486 0 -65551758.004321486 54160548.638601452 0 0 0 0 213815430.14166164 104133742.32655799 0 104133742.32655799 59706228.105797768 0 0 0 0 231330101.08159637 3492316.4202332497 0 3492316.4202332497 -22424730.897138596 0 0 0 0 102220977.29649353 -51966834.870410442 0 -51966834.870410442 31994199.372675419 0 0 0 0 88238461.124679565 -35143679.697673798 0 -35143679.697673798 62952275.559113979 0 0 0 0 -50662383.91009903 -32211179.887067281 0 -32211179.887067281 89258944.764249921 0 0 0 0 187126.21525845444 570613.27892823145 0 570613.27892823145 1779379.2378616661 0 0 0 0 68778513.000488281 16115071.333226085 0 16115071.333226085 6101236.176820755 0 0 0 0 156728896.88635254 -87945859.049779892 0 -87945859.049779892 35563579.876535416 0 0 0 0 -163094.73524747603 -14884.240005591884 0 -14884.240005591884 262327.68847118504 0 0 0 0 -42551316.744850159 4554693.4960308671 0 4554693.4960308671 -21111313.625340141 0 0 0 0 157368437.90448761 31634732.138860703 0 31634732.138860703 -3020025.1936650276 0 0 0 0 169057078.16667938 101697487.88852167 0 101697487.88852167 41529161.972352028 0 0 0 0 158934853.73916626 66269956.220150471 0 66269956.220150471 130743688.95820665 0 0 0 0 57214140.981170654 -29573837.133413315 0 -29573837.133413315 369024463.93416071 0 0 0 0 102395546.79340363 4854843.2347230911 0 4854843.2347230911 154869389.71960831 0 0 0 0 170340529.52359009 95443257.349524498 0 95443257.349524498 72005655.726396561 0 0 0 0 59744.397924295161 43448.881998507306 0 43448.881998507306 388185.998162203 0 0 0 0 197176985.88382721 164847215.13307786 0 164847215.13307786 157390505.96075726 0 0 0 0 170041269.1973753 77315866.922911108 0 77315866.922911108 327176294.36422157 0 0 0 0 -162297547.14362717 157860850.3086853 0 157860850.3086853 426860709.79380322 0 0 0 0 174514966.97631073 -258487820.84599316 0 -258487820.84599316 -70250236.121657372 0 0 0 0 62112419.733093262 65375678.702267647 0 65375678.702267647 -244226269.48066282 0 0 0 0 63909801.540935516 -75824211.899986178 0 -75824211.899986178 49737527.952432632 0 0 0 0 173777027.8014679 -60750565.446647167 0 -60750565.446647167 30053564.046211243 0 0 0 0 -73446446.814331055 49307503.411692142 0 49307503.411692142 -41162738.686903477 0 0 0 0 136133003.69341278 -97141668.426081657 0 -97141668.426081657 -4400870.129365921 0 0 0 0 40517246.441055298 -2371679.9910268784 0 -2371679.9910268784 8491955.379486084 0 0 0 0 162687967.09066772 -53133312.919817924 0 -53133312.919817924 -78734830.594135284 0 0 0 0 166848604.42644882 -73288239.855760813 0 -73288239.855760813 -115955237.11561584 0 0 0 0 -34164257.199733734 -74143830.732373714 0 -74143830.732373714 -155496548.48642778 0 0 0 0 397584.46657991875 173238.85111793783 0 173238.85111793783 -630718.73216084763 0 0 0 0 -126206614.55052948 133150063.94284439 0 133150063.94284439 -81443702.730202675 0 0 0 0 2772222.2639293671 3910711.8251101971 0 3910711.8251101971 -3204842.5247983932 0 0 0 0 626352.23757692333 759247.97614421975 0 759247.97614421975 -311354.11417408707 0 0 0 0 122439158.26370621 -38673365.245918751 0 -38673365.245918751 1356044.1273241043 0 0 0 0 115194066.75038147 -38865320.885566235 0 -38865320.885566235 22469462.227239609 0 0 0 0 132691654.79107666 -6704591.2141083479 0 -6704591.2141083479 -25596287.5656147 0 0 0 0 77839062.78792572 -1238368.7009549141 0 -1238368.7009549141 6428400.4087734222 0 0 0 0 156510307.2834523 -48040398.57419008 0 -48040398.57419008 -19812125.842985153 0 0 0 0 201176260.2326107 -125769765.73329782 0 -125769765.73329782 -8284531.9686870575 0 0 0 0 184864.39847918227 110583.78074232489 0 110583.78074232489 -186464.7582647407 0 0 0 0 134781473.07243347 -108108238.51542997 0 -108108238.51542997 53959758.518766403 0 0 0 0 104178129.69589233 -22302239.252174377 0 -22302239.252174377 68432222.359017372 0 0 0 0 84815844.659511566 -45784975.218414545 0 -45784975.218414545 23576140.371322632 0 0 0 0 -947115.55924987793 -248252.14540529251 0 -248252.14540529251 805015.86269617081 0 0 0 0 -214796.59951329231 9838803.2786923051 0 9838803.2786923051 -5864883.4431772232 0 0 0 0 -58395745.737052917 92493501.592202663 0 92493501.592202663 -14109317.037255764 0 0 0 0 573618.52239544876 1406552.3396387929 0 1406552.3396387929 2378857.4701243564 0 0 0 0 -77990510.724178314 34521132.75376302 0 34521132.75376302 20833654.134726524 0 0 0 0 -4745072.2861022949 32448641.856816053 0 32448641.856816053 4236944.8313577175 0 0 0 0 26291856.98840332 23444820.35967207 0 23444820.35967207 -76016705.040184021 0 0 0 0 94903965.004547119 31854388.40331459 0 31854388.40331459 -4284313.1297581196 0 0 0 0 4932584.8071899414 34422813.583481789 0 34422813.583481789 -3411434.8531384468 0 0 0 0 -19503052.284072876 48985188.886693478 0 48985188.886693478 124253591.4238801 0 0 0 0 -6221453.6216506958 24349602.885800838 0 24349602.885800838 -47181591.994736671 0 0 0 0 1365572.9621203858 2136366.7186454106 0 2136366.7186454106 2373823.60287569 0 0 0 0 -1131028.3559570312 77078989.968813896 0 77078989.968813896 -74844249.485234648 0 0 0 0 21046890.498397827 11670096.465012074 0 11670096.465012074 -46118063.610111237 0 0 0 0 18974004.525222778 -8512702.9057598114 0 -8512702.9057598114 -64249625.646516323 0 0 0 0 62983592.662399292 27527541.507874012 0 27527541.507874012 -50107389.744468927 0 0 0 0 16323359.144760132 30221652.883615971 0 30221652.883615971 -53848963.098817587 0 0 0 0 21543546.948913574 -51018965.25743866 0 -51018965.25743866 -77526776.637042761 0 0 0 0 19025354.873809814 -56536684.098896027 0 -56536684.098896027 2441095.9532388449 0 0 0 0 -3937108.5397338867 7652416.0575971603 0 7652416.0575971603 -49891606.325843573 0 0 0 0 48904047.102981567 -1416915.7416143417 0 -1416915.7416143417 -52190758.853035927 0 0 0 0 -5878433.7994382381 -52967939.174245596 0 -52967939.174245596 -62829702.346449852 0 0 0 0 -5063414.1914978027 -15324645.898015976 0 -15324645.898015976 -24128851.815592766 0 0 0 0 -6659769.0326309204 -27700816.957769394 0 -27700816.957769394 19642262.901378155 0 0 0 0 61157079.587524414 -56139660.526275992 0 -56139660.526275992 31451725.058129549 0 0 0 0 38485074.55821991 743969.66027140617 0 743969.66027140617 82315672.251092196 0 0 0 0 27860746.883682251 -2042233.8397307396 0 -2042233.8397307396 -926844.92988538742 0 0 0 0 75391981.383163452 22479083.864917159 0 22479083.864917159 841948.42599616945 0 0 0 0 194390476.81970215 52125637.880245626 0 52125637.880245626 83644834.922163963 0 0 0 0 11890204.698677063 -42480451.790560156 0 -42480451.790560156 205094209.00371981 0 0 0 0 -15495685.630245209 7785830.9127717316 0 7785830.9127717316 133263891.84123588 0 0 0 0 -1348585.683631897 123835289.39952354 0 123835289.39952354 131159402.83106804 0 0 0 0 28652364.898376465 40618332.528537571 0 40618332.528537571 -4013338.7958920896 0 0 0 0 23258710.10748291 -160736379.74980593 0 -160736379.74980593 331340580.880409 0 0 0 0 -190528.21218617074 194397.79882210493 0 194397.79882210493 465258.9619519785 0 0 0 0 -1691508.1057748795 -52671197.839613236 0 -52671197.839613236 150367972.69390082 0 0 0 0 -70641723.534950256 -66081281.878893524 0 -66081281.878893524 181374951.09034878 0 0 0 0 -27896485.484390259 27381868.526966333 0 27381868.526966333 119408981.19030333 0 0 0 0 -54646023.189476013 13669493.88103497 0 13669493.88103497 112840938.14535475 0 0 0 0 9679454.463924408 -24229786.808119208 0 -24229786.808119208 121326830.96208715 0 0 0 0 -4458925.0382537842 64189313.726380706 0 64189313.726380706 323593969.88301736 0 0 0 0 4278113.9587631226 2304095.8971362114 0 2304095.8971362114 -2587701.8486113548 0 0 0 0 -7916207.4946517944 5559842.1689600945 0 5559842.1689600945 -251123.88908481598 0 0 0 0 -2468878.1209449768 -15803971.706330299 0 -15803971.706330299 -65849333.762872696 0 0 0 0 -19898972.697284698 -1830824.1876766682 0 -1830824.1876766682 24906305.78409481 0 0 0 0 938829.67619026452 255794.21506315214 0 255794.21506315214 37105.373300461913 0 0 0 0 489928.90209197998 -1727115.498705864 0 -1727115.498705864 4875664.5052065849 0 0 0 0 1601377.1587409973 9919867.1287202835 0 9919867.1287202835 -529677.73183631897 0 0 0 0 -4501000.0488052368 19394235.657149315 0 19394235.657149315 -5672266.9656925201 0 0 0 0 3607205.4003257751 -716873.39371204376 0 -716873.39371204376 -3263406.3375587463 0 0 0 0 890946.77415954135 -27892.066885454347 0 -27892.066885454347 -159410.33322702977 0 0 0 0 976197.80037191883 120822.71454327088 0 120822.71454327088 -88424.303221687209 0 0 0 0 20468291.134819031 18816053.34180069 0 18816053.34180069 -7154743.1922421455 0 0 0 0 -12177945.126403809 -2016734.952375412 0 -2016734.952375412 28300574.735846519 0 0 0 0 2009162.1245422363 -3690298.7922160625 0 -3690298.7922160625 2345036.8039364815 0 0 0 0 -15384523.203733444 7693489.3100794554 0 7693489.3100794554 21508923.984775543 0 0 0 0 298817.00601499155 107584.11110913474 0 107584.11110913474 307347.54736742331 0 0 0 0 -9379449.8807144165 -1878783.4435890913 0 -1878783.4435890913 20885166.713804245 0 0 0 0 -11986774.054775238 -3545326.4416093826 0 -3545326.4416093826 24586866.148027897 0 0 0 0 12669157.341087341 -6268850.7026429176 0 -6268850.7026429176 22191625.967655182 0 0 0 0 -7503571.228313446 1884459.1088397503 0 1884459.1088397503 22539803.841705322 0 0 0 0 -17264246.812450409 7814620.278055191 0 7814620.278055191 22850314.740725517 0 0 0 0 -32206515.680984497 15456182.018433571 0 15456182.018433571 27232907.182258129 0 0 0 0 -14083638.229076385 1797289.271982193 0 1797289.271982193 34126059.237927437 0 0 0 0 -364417.97540283203 -32906064.195233583 0 -32906064.195233583 51006317.96961689 0 0 0 0 -35462204.460037231 -7746924.1374249458 0 -7746924.1374249458 46757690.935410738 0 0 0 0 116116.32344117388 102291.22947465535 0 102291.22947465535 317322.17924758093 0 0 0 0 -44593722.310379028 -29233921.146759033 0 -29233921.146759033 -4232591.6963374615 0 0 0 0 -54697060.501598358 -19508133.792794228 0 -19508133.792794228 76604596.505981445 0 0 0 0 -51142232.268173218 71921459.1119771 0 71921459.1119771 13040534.409203291 0 0 0 0 -49091975.152900696 58601831.705001116 0 58601831.705001116 96341100.69798851 0 0 0 0 160707550.66208649 146239722.96326065 0 146239722.96326065 124690552.27040195 0 0 0 0 173942979.28793669 242814803.94650328 0 242814803.94650328 80597402.23859787 0 0 0 0 -422581057.41506195 -255234679.01243496 0 -255234679.01243496 26974416.04181385 0 0 0 0 -220912304.40472412 675890262.22406006 0 675890262.22406006 466769240.18853569 0 0 0 0 -137918417.98694611 14223015.898406982 0 14223015.898406982 232126232.41067457 0 0 0 0 -140963766.93760681 -119329289.09424543 0 -119329289.09424543 -21911935.276716232 0 0 0 0 164598386.77045441 -14215994.975780487 0 -14215994.975780487 3874410.1411676407 0 0 0 0 1016275.2474060189 1078098.6953670746 0 1078098.6953670746 412819.13333104365 0 0 0 0 762947635.51921844 121945689.97841501 0 121945689.97841501 -70381387.241044044 0 0 0 0 382603069.27636719 -181327572.70170307 0 -181327572.70170307 83953322.761942625 0 0 0 0 1192279210.2972031 480802474.69863892 0 480802474.69863892 35730718.368154526 0 0 0 0 526091.24732738174 312379.72062974563 0 312379.72062974563 144688.96122789616 0 0 0 0 174711579.64703369 465212825.4045639 0 465212825.4045639 -6760900.6466426849 0 0 0 0 1332674412.0065308 327199596.52994919 0 327199596.52994919 -160029130.83284378 0 0 0 0 1157780188.4827805 -323752300.38534451 0 -323752300.38534451 44768352.606923223 0 0 0 0 349294.34100854024 374711.56691394746 0 374711.56691394746 240046.85311973328 0 0 0 0 139152460.63708496 517146728.23303938 0 517146728.23303938 407909991.75531292 0 0 0 0 -97497515.349754333 -78791584.853160381 0 -78791584.853160381 -133325494.51155615 0 0 0 0 752350219.71272659 145054871.68010354 0 145054871.68010354 89976319.347407341 0 0 0 0 305421745.96481323 -7685427.6629829407 0 -7685427.6629829407 62400789.363168716 0 0 0 0 450020941.26358795 -77558644.790727139 0 -77558644.790727139 -11987911.555988312 0 0 0 0 400539298.03837585 -135754926.94814587 0 -135754926.94814587 81482455.666423798 0 0 0 0 223773858.97676086 -78655129.791851997 0 -78655129.791851997 -10884483.260421753 0 0 0 0 129684687.92114258 -33133736.078397751 0 -33133736.078397751 12934216.981487274 0 0 0 0 355028482.6492424 -26812045.969707966 0 -26812045.969707966 -48643976.672660828 0 0 0 0 335492671.99225616 -13215743.978145123 0 -13215743.978145123 -16994364.17478466 0 0 0 0 336520517.42579651 15056270.864488602 0 15056270.864488602 -47399099.957067013 0 0 0 0 -25544718.859195709 -81038963.780049324 0 -81038963.780049324 -193180688.12409401 0 0 0 0 1093146.8201099895 405362.96630395204 0 405362.96630395204 118449.41300767998 0 0 0 0 -8273512.771484375 42452815.184552193 0 42452815.184552193 -19663596.646584988 0 0 0 0 84517909.726867676 -137471658.14011192 0 -137471658.14011192 90312207.127382278 0 0 0 0 -77493856.324516296 1900373.5185098648 0 1900373.5185098648 75406829.164030075 0 0 0 0 129705972.44671631 -33398126.941296577 0 -33398126.941296577 8936043.9395360947 0 0 0 0 -19031528.261322021 -50787824.203565598 0 -50787824.203565598 75815177.378139496 0 0 0 0 -64344.078060669824 21022.049309510738 0 21022.049309510738 73733.142312375363 0 0 0 0 32335925.457183838 -4464794.4318289757 0 -4464794.4318289757 -11228426.754622459 0 0 0 0 16691672.530687332 2451212.360943079 0 2451212.360943079 38491950.408420563 0 0 0 0 -148412.94887774438 44180.560406649951 0 44180.560406649951 151884.8106656773 0 0 0 0 114149012.00502396 2863522.8701832294 0 2863522.8701832294 1413120.4109725952 0 0 0 0 78396325.517723083 -51376157.915111065 0 -51376157.915111065 17002183.175587177 0 0 0 0 76325403.590648651 41152530.34037447 0 41152530.34037447 18111836.480265141 0 0 0 0 24744315.364847183 -30585904.2128582 0 -30585904.2128582 12382395.773851395 0 0 0 0 352465850.04043102 10300128.281155884 0 10300128.281155884 -63273541.777593613 0 0 0 0 234065506.20536041 -4627490.1573238373 0 -4627490.1573238373 -22450847.023825645 0 0 0 0 212401588.40019989 -45495058.04536438 0 -45495058.04536438 -913303.91646957397 0 0 0 0 216590115.71298218 17577305.391652107 0 17577305.391652107 -13122133.323932171 0 0 0 0 226485131.40812683 -16126646.649331093 0 -16126646.649331093 -26290094.471001148 0 0 0 0 290347939.7342186 36314698.69494319 0 36314698.69494319 -18028847.490471363 0 0 0 0 203254166.44814491 -277827077.36898124 0 -277827077.36898124 -294990940.8560009 0 0 0 0 460134933.17375183 -9499612.9128103256 0 -9499612.9128103256 -55486591.84807539 0 0 0 0 134022649.91722107 130298601.48228574 0 130298601.48228574 -25579167.618926048 0 0 0 0 548738237.68874931 455283326.3245337 0 455283326.3245337 216596082.8377142 0 0 0 0 1434562.2694803886 -205279.3738456649 0 -205279.3738456649 -103033.74872045775 0 0 0 0 240270491.37371826 -337915938.51965475 0 -337915938.51965475 120966779.49709499 0 0 0 0 645431802.77353096 -114848284.91165042 0 -114848284.91165042 182844474.36653996 0 0 0 0 922243048.43235779 1047396490.9389133 0 1047396490.9389133 1337922489.7788477 0 0 0 0 1642145811.3191071 -61738089.949798584 0 -61738089.949798584 -1130958620.3430462 0 0 0 0 -13175187.28635025 -18708174.329706669 0 -18708174.329706669 -23654472.6378479 0 0 0 0 14698518.197906494 -6262458.8583688736 0 -6262458.8583688736 -20035477.658684015 0 0 0 0 33625399.245880127 -22547847.233315468 0 -22547847.233315468 -19385881.423241138 0 0 0 0 3771186.658212088 -109158.33735233167 0 -109158.33735233167 -297044.72263298929 0 0 0 0 48819036.185043335 12577282.679101944 0 12577282.679101944 -105411864.68704796 0 0 0 0 264335324.08706665 -218720099.66299391 0 -218720099.66299391 -543710103.47220957 0 0 0 0 103756466.26467896 69242421.640016556 0 69242421.640016556 -559264020.1071527 0 0 0 0 5191792.7468514908 261267.14254309773 0 261267.14254309773 -465119.48798134032 0 0 0 0 17750865.757171631 -14293175.168638229 0 -14293175.168638229 -73569573.752405524 0 0 0 0 -1490030.8344116211 -3370760.6356137991 0 -3370760.6356137991 -24083729.94241333 0 0 0 0 13263870.999198914 -9177567.9910001755 0 -9177567.9910001755 -24186711.794111639 0 0 0 0 -6644697.5630531311 -15270180.987014532 0 -15270180.987014532 17264149.812143326 0 0 0 0 9340213.4376831055 -15015158.614203453 0 -15015158.614203453 16872345.985447407 0 0 0 0 -166029.44683430716 43129.059775890782 0 43129.059775890782 152893.47491934709 0 0 0 0 -333539.43658256531 -9037315.2862517834 0 -9037315.2862517834 18702625.689718246 0 0 0 0 -7109384.1425857544 902132.79361724854 0 902132.79361724854 15404290.637130737 0 0 0 0 6931983.0566215515 -13215333.414213419 0 -13215333.414213419 21098908.846921921 0 0 0 0 8196929.8206558228 -17235778.540052414 0 -17235778.540052414 25042702.962086357 0 0 0 0 1281301.1812210083 -3148839.8377070427 0 -3148839.8377070427 8591935.1713776588 0 0 0 0 -4195933.7161922455 -2631100.5884795189 0 -2631100.5884795189 9417062.0948534012 0 0 0 0 -2576815.2899551392 -776586.52477478981 0 -776586.52477478981 9796113.0666999817 0 0 0 0 1075600.6209831238 -2597655.6920391917 0 -2597655.6920391917 8395725.5873022079 0 0 0 0 -9414702.5397033691 -173096.75916862488 0 -173096.75916862488 9602927.3219771385 0 0 0 0 -88936.995328336954 23550.59329801891 0 23550.59329801891 79513.651158337947 0 0 0 0 -11884376.176017761 -11570041.1588521 0 -11570041.1588521 3217366.3724279404 0 0 0 0 3494953.3128852844 -10768007.439724445 0 -10768007.439724445 -14044535.95912075 0 0 0 0 1904980.8114051819 -3223951.5224475861 0 -3223951.5224475861 -11564398.718869209 0 0 0 0 -5617513.7075004578 -10015938.290131569 0 -10015938.290131569 -15567366.189287186 0 0 0 0 -3224834.464881897 -12901967.923942566 0 -12901967.923942566 -18208402.840647697 0 0 0 0 10595386.69939661 -24894750.151200891 0 -24894750.151200891 -10417967.739160538 0 0 0 0 3713199.3594989777 -14793869.174443483 0 -14793869.174443483 -22609189.232053757 0 0 0 0 95335838.299438477 145059610.78967285 0 145059610.78967285 -102952555.7414732 0 0 0 0 6024038.3831914663 491476.34303514124 0 491476.34303514124 -788638.27165995224 0 0 0 0 4210468.2959136963 -8398586.2721147537 0 -8398586.2721147537 -30655942.234571457 0 0 0 0 4663281.3374013901 1466498.2755478621 0 1466498.2755478621 -9813530.811498642 0 0 0 0 5517322.9200057983 -1643544.6297388077 0 -1643544.6297388077 -18511183.055203438 0 0 0 0 -23757288.858001709 16798076.449382663 0 16798076.449382663 842463.93221759796 0 0 0 0 -205381080.92298126 195060110.01943541 0 195060110.01943541 -48729516.129992485 0 0 0 0 50585.956620108336 340555.84874160402 0 340555.84874160402 -210308.17242410034 0 0 0 0 -10654046.594848633 1569033.9391942024 0 1569033.9391942024 10533107.203942299 0 0 0 0 -1686317.8501052856 -4570465.4926686287 0 -4570465.4926686287 7595193.735004425 0 0 0 0 -97526617.559648514 130943014.98945475 0 130943014.98945475 25076382.126766205 0 0 0 0 -92462219.541334152 157821282.49251169 0 157821282.49251169 -30853397.255661011 0 0 0 0 -176718530.13723755 76904919.77909708 0 76904919.77909708 -105372945.55759352 0 0 0 0 4255925.3181037903 -25832787.484666944 0 -25832787.484666944 -88095825.076665878 0 0 0 0 -51587196.52381587 185693539.88921779 0 185693539.88921779 -128510086.02686119 0 0 0 0 114220.69667369127 144971.0490871435 0 144971.0490871435 -147275.44150531036 0 0 0 0 -51633162.346229553 183909965.08906364 0 183909965.08906364 -122915714.86277574 0 0 0 0 -118456038.82872009 184672101.37126732 0 184672101.37126732 -61921307.586560249 0 0 0 0 -174006753.57061768 39856186.511044025 0 39856186.511044025 -200465008.42321491 0 0 0 0 -84995851.274147034 170068580.24073195 0 170068580.24073195 -24870226.498480797 0 0 0 0 -28388521.260787964 144365470.77194309 0 144365470.77194309 -172078974.03153658 0 0 0 0 -73682519.87991333 195624585.71677637 0 195624585.71677637 -54392903.268963814 0 0 0 0 114001578.05361938 212984365.0882082 0 212984365.0882082 -403747827.88388634 0 0 0 0 215366887.88822937 -104615000.48662925 0 -104615000.48662925 65440711.709552765 0 0 0 0 93957383.586921692 104667591.90588808 0 104667591.90588808 -20378388.865226746 0 0 0 0 62340462.947944641 75571371.074302912 0 75571371.074302912 103728293.64419937 0 0 0 0 41004213.083618164 79879416.227952957 0 79879416.227952957 -28804372.310962051 0 0 0 0 -61245474.856262207 98722479.083780289 0 98722479.083780289 40630489.794335365 0 0 0 0 -42660922.509643555 143402543.91427112 0 143402543.91427112 -88269714.981078863 0 0 0 0 1453730.0489959717 132918927.22742033 0 132918927.22742033 55636555.751103401 0 0 0 0 -26303514.56338501 105847540.29873765 0 105847540.29873765 63336475.025260448 0 0 0 0 51114610.861206055 23495814.422026157 0 23495814.422026157 54395315.369355001 0 0 0 0 4369624.4797515869 5584784.6437737942 0 5584784.6437737942 76786152.042231083 0 0 0 0 282534781.01146698 23070892.189663649 0 23070892.189663649 138866209.83171129 0 0 0 0 95049669.52897644 82241188.085500002 0 82241188.085500002 129346768.37552691 0 0 0 0 172683898.48234558 -62015410.394044399 0 -62015410.394044399 116808199.45992497 0 0 0 0 199595128.00318909 -12101125.222405434 0 -12101125.222405434 85227814.691309035 0 0 0 0 202471176.88467407 -38323773.21937108 0 -38323773.21937108 175415373.50652742 0 0 0 0 439325080.38162231 -25958656.26850462 0 -25958656.26850462 95227753.513494015 0 0 0 0 318930699.95393372 -73100372.249798298 0 -73100372.249798298 135079759.11119413 0 0 0 0 250091569.79502106 -3661006.9577975273 0 -3661006.9577975273 87814732.982482076 0 0 0 0 309876005.2464447 11665727.59262085 0 11665727.59262085 131391268.04467201 0 0 0 0 404547530.49345398 -93328028.134977579 0 -93328028.134977579 101968300.14048746 0 0 0 0 188938963.64523315 -69999370.471878588 0 -69999370.471878588 89893357.429992586 0 0 0 0 77462978.650222778 15919972.316451073 0 15919972.316451073 52545714.506112814 0 0 0 0 4674557.8614196777 52215401.805161357 0 52215401.805161357 72020349.956262112 0 0 0 0 73362394.288818359 15267996.898759365 0 15267996.898759365 131476417.45453167 0 0 0 0 34232404.696975708 -20154619.839446902 0 -20154619.839446902 74068105.026608437 0 0 0 0 -66975502.800460815 35947360.14114809 0 35947360.14114809 98120173.177381039 0 0 0 0 -145388814.41439819 55036013.976133585 0 55036013.976133585 66959898.163670897 0 0 0 0 -61740765.488510132 64130156.484564781 0 64130156.484564781 10001701.089309454 0 0 0 0 -59045500.300292969 18059034.617367625 0 18059034.617367625 34600241.154506266 0 0 0 0 -175357688.2832489 58119125.713597655 0 58119125.713597655 40141062.676968098 0 0 0 0 -137229726.17951965 62468575.266641736 0 62468575.266641736 -1053450.2746305466 0 0 0 0 -182353152.61135864 65121159.231924772 0 65121159.231924772 9028821.605588913 0 0 0 0 -138902157.93344116 109046484.84599376 0 109046484.84599376 -92054635.333818436 0 0 0 0 -53726913.190536499 98312760.141769409 0 98312760.141769409 -53585910.99380672 0 0 0 0 -52314695.900360107 67711683.824005127 0 67711683.824005127 8008684.9379262328 0 0 0 0 -149133298.539114 79813040.078066856 0 79813040.078066856 40133079.201564312 0 0 0 0 1002576180.6900177 148159646.06517029 0 148159646.06517029 -345765743.04984546 0 0 0 0 214376463.82521057 -493724871.16799808 0 -493724871.16799808 314964619.23087025 0 0 0 0 488601221.46421051 8948717.9539624453 0 8948717.9539624453 394660728.06945324 0 0 0 0 588738203.87973022 -224553806.28698945 0 -224553806.28698945 275484437.93717575 0 0 0 0 373797222.70046616 176073221.92981291 0 176073221.92981291 475728861.50421524 0 0 0 0 132264.6913595919 252099.49246511422 0 252099.49246511422 818038.05599047104 0 0 0 0 174978947.67720032 -293814694.28310585 0 -293814694.28310585 162562705.03402901 0 0 0 0 -98790017.078689575 -322844359.9897871 0 -322844359.9897871 261980317.23219156 0 0 0 0 161659279.88074875 -275513910.73016226 0 -275513910.73016226 215205528.30703068 0 0 0 0 -103513528.74651337 -122280569.74637741 0 -122280569.74637741 -237050474.269559 0 0 0 0 214068030.91292191 -397140657.78448224 0 -397140657.78448224 -111965617.11577034 0 0 0 0 -129699286.65827942 -283828562.31888008 0 -283828562.31888008 260048076.65808225 0 0 0 0 -423769920.88700867 -198075353.38075918 0 -198075353.38075918 59755202.675333738 0 0 0 0 112108.60193104111 197402.33639136143 0 197402.33639136143 337051.56878767768 0 0 0 0 -83892720.15735054 -384698081.95778257 0 -384698081.95778257 153482661.20293665 0 0 0 0 1322349971.2472763 -146129494.15889716 0 -146129494.15889716 -52054495.259509087 0 0 0 0 -109915165.73250771 -296840288.31291163 0 -296840288.31291163 220626656.76018095 0 0 0 0 334077541.60408783 37666467.637536049 0 37666467.637536049 -231185994.42905045 0 0 0 0 13430520.860046387 -245883707.36237383 0 -245883707.36237383 310852370.69804716 0 0 0 0 332417741.62124634 99074626.045826435 0 99074626.045826435 -85395597.408670425 0 0 0 0 -136520584.52626038 113045124.68458176 0 113045124.68458176 11214562.797521591 0 0 0 0 745802227.86578369 -433998512.07618475 0 -433998512.07618475 162836384.55901361 0 0 0 0 316407553.01779175 -12319381.912728071 0 -12319381.912728071 129654865.02541447 0 0 0 0 442388473.26823425 -167343482.89397621 0 -167343482.89397621 125865219.06887047 0 0 0 0 663160861.46735001 -61598946.107598126 0 -61598946.107598126 39630675.426337242 0 0 0 0 727689315.72332764 -171722790.50047243 0 -171722790.50047243 -12400844.930886269 0 0 0 0 979416923.5557785 -308215945.24154866 0 -308215945.24154866 67709732.556470394 0 0 0 0 863763367.31840515 83683811.706183791 0 83683811.706183791 66852766.057823181 0 0 0 0 668058432.42140198 -56799210.256457329 0 -56799210.256457329 39401847.555713654 0 0 0 0 439496784.80921936 -31171282.23382926 0 -31171282.23382926 220703363.82124138 0 0 0 0 710647689.46597672 -52023538.781350553 0 -52023538.781350553 11232522.30351764 0 0 0 0 566144911.09248352 -67842175.528669477 0 -67842175.528669477 88061167.0636518 0 0 0 0 406190459.43130493 -34583547.212510943 0 -34583547.212510943 172702419.96876359 0 0 0 0 559837543.22597885 704664.94811159372 0 704664.94811159372 338891795.19692707 0 0 0 0 480810346.96091461 203180909.84218109 0 203180909.84218109 86718581.887101203 0 0 0 0 -4848002.1382141113 4163897.609663859 0 4163897.609663859 -1242345.514161855 0 0 0 0 1014077.3206920535 346819.7369942572 0 346819.7369942572 258256.1245342287 0 0 0 0 177197.13746457547 -36693.447943098377 0 -36693.447943098377 38791.249715713217 0 0 0 0 -39569224.682478905 -101367344.03606349 0 -101367344.03606349 -240362298.46679103 0 0 0 0 683897104.72702789 -164250001.79428291 0 -164250001.79428291 35570725.721145153 0 0 0 0 357899.12665310828 229975.39380316995 0 229975.39380316995 964234.06789829419 0 0 0 0 2927280.8279614486 -385986.23294485174 0 -385986.23294485174 -269282.80533243442 0 0 0 0 -16405081.377456665 -260600631.24275452 0 -260600631.24275452 -112415970.18711853 0 0 0 0 -3193136.9336738586 8236837.0379450023 0 8236837.0379450023 -232730.21339154243 0 0 0 0 -2803821.9352722168 7056396.0041602254 0 7056396.0041602254 -6076228.7256684601 0 0 0 0 -369584.20429229736 4883470.2239939272 0 4883470.2239939272 -4451476.6614966094 0 0 0 0 4436821.0763931274 10698550.275609985 0 10698550.275609985 512697.74450927973 0 0 0 0 7133426.5557165146 17495701.419883959 0 17495701.419883959 -19957979.108064294 0 0 0 0 434168959.46032715 94378726.864146203 0 94378726.864146203 -994390374.85512149 0 0 0 0 4115421.0796762332 115610.26091509499 0 115610.26091509499 -372244.84357604047 0 0 0 0 3763972.7479553223 -1703872.4909978509 0 -1703872.4909978509 586363.4803506732 0 0 0 0 822528.53051757812 -1545019.4194865823 0 -1545019.4194865823 3551852.3077151179 0 0 0 0 1600848.5034675598 485808.79182908684 0 485808.79182908684 -1961283.3120539188 0 0 0 0 5395502.9932250977 -3521596.364692241 0 -3521596.364692241 2362947.1206448674 0 0 0 0 2164091.7601776123 -3543081.3906757236 0 -3543081.3906757236 6523776.7664490342 0 0 0 0 998082.60908171535 1797043.7071902985 0 1797043.7071902985 6936217.4525491595 0 0 0 0 -2323818.2463378906 2554121.1277573705 0 2554121.1277573705 11809513.452584267 0 0 0 0 -2649738.1472654343 4935497.7200768404 0 4935497.7200768404 2161606.1836709976 0 0 0 0 -5231553.3310012817 4883465.3555991575 0 4883465.3555991575 941636.02503910661 0 0 0 0 -5528528.5489645004 1809128.0514768409 0 1809128.0514768409 256254.54712057114 0 0 0 0 -4805022.4127960205 4051296.977658838 0 4051296.977658838 2205954.8353842795 0 0 0 0 -5501426.7634735107 2859952.6840866655 0 2859952.6840866655 4909458.8407299668 0 0 0 0 -15080600.748329163 3566554.1554008052 0 3566554.1554008052 2536070.925073646 0 0 0 0 582416465.13933563 66448985.728090227 0 66448985.728090227 -25797297.142065525 0 0 0 0 636365.8989230115 342173.42926459201 0 342173.42926459201 123393.83467950666 0 0 0 0 645826955.12536621 -6390378.3641245365 0 -6390378.3641245365 -11172916.646764278 0 0 0 0 466222144.96897125 32199901.505310357 0 32199901.505310357 -8094541.2127859592 0 0 0 0 479122072.21479797 -3194495.9628072083 0 -3194495.9628072083 -25437947.381514966 0 0 0 0 440231212.10651255 22047331.565355387 0 22047331.565355387 27380996.534756631 0 0 0 0 440027958.75711107 25632148.290688589 0 25632148.290688589 -32118901.687614679 0 0 0 0 451009965.67803192 58752243.060138732 0 58752243.060138732 21272.381584036917 0 0 0 0 -33161088.87612915 40066144.280578375 0 40066144.280578375 244104.70042464478 0 0 0 0 584717591.28609467 17167766.815114416 0 17167766.815114416 -36957755.788720429 0 0 0 0 504267.12203317927 231639.23777576163 0 231639.23777576163 37139.97405770795 0 0 0 0 -420095.68118286133 4318326.800516773 0 4318326.800516773 -5800346.9815215617 0 0 0 0 3703877.9644470215 -2573433.4543299004 0 -2573433.4543299004 -658415.56858133525 0 0 0 0 35011.200876308605 14634.441315989941 0 14634.441315989941 -12965.170096180109 0 0 0 0 1827311.6058959961 321732.27901657525 0 321732.27901657525 6095.6879937610101 0 0 0 0 -3614909.0517406464 -6059947.957448516 0 -6059947.957448516 714167.57652263343 0 0 0 0 6086756.71434021 -5549140.0151288686 0 -5549140.0151288686 -1296490.0272998349 0 0 0 0 59791.344851113856 36839.01648282446 0 36839.01648282446 4019.5433361847931 0 0 0 0 3346567.962097168 -3326708.6134590209 0 -3326708.6134590209 226655.96344193257 0 0 0 0 13628603.823841572 -2978545.0030622291 0 -2978545.0030622291 -1184271.0912235565 0 0 0 0 -20183099.772602081 -2781675.4138316726 0 -2781675.4138316726 9823223.6776355095 0 0 0 0 44315780.575469971 30859152.00598368 0 30859152.00598368 39366414.496835113 0 0 0 0 -38045051.387390137 -29535629.698938228 0 -29535629.698938228 45281236.649580188 0 0 0 0 -210992753.27032471 38886016.498012006 0 38886016.498012006 52679086.119544297 0 0 0 0 -71886150.51965332 -6193068.3114666939 0 -6193068.3114666939 15770443.515561938 0 0 0 0 -161840668.69347382 22394405.608746648 0 22394405.608746648 23843529.402388573 0 0 0 0 -148612102.66239166 49441669.939107627 0 49441669.939107627 57973817.552918911 0 0 0 0 -69668894.949010849 8481829.024888128 0 8481829.024888128 76706950.299076796 0 0 0 0 46520409.546981812 1243096.7563620806 0 1243096.7563620806 38088308.603529453 0 0 0 0 -49588759.322372437 38602204.707708418 0 38602204.707708418 73806256.48896265 0 0 0 0 156824543.64183044 -35992564.621669173 0 -35992564.621669173 34508825.566946089 0 0 0 0 95051330.021003723 29765773.37849015 0 29765773.37849015 65234184.199359894 0 0 0 0 41430813.799304962 -9120110.6125423312 0 -9120110.6125423312 90708841.085927248 0 0 0 0 403459188.16416931 -77549756.443949461 0 -77549756.443949461 34177544.971678376 0 0 0 0 343405865.97826385 49641465.145600528 0 49641465.145600528 19159623.493111581 0 0 0 0 189061598.79492188 12728032.81854859 0 12728032.81854859 34319216.044558942 0 0 0 0 295113804.62419891 -37617590.185154743 0 -37617590.185154743 -8209215.7416727245 0 0 0 0 132851525.05506134 60556915.693354733 0 60556915.693354733 16330050.037552372 0 0 0 0 317526564.06813049 -24359696.845587298 0 -24359696.845587298 9357052.6542232484 0 0 0 0 257474710.21449661 64029723.086054265 0 64029723.086054265 412.63879910981632 0 0 0 0 40963468.492652893 -40012446.053336754 0 -40012446.053336754 8319839.9996960908 0 0 0 0 -23702706.885080338 69166966.204263881 0 69166966.204263881 -114563.31028532283 0 0 0 0 -64291773.932044983 25738824.46331298 0 25738824.46331298 -10776218.669761389 0 0 0 0 -327834376.69072723 -50814580.455212936 0 -50814580.455212936 27857463.990069181 0 0 0 0 1080650.435508728 3744151.1882910808 0 3744151.1882910808 8354.4730017467118 0 0 0 0 2996812.1186676025 4579232.3172300337 0 4579232.3172300337 -4839413.9489711616 0 0 0 0 -61361.017475004308 164668.57269088179 0 164668.57269088179 8314.4890207058143 0 0 0 0 4442227.7432250977 1181543.620695659 0 1181543.620695659 -1430540.0869393507 0 0 0 0 3427211.76146698 2238685.5052117696 0 2238685.5052117696 -2314091.2035341701 0 0 0 0 3385793.2816405296 1400216.1416092762 0 1400216.1416092762 -645914.43670490477 0 0 0 0 2947349.8547363281 1007791.7476289156 0 1007791.7476289156 -930385.89372166339 0 0 0 0 3741317.1421051025 1385247.7037057187 0 1385247.7037057187 -1161695.4495808166 0 0 0 0 3409604.994972229 1357850.0584694205 0 1357850.0584694205 -323835.99923196994 0 0 0 0 3050213.6427612305 1588492.7912366418 0 1588492.7912366418 -456658.72624779679 0 0 0 0 3641597.1017074585 1016322.0692914793 0 1016322.0692914793 -1142243.7000651993 0 0 0 0 -40.418647628743201 45750.353520954028 0 45750.353520954028 7058.7857333493694 0 0 0 0 2110155.0172805786 -1821664.3459885395 0 -1821664.3459885395 5976615.1015434414 0 0 0 0 4637227.7078399658 960499.88592412742 0 960499.88592412742 -1254756.1262254985 0 0 0 0 4257736.8523483276 732599.93605535151 0 732599.93605535151 -448078.66337534413 0 0 0 0 3268690.162612915 985047.54810725246 0 985047.54810725246 190842.2676703902 0 0 0 0 1468332.0344390869 1342922.6839022287 0 1342922.6839022287 491831.3643857995 0 0 0 0 -281473679.52229309 -46828810.199234903 0 -46828810.199234903 29424229.703299046 0 0 0 0 -9731.7739741373807 322631.42788645625 0 322631.42788645625 -139414.57201501745 0 0 0 0 -15673.148579383269 225049.04480792955 0 225049.04480792955 38781.723928990577 0 0 0 0 2246529.1189498901 1872525.046087116 0 1872525.046087116 -3189175.160493277 0 0 0 0 4841040.7818374634 1518388.4678673169 0 1518388.4678673169 -936211.58823228627 0 0 0 0 4035187.6945266724 2264134.3186673922 0 2264134.3186673922 -250112.86899813451 0 0 0 0 2509480.27602005 2364788.6158433985 0 2364788.6158433985 328944.42039154936 0 0 0 0 165425.35276816785 123027.06547105312 0 123027.06547105312 -273599.66225774644 0 0 0 0 5846758.7576446533 -870052.04673990235 0 -870052.04673990235 -807888.50974832475 0 0 0 0 -63255.205230712891 1265179.3613244919 0 1265179.3613244919 -92943.64218950225 0 0 0 0 -12945.330844327342 591530.46187542565 0 591530.46187542565 3144.3932573874481 0 0 0 0 -183352581.1855011 39131368.821110964 0 39131368.821110964 20905075.860205844 0 0 0 0 -199442456.94188118 28116864.616237819 0 28116864.616237819 16993183.599169254 0 0 0 0 126826.66771982238 322781.5263549909 0 322781.5263549909 -260099.49155832737 0 0 0 0 2222428.02734375 1252008.0063107777 0 1252008.0063107777 207390.3268295899 0 0 0 0 2372838.2743682861 819312.78549516015 0 819312.78549516015 209522.10808651149 0 0 0 0 5821324.7473526001 924210.85705958866 0 924210.85705958866 -551630.01772966981 0 0 0 0 3973302.5854110718 1772033.2937403759 0 1772033.2937403759 543793.1924741324 0 0 0 0 4302195.5465393066 186532.0671151639 0 186532.0671151639 -1150002.3099294924 0 0 0 0 2438861.7801742554 1021963.7708795872 0 1021963.7708795872 1074339.1419487186 0 0 0 0 731.78738348186016 1347.0994933880866 0 1347.0994933880866 -2791.6207702821011 0 0 0 0 2339410.45586586 1318912.4820918159 0 1318912.4820918159 820707.66698727757 0 0 0 0 1343421.8551139832 -672811.72643116699 0 -672811.72643116699 -3002022.6254289309 0 0 0 0 1885517.6104164124 470860.70868980431 0 470860.70868980431 -590957.46061177785 0 0 0 0 3013671.5984191895 690393.08983524155 0 690393.08983524155 -609691.22446433839 0 0 0 0 1913803.198097229 529270.04316688445 0 529270.04316688445 -456708.96405064885 0 0 0 0 2828046.9554138184 1234204.5947039551 0 1234204.5947039551 -5424.1905873179721 0 0 0 0 1117873.2012634277 839935.42317577708 0 839935.42317577708 4327.4046440987622 0 0 0 0 1076409.6313171387 836365.96110997815 0 836365.96110997815 114435.75535707758 0 0 0 0 753.65187765657902 727.68337250640616 0 727.68337250640616 -31.621136202663468 0 0 0 0 31413.241813659668 1054242.2296328831 0 1054242.2296328831 1699436.6976381349 0 0 0 0 -110291.93469238281 -166137.09458548296 0 -166137.09458548296 -746.56673035640426 0 0 0 0 138732.66360473633 83934.992163500749 0 83934.992163500749 990171.10476108349 0 0 0 0 314823.76628112793 673362.67538456642 0 673362.67538456642 156781.95576810697 0 0 0 0 456124.77313232422 2907.3633929922362 0 2907.3633929922362 -463328.65457566804 0 0 0 0 373675.41566467285 -98214.722779788543 0 -98214.722779788543 -153440.54214895359 0 0 0 0 -222146.17227172852 96615.579087815597 0 96615.579087815597 -212788.2753535629 0 0 0 0 3388101.0292739868 2343548.4392300332 0 2343548.4392300332 538201.08890401863 0 0 0 0 90514.139232635498 -84598.690602859526 0 -84598.690602859526 -329980.39926449582 0 0 0 0 474942.53193855286 741470.1700925742 0 741470.1700925742 354687.83610729803 0 0 0 0 412921.86308288574 -412115.47466335009 0 -412115.47466335009 1682.2525475938828 0 0 0 0 1638.2033982165158 789.24433077732101 0 789.24433077732101 -407.00787622052445 0 0 0 0 -59960.360195159912 596547.5238264947 0 596547.5238264947 334209.88149882574 0 0 0 0 143989.04461669922 74829.202376930392 0 74829.202376930392 -438856.59099332773 0 0 0 0 1316.2695322670043 576.18041341286153 0 576.18041341286153 -431.71231484124763 0 0 0 0 649129.28438568115 486063.66394311882 0 486063.66394311882 -1027417.1354963073 0 0 0 0 5401573.2933654785 2624145.1626940076 0 2624145.1626940076 573486.36313413549 0 0 0 0 216942.04922485352 439233.11225749465 0 439233.11225749465 -347006.50366634876 0 0 0 0 57010.56120300293 271956.11174138077 0 271956.11174138077 -852655.99412399437 0 0 0 0 -363241.91476011276 -14338.052367766941 0 -14338.052367766941 -598533.69586018892 0 0 0 0 185190.19395446777 347201.11267639825 0 347201.11267639825 -660067.57878202258 0 0 0 0 -15902.977416992188 113239.80883602984 0 113239.80883602984 -147888.4730798509 0 0 0 0 22152.994970660657 34118.499739560299 0 34118.499739560299 -39513.106726522135 0 0 0 0 138935.18922424316 79898.728262645338 0 79898.728262645338 -960968.97816056036 0 0 0 0 6185489.0530166626 -12000316.649407241 0 -12000316.649407241 -8566054.1623173207 0 0 0 0 3118696.5445556641 384419.82743970491 0 384419.82743970491 650852.79825424775 0 0 0 0 -13939.772328823805 -13355.748047916684 0 -13355.748047916684 20072.609412344915 0 0 0 0 8923936.9791717529 -472067.34477154538 0 -472067.34477154538 9311.0267033651471 0 0 0 0 31850.585689429194 -9833.9431521743536 0 -9833.9431521743536 17788.040113313287 0 0 0 0 275064.62127685547 -373074.36207832792 0 -373074.36207832792 -2113219.1872796877 0 0 0 0 4374.121240273118 8377.6623863503337 0 8377.6623863503337 -12357.3526132199 0 0 0 0 309309.45310974121 657116.88394011906 0 657116.88394011906 -1102792.4675084064 0 0 0 0 -6316.2737731933594 69810.47220833227 0 69810.47220833227 -22894.682295914739 0 0 0 0 150539.90385437012 343450.26414760761 0 343450.26414760761 285241.85212285817 0 0 0 0 417899.13116455078 169308.45838308334 0 169308.45838308334 81001.748077724129 0 0 0 0 373619.75256347656 179529.74603215139 0 179529.74603215139 287504.82549308613 0 0 0 0 928664.73919677734 836686.92687688954 0 836686.92687688954 532688.59368848708 0 0 0 0 725635.75006103516 841141.32626527175 0 841141.32626527175 856357.33355974033 0 0 0 0 1301968.2496871948 582536.82512161136 0 582536.82512161136 -23753.743606995791 0 0 0 0 1165566.7480621338 492540.68574079685 0 492540.68574079685 -296520.66297490895 0 0 0 0 1594016.7383346558 910071.07556509133 0 910071.07556509133 -43006.600803215057 0 0 0 0 1160707.3866424561 530442.14312177524 0 530442.14312177524 -436211.49489130825 0 0 0 0 640608.38433456421 305197.88093817513 0 305197.88093817513 -136053.52618045732 0 0 0 0 466834.37899017334 220492.99705060851 0 220492.99705060851 -501192.61351765692 0 0 0 0 -75274.44660949707 221600.12980286032 0 221600.12980286032 82688.131300736219 0 0 0 0 668561.81555175781 597292.11529826 0 597292.11529826 72909.18963505514 0 0 0 0 -12631778.851486206 6913670.7722884566 0 6913670.7722884566 3440937.5753043666 0 0 0 0 645106.08050918579 571399.69468775915 0 571399.69468775915 -314498.77432302758 0 0 0 0 375577.32310614921 -190767.88462983351 0 -190767.88462983351 12709.778317099997 0 0 0 0 614986.18897533417 91595.71598043479 0 91595.71598043479 -900578.33103770018 0 0 0 0 52888.811477024108 60366.245930978563 0 60366.245930978563 -48505.931703968366 0 0 0 0 684548.34539794922 943937.14342083782 0 943937.14342083782 -546968.82953202724 0 0 0 0 1072432.3973693848 337247.87755395472 0 337247.87755395472 -652248.47730135173 0 0 0 0 1557997.8277893066 522402.9807703197 0 522402.9807703197 -1056008.6446317062 0 0 0 0 1789530.5301818848 508109.99418950826 0 508109.99418950826 -749781.60629922152 0 0 0 0 1535695.3552703857 568162.74975607917 0 568162.74975607917 -659598.33654266596 0 0 0 0 1444902.8900604248 693817.07010629028 0 693817.07010629028 -399308.61334183067 0 0 0 0 916980.32374572754 578442.6385246776 0 578442.6385246776 -354660.18538083136 0 0 0 0 -3980200.1162948608 -5051939.1223813519 0 -5051939.1223813519 1014259.6684577987 0 0 0 0 16101033.517326355 -7751948.3632539883 0 -7751948.3632539883 -6747697.2003506199 0 0 0 0 6467827.054649353 1830770.3917031158 0 1830770.3917031158 5106817.5238155201 0 0 0 0 169792.49832776934 -99588.81399182789 0 -99588.81399182789 68847.00104162241 0 0 0 0 -71966.276489257812 221321.81019085459 0 221321.81019085459 -78358.938310170546 0 0 0 0 1104628.5128803253 14546360.773992255 0 14546360.773992255 -5441610.642421037 0 0 0 0 26544305.310920715 -2280018.859246999 0 -2280018.859246999 -11293625.709342569 0 0 0 0 -12034757.390411377 10889332.218211945 0 10889332.218211945 22370400.515852273 0 0 0 0 -12353673.52482605 -10497731.062853619 0 -10497731.062853619 21889695.958478525 0 0 0 0 18806720.056022644 -18550672.010549311 0 -18550672.010549311 13327572.032602385 0 0 0 0 -1656981.4108123779 -1920592.5492482409 0 -1920592.5492482409 12184613.193569362 0 0 0 0 -6911.888139763847 24163.417081055231 0 24163.417081055231 36336.423594049833 0 0 0 0 1403702.8675537109 -2918636.4376844764 0 -2918636.4376844764 -2682661.7592729479 0 0 0 0 2580140.9358215332 13656321.661568806 0 13656321.661568806 4364573.5291378275 0 0 0 0 3297464.1186418533 4141774.7882399913 0 4141774.7882399913 -22486761.397281468 0 0 0 0 72823.337618585676 -215841.30832895683 0 -215841.30832895683 -14992.770318765186 0 0 0 0 528401.10795593262 -20487.595060348511 0 -20487.595060348511 -1076518.9131907821 0 0 0 0 834635.4878597036 -367815.1684988311 0 -367815.1684988311 -104698.16063116817 0 0 0 0 786238.94335424155 53408.818684588186 0 53408.818684588186 -218719.1588761562 0 0 0 0 24513276.116939545 -17021992.248716716 0 -17021992.248716716 -24881658.569309115 0 0 0 0 -3133578.0565261841 -13596151.540661454 0 -13596151.540661454 34605741.074573576 0 0 0 0 1495572.9703143016 -393640.36559516471 0 -393640.36559516471 -79681.123601130734 0 0 0 0 -8301383.8616104126 -8506202.5897448063 0 -8506202.5897448063 69049173.172057271 0 0 0 0 2734667.8321075439 -11015111.513884008 0 -11015111.513884008 27256063.481808662 0 0 0 0 1350651.2498474121 597174.6791998595 0 597174.6791998595 -588700.3202093523 0 0 0 0 563709.36447143555 -123479.5614297241 0 -123479.5614297241 -648839.9566270113 0 0 0 0 1095882.2514777109 -119005.93870713469 0 -119005.93870713469 -119058.29060779813 0 0 0 0 1580933.5782928467 613545.404463429 0 613545.404463429 -624624.27578558028 0 0 0 0 1726048.9036407471 690505.47589313239 0 690505.47589313239 -807138.85793147981 0 0 0 0 310019.39897155762 128636.21750056744 0 128636.21750056744 -442054.36964613199 0 0 0 0 697103.64551311731 -154791.89151847875 0 -154791.89151847875 -76507.440982882472 0 0 0 0 -11651769.628189087 -11643222.156211004 0 -11643222.156211004 -7284192.6999939978 0 0 0 0 6007913.8612136841 -10846777.422927141 0 -10846777.422927141 13225110.855788708 0 0 0 0 5465553.4403991699 -11757418.674651504 0 -11757418.674651504 11905936.336772382 0 0 0 0 571021.74401787668 -156934.60139758536 0 -156934.60139758536 -274817.02909134829 0 0 0 0 1619329.8961486816 -862528.13240844011 0 -862528.13240844011 -1319557.5774462968 0 0 0 0 1399244.7477783822 26125.092346323887 0 26125.092346323887 -790863.51591550512 0 0 0 0 957428.21938414872 -813401.06006205734 0 -813401.06006205734 -564238.27737762325 0 0 0 0 2276107.3767700195 205027.31491320953 0 205027.31491320953 -877514.37610636652 0 0 0 0 2304345.5183410645 283860.07924616709 0 283860.07924616709 -749416.86239562929 0 0 0 0 1537319.0208034515 289338.58697607508 0 289338.58697607508 -734564.52054613829 0 0 0 0 1745034.7448272705 477831.59991325065 0 477831.59991325065 -738567.57831054926 0 0 0 0 2794735.3475494385 -64778.682881187648 0 -64778.682881187648 -950709.02719422989 0 0 0 0 2583688.3639526367 380093.8231471125 0 380093.8231471125 -908266.90829871222 0 0 0 0 1776000.1756019294 -302895.63181042485 0 -302895.63181042485 -993081.57440818683 0 0 0 0 2304150.5658738613 -247710.41725153872 0 -247710.41725153872 -703909.74772485346 0 0 0 0 1669037.0139770508 -429188.40706765652 0 -429188.40706765652 -2970022.2419452071 0 0 0 0 771212.82776641846 -14644.997500658035 0 -14644.997500658035 -805377.05792045593 0 0 0 0 1273327.4651870728 336292.36483994126 0 336292.36483994126 -2159232.9730010629 0 0 0 0 69314.659057617188 80451.480465173721 0 80451.480465173721 -3104570.149744451 0 0 0 0 631500.38619995117 -905556.27527856827 0 -905556.27527856827 -628669.58923411369 0 0 0 0 533001.12335205078 -772244.12801170349 0 -772244.12801170349 -261960.00232374668 0 0 0 0 10639379.952209473 4850678.6963090897 0 4850678.6963090897 -8316288.8566417694 0 0 0 0 1576162.5325475177 689435.84028720483 0 689435.84028720483 -1333217.0785991433 0 0 0 0 -2815.517254717648 21669.428843879374 0 21669.428843879374 -54433.530563852692 0 0 0 0 3268004.3122280072 863.96750826761127 0 863.96750826761127 -847058.61296435655 0 0 0 0 7132676.2623977661 -3183829.941464901 0 -3183829.941464901 -2044883.6770343781 0 0 0 0 4893326.1953282654 1285595.0734715853 0 1285595.0734715853 -1942539.9582611658 0 0 0 0 4162214.2470397949 -2336100.2225227356 0 -2336100.2225227356 -1629485.4547998905 0 0 0 0 5321687.6535644531 -3294528.0386581421 0 -3294528.0386581421 -1879272.7330493927 0 0 0 0 2987019.4019427933 -1968584.4696856767 0 -1968584.4696856767 -1111455.3622990181 0 0 0 0 256220.97196976282 -6459.0330395381898 0 -6459.0330395381898 -195006.93051121803 0 0 0 0 5904461.9813232422 6314762.4930591583 0 6314762.4930591583 -7149178.7849903107 0 0 0 0 4886811.0277709961 9007344.5093212128 0 9007344.5093212128 -29950984.812614441 0 0 0 0 6698608.0694940016 240359.88956876856 0 240359.88956876856 -1685215.0571650541 0 0 0 0 -4041552.7729492188 17689582.535950661 0 17689582.535950661 -22951484.814651012 0 0 0 0 5445568.6303100586 2071849.469039917 0 2071849.469039917 -21206615.572854996 0 0 0 0 1002619.1120605469 -7083398.0366401672 0 -7083398.0366401672 -14778553.990484238 0 0 0 0 1574599.8138275146 8030788.0793199539 0 8030788.0793199539 -17080110.163433075 0 0 0 0 3948416.4973449707 3152264.0302886963 0 3152264.0302886963 -8912687.736779213 0 0 0 0 -92300.490051269531 5531425.0246181488 0 5531425.0246181488 -5446849.066493988 0 0 0 0 -438556.84246826172 6574404.7941684723 0 6574404.7941684723 -6400059.7226457596 0 0 0 0 -1019517.7169342041 5950756.9225025177 0 5950756.9225025177 -4493429.462141037 0 0 0 0 -1822084.193145752 7927397.4983377457 0 7927397.4983377457 -8772801.696833849 0 0 0 0 -842939.37159729004 7755363.6297812462 0 7755363.6297812462 -8749476.1504564285 0 0 0 0 548361.30679321289 4388090.0613398552 0 4388090.0613398552 325007.32335186005 0 0 0 0 -275929.41003259784 212475.74760441296 0 212475.74760441296 43920.775182026206 0 0 0 0 -11309559.38689518 11648617.543492198 0 11648617.543492198 -1738895.3934803009 0 0 0 0 -5901160.407989502 5847902.1318693161 0 5847902.1318693161 3742455.9858294725 0 0 0 0 -4586674.7522583008 8603221.6038372517 0 8603221.6038372517 -1074810.4609718323 0 0 0 0 -832757.97637939453 5012328.3510932922 0 5012328.3510932922 -3764099.9440031052 0 0 0 0 -3657833.8221130371 7379529.6843528748 0 7379529.6843528748 407409.22625350952 0 0 0 0 -2014171.0512161255 6247787.2967782021 0 6247787.2967782021 386299.47068023682 0 0 0 0 -2147160.4099121094 3644256.2607679367 0 3644256.2607679367 1922800.5341289043 0 0 0 0 -3591410.4405822754 3880399.0952415466 0 3880399.0952415466 1995846.6129684448 0 0 0 0 -3462293.9264526367 3378572.3917379379 0 3378572.3917379379 3378444.7091460228 0 0 0 0 -3675024.9133682251 2811613.7179751396 0 2811613.7179751396 2373098.0046806335 0 0 0 0 10074844.438796043 471529.13693954051 0 471529.13693954051 317133.07007598877 0 0 0 0 10351771.162612915 3696796.7849144936 0 3696796.7849144936 -108452.7481803894 0 0 0 0 -5127690.0774078369 8064598.665708065 0 8064598.665708065 2723204.4094161987 0 0 0 0 1493640.4021474961 3330.1782265175134 0 3330.1782265175134 -498439.31451644935 0 0 0 0 899778.51307511888 839722.05205317214 0 839722.05205317214 -699496.60186202987 0 0 0 0 3078625.1633071899 -46191.697702972218 0 -46191.697702972218 -1014845.2137885354 0 0 0 0 5022731.3960113525 -1429770.6199169159 0 -1429770.6199169159 -1265601.0011901855 0 0 0 0 -11300734.72454834 -828103.08247900009 0 -828103.08247900009 6162109.9200172424 0 0 0 0 7213087.8955612183 2647105.8291780949 0 2647105.8291780949 -59539.71043920517 0 0 0 0 1152996.4896952789 -118174.16717795469 0 -118174.16717795469 -706562.87750367867 0 0 0 0 3294640.3910217285 -67401.028433511034 0 -67401.028433511034 -1009559.307053566 0 0 0 0 2540628.2895317078 -622387.67550889403 0 -622387.67550889403 -692229.57853171974 0 0 0 0 -1304794.5902404785 1026733.2761316299 0 1026733.2761316299 -1618382.0926861763 0 0 0 0 -308884.28408629447 474721.69328701589 0 474721.69328701589 -172255.00339484843 0 0 0 0 -2633172.9510498047 2681978.5548667908 0 2681978.5548667908 1397939.7631883621 0 0 0 0 -3425120.1048431396 2482970.5024547577 0 2482970.5024547577 1442231.2591920495 0 0 0 0 -596382.85176086426 2023835.9254903793 0 2023835.9254903793 1069036.3113422394 0 0 0 0 -1069832.7823791504 3304671.2604794502 0 3304671.2604794502 -1657017.717092514 0 0 0 0 -5024241.2410888672 -122111.42309188843 0 -122111.42309188843 149633.84092998505 0 0 0 0 60257.323602654971 1290709.3252555691 0 1290709.3252555691 -214918.38836311095 0 0 0 0 138461.62920133956 -56908.569004463032 0 -56908.569004463032 -50913.107079454698 0 0 0 0 -186161563.8931303 91256757.244222268 0 91256757.244222268 -13381909.075711012 0 0 0 0 426660.70222473145 389266.60477149487 0 389266.60477149487 46138.200387954712 0 0 0 0 7190754.5038146973 1133042.0276433229 0 1133042.0276433229 162429.93338394165 0 0 0 0 -120192.37399058044 1141407.3060807306 0 1141407.3060807306 -716484.23940322432 0 0 0 0 -176122420.3969574 46455546.429776907 0 46455546.429776907 -25773955.853265047 0 0 0 0 3826937.6083679199 -987052.43178127706 0 -987052.43178127706 -716279.73055322655 0 0 0 0 4253424.5118999481 348958.02606370067 0 348958.02606370067 -956679.11286087334 0 0 0 0 3438390.7289276123 547594.57812552899 0 547594.57812552899 -578616.34196825605 0 0 0 0 3440408.6707953215 1015069.7314231369 0 1015069.7314231369 -442604.37286186591 0 0 0 0 2308599.5249786377 586640.40509593487 0 586640.40509593487 -599668.80223540217 0 0 0 0 2345916.9091033936 676283.81091584638 0 676283.81091584638 -521328.63579975069 0 0 0 0 1835179.6842041016 624676.43561073765 0 624676.43561073765 -565493.61574723572 0 0 0 0 2459446.4706935883 497163.76636919985 0 497163.76636919985 -816135.96397425234 0 0 0 0 2437812.3887405396 365627.41381405992 0 365627.41381405992 -859351.23838640004 0 0 0 0 2990329.5760650635 92032.436380751431 0 92032.436380751431 -1005498.6045625731 0 0 0 0 3210828.5236968994 506740.40004715882 0 506740.40004715882 -871752.92940196022 0 0 0 0 1774862852.9606552 147769863.34005716 0 147769863.34005716 -349440139.70266283 0 0 0 0 2201936942.5843611 1017782368.1437975 0 1017782368.1437975 -67571253.481818199 0 0 0 0 1469614544.4492054 774140636.31304848 0 774140636.31304848 -234182006.69308007 0 0 0 0 1510002.2742798105 227360.59022029117 0 227360.59022029117 -570625.51575732185 0 0 0 0 1363272284.1862526 157599071.58706796 0 157599071.58706796 1349411.0642327131 0 0 0 0 1322545066.1022491 266992711.87299526 0 266992711.87299526 -224852086.07146102 0 0 0 0 1714949488.6171799 85118418.149590671 0 85118418.149590671 -174854716.84321296 0 0 0 0 1018054.5983906668 258256.05211684108 0 258256.05211684108 -202613.69378640453 0 0 0 0 1881627855.9280624 -471915083.63651067 0 -471915083.63651067 -33484820.626345634 0 0 0 0 1224913764.5858269 -316521605.94980812 0 -316521605.94980812 -20411264.834655881 0 0 0 0 1229982641.4360657 -166910564.24270219 0 -166910564.24270219 -180822836.22126889 0 0 0 0 682165.67646530457 91465.984153189696 0 91465.984153189696 -262513.63472837419 0 0 0 0 925638962.82876587 -351595204.43603432 0 -351595204.43603432 -751970017.52912545 0 0 0 0 796764164.12500763 368573931.29644966 0 368573931.29644966 183707649.17601517 0 0 0 0 1564755511.3036194 1154360458.2721109 0 1154360458.2721109 430214442.65021133 0 0 0 0 716785569.85830688 75824838.922012806 0 75824838.922012806 -162879258.18801504 0 0 0 0 246538958.9237442 -500910669.1574654 0 -500910669.1574654 -217922825.38406199 0 0 0 0 261749399.035923 -177299164.7698738 0 -177299164.7698738 -91950298.155160189 0 0 0 0 707562.51587392204 869394.82725823019 0 869394.82725823019 628394.59982494474 0 0 0 0 -86490435.467315674 190542293.43479753 0 190542293.43479753 154538783.92678475 0 0 0 0 -3877181.72473526 3478579.0557124536 0 3478579.0557124536 4018037.1693451842 0 0 0 0 6270762.4501113892 -2665097.6026544925 0 -2665097.6026544925 -3177829.6860255226 0 0 0 0 612537270.60437012 -46624199.668202579 0 -46624199.668202579 -6505877.6260916889 0 0 0 0 598711701.27315521 43919699.312829286 0 43919699.312829286 -84780216.700352013 0 0 0 0 1087297.1445505545 702180.64440838341 0 702180.64440838341 241356.2370724373 0 0 0 0 -1433567.1603660583 1813989.920272422 0 1813989.920272422 -1353.8006573069079 0 0 0 0 2776807.2821540833 2037362.3448837635 0 2037362.3448837635 854.97061809459058 0 0 0 0 308464.60425186157 -105224.7158724881 0 -105224.7158724881 -435701.10630927049 0 0 0 0 2588345.8340835571 1656005.2497756258 0 1656005.2497756258 -1627681.5591316936 0 0 0 0 2573019.9441547394 1502983.3655590457 0 1502983.3655590457 210987.44571430795 0 0 0 0 8038230.7928161621 290339.28239871305 0 290339.28239871305 -2267098.1946122749 0 0 0 0 4627764.1346149445 -1222876.0924004349 0 -1222876.0924004349 -521647.74995514937 0 0 0 0 5809026.7122879028 980245.41953970527 0 980245.41953970527 -1294068.7142707221 0 0 0 0 155186.79795358283 19338.591069001704 0 19338.591069001704 3124.0439533331064 0 0 0 0 5469310.1519927979 -487129.33163697284 0 -487129.33163697284 -2603.1925377556722 0 0 0 0 4412525.746547699 237216.99426532004 0 237216.99426532004 -498301.65750757587 0 0 0 0 8721793.6190490723 867769.81234928127 0 867769.81234928127 -1182528.135538891 0 0 0 0 7331726.2345275879 435650.71709535073 0 435650.71709535073 -561043.02685007337 0 0 0 0 6257734.3110809326 -1721016.0215678113 0 -1721016.0215678113 -1203937.7693045391 0 0 0 0 7495250.808921814 510563.39767339278 0 510563.39767339278 1708010.5888722863 0 0 0 0 16267213.214859009 -5042860.685097333 0 -5042860.685097333 5175137.3986999355 0 0 0 0 9043642.6778259277 4411856.9957969338 0 4411856.9957969338 332659.42977021239 0 0 0 0 -157241.74837970734 1897137.5558668892 0 1897137.5558668892 -303547.73343982152 0 0 0 0 11090.037363864481 -2604.6801427016035 0 -2604.6801427016035 5296.6458641045465 0 0 0 0 8524065.821472168 -2360186.8086087815 0 -2360186.8086087815 -334660.05719145783 0 0 0 0 13670065.544158936 -4456098.472704391 0 -4456098.472704391 -196262.42500805855 0 0 0 0 10518137.628204346 4175941.4335964606 0 4175941.4335964606 1829583.0561823102 0 0 0 0 1847486.6931991577 1330225.9277902953 0 1330225.9277902953 1184003.4692012053 0 0 0 0 224482.25148836686 46943.200366582721 0 46943.200366582721 6348.0461883999578 0 0 0 0 467308.75926208496 454169.98913561366 0 454169.98913561366 4398720.8573568808 0 0 0 0 94605.073656180874 -13209.879379065707 0 -13209.879379065707 -64261.383528174338 0 0 0 0 7145999.1200370789 -2593980.9778645351 0 -2593980.9778645351 -312945.55391274393 0 0 0 0 630519.14892578125 1703143.8882493041 0 1703143.8882493041 -934858.96850505285 0 0 0 0 621195.11573823821 160237.81008556858 0 160237.81008556858 -97296.582796660136 0 0 0 0 -177115.30644226074 321620.58728386462 0 321620.58728386462 -242831.06663823128 0 0 0 0 13207.408484002575 146946.54813411739 0 146946.54813411739 128193.76157428905 0 0 0 0 7543768.4739933014 -2662988.5534589458 0 -2662988.5534589458 722291.83473038673 0 0 0 0 7829325.9148101807 128419.3467121236 0 128419.3467121236 -1446460.1715553617 0 0 0 0 6854338.4435119629 -3565424.6951518953 0 -3565424.6951518953 5902145.6864567036 0 0 0 0 340617.85763549805 590934.49799374701 0 590934.49799374701 630296.60954860435 0 0 0 0 -172750.328125 770165.10716629028 0 770165.10716629028 1201840.6899062395 0 0 0 0 8467777.7197875977 -12468665.177529845 0 -12468665.177529845 3511444.8672715127 0 0 0 0 3329.4907256346196 79445.572780081071 0 79445.572780081071 85176.433949914368 0 0 0 0 -187648.08699381351 -182909.52561795735 0 -182909.52561795735 -216.51862096786499 0 0 0 0 -192660.25248163939 -39209.983626676723 0 -39209.983626676723 156619.54798874198 0 0 0 0 517798.35288267024 517734.27155120671 0 517734.27155120671 374251.56804032001 0 0 0 0 -779769.46861696243 30724.812309674337 0 30724.812309674337 1746523.8013002989 0 0 0 0 473056.96354675293 1507289.6311045701 0 1507289.6311045701 1474579.8121124222 0 0 0 0 -1812331.6243155003 1546684.3327373965 0 1546684.3327373965 3615407.2564594438 0 0 0 0 2728876.4448251724 6723573.1937575191 0 6723573.1937575191 -3364916.4289700687 0 0 0 0 850319.80535888672 2557355.5274308026 0 2557355.5274308026 171719.16965842992 0 0 0 0 948927.29417419434 1694190.1189660728 0 1694190.1189660728 3336001.3397998512 0 0 0 0 2002841.9934082031 -932933.24321395159 0 -932933.24321395159 -6959752.9450840354 0 0 0 0 2342339.9996919632 458846.71117024496 0 458846.71117024496 -2100858.7371210456 0 0 0 0 1488489.1336108558 -451967.1808316079 0 -451967.1808316079 -45173.565432567499 0 0 0 0 -14320564.349609375 -15597692.584145546 0 -15597692.584145546 183275514.68319368 0 0 0 0 144518.67049428821 95579.768845325336 0 95579.768845325336 -71645.525622862362 0 0 0 0 59013378.911764145 -181199702.64355016 0 -181199702.64355016 577794618.59642315 0 0 0 0 49310.034280919703 -21072.483072562143 0 -21072.483072562143 15288.863387171994 0 0 0 0 1373859.0576171875 753966.21349333227 0 753966.21349333227 -1564714.8011582494 0 0 0 0 300314.9089712454 288769.68074319325 0 288769.68074319325 -120102.50239554502 0 0 0 0 118590392.84661484 -89625155.706958324 0 -89625155.706958324 -5538893.9837216735 0 0 0 0 58267058.181949139 -70545291.644860774 0 -70545291.644860774 45999935.862536788 0 0 0 0 69775412.843009949 -83298409.208672643 0 -83298409.208672643 51250634.199976444 0 0 0 0 69269781.037872314 -80347277.099798918 0 -80347277.099798918 204783554.13894224 0 0 0 0 344106356.53851318 -127516727.14490604 0 -127516727.14490604 -85212746.337294102 0 0 0 0 -7072093.2199325562 -29366315.567422032 0 -29366315.567422032 66290435.024978757 0 0 0 0 179186571.27455902 -6897881.4232563078 0 -6897881.4232563078 68998738.864256382 0 0 0 0 196041254.35389709 96897326.077311039 0 96897326.077311039 179992611.62743044 0 0 0 0 -124067584.28093481 -56358391.110785075 0 -56358391.110785075 130289042.22772217 0 0 0 0 273686019.31597137 67057733.878836036 0 67057733.878836036 -18238662.458816566 0 0 0 0 441030913.48188019 -57586876.986184716 0 -57586876.986184716 -104768480.22898054 0 0 0 0 534074.57379301637 56521.972219525836 0 56521.972219525836 -255145.86380243365 0 0 0 0 568520922.5439291 449874782.7756995 0 449874782.7756995 263466426.82470155 0 0 0 0 606267764.32244301 571829301.36105967 0 571829301.36105967 -24268600.227110505 0 0 0 0 914618680.62636566 436611342.33614862 0 436611342.33614862 -94267743.087217897 0 0 0 0 1028086.4461792037 253104.74802169017 0 253104.74802169017 -620921.52140250627 0 0 0 0 219157822.79491425 269825225.22882795 0 269825225.22882795 301406408.5038147 0 0 0 0 272105603.91297913 130139511.22132277 0 130139511.22132277 126261295.24393475 0 0 0 0 86879052.044815063 40935786.593039691 0 40935786.593039691 147571326.47630519 0 0 0 0 177942619.33197784 120749006.77293485 0 120749006.77293485 104626479.82043493 0 0 0 0 97452994.954322815 49850785.655923605 0 49850785.655923605 -24154904.452172279 0 0 0 0 -14650702.716362 72734662.713471174 0 72734662.713471174 104640637.59165956 0 0 0 0 143816256.9713707 131477106.07366961 0 131477106.07366961 -71060228.933711052 0 0 0 0 116395357.41954041 114084925.69988841 0 114084925.69988841 203335098.73799956 0 0 0 0 552718.18898864277 220670.65988034196 0 220670.65988034196 -399504.43975317164 0 0 0 0 169428744.36218643 259032532.0982374 0 259032532.0982374 192876240.03757101 0 0 0 0 74013548.649246216 117880340.80127656 0 117880340.80127656 140229200.65635985 0 0 0 0 826353063.68042374 1267277493.7353277 0 1267277493.7353277 1222417941.7276628 0 0 0 0 2201468044.695436 1067789986.0259217 0 1067789986.0259217 -171274984.8004612 0 0 0 0 2198925795.4593658 1070126626.5154266 0 1070126626.5154266 -169957353.05963984 0 0 0 0 398349975.35601807 -10515946.720410943 0 -10515946.720410943 -116377162.98659953 0 0 0 0 1781868195.6601639 829329754.19723976 0 829329754.19723976 178916232.53020555 0 0 0 0 931913549.97899771 341693028.37635857 0 341693028.37635857 -51118983.587687969 0 0 0 0 802217703.18467331 359828235.51136804 0 359828235.51136804 -46179171.353473425 0 0 0 0 1555069.3938308768 395976.70799591299 0 395976.70799591299 -654751.90078032459 0 0 0 0 1406175298.8994942 -493697302.9182418 0 -493697302.9182418 -300960905.31257015 0 0 0 0 1300110892.6269455 -294523767.96861911 0 -294523767.96861911 -195918953.13850272 0 0 0 0 2205535369.0434418 -857889619.00199127 0 -857889619.00199127 -151325613.32868117 0 0 0 0 2200415380.8148003 -1605026209.6491389 0 -1605026209.6491389 965772979.90819442 0 0 0 0 1921654.3923306242 184288.03423781507 0 184288.03423781507 555288.41685849556 0 0 0 0 840591862.62717819 -652755794.43214798 0 -652755794.43214798 301587770.73047829 0 0 0 0 842939401.81542039 -422090697.54680747 0 -422090697.54680747 100234585.06779063 0 0 0 0 4554578.3064140696 1088833.9406350232 0 1088833.9406350232 496582.88597585983 0 0 0 0 -17528924.955215454 222692792.86825728 0 222692792.86825728 -112063354.46895766 0 0 0 0 -59226891.531382561 -5634544.114499703 0 -5634544.114499703 -40383338.909139156 0 0 0 0 253900623.06005871 60511745.86680983 0 60511745.86680983 -153005459.07396376 0 0 0 0 266049622.20948029 -246360818.2346943 0 -246360818.2346943 143421383.80894464 0 0 0 0 895157170.03607178 -482841565.60701787 0 -482841565.60701787 97150271.851732135 0 0 0 0 360271316.85319138 -83403112.500607312 0 -83403112.500607312 -1122182.8848734498 0 0 0 0 592735357.39070892 -202165122.50648135 0 -202165122.50648135 17623750.689485714 0 0 0 0 125173149.39766693 -50630125.084557414 0 -50630125.084557414 28600185.207391843 0 0 0 0 16725431.023416519 85920520.278409243 0 85920520.278409243 -111257676.0871442 0 0 0 0 6762326.3609123994 1943235.34173021 0 1943235.34173021 338115.00148949964 0 0 0 0 200843819.98622894 -148364789.64519513 0 -148364789.64519513 20814996.382956252 0 0 0 0 -24195296.491584778 87677795.805190459 0 87677795.805190459 51141815.384490386 0 0 0 0 16873078.616348267 152401341.97450137 0 152401341.97450137 -289893735.57614589 0 0 0 0 6005901.8801794052 1648104.7870471361 0 1648104.7870471361 388149.74128221237 0 0 0 0 110554925.93023682 59628171.014874458 0 59628171.014874458 -33423652.599157333 0 0 0 0 36841389.288131714 56354385.350653648 0 56354385.350653648 136057393.26184726 0 0 0 0 230293333.11185455 14922599.029835105 0 14922599.029835105 98200544.431742191 0 0 0 0 265176815.12820435 -245181784.1157074 0 -245181784.1157074 517604115.59035563 0 0 0 0 143957632.20158386 -119673137.65103388 0 -119673137.65103388 102002178.27082443 0 0 0 0 137073369.59174347 -38954177.463934302 0 -38954177.463934302 -212258920.93124676 0 0 0 0 -67884350.013055801 27566885.5969491 0 27566885.5969491 -31771703.114681721 0 0 0 0 32689783.694740295 119155282.35441971 0 119155282.35441971 -292451556.22325909 0 0 0 0 -17728067.659362793 -7875796.3015706539 0 -7875796.3015706539 -87147304.571791708 0 0 0 0 60486624.378471375 -65215632.611095071 0 -65215632.611095071 -74921122.526941299 0 0 0 0 184218303.91656494 -118322057.07776117 0 -118322057.07776117 49301038.423444271 0 0 0 0 14980650.118011475 4841817.7709410191 0 4841817.7709410191 -23075208.753444195 0 0 0 0 194271571.79122925 -58036825.795749187 0 -58036825.795749187 57279226.695561409 0 0 0 0 -56955283.616400719 60298848.9409464 0 60298848.9409464 431143986.48069859 0 0 0 0 186647368.46829224 -35714927.815664768 0 -35714927.815664768 148571723.67286396 0 0 0 0 10158598.201408386 8495366.3191497326 0 8495366.3191497326 71008934.383352518 0 0 0 0 6450068.5767822266 -78618360.548959613 0 -78618360.548959613 76780771.499976158 0 0 0 0 31469054.34066391 -53662348.812106848 0 -53662348.812106848 -91557313.071062088 0 0 0 0 2874853.3558578491 -18699334.680495739 0 -18699334.680495739 -41876131.106735468 0 0 0 0 7164294.8708558567 2050020.7976075229 0 2050020.7976075229 264936.18176902522 0 0 0 0 10086563.470199585 31458996.090909719 0 31458996.090909719 -150860557.97001529 0 0 0 0 -63011574.014635086 89102820.896871611 0 89102820.896871611 24659701.286934912 0 0 0 0 -103402230.82584 12289423.745536 0 12289423.745536 23501160.241027594 0 0 0 0 9600921.6975746155 -19982059.999011457 0 -19982059.999011457 -49914959.653575182 0 0 0 0 -1883677.508190155 26546863.724294126 0 26546863.724294126 -49415037.696924567 0 0 0 0 22106470.889011383 79482242.473913997 0 79482242.473913997 -29787445.386346996 0 0 0 0 -82111827.583589554 -60084084.23032175 0 -60084084.23032175 32446596.117769778 0 0 0 0 -76599703.237859726 -63504467.966848731 0 -63504467.966848731 58891778.734690309 0 0 0 0 -71703854.659225464 -6035351.6923754215 0 -6035351.6923754215 4885310.7373480201 0 0 0 0 -195508683.84054184 72798177.879347533 0 72798177.879347533 16396752.468447447 0 0 0 0 1385662.5121728163 -178971.0575758554 0 -178971.0575758554 -714821.35326805501 0 0 0 0 -78535576.267112732 -10122212.934032738 0 -10122212.934032738 15605184.575529456 0 0 0 0 -70622803.195930481 -15501008.476084411 0 -15501008.476084411 7783432.9175599217 0 0 0 0 -60030280.509262085 -29971147.740013778 0 -29971147.740013778 19964703.697201073 0 0 0 0 -50500191.820579529 -39766569.011232108 0 -39766569.011232108 4119429.1515342593 0 0 0 0 -47394365.758880615 -35311889.405727595 0 -35311889.405727595 -3983211.9836010635 0 0 0 0 -26296286.517539501 -65261843.792353563 0 -65261843.792353563 23941319.816274881 0 0 0 0 -9701753.6444549561 -62252089.326845437 0 -62252089.326845437 -26157597.301033068 0 0 0 0 -25014808.529411316 -75720538.034096181 0 -75720538.034096181 -7690416.1380191445 0 0 0 0 -47202907.155900955 -55504882.576338947 0 -55504882.576338947 30370478.495524645 0 0 0 0 -46965149.635294914 -65948231.436104119 0 -65948231.436104119 60132996.193688393 0 0 0 0 -50316992.637557983 -49645373.362230539 0 -49645373.362230539 25408068.9909181 0 0 0 0 -89411495.762420654 -5524276.9714919329 0 -5524276.9714919329 27451493.72274816 0 0 0 0 -69683412.586983681 -34352403.361863323 0 -34352403.361863323 46882721.584817767 0 0 0 0 18528136.673927307 -46761916.977588654 0 -46761916.977588654 38803779.629925191 0 0 0 0 16829862.510347366 -81342417.737137273 0 -81342417.737137273 83046608.567763925 0 0 0 0 18684306.862686157 -11696486.569814086 0 -11696486.569814086 114194001.61918572 0 0 0 0 18194368.142051697 -74542040.278323442 0 -74542040.278323442 21785678.560903341 0 0 0 0 -37656130.953567505 -117587403.74519357 0 -117587403.74519357 -11270312.461597467 0 0 0 0 -26096346.897338867 -62623371.125547536 0 -62623371.125547536 51401931.996916831 0 0 0 0 151566177.02269363 17440542.249682486 0 17440542.249682486 42168241.81229376 0 0 0 0 129900725.02091408 29468455.595911548 0 29468455.595911548 125467497.0314014 0 0 0 0 151199102.78887367 -7619943.1639840901 0 -7619943.1639840901 75483044.673262477 0 0 0 0 521565609.71481705 -63524388.601147473 0 -63524388.601147473 18087244.785132885 0 0 0 0 70533239.621559143 -44338224.548014164 0 -44338224.548014164 13995334.80748117 0 0 0 0 135512157.8236618 25478366.334268212 0 25478366.334268212 32419334.173898876 0 0 0 0 224550499.72811127 30298787.298774689 0 30298787.298774689 65175257.705687523 0 0 0 0 1048833948.8662109 -55413637.258657515 0 -55413637.258657515 -119916727.87803149 0 0 0 0 576419055.11342239 68574357.653208673 0 68574357.653208673 -4061896.94953233 0 0 0 0 559943835.20587921 101012489.54201111 0 101012489.54201111 42068572.232813537 0 0 0 0 621868537.82175064 8210362.8563548326 0 8210362.8563548326 -22248506.827444807 0 0 0 0 467339526.56864929 93724169.726390183 0 93724169.726390183 849358.79411579669 0 0 0 0 429943709.09505463 232397913.17321318 0 232397913.17321318 114290518.68734774 0 0 0 0 1122056604.112442 282569261.37438262 0 282569261.37438262 -74146755.611318231 0 0 0 0 1128405925.0539632 201262486.35095215 0 201262486.35095215 -141308635.1797564 0 0 0 0 1774582388.1365013 486245729.10222006 0 486245729.10222006 -201029127.33179304 0 0 0 0 1523778576.3449669 378200072.42672616 0 378200072.42672616 -95350792.215444058 0 0 0 0 2205220792.1942978 359714172.60614806 0 359714172.60614806 -262391980.780269 0 0 0 0 1924839744.2028131 126774571.8830429 0 126774571.8830429 -446872938.70635384 0 0 0 0 2204398164.4821243 189210470.96182731 0 189210470.96182731 -485023380.74275887 0 0 0 0 1770420971.5522881 -35855360.699585833 0 -35855360.699585833 -404641998.52073854 0 0 0 0 1515520208.0806427 -115330003.27580687 0 -115330003.27580687 -425485030.70948684 0 0 0 0 1124060067.6131411 -294171178.27062565 0 -294171178.27062565 -161060845.52553123 0 0 0 0 2204664330.9663267 -363223942.14343756 0 -363223942.14343756 -460180740.53339672 0 0 0 0 -1398151.8436126709 -6030776.7939100266 0 -6030776.7939100266 -11709979.316477098 0 0 0 0 4860703.7858009338 -7912827.2429231405 0 -7912827.2429231405 -19685362.057549953 0 0 0 0 3458395.6018055328 -493946.51325215772 0 -493946.51325215772 -1987144.3312218911 0 0 0 0 776605.88973737136 -918721.98288023937 0 -918721.98288023937 -916585.07948784297 0 0 0 0 -14321806.312866211 -25853838.435617685 0 -25853838.435617685 -137166.1202249527 0 0 0 0 -4986789.1681976318 -8059244.3548717499 0 -8059244.3548717499 774036.75049877167 0 0 0 0 15591037.087778091 -3975983.0826161802 0 -3975983.0826161802 -2677332.6454052925 0 0 0 0 -16075614.640472412 -3852206.0117111206 0 -3852206.0117111206 -5929489.4459171295 0 0 0 0 13927604.944580078 -8220056.3594722748 0 -8220056.3594722748 -11780092.108181 0 0 0 0 -17433309.910186768 -13932995.549489975 0 -13932995.549489975 432220.26817917824 0 0 0 0 -18060393.562673569 -12182836.937595397 0 -12182836.937595397 12171741.933739185 0 0 0 0 -15515082.121237755 -9443771.8646931797 0 -9443771.8646931797 7731322.0484991074 0 0 0 0 -4996237.5217785239 -12736947.499884875 0 -12736947.499884875 477540.05192279816 0 0 0 0 -4379632.611038208 -15806299.539599895 0 -15806299.539599895 -6142008.8064517975 0 0 0 0 -320590.9842300415 -14939692.736963272 0 -14939692.736963272 -6017880.2166366577 0 0 0 0 6573905.4017372131 780766.21498203278 0 780766.21498203278 -5077612.0227947235 0 0 0 0 8502167.8337554932 -7080210.5982477665 0 -7080210.5982477665 -5012851.5543689728 0 0 0 0 4536751.720453578 -1205432.4844813142 0 -1205432.4844813142 -3449634.6457202588 0 0 0 0 3744053.0183274373 -47141.553633096628 0 -47141.553633096628 -1987000.2080433888 0 0 0 0 6241199.903175354 -292357.58290481567 0 -292357.58290481567 -7885048.9829082489 0 0 0 0 4964657.3376235962 -2097824.8663911819 0 -2097824.8663911819 -5407633.8544416428 0 0 0 0 3331966.0872612 1350936.8546056747 0 1350936.8546056747 -9697037.2441921234 0 0 0 0 2389946.5015806425 314898.07365462324 0 314898.07365462324 -1066555.1379990964 0 0 0 0 7286376.4600372314 3115311.5935153961 0 3115311.5935153961 -17958073.036063194 0 0 0 0 3699772.1365356445 -2042585.0851025581 0 -2042585.0851025581 -2171687.7611973286 0 0 0 0 1079629.4759108499 -1107869.5746810036 0 -1107869.5746810036 -1158371.0965350419 0 0 0 0 4932091.4310379028 -5946605.9670581818 0 -5946605.9670581818 913460.0019338727 0 0 0 0 4799236.9236707687 -12563177.740420461 0 -12563177.740420461 1757538.1709051132 0 0 0 0 2620623.1488494873 388174.12462711334 0 388174.12462711334 -2132242.8692204952 0 0 0 0 2006799.532985663 -1689103.2833824884 0 -1689103.2833824884 -2983571.2853850173 0 0 0 0 3648002.7211456299 -1456518.7335101962 0 -1456518.7335101962 -1297368.5985630751 0 0 0 0 9373069.6704273224 -8300585.7278430462 0 -8300585.7278430462 -3832662.6512641907 0 0 0 0 6104185.2500686646 -4171155.1942515373 0 -4171155.1942515373 -3598320.7657852173 0 0 0 0 3083890.1830429854 -1112213.7528129965 0 -1112213.7528129965 -2312791.6562165902 0 0 0 0 9914298.1049499512 -6744756.1461141109 0 -6744756.1461141109 -7577675.1998081207 0 0 0 0 8123162.9118423462 -2887850.404715538 0 -2887850.404715538 -7712893.7062447965 0 0 0 0 6068462.0218811035 -516169.56949520111 0 -516169.56949520111 -7791642.8418054581 0 0 0 0 7417006.822807312 -3518134.613407135 0 -3518134.613407135 -14317504.150028229 0 0 0 0 7414846.1143317223 -3485741.3303985894 0 -3485741.3303985894 -8195085.5573196411 0 0 0 0 8426736.4716339111 -287515.49087524414 0 -287515.49087524414 -8898957.962846756 0 0 0 0 3637939.3643341064 643113.75769948959 0 643113.75769948959 10313.796226024628 0 0 0 0 1722321.2239074707 107295.16295433044 0 107295.16295433044 -108692.85321092606 0 0 0 0 -70475.708349466324 -819610.58946850058 0 -819610.58946850058 -1180580.310358935 0 0 0 0 8313373.0523910522 -3574012.2100791931 0 -3574012.2100791931 -5666168.0006427765 0 0 0 0 8401514.2059326172 -44542.266550064087 0 -44542.266550064087 -5532790.5489234924 0 0 0 0 1859817.380328916 52734.383768090978 0 52734.383768090978 -265752.30335432052 0 0 0 0 275947.59332275391 -720455.95003414154 0 -720455.95003414154 -724387.3606300354 0 0 0 0 2960407.5503495112 -1120625.6090600612 0 -1120625.6090600612 -2062811.6185827092 0 0 0 0 1468634.2902981229 -115725.68824444711 0 -115725.68824444711 -268145.61344446742 0 0 0 0 1613205.1172332764 -652274.10017240047 0 -652274.10017240047 -757493.17227864265 0 0 0 0 4273318.3140258789 1164785.1537690163 0 1164785.1537690163 -1532933.6949793696 0 0 0 0 1354627.2050018311 -697010.13009434938 0 -697010.13009434938 -686169.83714294434 0 0 0 0 1631361.6836395264 -593089.36012578011 0 -593089.36012578011 -1445110.3843902349 0 0 0 0 809879.93751525879 -668443.28085100651 0 -668443.28085100651 -129371.21737623215 0 0 0 0 1786574.4869410992 -1149648.0664000167 0 -1149648.0664000167 -276310.64707386494 0 0 0 0 1165154.9854586106 -944801.58636399172 0 -944801.58636399172 -1154879.185110606 0 0 0 0 1820652.5444030762 -322475.95049667358 0 -322475.95049667358 -421878.84827399254 0 0 0 0 332998.95746950246 -1083101.7291426808 0 -1083101.7291426808 -898493.14385188767 0 0 0 0 1352686.8241584934 -89626.135342719033 0 -89626.135342719033 -292535.00204320456 0 0 0 0 -155926.44222103897 -582582.201039318 0 -582582.201039318 -369779.59874021716 0 0 0 0 -4587579.7921142578 -1830125.4096546173 0 -1830125.4096546173 2050004.6404685974 0 0 0 0 3663470.4157714844 566010.54355084896 0 566010.54355084896 -225297.977891922 0 0 0 0 -332834.72696446627 -790318.71514035203 0 -790318.71514035203 -527883.2211372538 0 0 0 0 1487099.7678833008 32218.586629897356 0 32218.586629897356 -539998.63640546799 0 0 0 0 -3025057.1207885742 -1726838.6542959213 0 -1726838.6542959213 -2943316.3853340149 0 0 0 0 2344043.9921288677 -1296452.0209469255 0 -1296452.0209469255 -2208197.1067732228 0 0 0 0 5056270.3239551149 -1183699.4662290886 0 -1183699.4662290886 -4481307.2280418677 0 0 0 0 17402343.408157349 -6000016.1401011944 0 -6000016.1401011944 -3186623.6613960266 0 0 0 0 13456614.901092529 -1604081.3783373833 0 -1604081.3783373833 -1421699.614736557 0 0 0 0 14840138.470581055 -1369471.2485795021 0 -1369471.2485795021 -2009773.0446004868 0 0 0 0 12662191.056467056 -4360689.9756778181 0 -4360689.9756778181 -2374540.6856565475 0 0 0 0 7412893.6069335938 -5140566.0953655243 0 -5140566.0953655243 -1228530.0737307072 0 0 0 0 9738408.792011261 -6896307.8665525913 0 -6896307.8665525913 -82777.349177360535 0 0 0 0 8329867.0133476257 -9286750.5140680969 0 -9286750.5140680969 4322602.7537689209 0 0 0 0 13715666.839248657 -14634906.58556056 0 -14634906.58556056 -995809.32583451271 0 0 0 0 12728558.237281799 -18323745.195151091 0 -18323745.195151091 -6627514.690967083 0 0 0 0 4521220.9430999756 -22159959.519800425 0 -22159959.519800425 8847791.6863372326 0 0 0 0 12039972.877799988 -26374584.273381352 0 -26374584.273381352 -24139622.241704464 0 0 0 0 17110340.673522949 -16878934.604278564 0 -16878934.604278564 -6483385.9423312545 0 0 0 0 17097127.895843506 -15929251.814846754 0 -15929251.814846754 -10667516.289608955 0 0 0 0 19192329.1055336 -12865500.058476835 0 -12865500.058476835 -6494644.1513571739 0 0 0 0 -8116920.6307830811 -23814690.400616884 0 -23814690.400616884 32809157.404974937 0 0 0 0 4539925.4032211304 -25383242.277253151 0 -25383242.277253151 -5196585.3230519295 0 0 0 0 3085488.9178466797 -23376199.510462284 0 -23376199.510462284 -4903653.2041262686 0 0 0 0 11602300.37109375 -20095917.480802417 0 -20095917.480802417 -51407446.082605362 0 0 0 0 2199242.1348495483 -43832656.933833122 0 -43832656.933833122 -3706709.6925940514 0 0 0 0 6025256.5771102905 -8370027.6782085896 0 -8370027.6782085896 -43825678.293151021 0 0 0 0 26891013.551467896 -22702486.898042321 0 -22702486.898042321 -33739813.903739572 0 0 0 0 7507023.8656809144 2152311.229493978 0 2152311.229493978 111902.79832903133 0 0 0 0 1110591.6454582214 16476843.618227363 0 16476843.618227363 -71941711.00381422 0 0 0 0 9613712.0340846032 -23870338.77879101 0 -23870338.77879101 -8590722.2811859846 0 0 0 0 37518421.087669373 -7049107.1507360935 0 -7049107.1507360935 -17735605.941466331 0 0 0 0 23590725.589653015 4575481.4060223103 0 4575481.4060223103 6253011.3917107582 0 0 0 0 17603381.297286987 -6862889.1069459915 0 -6862889.1069459915 -29482994.569044352 0 0 0 0 20168805.157485962 -14578782.521029234 0 -14578782.521029234 -16597862.813409328 0 0 0 0 31446280.790237427 -18568411.549301147 0 -18568411.549301147 -43349210.362030745 0 0 0 0 -12141666.414104462 -9179023.5735561848 0 -9179023.5735561848 -18262715.292178154 0 0 0 0 62822954.766563416 3528734.9993636608 0 3528734.9993636608 -34554246.192651868 0 0 0 0 -86865.673613671213 -220832.05303135514 0 -220832.05303135514 -118867.14331951109 0 0 0 0 -37700227.782806396 -28470726.891526222 0 -28470726.891526222 20969946.157748699 0 0 0 0 59720379.991035461 31335337.98448348 0 31335337.98448348 -6167334.3834474087 0 0 0 0 -48929935.142356873 -59613887.402924061 0 -59613887.402924061 7219539.1406126022 0 0 0 0 -16039725.833129883 -48439016.671550751 0 -48439016.671550751 -34639167.56542778 0 0 0 0 28882879.331176758 75409901.536262035 0 75409901.536262035 -16641084.768567681 0 0 0 0 -4989129.4586193562 -23247560.470583346 0 -23247560.470583346 150261.47583585978 0 0 0 0 51666291.12260437 86780518.550997257 0 86780518.550997257 -22602072.64892149 0 0 0 0 390830.01904193312 289565.74024652829 0 289565.74024652829 -377490.90000423644 0 0 0 0 7825344.003271848 2200924.2622625288 0 2200924.2622625288 -323701.8503742441 0 0 0 0 2193459.2021865845 -78690154.526875734 0 -78690154.526875734 71852904.223534584 0 0 0 0 63238759.330245972 -164210132.53425133 0 -164210132.53425133 -77774011.3563146 0 0 0 0 8545360.4832458496 23381618.529774189 0 23381618.529774189 -19724057.57876265 0 0 0 0 2580599.6022453308 52551067.813840806 0 52551067.813840806 -104759341.16209507 0 0 0 0 15028807.366569519 22435725.802194595 0 22435725.802194595 -21264358.985586166 0 0 0 0 21744250.938430786 3530006.2968006134 0 3530006.2968006134 2717428.5198764801 0 0 0 0 18416706.150428772 6238553.7209358215 0 6238553.7209358215 -269622.83901071548 0 0 0 0 25784728.76713562 12820027.158482552 0 12820027.158482552 4523143.898235321 0 0 0 0 18882361.50982666 10255575.844211578 0 10255575.844211578 14578420.844508648 0 0 0 0 19092550.782958984 15430743.917621613 0 15430743.917621613 16441267.709294081 0 0 0 0 21255203.825195312 4935186.304444313 0 4935186.304444313 275453.39050650597 0 0 0 0 3666184.0213394165 8146368.6530250311 0 8146368.6530250311 -26591917.450142503 0 0 0 0 13140420.914794922 22880357.454587698 0 22880357.454587698 -15109161.176664352 0 0 0 0 -49160289.106697083 51798345.0011096 0 51798345.0011096 231847916.76589274 0 0 0 0 91770812.971389771 57154874.345836163 0 57154874.345836163 -221336909.65089202 0 0 0 0 -6343443.1300354004 23250248.722933054 0 23250248.722933054 12490128.964331731 0 0 0 0 43913299.418899536 75546344.830451488 0 75546344.830451488 4921173.3785454333 0 0 0 0 43530663.632644653 -112676226.78492391 0 -112676226.78492391 52970855.743224978 0 0 0 0 107225758.28396606 375642296.40486002 0 375642296.40486002 11677790.488135099 0 0 0 0 129535131.45707703 -221021001.45987248 0 -221021001.45987248 -457806263.31724739 0 0 0 0 1692747.7733612061 -46954252.787144303 0 -46954252.787144303 -106771714.41708815 0 0 0 0 -29579715.637191772 28368601.229330301 0 28368601.229330301 -10282180.005316734 0 0 0 0 -13331232.387557983 10748484.801730633 0 10748484.801730633 3256564.8605451584 0 0 0 0 2116636.3652022304 682059.53774449509 0 682059.53774449509 -386769.20551213087 0 0 0 0 -382075.71856689453 5949112.9997848272 0 5949112.9997848272 -1556725.7880144119 0 0 0 0 1516334.8677053712 138016.95476039778 0 138016.95476039778 -1038761.1806877404 0 0 0 0 4506289.11095047 10981356.632597148 0 10981356.632597148 -20614900.696251869 0 0 0 0 16105054.099212646 6560925.5987387896 0 6560925.5987387896 -10793189.279727951 0 0 0 0 35919784.473766327 -3089960.7630875707 0 -3089960.7630875707 -49323485.188994408 0 0 0 0 25603509.957918167 29869820.980560631 0 29869820.980560631 -35100444.396766663 0 0 0 0 24608401.203720093 36870622.045961618 0 36870622.045961618 -69996101.566095829 0 0 0 0 36491774.794662476 648345.56777501106 0 648345.56777501106 -71784941.942790836 0 0 0 0 17192578.591537476 300585.38129353523 0 300585.38129353523 -11670597.530081898 0 0 0 0 6153501.0132030044 -159971.3956988249 0 -159971.3956988249 -3799486.7714479994 0 0 0 0 -82715482.038183212 6680151.7881743163 0 6680151.7881743163 135744.41340613365 0 0 0 0 19344448.559848785 -4411730.946657896 0 -4411730.946657896 -3549820.20860672 0 0 0 0 -62643412.71841526 -9638454.3276434317 0 -9638454.3276434317 -10703419.702724099 0 0 0 0 6910541.732603929 -2133015.7736062468 0 -2133015.7736062468 -3563996.6988592255 0 0 0 0 7546892.2063294686 7158755.5213073008 0 7158755.5213073008 2289416.1065864479 0 0 0 0 9395954.8415238857 14973637.075984001 0 14973637.075984001 -7967258.2339439392 0 0 0 0 2829407.2134933472 10157778.396671295 0 10157778.396671295 3049480.3081241846 0 0 0 0 6823149.6210939288 801961.57287408365 0 801961.57287408365 -3510395.7523597013 0 0 0 0 71532925.083171368 -4471176.9523067474 0 -4471176.9523067474 -36543327.88079071 0 0 0 0 18930528.366456568 8973922.7308263779 0 8973922.7308263779 -14762834.666751862 0 0 0 0 -42228717.514266968 -21926338.745843828 0 -21926338.745843828 -4158715.318755284 0 0 0 0 18546108.935820028 4392188.7961519361 0 4392188.7961519361 -11998569.138259888 0 0 0 0 7211937.6242413968 -3623094.366423293 0 -3623094.366423293 -5752517.7797417203 0 0 0 0 17719009.192784309 11964138.494969547 0 11964138.494969547 -6689227.2552089691 0 0 0 0 14421509.806361198 2775021.2776093483 0 2775021.2776093483 -2687832.4074668884 0 0 0 0 3692015.7516746521 9092237.2246963978 0 9092237.2246963978 -1096379.7432613373 0 0 0 0 6226773.8771755183 6238577.1233111825 0 6238577.1233111825 2721435.784279353 0 0 0 0 5691986.6746025085 9129427.3310351372 0 9129427.3310351372 -1240688.7691242695 0 0 0 0 -46508016.424692273 51512184.733729362 0 51512184.733729362 12471227.832830429 0 0 0 0 8032794.7752838135 3365790.6964521408 0 3365790.6964521408 786291.88269805908 0 0 0 0 2684691.8115370283 3149424.1766117197 0 3149424.1766117197 -324544.31496193074 0 0 0 0 12489063.997310638 10964744.368453741 0 10964744.368453741 1598518.4915952682 0 0 0 0 12527884.205059052 5204318.9419598579 0 5204318.9419598579 -3192128.104945302 0 0 0 0 10440186.51927948 10163774.754747629 0 10163774.754747629 3254209.5418567657 0 0 0 0 8935227.8210945129 12017403.018083096 0 12017403.018083096 1919368.8599014282 0 0 0 0 4286645.6708297729 5321575.4776208401 0 5321575.4776208401 1552611.3540430069 0 0 0 0 2712514.7031555176 4354760.7979164124 0 4354760.7979164124 3490108.8322277069 0 0 0 0 6385392.8860683441 11530359.525800228 0 11530359.525800228 9822563.0652141571 0 0 0 0 13368874.145645142 3636487.1729979515 0 3636487.1729979515 -2825733.613494873 0 0 0 0 6663735.4378700256 719905.29977267981 0 719905.29977267981 -668734.94704532623 0 0 0 0 2796689.4488652251 3152065.6642093351 0 3152065.6642093351 -1411740.0482325817 0 0 0 0 607442.56011553854 2332620.0511181075 0 2332620.0511181075 -817646.30767873861 0 0 0 0 12155750.172040939 -239170.36101382971 0 -239170.36101382971 -2145427.003816843 0 0 0 0 18039889.609802246 3980541.5280532837 0 3980541.5280532837 -3230637.2795312405 0 0 0 0 -4024614.8067016602 4907241.982632637 0 4907241.982632637 -16120012.274335027 0 0 0 0 2750821.2038803101 2660798.1089129448 0 2660798.1089129448 -1948068.243522644 0 0 0 0 681618.14211654663 6738554.3729052544 0 6738554.3729052544 4402320.5892658234 0 0 0 0 324479.65375001542 -625720.69095895928 0 -625720.69095895928 -728017.72057523322 0 0 0 0 1863088.9052734375 -1297802.5904598236 0 -1297802.5904598236 -1798061.3671483994 0 0 0 0 369210.69207763672 200312.1957359314 0 200312.1957359314 -943554.47319030762 0 0 0 0 11702.378934791312 781622.49083969207 0 781622.49083969207 -556360.50445182645 0 0 0 0 7632689.1061512772 2176080.2901388351 0 2176080.2901388351 -1926817.4312909227 0 0 0 0 5364074.3074627174 -977601.71017084271 0 -977601.71017084271 -3321062.2577522518 0 0 0 0 3652770.7698364258 -1550862.9368362427 0 -1550862.9368362427 -2313755.1274290085 0 0 0 0 15427748.497825623 5938602.7527790666 0 5938602.7527790666 -19020717.271200657 0 0 0 0 4048111.4424095154 -1598153.2808027267 0 -1598153.2808027267 -2947158.2467384338 0 0 0 0 9504420.6484832764 -10393639.927301884 0 -10393639.927301884 -50638793.636782646 0 0 0 0 -12913937.904373884 33404486.425811425 0 33404486.425811425 -10184818.836539567 0 0 0 0 8594078.4218744487 1534478.0751077761 0 1534478.0751077761 -1919148.616260513 0 0 0 0 -4779716.7914733887 -18377810.097694874 0 -18377810.097694874 -16912652.942347527 0 0 0 0 6703640.1595001221 1246736.1677303314 0 1246736.1677303314 -7499982.9423522949 0 0 0 0 3838200.0217628479 -2165969.9939506054 0 -2165969.9939506054 -11434103.624696732 0 0 0 0 10114301.75302124 -5916279.3149383068 0 -5916279.3149383068 -6463433.3425102234 0 0 0 0 4418385.7385253906 -2180290.0157325268 0 -2180290.0157325268 -4627052.764131546 0 0 0 0 1881092.5956841707 -3029902.9914614707 0 -3029902.9914614707 7108.4090042114258 0 0 0 0 3647643.6753234863 -4170260.3488588333 0 -4170260.3488588333 -2928978.0203609467 0 0 0 0 4236627.3541717529 -5786373.0566825867 0 -5786373.0566825867 1052602.468706131 0 0 0 0 2690968.9323425293 -3259071.0492353439 0 -3259071.0492353439 786676.08137691021 0 0 0 0 76977.38544880785 85138.368400892243 0 85138.368400892243 -665372.07806646801 0 0 0 0 2675164.4337158203 -3383196.9879655838 0 -3383196.9879655838 -93817.560249328613 0 0 0 0 27243.451015448198 46957.918015795178 0 46957.918015795178 -257188.43661500723 0 0 0 0 9017045.3024101257 -12018669.999112606 0 -12018669.999112606 11805688.738619804 0 0 0 0 25377444.461555481 -7170077.0418624878 0 -7170077.0418624878 -4417214.1440987587 0 0 0 0 8853791.1841812134 19100575.180577278 0 19100575.180577278 29793319.372176886 0 0 0 0 20846022.108383179 15511538.76464653 0 15511538.76464653 9036512.2059059143 0 0 0 0 15995552.535514832 14235193.955383301 0 14235193.955383301 9109507.0802574158 0 0 0 0 5446493.8337173462 13956459.399913311 0 13956459.399913311 5875703.4449901581 0 0 0 0 2337293.1622772217 8742630.2406215668 0 8742630.2406215668 13833314.562915802 0 0 0 0 2264890.4940109253 5454613.334605217 0 5454613.334605217 5392923.8482398987 0 0 0 0 8608481.0460357666 19763534.322651863 0 19763534.322651863 15896476.214751482 0 0 0 0 12626299.54549408 17255369.070814133 0 17255369.070814133 6617497.2982265949 0 0 0 0 11328397.925441742 20846810.371730804 0 20846810.371730804 -391860.97924900055 0 0 0 0 4544819.6366348267 19871040.660933971 0 19871040.660933971 8109516.2156352997 0 0 0 0 6569063.9155502319 17430159.103863716 0 17430159.103863716 8163208.7979524136 0 0 0 0 700560.03287506104 21875950.00886631 0 21875950.00886631 7454962.2144405842 0 0 0 0 7595351.1020183563 14045146.79893589 0 14045146.79893589 -20433025.816486359 0 0 0 0 5591715.9780578613 17277334.86002636 0 17277334.86002636 16689308.636361122 0 0 0 0 23627122.979072571 23038035.79335022 0 23038035.79335022 -51351.299580574036 0 0 0 0 20430112.411539078 11222594.985495687 0 11222594.985495687 -9097913.6463928223 0 0 0 0 31639307.02192688 12482555.585403919 0 12482555.585403919 -46162824.385155678 0 0 0 0 30272594.99382019 7206306.9164690971 0 7206306.9164690971 -13854005.587152481 0 0 0 0 -12503462.326202393 15017785.449913979 0 15017785.449913979 -15280462.588513613 0 0 0 0 26046647.655403137 1166209.9146728516 0 1166209.9146728516 -12264812.216923714 0 0 0 0 -4018721.122467041 -14411787.759348869 0 -14411787.759348869 -19670248.42098999 0 0 0 0 18455748.268173218 -45132208.484055042 0 -45132208.484055042 51789782.236035347 0 0 0 0 611727.66349868476 604701.23926641128 0 604701.23926641128 135227.91787022489 0 0 0 0 35749571.200721741 -19773454.446026802 0 -19773454.446026802 -29172570.142853737 0 0 0 0 -5526262.5805892944 -21437994.92337513 0 -21437994.92337513 98720235.187311172 0 0 0 0 -336719421.5690918 153668564.93335724 0 153668564.93335724 146179870.0213356 0 0 0 0 24609923.513038635 -29865802.040349007 0 -29865802.040349007 6075440.1485233307 0 0 0 0 2697955.4308546204 3335172.5033389288 0 3335172.5033389288 -1247123.4391760635 0 0 0 0 1857956.3960610703 1812055.2953973613 0 1812055.2953973613 429871.55945213593 0 0 0 0 3541508.2975311279 17118980.282047272 0 17118980.282047272 38169565.95297718 0 0 0 0 12523167.260681152 28358923.881241798 0 28358923.881241798 26725700.710510254 0 0 0 0 30979667.884735107 31320447.281208754 0 31320447.281208754 -3483582.2141866684 0 0 0 0 3739246.0508181714 5471866.40662417 0 5471866.40662417 -2755223.8244026885 0 0 0 0 1267289.1346359253 7192096.7045021057 0 7192096.7045021057 -6082433.5722846985 0 0 0 0 16278468.86870575 4001458.4830174446 0 4001458.4830174446 -13870575.681113005 0 0 0 0 -616069.52844238281 6269620.8068466187 0 6269620.8068466187 300411.41296386719 0 0 0 0 1932179.4588012695 5368546.0271787643 0 5368546.0271787643 -3909162.9016075134 0 0 0 0 432135.57151794434 4681310.9994277954 0 4681310.9994277954 -1190763.3922996521 0 0 0 0 -194348.54277038574 6347280.6579055786 0 6347280.6579055786 -3189939.4950180054 0 0 0 0 8747123.3857498169 -1887525.0124492645 0 -1887525.0124492645 -547205.60935783386 0 0 0 0 6440486.7212924957 940102.19449901581 0 940102.19449901581 -1644013.9629821777 0 0 0 0 9762713.9188690186 -1538271.0785675049 0 -1538271.0785675049 -1138539.1624317169 0 0 0 0 9832525.330278635 137688.77614572644 0 137688.77614572644 2591544.2826805115 0 0 0 0 9545477.5132064819 -2395416.1314496994 0 -2395416.1314496994 -1538587.1861763 0 0 0 0 9431178.3799200058 -2667213.1382193565 0 -2667213.1382193565 -1450455.9763450623 0 0 0 0 11901789.803089142 -3478338.7643432617 0 -3478338.7643432617 -2133097.2748565674 0 0 0 0 16644368.796348572 1850733.8457336426 0 1850733.8457336426 -1571844.5924758911 0 0 0 0 15583229.735984802 758773.04504585266 0 758773.04504585266 -6642726.9609336853 0 0 0 0 13235760.208123207 -525258.01058006287 0 -525258.01058006287 -3223582.7451858521 0 0 0 0 5262157.2955153435 4155663.1380756088 0 4155663.1380756088 909441.90262504155 0 0 0 0 10488555.989498138 8293476.0068249702 0 8293476.0068249702 -1213063.6078872681 0 0 0 0 13555871.219085217 9595197.110398531 0 9595197.110398531 -947967.94326019287 0 0 0 0 22822164.942764282 13538667.817222595 0 13538667.817222595 715943.18059539795 0 0 0 0 1750954.667059578 303805.99465935305 0 303805.99465935305 -1440703.118313394 0 0 0 0 1235908.7551033497 16127118.88352035 0 16127118.88352035 16542606.457395554 0 0 0 0 -5875796.3110351562 -4312710.570851326 0 -4312710.570851326 -6835895.4715957642 0 0 0 0 12074569.871175902 2428405.8369964194 0 2428405.8369964194 -4609572.484396046 0 0 0 0 1059192.5088653564 11076803.412666798 0 11076803.412666798 10219015.495283127 0 0 0 0 18636311.400741577 29117270.450356483 0 29117270.450356483 8662958.0292053223 0 0 0 0 8573734.6089324951 24336205.844173729 0 24336205.844173729 17822729.355581284 0 0 0 0 7336666.7245941162 16680079.656929016 0 16680079.656929016 2413741.3186969757 0 0 0 0 17108560.361038208 24664885.869640827 0 24664885.869640827 10847649.443185806 0 0 0 0 29268790.151260376 9271598.7083148956 0 9271598.7083148956 -17692506.524087906 0 0 0 0 -5334938.8921813965 -2052931.9846611023 0 -2052931.9846611023 -1660751.4202747345 0 0 0 0 8436453.6030731201 1715736.3379850388 0 1715736.3379850388 -3178706.0181522369 0 0 0 0 -11371700.72379303 1534966.6472702026 0 1534966.6472702026 2425549.7017326355 0 0 0 0 3956080.0265426636 8142232.7119293213 0 8142232.7119293213 14468202.549583435 0 0 0 0 12010697.389907837 23929519.094450951 0 23929519.094450951 4760363.1193218231 0 0 0 0 12855574.332557678 23654188.354349613 0 23654188.354349613 3457405.8558177948 0 0 0 0 63357.686614990234 4656299.5067005157 0 4656299.5067005157 234239.69047546387 0 0 0 0 2949511.4824961275 4720417.4420889141 0 4720417.4420889141 989257.03621666878 0 0 0 0 -5974708.2701721191 5396224.7427492142 0 5396224.7427492142 526718.72489356995 0 0 0 0 -11242315.202496648 5945923.5948828161 0 5945923.5948828161 2184431.7569065094 0 0 0 0 4711532.5263093682 2704675.8604483837 0 2704675.8604483837 560135.660155399 0 0 0 0 11936328.086194992 761970.04242324829 0 761970.04242324829 570306.95871543884 0 0 0 0 10413920.140289307 352125.68303203583 0 352125.68303203583 684161.17014694214 0 0 0 0 9923632.2076473236 -1561752.7086648941 0 -1561752.7086648941 2850045.4953384399 0 0 0 0 3732354.7296796404 5147494.9402430663 0 5147494.9402430663 619940.23744916008 0 0 0 0 -1009079.5163269043 1776946.3324737549 0 1776946.3324737549 304749.72246360779 0 0 0 0 4747554.6726405313 3160520.669812833 0 3160520.669812833 665898.01616688026 0 0 0 0 -2045848.3258628845 12681590.632365465 0 12681590.632365465 11841308.653834343 0 0 0 0 4184995.8305686284 4303395.3057068586 0 4303395.3057068586 -1126403.0672570691 0 0 0 0 17842520.365005493 8899408.1022539139 0 8899408.1022539139 -1844006.3055968285 0 0 0 0 9424971.7267138772 1328744.1185564995 0 1328744.1185564995 -1462749.4900036911 0 0 0 0 2161217.5119522586 2961454.1120932391 0 2961454.1120932391 2781347.2301142691 0 0 0 0 981612.80520930514 1046459.4782947171 0 1046459.4782947171 -63293.783778583165 0 0 0 0 -17033340.535804749 -5955117.4795908928 0 -5955117.4795908928 12762940.247862816 0 0 0 0 17441639.51595974 47536077.156114817 0 47536077.156114817 33409084.751324654 0 0 0 0 19543176.048149109 23358555.72063446 0 23358555.72063446 -11340375.224338651 0 0 0 0 15009440.760543823 1728609.5538225174 0 1728609.5538225174 -14926537.077105522 0 0 0 0 10884764.357476234 11014915.592247367 0 11014915.592247367 1992055.4849710464 0 0 0 0 9539942.1562843323 4095750.1543695927 0 4095750.1543695927 -762499.03828048706 0 0 0 0 10845286.845985413 10844737.873907089 0 10844737.873907089 1409117.9521791935 0 0 0 0 8014195.2898073196 4509995.2031091452 0 4509995.2031091452 361806.64753818512 0 0 0 0 1299670.0735269906 34968.504397089826 0 34968.504397089826 -312478.27010140102 0 0 0 0 211553720.71300316 -10394436.327508926 0 -10394436.327508926 -99598716.706569672 0 0 0 0 -153359291.23712826 -3686429.3953800201 0 -3686429.3953800201 254191982.13508606 0 0 0 0 35598230.104357481 93920207.738687515 0 93920207.738687515 86427426.255943298 0 0 0 0 144598140.06780863 68898903.639831543 0 68898903.639831543 -12021513.804649353 0 0 0 0 21754155.48809576 6665269.1928672791 0 6665269.1928672791 -32639467.171182632 0 0 0 0 -51900866.069353104 1881683.5963172913 0 1881683.5963172913 -36400388.04473877 0 0 0 0 162125939.90079325 -86265386.698654413 0 -86265386.698654413 -219085.29079055786 0 0 0 0 -139077988.14621067 59629639.05771637 0 59629639.05771637 35285126.642295837 0 0 0 0 4013775.613529081 5339567.1368168853 0 5339567.1368168853 3275556.5960621852 0 0 0 0 -52124997.868851662 -61459458.429985046 0 -61459458.429985046 -81273751.211791992 0 0 0 0 -31051211.993841171 -24668726.780014038 0 -24668726.780014038 -36602501.53371048 0 0 0 0 -499516.93945631199 6348637.2715426069 0 6348637.2715426069 1145211.1781349108 0 0 0 0 15906598.512101173 17502585.105062485 0 17502585.105062485 -2966711.5264358521 0 0 0 0 9662087.3670619093 12829295.816980362 0 12829295.816980362 11982261.149932861 0 0 0 0 3347479.724157691 3530874.848400116 0 3530874.848400116 75747334.776115417 0 0 0 0 12411529.006317884 22428470.526468277 0 22428470.526468277 41953411.287965775 0 0 0 0 7084438.7859838009 -8871572.7097759247 0 -8871572.7097759247 2740578.0480270386 0 0 0 0 1851362.8231563568 48356487.165828705 0 48356487.165828705 109813460.18753815 0 0 0 0 -14855502.722953796 68179235.911708832 0 68179235.911708832 16851352.729807854 0 0 0 0 17435137.537967443 57167760.293462753 0 57167760.293462753 19260965.124271393 0 0 0 0 33903759.830096662 43342215.922176361 0 43342215.922176361 16316132.392194748 0 0 0 0 13657021.183114529 51012715.64009285 0 51012715.64009285 21342194.225509644 0 0 0 0 6067593.1099178642 55732563.683917046 0 55732563.683917046 54099623.140655518 0 0 0 0 -3977048.3754307125 28262236.645441055 0 28262236.645441055 42129093.390476227 0 0 0 0 28040616.354570389 36072763.086712837 0 36072763.086712837 22232408.173545837 0 0 0 0 57964619.607342958 35570638.105014801 0 35570638.105014801 15212845.675815582 0 0 0 0 58543132.023712248 29517566.085659266 0 29517566.085659266 10754202.590076447 0 0 0 0 27584034.174051911 10881090.184521675 0 10881090.184521675 15679605.288284302 0 0 0 0 28901822.53215766 31757166.061458588 0 31757166.061458588 25358488.820932388 0 0 0 0 59433888.185199261 45708707.234518051 0 45708707.234518051 25803681.158679962 0 0 0 0 33787068.485510588 43567269.033018112 0 43567269.033018112 18632951.762802124 0 0 0 0 39035879.129705489 42371055.235102654 0 42371055.235102654 4475546.8883781433 0 0 0 0 46090428.222710133 32148130.651273727 0 32148130.651273727 17422367.850706339 0 0 0 0 2736826.2302150652 1244283.1533291535 0 1244283.1533291535 562160.73926093196 0 0 0 0 12518004.802513599 12646961.64730835 0 12646961.64730835 5426591.3515739441 0 0 0 0 8332801.6418138146 16121665.14471817 0 16121665.14471817 25077167.370105743 0 0 0 0 25389538.289593697 46128984.860366821 0 46128984.860366821 15908662.677251816 0 0 0 0 8439932.132065773 -1209789.8569431305 0 -1209789.8569431305 -191864.18454742432 0 0 0 0 25518622.915718794 46787584.060929298 0 46787584.060929298 -46299230.653282166 0 0 0 0 -2889266.1375131607 33108252.057325363 0 33108252.057325363 -39381809.638721466 0 0 0 0 17397981.38616991 27921474.212891579 0 27921474.212891579 -103327487.18510056 0 0 0 0 28188403.376351833 1792040.4032287598 0 1792040.4032287598 -52272277.131328583 0 0 0 0 62447823.102421999 32967068.328667641 0 32967068.328667641 28414049.857334614 0 0 0 0 17186162.384921074 -28198463.991742611 0 -28198463.991742611 -131693748.53674507 0 0 0 0 1469076.9437382454 507561.84632129222 0 507561.84632129222 333930.44595233118 0 0 0 0 42689472.149313092 43175913.430823326 0 43175913.430823326 46228028.171352386 0 0 0 0 848942.70663535863 4469622.2279797988 0 4469622.2279797988 2256272.5996523136 0 0 0 0 4918002.0941143036 3554649.9321727753 0 3554649.9321727753 263269.37233543396 0 0 0 0 -37400924.185508251 -27210965.576690674 0 -27210965.576690674 -38567153.593999147 0 0 0 0 8017510.9534547031 646870.98595981952 0 646870.98595981952 697467.93931077281 0 0 0 0 4888412.5690059662 3315567.0199375153 0 3315567.0199375153 -54162.645338833332 0 0 0 0 3374452.4851997457 5362615.7549193986 0 5362615.7549193986 1326951.63573301 0 0 0 0 3250394.3480186462 4685334.6990013123 0 4685334.6990013123 -1700568.3354492188 0 0 0 0 -187469.10018316412 1888304.1898569737 0 1888304.1898569737 530719.22084441525 0 0 0 0 49482002.675688744 -46028495.517324448 0 -46028495.517324448 -61877402.910767555 0 0 0 0 12946806.145079136 48442067.884298325 0 48442067.884298325 -83002251.979923248 0 0 0 0 -676708.27288844867 -24249.051238979213 0 -24249.051238979213 690397.32146452647 0 0 0 0 -2221828.0431118011 38142535.836931229 0 38142535.836931229 -57162444.509529114 0 0 0 0 2338744.7513390966 3265481.8459418099 0 3265481.8459418099 1482908.0196788139 0 0 0 0 -6593851.1626039445 1621618.6006999612 0 1621618.6006999612 -12999971.87912178 0 0 0 0 2576540.5373001099 3228449.358215332 0 3228449.358215332 230487.71179294586 0 0 0 0 7050665.3406288344 1391274.4149512164 0 1391274.4149512164 892639.2226680601 0 0 0 0 8536148.4991359711 -2472150.9339523315 0 -2472150.9339523315 -527212.79245090485 0 0 0 0 -152052959.96993923 127217539.67300606 0 127217539.67300606 -78421196.868103027 0 0 0 0 14275746.180366993 -20727269.101802826 0 -20727269.101802826 -251178489.35412216 0 0 0 0 1373725.0805026817 573290.76371247973 0 573290.76371247973 -89596.646749198437 0 0 0 0 -100522024.73840714 62307651.061594009 0 62307651.061594009 -8941521.9809881449 0 0 0 0 -36916479.627786636 169368933.21564007 0 169368933.21564007 -236687315.15946579 0 0 0 0 54499817.156004429 43867080.028795242 0 43867080.028795242 -105113895.54541969 0 0 0 0 36505036.702566147 89916337.819633484 0 89916337.819633484 -165245943.54399872 0 0 0 0 101313865.90226585 25190239.741861105 0 25190239.741861105 -171521473.04595947 0 0 0 0 85475201.140788555 -54237476.45866394 0 -54237476.45866394 -343693465.01513338 0 0 0 0 -159274974.17109823 200943788.42991686 0 200943788.42991686 -163719636.61747742 0 0 0 0 19080047.673796177 123806352.10631561 0 123806352.10631561 -361184697.48056698 0 0 0 0 52321885.008527994 3441822.936111927 0 3441822.936111927 -123847661.25268173 0 0 0 0 18526149.079239845 -8151252.0601644516 0 -8151252.0601644516 -120031454.61468792 0 0 0 0 -16517416.604426622 -55216347.411111355 0 -55216347.411111355 -76612222.774578094 0 0 0 0 43312254.475319862 19521184.936896324 0 19521184.936896324 -152528429.3106041 0 0 0 0 92171707.155570507 -16940259.457508087 0 -16940259.457508087 -175948104.15115643 0 0 0 0 133858922.32288694 -81199912.914772034 0 -81199912.914772034 -109448865.8957901 0 0 0 0 74756681.845346928 -53380702.056211472 0 -53380702.056211472 -86484119.695362091 0 0 0 0 51936526.470823288 -49878137.458759308 0 -49878137.458759308 -75095058.513437271 0 0 0 0 50290741.754091769 -73781535.048373044 0 -73781535.048373044 -44988901.978130341 0 0 0 0 14078156.741034508 -73600286.156188965 0 -73600286.156188965 60301551.957985878 0 0 0 0 85778127.534480572 -100726025.27801418 0 -100726025.27801418 -37160818.23073864 0 0 0 0 5174762.6201303005 -57611076.483592033 0 -57611076.483592033 32059945.761507034 0 0 0 0 31498770.75371024 -87674457.213654399 0 -87674457.213654399 8531967.9776344299 0 0 0 0 31104221.838181242 -98860326.389283091 0 -98860326.389283091 47616700.282737732 0 0 0 0 134724918.28438425 -149853831.01584053 0 -149853831.01584053 27573358.100683212 0 0 0 0 82347624.631680489 -72412410.071508408 0 -72412410.071508408 -71892825.145964622 0 0 0 0 -8081938.037560463 -19645462.171438217 0 -19645462.171438217 99099274.520158768 0 0 0 0 155886552.67984533 -130632199.74083042 0 -130632199.74083042 28036364.457109451 0 0 0 0 14662474.21329546 -112757469.01672554 0 -112757469.01672554 174135031.69852257 0 0 0 0 48190247.137439728 -138754003.58076668 0 -138754003.58076668 330008758.9868412 0 0 0 0 -13556300.885286093 -52798186.927488327 0 -52798186.927488327 47229574.13677597 0 0 0 0 3929455.9444556236 -45628883.859336853 0 -45628883.859336853 48283485.871133804 0 0 0 0 24884653.182256699 96484898.188344955 0 96484898.188344955 -119568616.49697876 0 0 0 0 45592917.616991043 92764105.814489365 0 92764105.814489365 -20343138.945871353 0 0 0 0 144511958.98602629 152175090.88263893 0 152175090.88263893 -94226075.172610283 0 0 0 0 271906018.75318527 -58409122.067235947 0 -58409122.067235947 -160662474.14759707 0 0 0 0 35960086.815280676 37002129.732802868 0 37002129.732802868 10794334.712301254 0 0 0 0 251598878.58920765 -52988621.107316971 0 -52988621.107316971 32209480.718733311 0 0 0 0 403272745.01988834 128138911.91138303 0 128138911.91138303 225184499.4238739 0 0 0 0 347465943.02475834 -294690517.55243683 0 -294690517.55243683 168276507.88162231 0 0 0 0 513977003.55237103 -303728674.95221901 0 -303728674.95221901 344106435.03566122 0 0 0 0 194862707.36194175 165150851.86070895 0 165150851.86070895 13532763.565765381 0 0 0 0 251071485.96398163 -40164795.583213806 0 -40164795.583213806 59682726.572955132 0 0 0 0 59651274.381105423 51988140.540279388 0 51988140.540279388 182125310.17741776 0 0 0 0 -18238114.496182203 45673028.668195724 0 45673028.668195724 50087030.243484497 0 0 0 0 -23894219.922902822 115028035.29014683 0 115028035.29014683 -126580729.78308105 0 0 0 0 69153496.097171217 108655065.32857776 0 108655065.32857776 -46934561.463874817 0 0 0 0 -42665551.211451054 156171695.52060509 0 156171695.52060509 12565500.139923096 0 0 0 0 61579149.697728813 161155987.91300678 0 161155987.91300678 -92644882.057468414 0 0 0 0 -89739543.242914557 206106656.4545145 0 206106656.4545145 -62113301.368320465 0 0 0 0 -39783406.903044581 141624280.50270224 0 141624280.50270224 -120097975.9318161 0 0 0 0 -17662580.746031046 200105964.27047253 0 200105964.27047253 -149872940.82785988 0 0 0 0 -26887473.775425911 212949587.47333145 0 212949587.47333145 -77562491.079685211 0 0 0 0 -115357419.7852366 153711614.08961296 0 153711614.08961296 -160690020.03872919 0 0 0 0 -251003715.05755615 141685173.44418526 0 141685173.44418526 -83065971.009860992 0 0 0 0 -109118310.60096636 190554659.577631 0 190554659.577631 -92554381.88420105 0 0 0 0 -122905682.27647543 101828256.45272255 0 101828256.45272255 -53619495.089355469 0 0 0 0 -200916664.48245364 205521853.24476719 0 205521853.24476719 -146290439.00395966 0 0 0 0 -284666007.12330431 209608857.33227301 0 209608857.33227301 -87347076.730228424 0 0 0 0 27892428.315145016 6191338.470375061 0 6191338.470375061 -21471425.260986328 0 0 0 0 -243797707.24096042 143092072.37500572 0 143092072.37500572 -143945701.35202026 0 0 0 0 -25487835.433506966 20792105.823396206 0 20792105.823396206 4609754.2790393829 0 0 0 0 7926063.548614502 -166140389.58193207 0 -166140389.58193207 59475093.87189579 0 0 0 0 706971.00654375693 944300.13499005011 0 944300.13499005011 1046867.9259662433 0 0 0 0 37715420.074457169 -52198757.122476578 0 -52198757.122476578 140236487.07252693 0 0 0 0 58480144.383453369 -79836513.219177246 0 -79836513.219177246 -80178334.121601105 0 0 0 0 6368430.0838669678 3631927.6664096368 0 3631927.6664096368 -1109394.0896794018 0 0 0 0 7125434.5580234528 74834337.122331619 0 74834337.122331619 -20566334.14922142 0 0 0 0 -1445936.1019668579 8652882.6616153717 0 8652882.6616153717 -6071950.5462532043 0 0 0 0 88995354.271469116 51876691.284784317 0 51876691.284784317 -86036175.960601926 0 0 0 0 61687153.801412582 29209738.918306351 0 29209738.918306351 -32476165.665990829 0 0 0 0 95823046.49102211 -54194747.971967697 0 -54194747.971967697 21580173.203350067 0 0 0 0 -18271284.947257996 -3664334.2126083374 0 -3664334.2126083374 24233170.229401708 0 0 0 0 1147052.9656087831 -229623.53750996711 0 -229623.53750996711 -1335554.6152884876 0 0 0 0 1836088.3205656172 1745052.6645171456 0 1745052.6645171456 1310416.7188342195 0 0 0 0 79452289.494125366 -7966841.9191274643 0 -7966841.9191274643 -30399613.285203934 0 0 0 0 51163472.120410919 1440601.1932764053 0 1440601.1932764053 1968097.9041824341 0 0 0 0 -39578561.444990158 -53993505.186100006 0 -53993505.186100006 -25722716.917684555 0 0 0 0 -59065688.653577805 -23660910.66550827 0 -23660910.66550827 24077833.786712646 0 0 0 0 79976831.635845184 -31708155.740715027 0 -31708155.740715027 -80597619.682069778 0 0 0 0 63873668.313832283 8554965.5262441635 0 8554965.5262441635 -11744971.158615112 0 0 0 0 48692266.435283661 6906296.724155426 0 6906296.724155426 -8855390.3181314468 0 0 0 0 -71147.981994628906 7891350.9113845825 0 7891350.9113845825 -6788404.9929237366 0 0 0 0 -397234.90322875977 7140847.7126121521 0 7140847.7126121521 -5980367.467086792 0 0 0 0 -935484.32252502441 7738287.8077583313 0 7738287.8077583313 -5722141.391784668 0 0 0 0 2260.7178192138672 6786433.5540313721 0 6786433.5540313721 -4808512.0488605499 0 0 0 0 -733961.61542510986 6959323.4571857452 0 6959323.4571857452 -4790045.6825370789 0 0 0 0 107233.49612426758 6991322.4782485962 0 6991322.4782485962 -5740937.0871753693 0 0 0 0 -230445.68165397644 7639277.9113330841 0 7639277.9113330841 -5281170.274143219 0 0 0 0 260724.86917114258 7055336.8674926758 0 7055336.8674926758 -5225955.1285538673 0 0 0 0 362095.76751160622 7298320.0699694157 0 7298320.0699694157 -4884263.461681366 0 0 0 0 294511.55950784683 5993552.7790749669 0 5993552.7790749669 -3546773.0791625977 0 0 0 0 125928.60545349121 8354816.638250351 0 8354816.638250351 -5520534.5210494995 0 0 0 0 6799549.7747343639 3289751.7637719051 0 3289751.7637719051 -2706259.0431784429 0 0 0 0 -530458.86701202393 8244895.7626037598 0 8244895.7626037598 -5362251.8446655273 0 0 0 0 741677.90962982178 22212159.254905701 0 22212159.254905701 18074187.686576843 0 0 0 0 47578480.146430969 23730118.770160675 0 23730118.770160675 -3393794.8399505615 0 0 0 0 2839160.7089803359 -251938.58400989883 0 -251938.58400989883 -1158898.7882513003 0 0 0 0 35513664.928199768 19238645.203968048 0 19238645.203968048 -2522357.0950946808 0 0 0 0 -20367651.967711449 -8849057.4366431236 0 -8849057.4366431236 26578383.174530029 0 0 0 0 5664451.7917137146 -10110867.313358307 0 -10110867.313358307 2583175.440612793 0 0 0 0 -6006843.0170326233 -37898254.409244537 0 -37898254.409244537 -28324501.629829407 0 0 0 0 36264097.053462982 -33661380.46131134 0 -33661380.46131134 40994603.618377686 0 0 0 0 -3636535.0527114868 6077449.3161392212 0 6077449.3161392212 39890069.299484253 0 0 0 0 31763097.123222351 -14014979.795963287 0 -14014979.795963287 33832524.937799454 0 0 0 0 16309939.365503311 -195671.10433197021 0 -195671.10433197021 23734209.409912109 0 0 0 0 3300970.9493141174 -20860121.011180878 0 -20860121.011180878 69328078.172843933 0 0 0 0 2118766.4377593994 2332872.9321022034 0 2332872.9321022034 83034459.474510193 0 0 0 0 -2840270.9153869152 -13924344.170059323 0 -13924344.170059323 56512562.592704773 0 0 0 0 29657897.133148193 34981526.596740723 0 34981526.596740723 75636231.398254395 0 0 0 0 25050499.792312622 15942066.031757355 0 15942066.031757355 641248.97320973873 0 0 0 0 59440989.875045776 -44292352.12673378 0 -44292352.12673378 -87770112.13715744 0 0 0 0 92604728.857305527 -13474354.211726189 0 -13474354.211726189 -90517137.602684021 0 0 0 0 140741941.70455551 53832896.571378708 0 53832896.571378708 -51467611.030643463 0 0 0 0 1391026.4506013114 1311892.826368608 0 1311892.826368608 -1012301.3332318352 0 0 0 0 33634251.498504639 6951285.740234375 0 6951285.740234375 18690665.388618469 0 0 0 0 19415663.594970703 8762475.6225204468 0 8762475.6225204468 19306615.90221405 0 0 0 0 -3093832.1504936218 4404100.6697826385 0 4404100.6697826385 6596770.6654920578 0 0 0 0 33946158.707862854 6888143.5673389435 0 6888143.5673389435 -5283974.4214839935 0 0 0 0 7714166.055847168 -4946483.2499656677 0 -4946483.2499656677 -2645736.4923448563 0 0 0 0 5231127.433105588 -23487710.80491066 0 -23487710.80491066 -173529223.94724655 0 0 0 0 19725621.791164398 -8231830.3091239929 0 -8231830.3091239929 -15373161.798538208 0 0 0 0 4624773.1085534347 1964999.130463345 0 1964999.130463345 617606.04202977801 0 0 0 0 -3870395.6231422424 -49299513.325460434 0 -49299513.325460434 75071247.086639404 0 0 0 0 410396.76357269287 -33721348.632976532 0 -33721348.632976532 -11563537.22332859 0 0 0 0 8742391.5534286499 -2597493.5464782715 0 -2597493.5464782715 -1444011.8254890442 0 0 0 0 -11500521.818904877 -306931.1999206543 0 -306931.1999206543 41611804.001365662 0 0 0 0 -13270338.716148376 7529361.1179008484 0 7529361.1179008484 67780342.5206604 0 0 0 0 15946468.927125454 124003375.07373238 0 124003375.07373238 -137557013.01698303 0 0 0 0 -81300353.666673362 176303378.33135474 0 176303378.33135474 -158501979.85639954 0 0 0 0 18712743.508243561 1581759.1568317413 0 1581759.1568317413 -8207999.2439651489 0 0 0 0 2841036.018358516 1544905.5117880357 0 1544905.5117880357 700344.2199778799 0 0 0 0 -76159411.63795495 203141081.63908577 0 203141081.63908577 -146502796.92089272 0 0 0 0 1146802.9713838741 474397.6855567582 0 474397.6855567582 -552417.87880184688 0 0 0 0 75030150.067443848 -32810129.065459251 0 -32810129.065459251 100555.9354057312 0 0 0 0 59290022.589351654 -12201235.462524414 0 -12201235.462524414 5508519.6164741516 0 0 0 0 2205568697.7152252 81511130.297422647 0 81511130.297422647 -226445826.48056144 0 0 0 0 1581919825.2162664 528872342.21100438 0 528872342.21100438 -435408068.36599183 0 0 0 0 1127929707.1243439 -321415356.40220016 0 -321415356.40220016 -500534018.01561213 0 0 0 0 1571321266.5746117 -769671921.45433807 0 -769671921.45433807 -52776940.887821436 0 0 0 0 2633530780.7097702 -1115241534.2826467 0 -1115241534.2826467 -142512045.5309155 0 0 0 0 825330395.04904461 -324855201.99240124 0 -324855201.99240124 31421954.155157894 0 0 0 0 2477955667.1245232 811289423.51456487 0 811289423.51456487 576524847.09749544 0 0 0 0 2204695387.3268814 311578963.78921735 0 311578963.78921735 483808391.95390475 0 0 0 0 2331967197.6225586 -129114841.54568195 0 -129114841.54568195 1616408215.8952239 0 0 0 0 2290130198.5922794 -2803624.3891274822 0 -2803624.3891274822 227118305.8261281 0 0 0 0 2082388867.243804 702570983.36908579 0 702570983.36908579 -179105105.38487792 0 0 0 0 1503420738.7233696 1208776489.3496909 0 1208776489.3496909 577386368.26041818 0 0 0 0 451392326.3646431 -555565061.11672759 0 -555565061.11672759 710840787.68984425 0 0 0 0 2669524079.2378922 402380616.89790058 0 402380616.89790058 -66966511.336990714 0 0 0 0 1951455.6200111937 -359762.45120883879 0 -359762.45120883879 -104912.83445876991 0 0 0 0 -123585764.6444664 102265093.24838591 0 102265093.24838591 76912703.092472076 0 0 0 0 1098131577.6357689 877982430.31046784 0 877982430.31046784 263323582.82649937 0 0 0 0 66877477.070810318 14379660.316491123 0 14379660.316491123 277338440.34882593 0 0 0 0 850608769.92730713 339266286.90905595 0 339266286.90905595 -15784758.136253119 0 0 0 0 197730714.98418427 456998257.70892406 0 456998257.70892406 384673009.79731768 0 0 0 0 -66637078.735404968 -32336550.679316089 0 -32336550.679316089 22954932.249147892 0 0 0 0 91351994.233154297 137806309.16898611 0 137806309.16898611 75250192.119176537 0 0 0 0 5144661.8950790484 -958849.09674174059 0 -958849.09674174059 -572656.74520688842 0 0 0 0 -11135155.171455383 -2887423.2843244076 0 -2887423.2843244076 -23052428.230153322 0 0 0 0 50261853.437717438 3182669.9506409168 0 3182669.9506409168 -77931737.595172882 0 0 0 0 241373395.72544861 -9322280.7005128264 0 -9322280.7005128264 -351684359.82812202 0 0 0 0 8318630.4097070694 28734507.893911533 0 28734507.893911533 -1292031.5297564864 0 0 0 0 30.325645140372217 -613528.32806939469 0 -613528.32806939469 -702788.95010268339 0 0 0 0 -16115320.182300568 -42740789.809655905 0 -42740789.809655905 88850293.31367743 0 0 0 0 835178514.27948642 -228634158.34355053 0 -228634158.34355053 -23522076.243760616 0 0 0 0 917794058.89112091 -272470277.28003001 0 -272470277.28003001 -20963430.815555595 0 0 0 0 -31720489.698028564 164063429.50415432 0 164063429.50415432 86699929.756103277 0 0 0 0 -101256764.07987976 34134762.553429782 0 34134762.553429782 299778034.15106773 0 0 0 0 116047982.9877243 -265854454.14974332 0 -265854454.14974332 247834052.73203766 0 0 0 0 -8887547.091091156 -201782.43535876274 0 -201782.43535876274 26938945.732432127 0 0 0 0 -1537797.2049703132 -1099298.0157007021 0 -1099298.0157007021 -1127944.58566369 0 0 0 0 -27777854.171760559 95383152.954498649 0 95383152.954498649 -99264498.672943354 0 0 0 0 29127.950925350189 1506289.6773963273 0 1506289.6773963273 11534050.791287899 0 0 0 0 7142658.3971655415 -5053788.2939986056 0 -5053788.2939986056 -5309311.7940456644 0 0 0 0 1626681.6352378372 4691303.4172361176 0 4691303.4172361176 1429072.3264394801 0 0 0 0 21885368.444194794 6280822.9745445848 0 6280822.9745445848 757904.67485591769 0 0 0 0 21188127.859643459 2546355.3585159779 0 2546355.3585159779 -1427468.3702772856 0 0 0 0 7863022.2165810782 1596154.0482213686 0 1596154.0482213686 -5789320.8317333842 0 0 0 0 25231409.586227417 10471120.449958265 0 10471120.449958265 570596.80799460411 0 0 0 0 -3414359.8767852783 12373249.064394891 0 12373249.064394891 1334657.8520336747 0 0 0 0 425029.54649353027 9120812.4946517944 0 9120812.4946517944 641347.92268276215 0 0 0 0 -10643316.205917358 10697777.654507518 0 10697777.654507518 26542643.232160155 0 0 0 0 -140659.19372177124 16287671.957163811 0 16287671.957163811 -12318700.750977039 0 0 0 0 57289009.551109314 -126767090.66619653 0 -126767090.66619653 -324240059.19115341 0 0 0 0 7552509.2802518923 -856851.80112349102 0 -856851.80112349102 -1512105.3001581088 0 0 0 0 8485391.4054489136 10854561.28966713 0 10854561.28966713 -23582973.184617519 0 0 0 0 15724997.581323624 -177993447.15598273 0 -177993447.15598273 -237026990.39122593 0 0 0 0 -6078481.924446106 -56334287.459830299 0 -56334287.459830299 -70291881.503473133 0 0 0 0 104898153.73239255 -73105689.482987568 0 -73105689.482987568 -70398069.038932949 0 0 0 0 24752714.427818298 -57786809.165242746 0 -57786809.165242746 -68578541.796839073 0 0 0 0 -98251844.304130554 -35385880.645246387 0 -35385880.645246387 -71318102.830440313 0 0 0 0 -126977252.81645203 -94590850.598702908 0 -94590850.598702908 -251162664.38553992 0 0 0 0 23286652.865533829 -85269786.467170119 0 -85269786.467170119 -252059943.69332075 0 0 0 0 -61374090.002609253 -138771967.60137933 0 -138771967.60137933 -96317828.920297399 0 0 0 0 1544760.1881116137 3998995.5853413763 0 3998995.5853413763 -504246.13829190377 0 0 0 0 -15028933.448600769 39571367.168387845 0 39571367.168387845 -57872214.544780552 0 0 0 0 32911071.463371277 27052407.428369254 0 27052407.428369254 19553756.981034636 0 0 0 0 261963.41449839436 1080929.0695001194 0 1080929.0695001194 814.96012170761605 0 0 0 0 22634641.418264389 12422282.738998316 0 12422282.738998316 -736734.81260681152 0 0 0 0 7361104.8630371094 6266117.2062723637 0 6266117.2062723637 -13509034.834927559 0 0 0 0 379755.12213331088 174858.46516231168 0 174858.46516231168 -220.79704934133042 0 0 0 0 15216915.813728333 -6591121.9215242267 0 -6591121.9215242267 -8246477.4323886037 0 0 0 0 40882113.11614418 643706.86431507766 0 643706.86431507766 -20869890.404285908 0 0 0 0 7343615.1816209191 -4614319.1504875701 0 -4614319.1504875701 -5541947.2582543846 0 0 0 0 61233776.630897522 -16596630.695942119 0 -16596630.695942119 -80752164.887379542 0 0 0 0 74738734.454315186 -70318944.346111923 0 -70318944.346111923 -232506673.80149606 0 0 0 0 2677658.2326812744 -13976668.704535767 0 -13976668.704535767 -24232665.879495323 0 0 0 0 6158413.9043426514 -81893774.38309522 0 -81893774.38309522 -54495111.324081481 0 0 0 0 3587840.979019165 -75276948.926663101 0 -75276948.926663101 -70434970.662630171 0 0 0 0 7389773.1878549736 -4197051.9464785261 0 -4197051.9464785261 -5765340.4266313631 0 0 0 0 -8880639.2788085938 -35033906.23008664 0 -35033906.23008664 -33418644.611076862 0 0 0 0 30472664.627975941 -59188092.450460434 0 -59188092.450460434 -49346553.954734802 0 0 0 0 -18908939.564147949 -45369397.156612314 0 -45369397.156612314 -23290512.341299295 0 0 0 0 -7594081.677128911 -13346985.133926392 0 -13346985.133926392 3715803.589881897 0 0 0 0 106007002.56863213 4449592.3846702576 0 4449592.3846702576 -8153749.5423278809 0 0 0 0 109910523.56244171 34879828.043905497 0 34879828.043905497 -3707439.6748771667 0 0 0 0 -84608724.022053719 -37743842.962200165 0 -37743842.962200165 -19856454.483966827 0 0 0 0 64663310.244132519 -9486288.7036247253 0 -9486288.7036247253 -903135.82118034363 0 0 0 0 -774648.3286251229 -763187.39638729882 0 -763187.39638729882 -538988.22508688457 0 0 0 0 79640843.064717293 23379291.234983444 0 23379291.234983444 11270281.937831879 0 0 0 0 93363963.33882618 38178764.579849243 0 38178764.579849243 9039331.0243625641 0 0 0 0 68042286.794867516 36727520.57093811 0 36727520.57093811 18030754.610221863 0 0 0 0 94109756.038778782 55038846.4858284 0 55038846.4858284 29078235.169605255 0 0 0 0 118050577.00794697 37415758.485723495 0 37415758.485723495 7504391.3690786362 0 0 0 0 93778610.039510965 36062358.084411144 0 36062358.084411144 8274697.4450912476 0 0 0 0 -80928010.489369392 -45828955.682945251 0 -45828955.682945251 -14344300.501533508 0 0 0 0 -3475531.8006232437 -2342287.6560878735 0 -2342287.6560878735 -1403089.2662851205 0 0 0 0 40499746.243408203 5620289.9098482132 0 5620289.9098482132 19754109.478675842 0 0 0 0 -28898238.328636169 -19210340.822654724 0 -19210340.822654724 -11012799.377983093 0 0 0 0 131532586.49418259 -11905184.882062912 0 -11905184.882062912 -655326.26424741745 0 0 0 0 49869695.846431732 -142117.10330581665 0 -142117.10330581665 -17570407.280715942 0 0 0 0 -23914966.572085381 -17723434.835176468 0 -17723434.835176468 -19557268.447761536 0 0 0 0 291499178.27545071 81728964.204330444 0 81728964.204330444 -9254077.1719512939 0 0 0 0 -60312583.701683998 43389619.692770004 0 43389619.692770004 33750718.011642456 0 0 0 0 300799788.03809261 137946358.91478729 0 137946358.91478729 -78662372.273300171 0 0 0 0 145724664.50551128 193139360.28075027 0 193139360.28075027 152485236.51697779 0 0 0 0 62933572.225315914 40664192.651508689 0 40664192.651508689 42401802.850212097 0 0 0 0 95125785.037574768 94125910.817272186 0 94125910.817272186 119283025.94418621 0 0 0 0 11298760.103849411 -102737630.00362015 0 -102737630.00362015 -116507087.76215363 0 0 0 0 510020.92995201889 163602.56733477465 0 163602.56733477465 76205.988514444791 0 0 0 0 81694625.349237442 -121645099.37764549 0 -121645099.37764549 -164188188.10554123 0 0 0 0 89609560.900309563 -48620596.648681641 0 -48620596.648681641 -136894627.33573174 0 0 0 0 90141605.511897087 -54404822.920349121 0 -54404822.920349121 -87157208.993270874 0 0 0 0 348401009.83793068 -14351348.74123764 0 -14351348.74123764 -132573633.4907608 0 0 0 0 77514505.512320995 27836288.15605545 0 27836288.15605545 6617132.8918581009 0 0 0 0 334922110.92149997 -134904456.06720352 0 -134904456.06720352 13069762.943702698 0 0 0 0 90784551.867685318 374362876.41326904 0 374362876.41326904 -50052422.629554749 0 0 0 0 973172.84049801831 -743399.5607123361 0 -743399.5607123361 -1049270.4697947092 0 0 0 0 -703273.78316601994 -823330.98455332953 0 -823330.98455332953 -252668.72900563106 0 0 0 0 7778717.5318756104 14491919.318876266 0 14491919.318876266 20662568.444854736 0 0 0 0 -4530050.5366607681 -7740679.9675102476 0 -7740679.9675102476 -2040295.781611497 0 0 0 0 114509323.70090294 -470847.15344429016 0 -470847.15344429016 -48397017.419364929 0 0 0 0 1842623.2434983931 -4139326.7386719561 0 -4139326.7386719561 -4615309.8145506838 0 0 0 0 32489026.257591724 -28748133.194037437 0 -28748133.194037437 -10320042.989535332 0 0 0 0 39939807.287640572 -55560094.109642029 0 -55560094.109642029 -34071215.491634369 0 0 0 0 44923714.568357468 -50970048.362661362 0 -50970048.362661362 -79523082.429510117 0 0 0 0 34286552.016216755 -61886533.043775558 0 -61886533.043775558 -21821001.875097275 0 0 0 0 35778274.657131195 -62833658.950305939 0 -62833658.950305939 -35930131.442037582 0 0 0 0 43004543.761054754 -46763469.569221497 0 -46763469.569221497 -1280485.5245494843 0 0 0 0 10645294.850754738 -46113477.544511318 0 -46113477.544511318 -295719.68936920166 0 0 0 0 12936798.031402111 -53230972.839971542 0 -53230972.839971542 21807453.496070862 0 0 0 0 -1215168.9088392258 -32808051.448928833 0 -32808051.448928833 30397557.747151852 0 0 0 0 278717.28287893534 -24401372.862872124 0 -24401372.862872124 4634991.5380706787 0 0 0 0 5481377.4238506556 -12581163.64764452 0 -12581163.64764452 -16103983.121421814 0 0 0 0 -2734678.511100769 -6354262.8746109009 0 -6354262.8746109009 -3758619.3632164001 0 0 0 0 7287873.8093681335 -20480995.630586624 0 -20480995.630586624 6392872.9229416847 0 0 0 0 16967053.873512268 -38308149.021408081 0 -38308149.021408081 8922720.5479593277 0 0 0 0 12512912.038707018 -18004686.196159124 0 -18004686.196159124 6268179.8502693176 0 0 0 0 -357446.53521003691 -1239631.1728619109 0 -1239631.1728619109 -387700.66341815935 0 0 0 0 32563140.473863602 -24259276.730690956 0 -24259276.730690956 -635938.12244987488 0 0 0 0 2621500.6825472503 -4396609.353071765 0 -4396609.353071765 -4834728.4046175005 0 0 0 0 -876522.42444610596 -6313603.7914631069 0 -6313603.7914631069 -1828514.5206485391 0 0 0 0 11487972.792263031 -5837445.8048864454 0 -5837445.8048864454 -27185057.393501289 0 0 0 0 -1987359.1649475098 -21881730.605387956 0 -21881730.605387956 -25690638.715129793 0 0 0 0 -50010617.618759155 40689902.470283866 0 40689902.470283866 73164286.986641407 0 0 0 0 -35718949.162750244 -36747864.041437745 0 -36747864.041437745 810853.95730662346 0 0 0 0 -29866651.668556213 -43662768.307456553 0 -43662768.307456553 -41592647.804714888 0 0 0 0 -2122299.8006420135 -7302250.2867787797 0 -7302250.2867787797 14256057.728021085 0 0 0 0 7133474.344575882 -1240906.9492751509 0 -1240906.9492751509 -51975335.654592037 0 0 0 0 5174421.8530646833 -2740309.0477173673 0 -2740309.0477173673 -3898132.9855844826 0 0 0 0 -13736439.043752789 15878396.229972363 0 15878396.229972363 -28155442.376282215 0 0 0 0 5510963.1231780834 -3046151.0057826759 0 -3046151.0057826759 -3638498.5929185948 0 0 0 0 2010989.0889453888 -2660550.4837017059 0 -2660550.4837017059 -2165504.4019999504 0 0 0 0 3002436.7850397704 -1893111.4040124351 0 -1893111.4040124351 -3489718.9914680445 0 0 0 0 20551694.082983017 1854009.3237600476 0 1854009.3237600476 -83761593.719408631 0 0 0 0 6645608.5082231816 -2095521.6194016584 0 -2095521.6194016584 -1639845.3927930801 0 0 0 0 59627798.792114258 -9552555.1935248375 0 -9552555.1935248375 -36596246.685348153 0 0 0 0 2421943.556669198 -1398388.7974037442 0 -1398388.7974037442 -2040534.248154412 0 0 0 0 -23663982.071048737 -26697396.191072881 0 -26697396.191072881 -15049369.018056571 0 0 0 0 -104949273.71376801 -31524851.360086143 0 -31524851.360086143 25362611.538798928 0 0 0 0 -185022.09096483351 -242431.40618746309 0 -242431.40618746309 -74960.43993757313 0 0 0 0 63485950.416866302 -63876873.024722248 0 -63876873.024722248 -106967579.92329308 0 0 0 0 34744711.609500885 -58611200.044293702 0 -58611200.044293702 -28540952.994241238 0 0 0 0 -2888944.3214969635 -93198206.997833788 0 -93198206.997833788 15208656.194930911 0 0 0 0 -130905008.2236867 636921.96914898604 0 636921.96914898604 -2475168.9778795242 0 0 0 0 -18290239.939430237 -63193183.335256934 0 -63193183.335256934 -6264538.4811034203 0 0 0 0 -581581.60001942469 -797701.55942874029 0 -797701.55942874029 -294102.67788922833 0 0 0 0 8673461.3473815918 -12718814.697931439 0 -12718814.697931439 29338001.716593027 0 0 0 0 -33991754.157715797 -77357041.993495852 0 -77357041.993495852 37600596.952638149 0 0 0 0 -22231754.654541016 -74835709.533028245 0 -74835709.533028245 -35393184.679257274 0 0 0 0 -134246948.4660759 -68882272.543105364 0 -68882272.543105364 26665330.637877941 0 0 0 0 -48319462.057920456 -40931239.485370055 0 -40931239.485370055 514292.97413945198 0 0 0 0 -25664223.377449036 -18640746.090849161 0 -18640746.090849161 9944061.376095295 0 0 0 0 -8333481.9299230576 -7596771.6847915649 0 -7596771.6847915649 -8314663.6301753521 0 0 0 0 31433357.007259369 -10104773.434653938 0 -10104773.434653938 -52896015.483259201 0 0 0 0 -765221.94542638864 -484114.7349708667 0 -484114.7349708667 -242751.4237103677 0 0 0 0 -31131516.554206848 -11469913.314634681 0 -11469913.314634681 4882749.9095942974 0 0 0 0 -19551601.922569275 -21819068.972402215 0 -21819068.972402215 11125013.961846948 0 0 0 0 -22292315.838920593 -14975111.979235888 0 -14975111.979235888 9234070.120516181 0 0 0 0 -25734238.506072998 -15217753.951867342 0 -15217753.951867342 9735105.0376995802 0 0 0 0 1842281.7032928467 -11824563.057420015 0 -11824563.057420015 -9087528.4176287651 0 0 0 0 -2512978.5307074916 -1499057.017394938 0 -1499057.017394938 -717293.28853836632 0 0 0 0 -15549566.511768341 -7323373.9013689756 0 -7323373.9013689756 -1134541.9023321867 0 0 0 0 2904726.5031051636 -5053496.5153623819 0 -5053496.5153623819 -7911506.979221344 0 0 0 0 -1797533.1416612882 -9661074.5645012185 0 -9661074.5645012185 -4991902.343359611 0 0 0 0 -5893193.4829101562 -5259294.4528980255 0 -5259294.4528980255 -4404401.9319233894 0 0 0 0 -1859994.341317975 -1389867.4396758042 0 -1389867.4396758042 -406916.82529752376 0 0 0 0 994745.69702487148 -140814.28176301345 0 -140814.28176301345 -1391410.6654155762 0 0 0 0 -6483094.1828536987 -12706178.624675751 0 -12706178.624675751 -6335951.1506605148 0 0 0 0 1442860.8831710815 -359810.3282725811 0 -359810.3282725811 -1220561.6718971729 0 0 0 0 -158945196.03828716 -9296058.1378183365 0 -9296058.1378183365 60345917.029543161 0 0 0 0 -6619391.9451999664 -83488991.81835404 0 -83488991.81835404 38049401.133107185 0 0 0 0 -76784624.859634399 34082526.291076958 0 34082526.291076958 7489185.5980434418 0 0 0 0 -158849350.92723083 -15213501.788579226 0 -15213501.788579226 36546477.553846121 0 0 0 0 -111368366.83285522 -19103120.689010859 0 -19103120.689010859 -6461072.8826408386 0 0 0 0 -240379787.75674438 -98444477.979274154 0 -98444477.979274154 -18741265.278584957 0 0 0 0 -56515.055538951419 -77151.695004833862 0 -77151.695004833862 -97103.567305381119 0 0 0 0 263272105.47510529 -761305.57344961166 0 -761305.57344961166 47356395.389606178 0 0 0 0 112731242.14425659 3461721.6438313723 0 3461721.6438313723 49753029.282491624 0 0 0 0 202421947.99607468 -107448578.03357375 0 -107448578.03357375 -6380404.8257672191 0 0 0 0 297173869.98694992 -178878924.98325092 0 -178878924.98325092 101563174.70634532 0 0 0 0 517150674.80425072 41584054.168557346 0 41584054.168557346 5411396.2168716192 0 0 0 0 1093804380.9240227 -403873949.09538794 0 -403873949.09538794 15554220.439142644 0 0 0 0 1342703382.717485 576659620.30475056 0 576659620.30475056 -7445754.2394764423 0 0 0 0 675417297.8876152 219257789.77184403 0 219257789.77184403 -67957221.167828858 0 0 0 0 378228480.9905777 -66547657.719070077 0 -66547657.719070077 -30464098.80525741 0 0 0 0 158260256.45305824 23332074.564624101 0 23332074.564624101 15727702.625771105 0 0 0 0 -78012009.105583191 -43265364.821501821 0 -43265364.821501821 7390654.6552775837 0 0 0 0 321088748.65683365 77814456.172372162 0 77814456.172372162 -121822666.32465938 0 0 0 0 -12751117.059825897 -45070501.889167175 0 -45070501.889167175 -16779883.306119919 0 0 0 0 4591734.4366216902 -1345315.9822071986 0 -1345315.9822071986 -447482.57640379376 0 0 0 0 256703272.92708492 181970436.76287755 0 181970436.76287755 99520294.977462173 0 0 0 0 488427688.26994896 156208357.37338048 0 156208357.37338048 -88901514.306723952 0 0 0 0 306967430.59105682 82778076.028052777 0 82778076.028052777 -38106790.142451108 0 0 0 0 479326594.20720482 166522096.77660066 0 166522096.77660066 78016417.335111931 0 0 0 0 760119862.33909988 509074266.00919902 0 509074266.00919902 175454865.80640167 0 0 0 0 2197949080.763875 1306429241.2781796 0 1306429241.2781796 613672200.57358432 0 0 0 0 2203253743.1698551 396137046.6773296 0 396137046.6773296 -305948763.82177395 0 0 0 0 1087242.4693069672 42461.260919943452 0 42461.260919943452 -385351.08747808647 0 0 0 0 740911928.14702606 -234378596.20290449 0 -234378596.20290449 -500494192.80832863 0 0 0 0 584369157.42269135 341799838.35850483 0 341799838.35850483 -63983263.004402518 0 0 0 0 590899457.6367321 363902212.35247636 0 363902212.35247636 -7336890.8443914354 0 0 0 0 595759.61230649427 -92875.083400074858 0 -92875.083400074858 -89870.055081140948 0 0 0 0 432094460.25230026 -718896351.10311747 0 -718896351.10311747 -391797025.80162245 0 0 0 0 2202064143.0344639 874573213.44538665 0 874573213.44538665 -241442044.21957782 0 0 0 0 920121241.70120335 424717956.89262164 0 424717956.89262164 -343634313.9500227 0 0 0 0 1538721743.8046665 -87283228.383522019 0 -87283228.383522019 -928069969.44982016 0 0 0 0 1153895861.5315609 -677048594.38440859 0 -677048594.38440859 -51266844.696067095 0 0 0 0 1271527241.8275976 301695274.928563 0 301695274.928563 -1143072439.4597449 0 0 0 0 1507684610.2202873 -85196471.355742574 0 -85196471.355742574 -927578699.62506294 0 0 0 0 -176253533.31319714 -835636085.60283685 0 -835636085.60283685 232900764.47912657 0 0 0 0 -116497345.16398621 -390999684.33193207 0 -390999684.33193207 -1275241453.0152998 0 0 0 0 300793458.39401245 -217728594.41488016 0 -217728594.41488016 -493864473.10317755 0 0 0 0 -805823538.56121063 190680323.57984447 0 190680323.57984447 -776890786.64160872 0 0 0 0 108256493.72399902 24814195.062240839 0 24814195.062240839 -758197200.46936929 0 0 0 0 -1204777961.3156242 -668052179.49869823 0 -668052179.49869823 -380997981.06057429 0 0 0 0 -455220126.17824936 -792417305.21106946 0 -792417305.21106946 -372817247.64880204 0 0 0 0 -315717144.30976105 -646140209.94785786 0 -646140209.94785786 -271940593.32887411 0 0 0 0 388742543.36250114 -916576117.89383745 0 -916576117.89383745 -173827912.79250792 0 0 0 0 456806468.46745872 -123467259.33398515 0 -123467259.33398515 -466804847.34134358 0 0 0 0 2056266.9235170644 -1062972.5090432731 0 -1062972.5090432731 -1082928.703294222 0 0 0 0 293264352.7681179 -479269556.83952999 0 -479269556.83952999 461515368.14259702 0 0 0 0 894557462.50373459 -314059961.32540107 0 -314059961.32540107 188498401.60460562 0 0 0 0 723552798.55400181 -979966518.23591816 0 -979966518.23591816 253534432.20690674 0 0 0 0 1026445037.2102289 -538443242.53707647 0 -538443242.53707647 570200087.38652396 0 0 0 0 2206473593.2738128 -730910547.33592343 0 -730910547.33592343 -365929570.07834512 0 0 0 0 442139545.58224297 -217421914.38492107 0 -217421914.38492107 336519721.01969087 0 0 0 0 2201159640.3849964 -1356121581.6221967 0 -1356121581.6221967 972412040.98665941 0 0 0 0 2060359.9092288134 -1052011.7558954759 0 -1052011.7558954759 -840838.62784616137 0 0 0 0 2180538751.3114634 -1404108197.2513492 0 -1404108197.2513492 353526554.61874187 0 0 0 0 180674001.67465019 -621959549.12048721 0 -621959549.12048721 1632454562.3602605 0 0 0 0 1669623.6980198771 -681142.95469516492 0 -681142.95469516492 126379.52898818708 0 0 0 0 -83222956.760641098 -80930882.976901397 0 -80930882.976901397 755161416.79577231 0 0 0 0 177340765.71999931 -402037346.53584361 0 -402037346.53584361 476548852.47397113 0 0 0 0 308633686.5625329 -512378360.17782336 0 -512378360.17782336 564096828.52075124 0 0 0 0 154095128.36881423 -236530955.18767309 0 -236530955.18767309 368994205.34667397 0 0 0 0 127510743.33548737 -112324567.10657373 0 -112324567.10657373 142128816.62063104 0 0 0 0 38126097.165968657 22111059.978691936 0 22111059.978691936 49424401.207458973 0 0 0 0 -11288483.954879761 -92101530.753127247 0 -92101530.753127247 301771758.91822684 0 0 0 0 177418825.69877148 -266297229.4459604 0 -266297229.4459604 278741426.23164749 0 0 0 0 105761085.48534369 -165960738.12545156 0 -165960738.12545156 174302325.3647418 0 0 0 0 68223228.941492081 -205017704.94271243 0 -205017704.94271243 355863927.24441576 0 0 0 0 188182946.82334232 -302655083.31956196 0 -302655083.31956196 297694716.6985147 0 0 0 0 181946745.18756485 -271904278.67577648 0 -271904278.67577648 477811489.60608864 0 0 0 0 93946691.469035625 -283087864.70393634 0 -283087864.70393634 425880945.83377218 0 0 0 0 349100674.72616005 -328301470.88831258 0 -328301470.88831258 362649302.32011127 0 0 0 0 2324913921.2937818 -247875203.24599218 0 -247875203.24599218 -339111357.83258051 0 0 0 0 1321235.861561215 -429234.84906799783 0 -429234.84906799783 -185653.12618392264 0 0 0 0 -260594334.13064957 -1222101568.0543151 0 -1222101568.0543151 -754490030.59284568 0 0 0 0 1432528079.757699 1063239998.1991141 0 1063239998.1991141 -57060721.622197151 0 0 0 0 311035674.70257759 -758658895.52914238 0 -758658895.52914238 -426803180.16591191 0 0 0 0 116456956.83434653 -1157808730.4028606 0 -1157808730.4028606 -751526032.56253171 0 0 0 0 1709971.1899125827 -1031504.1421434229 0 -1031504.1421434229 -915928.85419832834 0 0 0 0 204142050.97300243 -415139721.57924747 0 -415139721.57924747 496069241.73942757 0 0 0 0 240195267.72236288 -325731714.7888633 0 -325731714.7888633 375608894.75457764 0 0 0 0 56877648.397282362 -273087552.22796798 0 -273087552.22796798 457761897.98378944 0 0 0 0 96429772.18221283 -243090463.86751771 0 -243090463.86751771 422678988.41682875 0 0 0 0 5103284.4351938069 -204458160.67328882 0 -204458160.67328882 616581332.53642321 0 0 0 0 -5000569.2317625582 -243412299.72491217 0 -243412299.72491217 467621114.64228725 0 0 0 0 42418730.969030619 -369257125.62155843 0 -369257125.62155843 526093891.16117716 0 0 0 0 55321201.647176147 -281074839.02739733 0 -281074839.02739733 251933242.58398128 0 0 0 0 -44832382.20881331 -297499259.24150658 0 -297499259.24150658 166593025.65449059 0 0 0 0 -69423879.325015187 -270609635.57270122 0 -270609635.57270122 258398428.60643643 0 0 0 0 72682694.380379692 -186784966.16378537 0 -186784966.16378537 80007174.658205986 0 0 0 0 13597229.904405832 -304707545.99516022 0 -304707545.99516022 442382673.76893139 0 0 0 0 108557620.99885798 -294232283.82783723 0 -294232283.82783723 259349579.48147595 0 0 0 0 50826319.185661316 -200356307.55539811 0 -200356307.55539811 306632690.82713509 0 0 0 0 45714382.042229652 -114435024.73440027 0 -114435024.73440027 169608704.71592206 0 0 0 0 82776729.720785379 -235839481.04368562 0 -235839481.04368562 145858823.80540895 0 0 0 0 18807748.353714108 -20167478.40298453 0 -20167478.40298453 64428716.049572706 0 0 0 0 64959498.391373754 -150111632.92977586 0 -150111632.92977586 19065230.721173406 0 0 0 0 80533617.766526222 -174748016.81218809 0 -174748016.81218809 176383688.63757253 0 0 0 0 65707748.978231907 -30096941.401775122 0 -30096941.401775122 25618157.268946648 0 0 0 0 -6301446.7084393501 -570966.71874260902 0 -570966.71874260902 24980530.743265152 0 0 0 0 22971902.492905617 -34768111.141078711 0 -34768111.141078711 192646676.92642108 0 0 0 0 27969816.467206478 -28929680.715728283 0 -28929680.715728283 35364787.270610809 0 0 0 0 3520452.6820209026 6168436.1879737377 0 6168436.1879737377 21063939.852716446 0 0 0 0 -32150768.74316144 5361620.1239759922 0 5361620.1239759922 17676566.704702854 0 0 0 0 2831237.939592191 -92051.903102680692 0 -92051.903102680692 -2747221.8705160567 0 0 0 0 -14046139.75092411 21590626.541902125 0 21590626.541902125 11977997.397107124 0 0 0 0 -24980831.331480145 10350164.678507566 0 10350164.678507566 10553825.189167023 0 0 0 0 -5840542.6030845642 -5765254.4769020081 0 -5765254.4769020081 6809706.5355049968 0 0 0 0 13053464.949173927 -35775037.873450398 0 -35775037.873450398 31634336.273724854 0 0 0 0 -3029928.4391700029 -19833576.076898575 0 -19833576.076898575 -14876229.75276196 0 0 0 0 -21835265.853553772 -25879452.646113157 0 -25879452.646113157 1467139.3544925451 0 0 0 0 256005.05667827139 -413255.45378612424 0 -413255.45378612424 -215789.45903729583 0 0 0 0 -183653582.08110744 -111212955.44173221 0 -111212955.44173221 -149337016.22327527 0 0 0 0 4017929.4644470215 -10173087.270913005 0 -10173087.270913005 -5343301.1512236595 0 0 0 0 -16431972.340469837 -18929376.314028561 0 -18929376.314028561 6645520.1924102306 0 0 0 0 47458452.042742431 -187262943.75116894 0 -187262943.75116894 -235237953.69670558 0 0 0 0 39395266.702371463 -156625425.02876163 0 -156625425.02876163 126073902.47560143 0 0 0 0 21046942.114503503 -54495950.456475049 0 -54495950.456475049 -63719472.768452644 0 0 0 0 112720062.7745676 -93071562.10161455 0 -93071562.10161455 -229455968.10808873 0 0 0 0 14993427.226211548 -174353521.67522126 0 -174353521.67522126 -132799281.5926232 0 0 0 0 49702832.45957613 -88351710.755380362 0 -88351710.755380362 -217445356.58493006 0 0 0 0 495703.38406096632 -3631735.8228114513 0 -3631735.8228114513 -1465439.9708617777 0 0 0 0 1317647.4617329473 -2194539.6005093562 0 -2194539.6005093562 -1097699.094291012 0 0 0 0 1722972.7841682732 -1847357.6850879192 0 -1847357.6850879192 -836231.71096420288 0 0 0 0 1756137.4453463554 -4687003.4592647552 0 -4687003.4592647552 -4214262.7800769806 0 0 0 0 1762129.5998300314 -10785460.514855862 0 -10785460.514855862 8053567.1702213287 0 0 0 0 183448.06416068412 -3005139.7608211469 0 -3005139.7608211469 -709744.76148800924 0 0 0 0 -2056609.3161320686 -4749785.6049356461 0 -4749785.6049356461 7258154.7742888331 0 0 0 0 146023.09651205828 -523044.72291536559 0 -523044.72291536559 430286.37252846838 0 0 0 0 109998611.05911696 190849318.67733949 0 190849318.67733949 -287155273.16548002 0 0 0 0 -4144846.804472208 -47415209.587197065 0 -47415209.587197065 -94983015.225492716 0 0 0 0 347792648.62798357 -211014363.26291895 0 -211014363.26291895 93720430.408062458 0 0 0 0 209139246.82145107 132571235.37617916 0 132571235.37617916 169003788.74567699 0 0 0 0 176383971.536304 2587902.1225316525 0 2587902.1225316525 -83266434.474356174 0 0 0 0 243249129.02088594 -201076130.68587971 0 -201076130.68587971 175283060.31185555 0 0 0 0 98468230.399497986 -235409130.61354065 0 -235409130.61354065 167167535.18906808 0 0 0 0 748166769.90302944 -562141692.21436429 0 -562141692.21436429 515148675.30903292 0 0 0 0 144693731.80776 -167938613.86645925 0 -167938613.86645925 389203875.74587631 0 0 0 0 477764669.48720884 146462246.05747342 0 146462246.05747342 527236753.03304911 0 0 0 0 172887989.07313633 -145975872.51140463 0 -145975872.51140463 279427058.60828447 0 0 0 0 284225426.79943991 -228376115.30190992 0 -228376115.30190992 -92452514.254873753 0 0 0 0 476677114.8973999 -606434655.21822619 0 -606434655.21822619 642363152.7836051 0 0 0 0 464109650.90861702 -28381764.744162321 0 -28381764.744162321 -648588373.49251413 0 0 0 0 -3989419.451761961 -257347800.96508789 0 -257347800.96508789 1497941176.7669373 0 0 0 0 465966.30608502636 -507476.95892692078 0 -507476.95892692078 76386.823495588353 0 0 0 0 -28550733.245502472 -40797977.451348782 0 -40797977.451348782 -351564656.1025548 0 0 0 0 735773599.64325571 -307931762.68238997 0 -307931762.68238997 -470902834.74126959 0 0 0 0 314355326.96270841 -43397482.245449238 0 -43397482.245449238 -273243791.14239502 0 0 0 0 314071332.54588008 -29876128.206485033 0 -29876128.206485033 -435492837.04268408 0 0 0 0 432170872.71367741 -80838370.827682257 0 -80838370.827682257 -306172381.02872157 0 0 0 0 398412446.86789286 -221736757.04384187 0 -221736757.04384187 -97611127.286805153 0 0 0 0 298137153.23605537 -56565099.216711581 0 -56565099.216711581 -91438489.639536381 0 0 0 0 146078430.671103 -95247414.526073992 0 -95247414.526073992 -58708501.794503331 0 0 0 0 252790268.98429894 -71207036.001316309 0 -71207036.001316309 -222608300.31075406 0 0 0 0 274578629.5722065 -9070243.8274818659 0 -9070243.8274818659 -185407296.19628227 0 0 0 0 -12851414.359447479 -38522948.302646995 0 -38522948.302646995 51028212.069912434 0 0 0 0 98887669.779109478 108747291.22524172 0 108747291.22524172 -278869574.04736972 0 0 0 0 172787.03618521523 -39289.439144012227 0 -39289.439144012227 -56050.072904736997 0 0 0 0 489356.20148644201 -167958.58447017768 0 -167958.58447017768 -135829.31232568415 0 0 0 0 51164735.863244057 -71089878.153499901 0 -71089878.153499901 -285480103.25907075 0 0 0 0 -118884162.47897577 -106273413.21596104 0 -106273413.21596104 -171565818.79886639 0 0 0 0 -104129561.52733231 -103100440.79783559 0 -103100440.79783559 -280216976.27993166 0 0 0 0 12098787.655465841 -108737607.36841102 0 -108737607.36841102 -555787538.31444442 0 0 0 0 573144.11019897461 -42207249.204405069 0 -42207249.204405069 -761091686.0299871 0 0 0 0 5817512.4674987793 -69731829.133377314 0 -69731829.133377314 -218149795.58417708 0 0 0 0 -118698565.63227654 -237829387.34337211 0 -237829387.34337211 -471268504.09412384 0 0 0 0 -33786289.301345348 23621589.998653054 0 23621589.998653054 -400741156.17645383 0 0 0 0 1243505.2282305865 -1428350.8813520195 0 -1428350.8813520195 117530.89147917501 0 0 0 0 -195770178.7129364 -299094286.50124121 0 -299094286.50124121 -442986795.46530008 0 0 0 0 33031737.87973392 -150978229.33470583 0 -150978229.33470583 544516450.02855682 0 0 0 0 267217.23075884092 -164497.91738302319 0 -164497.91738302319 -187376.22991719813 0 0 0 0 -20150140.626752853 -238494669.10235333 0 -238494669.10235333 -603802141.14687157 0 0 0 0 -12957629.110158134 -155766134.08237469 0 -155766134.08237469 556404554.91978264 0 0 0 0 2867070.7837334983 -273134.59387484455 0 -273134.59387484455 -592809.26880204922 0 0 0 0 1082626.7206331696 -1643165.3347830351 0 -1643165.3347830351 -896102.07942183875 0 0 0 0 57063827.705971479 -195376559.05685377 0 -195376559.05685377 422631225.47102863 0 0 0 0 63564860.051664948 -169716555.76587772 0 -169716555.76587772 523594665.51417685 0 0 0 0 -267208612.62146258 -100721537.32045904 0 -100721537.32045904 -38262876.255188465 0 0 0 0 -219621762.42828226 -221797938.04846931 0 -221797938.04846931 266590936.86019379 0 0 0 0 1325996278.3893602 758818967.72246099 0 758818967.72246099 174219958.66091985 0 0 0 0 1302808914.1682739 1392759088.9065731 0 1392759088.9065731 592839678.36975431 0 0 0 0 1202185132.974205 759872355.69001079 0 759872355.69001079 402253548.45490599 0 0 0 0 1276443.5203880249 -12579.913649866154 0 -12579.913649866154 -235988.92671092084 0 0 0 0 1281419129.8510656 629175510.34799755 0 629175510.34799755 113603773.85988866 0 0 0 0 196091493.55884063 -300417065.3690241 0 -300417065.3690241 -497958027.94805694 0 0 0 0 -21059492.960410118 -64423547.51484865 0 -64423547.51484865 -537495203.26052141 0 0 0 0 -156421929.55150795 -42409197.805154562 0 -42409197.805154562 -289431799.71007395 0 0 0 0 -45225369.858086109 -82598323.001654208 0 -82598323.001654208 -297502733.90547633 0 0 0 0 90490199.318192959 65468654.138267726 0 65468654.138267726 -338241135.20921052 0 0 0 0 623648341.07991028 -350922038.38575435 0 -350922038.38575435 -40209275.142468914 0 0 0 0 379993024.93358135 -383477518.33850944 0 -383477518.33850944 1466150.4272742271 0 0 0 0 4681544.1810979843 -149199562.64742184 0 -149199562.64742184 -47012196.662041962 0 0 0 0 319311.59580337955 -143754.49824698581 0 -143754.49824698581 -88675.562873196395 0 0 0 0 19495927.901830673 -52361030.249880522 0 -52361030.249880522 -476104930.60687715 0 0 0 0 982290851.40462542 180111834.05623955 0 180111834.05623955 -499513723.69990069 0 0 0 0 1148096106.7659526 238935213.84688643 0 238935213.84688643 -39261226.066202298 0 0 0 0 1564284.9186711556 -802640.19994114188 0 -802640.19994114188 40365.611000092009 0 0 0 0 1138123852.0296512 137030486.10783023 0 137030486.10783023 -754717383.66004884 0 0 0 0 1336254043.0925512 105935336.60951763 0 105935336.60951763 51118105.443134785 0 0 0 0 754637090.65896988 -180312549.31173116 0 -180312549.31173116 -74423407.730724335 0 0 0 0 733617516.43032551 -132852433.67116398 0 -132852433.67116398 -163865452.5989309 0 0 0 0 906414442.20497608 -49680289.55405879 0 -49680289.55405879 -199357889.7407741 0 0 0 0 1197418.6221555644 -669601.92594748433 0 -669601.92594748433 -138403.46345849062 0 0 0 0 2205501917.3451281 239876378.7093879 0 239876378.7093879 -131121300.65292694 0 0 0 0 2201174184.9089241 -162579217.87001964 0 -162579217.87001964 -392208062.24783748 0 0 0 0 1220290424.8001842 -299140995.16591835 0 -299140995.16591835 -14225413.606858373 0 0 0 0 1409670107.7603788 -27992713.438457817 0 -27992713.438457817 -221028842.81550545 0 0 0 0 1802719826.2075105 -544206376.39503551 0 -544206376.39503551 -306843286.61737657 0 0 0 0 1457282326.9062157 -101091851.78654256 0 -101091851.78654256 -523956167.16762209 0 0 0 0 2018520951.9053965 692058385.69031751 0 692058385.69031751 -707325533.74786127 0 0 0 0 1184579435.1243978 599283373.92308474 0 599283373.92308474 270191794.99602079 0 0 0 0 1012710532.0526042 232870068.4050746 0 232870068.4050746 462309950.21334648 0 0 0 0 1838333950.7426934 -571747490.44240296 0 -571747490.44240296 755897113.14965987 0 0 0 0 1059428229.2484639 704282436.011096 0 704282436.011096 473998254.41381764 0 0 0 0 916656736.09693408 358352821.91572332 0 358352821.91572332 498653709.88477135 0 0 0 0 1911679.1173938417 -650135.36709870328 0 -650135.36709870328 -602687.91841825552 0 0 0 0 1139169541.3752656 656417918.03395557 0 656417918.03395557 247070979.30541611 0 0 0 0 964792625.84687352 623327097.27531862 0 623327097.27531862 407560282.95367098 0 0 0 0 1206498984.7694261 553166894.92917705 0 553166894.92917705 404899501.11884308 0 0 0 0 126095.16850948962 -58604.59296052414 0 -58604.59296052414 -199927.96129419934 0 0 0 0 2644785.0422477722 -72604293.469209671 0 -72604293.469209671 -832565038.85316074 0 0 0 0 -1125323092.2184563 -1410665456.0539894 0 -1410665456.0539894 -2416668527.834713 0 0 0 0 2200169568.8892612 -96825914.348264396 0 -96825914.348264396 -1202111530.2736247 0 0 0 0 68512.140515716746 -1156178.6313690837 0 -1156178.6313690837 226371.21783458925 0 0 0 0 212503937.2652564 -343802865.93027693 0 -343802865.93027693 551337880.53223538 0 0 0 0 1437603662.2806931 291109829.32386738 0 291109829.32386738 -746862403.51402593 0 0 0 0 126320006.94968495 -156682341.67208457 0 -156682341.67208457 -121642979.38243103 0 0 0 0 -9568319.7826147377 -64738360.378285408 0 -64738360.378285408 -137995446.68761718 0 0 0 0 161532216.88360947 -134008854.46079445 0 -134008854.46079445 -147479255.81048965 0 0 0 0 166081437.09842658 -209873779.19998789 0 -209873779.19998789 -89311416.671584845 0 0 0 0 177982066.27767658 -150054835.33391762 0 -150054835.33391762 -117096451.16754675 0 0 0 0 236298632.99870014 -210787015.84761715 0 -210787015.84761715 -97971636.164839268 0 0 0 0 212122084.80102998 -72752772.065689564 0 -72752772.065689564 -107403630.69611311 0 0 0 0 186625166.47047472 -11158768.101707458 0 -11158768.101707458 -169123801.44677544 0 0 0 0 135093078.51038909 -104457636.29883385 0 -104457636.29883385 -114998980.74310303 0 0 0 0 91444080.047521591 75307372.483262062 0 75307372.483262062 -124738269.59044456 0 0 0 0 125676366.72446537 108959988.7131114 0 108959988.7131114 -133885143.14236641 0 0 0 0 183660462.49519825 26261432.498854637 0 26261432.498854637 -100307523.07441425 0 0 0 0 111814447.82911205 116535356.62395334 0 116535356.62395334 -69173435.129613876 0 0 0 0 124623612.82728291 88896880.25604248 0 88896880.25604248 -197438917.44951439 0 0 0 0 39871057.061181068 122882572.6405592 0 122882572.6405592 -134049287.80371857 0 0 0 0 18155989.063774109 121436225.80696297 0 121436225.80696297 -193890645.81127429 0 0 0 0 -31507405.414031506 174409536.91970062 0 174409536.91970062 -247746486.23734474 0 0 0 0 43308599.093029022 -74844029.277549744 0 -74844029.277549744 -121736560.46120977 0 0 0 0 76462735.942978382 30680488.466789246 0 30680488.466789246 -184382185.87650108 0 0 0 0 10377394.382386684 18311330.843708038 0 18311330.843708038 -174921337.16036797 0 0 0 0 22052838.087994099 -62706385.004668236 0 -62706385.004668236 -232931221.05563354 0 0 0 0 -95172358.069570303 96104488.291833878 0 96104488.291833878 -223216949.20752525 0 0 0 0 -94014584.313931704 108517041.41693878 0 108517041.41693878 -485732436.84954453 0 0 0 0 -158344429.3314237 68978594.804527283 0 68978594.804527283 -228841230.16649246 0 0 0 0 -7257107.7571408004 188320344.53531155 0 188320344.53531155 -240217615.09673309 0 0 0 0 -197564244.19787502 19030760.082226753 0 19030760.082226753 -280486847.51338387 0 0 0 0 -231665144.61964798 235865780.60208607 0 235865780.60208607 -236607657.81085014 0 0 0 0 -65301839.536560059 308343104.55263519 0 308343104.55263519 -321566101.67875671 0 0 0 0 2342152.2426958084 -44004244.121266365 0 -44004244.121266365 -63839915.835098267 0 0 0 0 5746504.4875774384 119472347.90431023 0 119472347.90431023 -402252571.0541935 0 0 0 0 25103.908456529491 -282007.18836139247 0 -282007.18836139247 -146795.48645813763 0 0 0 0 -480277869.28830171 376129749.63208771 0 376129749.63208771 -251406068.25545502 0 0 0 0 -319136846.73095942 332590517.892416 0 332590517.892416 -419968175.09112358 0 0 0 0 -160730550.12811953 151903038.92114639 0 151903038.92114639 -274075370.4590683 0 0 0 0 -454136705.85257959 227206900.16268921 0 227206900.16268921 -140698835.12355042 0 0 0 0 -74176130.910549402 66509067.624891281 0 66509067.624891281 -172497269.01660943 0 0 0 0 -85931580.881502032 56969611.356880188 0 56969611.356880188 -60733480.279960632 0 0 0 0 48171400.358335495 -14986370.044583321 0 -14986370.044583321 -159115657.2795105 0 0 0 0 -180629880.62066886 143260762.68082476 0 143260762.68082476 -205987552.76706314 0 0 0 0 -32536949.802973419 -5770940.511516571 0 -5770940.511516571 -246175689.34101033 0 0 0 0 101526637.33180571 -100971362.91399097 0 -100971362.91399097 -180522350.46190643 0 0 0 0 -49900437.513114095 -8108732.5272808075 0 -8108732.5272808075 -110502322.56928253 0 0 0 0 86520949.627039433 -140942797.32875729 0 -140942797.32875729 -52062450.286712646 0 0 0 0 159483802.51822519 -101474450.76122761 0 -101474450.76122761 -107126141.26891041 0 0 0 0 35758433.194896221 -47109819.029855728 0 -47109819.029855728 4127114.2674427032 0 0 0 0 121277357.63429031 -17709893.093739271 0 -17709893.093739271 -69313008.904632568 0 0 0 0 112409816.18648362 -42684346.244587183 0 -42684346.244587183 133039557.03574371 0 0 0 0 277037954.31367588 -142756182.08172417 0 -142756182.08172417 -7636838.3158798218 0 0 0 0 312343473.63419914 -77038519.698356628 0 -77038519.698356628 15925553.42766571 0 0 0 0 435728634.49032402 -191542778.32245445 0 -191542778.32245445 100350657.08261871 0 0 0 0 566962891.15876961 -171978287.29712677 0 -171978287.29712677 71063503.857229233 0 0 0 0 244000988.00537014 -43815362.290128708 0 -43815362.290128708 229517175.47286987 0 0 0 0 924377276.17750025 -169179710.74306679 0 -169179710.74306679 24748990.126091003 0 0 0 0 791490906.25513458 -115250520.59198761 0 -115250520.59198761 42232135.223114014 0 0 0 0 621432967.99324322 -19268911.605374336 0 -19268911.605374336 102876723.87759399 0 0 0 0 -41326.166018460804 -914463.73577459599 0 -914463.73577459599 190479.9014698118 0 0 0 0 -22630993.608933747 77871411.754452407 0 77871411.754452407 146970089.95320511 0 0 0 0 7376.2411337171216 -51893.080159174977 0 -51893.080159174977 -63846.890924855834 0 0 0 0 424747053.82204819 -52261951.177196503 0 -52261951.177196503 114396769.25778008 0 0 0 0 747013293.76770401 83949016.912561417 0 83949016.912561417 -45336807.642186642 0 0 0 0 948186.78446178779 -637155.78545833274 0 -637155.78545833274 -3529825.5843838025 0 0 0 0 427575210.78117847 -45622097.864759445 0 -45622097.864759445 -37263753.478900909 0 0 0 0 413806256.14625978 -30420694.362164497 0 -30420694.362164497 -45795627.145990372 0 0 0 0 4212685.0621576309 23972884.304672718 0 23972884.304672718 -62083511.351300001 0 0 0 0 179633930.01872605 -164273379.43642491 0 -164273379.43642491 -25129493.847074509 0 0 0 0 159318970.36951432 -126772309.39247003 0 -126772309.39247003 16054669.130466461 0 0 0 0 275829725.01000786 -118476191.7201004 0 -118476191.7201004 -62067597.00350666 0 0 0 0 297390780.16492414 -157078610.55467129 0 -157078610.55467129 -1388414.9748268127 0 0 0 0 -22711609.211585999 8366287.7503166199 0 8366287.7503166199 39454501.210333824 0 0 0 0 58256335.984482765 -13383199.68230629 0 -13383199.68230629 9512750.9956231117 0 0 0 0 529273.01251638238 -2143170.3407817241 0 -2143170.3407817241 -550194.5480121494 0 0 0 0 -20958983.97246933 1610274.6590564251 0 1610274.6590564251 11867817.072844893 0 0 0 0 -21892754.609699473 -28785199.196822092 0 -28785199.196822092 94595773.023029327 0 0 0 0 5117307.7188558578 -3515630.8314845562 0 -3515630.8314845562 4956500.3119900525 0 0 0 0 11566550.38752079 -24629749.757302642 0 -24629749.757302642 -67466514.435480356 0 0 0 0 84347835.871377945 -57237177.3649261 0 -57237177.3649261 -109349810.48184979 0 0 0 0 -83117038.737776279 156533983.71600413 0 156533983.71600413 47103544.533266068 0 0 0 0 -31694585.640366554 109637335.78074074 0 109637335.78074074 -167564740.43515074 0 0 0 0 -143832364.07101536 54679711.12488687 0 54679711.12488687 41921776.260174274 0 0 0 0 -15206508.665553093 49826247.642920971 0 49826247.642920971 -6860939.8009080887 0 0 0 0 -67421244.18915081 58493229.103016615 0 58493229.103016615 -17401526.258882523 0 0 0 0 -37717728.750287533 -35438229.221441746 0 -35438229.221441746 176403072.07936776 0 0 0 0 60703825.820548773 75367664.530500591 0 75367664.530500591 291975635.94774485 0 0 0 0 208539818.12177563 -183782889.19538212 0 -183782889.19538212 -75914137.629068375 0 0 0 0 164452989.3848477 -113520676.26176471 0 -113520676.26176471 -46096171.466493607 0 0 0 0 457542.50937394705 -426097.0925906084 0 -426097.0925906084 -2313054.3307697251 0 0 0 0 209262910.37103033 -71975355.531811237 0 -71975355.531811237 -7672100.1848871708 0 0 0 0 91600339.698493004 -96890217.82907939 0 -96890217.82907939 -40848718.303664446 0 0 0 0 81059865.325362682 -216913580.8094666 0 -216913580.8094666 -56952663.887007475 0 0 0 0 175273613.44059825 -191113824.53561115 0 -191113824.53561115 -51787794.759626389 0 0 0 0 181722.26195606973 -425780.36487921956 0 -425780.36487921956 -1187014.9373770047 0 0 0 0 -160529137.78744221 -175637781.40404248 0 -175637781.40404248 13764562.262666702 0 0 0 0 -161105208.91564703 -73634324.924863577 0 -73634324.924863577 -82923593.419887543 0 0 0 0 -624887516.32049847 -171165606.39091778 0 -171165606.39091778 126226979.08521295 0 0 0 0 37976.825097664128 -231157.58795531665 0 -231157.58795531665 -340679.80379538122 0 0 0 0 -18612056.672439098 -286147276.37383866 0 -286147276.37383866 24840439.1596632 0 0 0 0 67666939.540300727 -174957549.82504272 0 -174957549.82504272 -68324.643371582031 0 0 0 0 203942060.46726656 -319657206.75977886 0 -319657206.75977886 194632774.05847165 0 0 0 0 -216176133.95758519 -58709105.467509963 0 -58709105.467509963 174917602.46347618 0 0 0 0 36282402.931870937 -115728893.31286323 0 -115728893.31286323 -26987180.476726294 0 0 0 0 67230829.488209248 -121605785.45899355 0 -121605785.45899355 -38357599.73661232 0 0 0 0 59796287.899569035 -136102064.36254734 0 -136102064.36254734 -19048432.952899933 0 0 0 0 248318996.326334 -121326190.91342306 0 -121326190.91342306 -145627394.0745821 0 0 0 0 221245649.0909543 -200856027.154773 0 -200856027.154773 -68648840.005867422 0 0 0 0 134279200.26691914 -113241807.95610392 0 -113241807.95610392 -143074453.09144378 0 0 0 0 112225784.06603551 -207994850.43700379 0 -207994850.43700379 -104761353.26568055 0 0 0 0 -136099546.81167126 -18625939.809755325 0 -18625939.809755325 79915070.157604933 0 0 0 0 158421632.00835133 -129819086.9658252 0 -129819086.9658252 23909104.446645752 0 0 0 0 1781677.2771730423 -144395455.84215569 0 -144395455.84215569 228161542.50566673 0 0 0 0 -39901733.781090736 -40389077.443608522 0 -40389077.443608522 -24958109.859874755 0 0 0 0 101571188.79452634 4213958.3331634998 0 4213958.3331634998 79533670.560603857 0 0 0 0 -225140630.50342512 -282867802.90265161 0 -282867802.90265161 -82099696.489978075 0 0 0 0 -24173709.844918013 96164779.568807244 0 96164779.568807244 -21107421.534473658 0 0 0 0 -82470984.753902674 118851465.34328556 0 118851465.34328556 361820742.71817946 0 0 0 0 -39538652.116017401 148452648.43649471 0 148452648.43649471 553161395.99360156 0 0 0 0 223456723.82134008 84620600.520575643 0 84620600.520575643 328890984.12195253 0 0 0 0 306984651.78341722 -116774746.80145812 0 -116774746.80145812 814470573.29751849 0 0 0 0 397971195.2437737 309848187.27215672 0 309848187.27215672 495838910.29637319 0 0 0 0 598577101.65749371 15483367.884971321 0 15483367.884971321 541894517.4637661 0 0 0 0 436717904.38465571 -109094424.2888763 0 -109094424.2888763 188344292.36279821 0 0 0 0 505417461.53580749 -288741255.6538257 0 -288741255.6538257 622840344.895437 0 0 0 0 135448773.53904772 -125771748.1254313 0 -125771748.1254313 541817179.11488438 0 0 0 0 248933528.1635344 -276054778.64608479 0 -276054778.64608479 17231077.889548779 0 0 0 0 259964356.35091734 -159107744.75008154 0 -159107744.75008154 69323013.710810661 0 0 0 0 417108242.16228628 -299975716.33509445 0 -299975716.33509445 193738885.11353087 0 0 0 0 517582042.38596278 -66745124.475169182 0 -66745124.475169182 59580801.251786232 0 0 0 0 454899408.87025177 -152546967.51185846 0 -152546967.51185846 -6854388.6462392807 0 0 0 0 339485481.23748404 -82390486.280492783 0 -82390486.280492783 -46398909.580648422 0 0 0 0 342502525.49250799 -264203070.41616642 0 -264203070.41616642 -25107458.752653122 0 0 0 0 198156255.48816967 -191950988.92134666 0 -191950988.92134666 -54407265.924859524 0 0 0 0 194477165.41239166 -265881606.56521702 0 -265881606.56521702 -58485116.463490486 0 0 0 0 212805554.6771121 152882613.71576214 0 152882613.71576214 56630995.727285385 0 0 0 0 298778260.92401314 73643196.244130135 0 73643196.244130135 -18154165.914555132 0 0 0 0 210114260.32034492 135512110.54743624 0 135512110.54743624 4258910.4177684784 0 0 0 0 117780907.89540768 141120027.82865477 0 141120027.82865477 5537778.9740219116 0 0 0 0 191940563.16610909 84678501.257201672 0 84678501.257201672 -18630342.288064957 0 0 0 0 206866959.00090885 87433376.998783112 0 87433376.998783112 -64214454.869644165 0 0 0 0 275212610.64905977 53804811.233063698 0 53804811.233063698 -93208328.149142742 0 0 0 0 342552981.66479409 -115467849.53161192 0 -115467849.53161192 -93495160.229428768 0 0 0 0 223472177.35131598 -2990924.3919410706 0 -2990924.3919410706 -41063311.25211525 0 0 0 0 286771720.36954594 84026823.9071908 0 84026823.9071908 56014415.898324966 0 0 0 0 410300767.64174867 -17231871.632742882 0 -17231871.632742882 -40569780.814131021 0 0 0 0 431228580.32241249 65555142.022092342 0 65555142.022092342 56210767.260089874 0 0 0 0 421094261.87052178 11176328.988960505 0 11176328.988960505 12337373.148802757 0 0 0 0 584336621.45430326 -70768610.20362711 0 -70768610.20362711 41895332.870672703 0 0 0 0 499016220.55260229 -105636585.35829544 0 -105636585.35829544 186786607.64953566 0 0 0 0 497254909.69040382 153153705.95057917 0 153153705.95057917 165538380.28828764 0 0 0 0 376980053.44153738 228612367.96807289 0 228612367.96807289 174324749.31891727 0 0 0 0 235454270.63331318 227540501.94242334 0 227540501.94242334 284467799.95837259 0 0 0 0 291037709.32572603 124175819.76632071 0 124175819.76632071 62620840.532699585 0 0 0 0 175722542.85504842 162888552.61382091 0 162888552.61382091 118894183.89201927 0 0 0 0 177470683.7827034 178279349.58806753 0 178279349.58806753 243654030.13982725 0 0 0 0 434205614.91800928 392615540.08669269 0 392615540.08669269 563959244.37499952 0 0 0 0 327329210.36487961 184217120.46191275 0 184217120.46191275 275718990.93568206 0 0 0 0 103448054.67106724 158830149.46028405 0 158830149.46028405 556451397.95074666 0 0 0 0 888641936.00108242 -100714727.52273512 0 -100714727.52273512 186305898.83233449 0 0 0 0 805158910.59359622 112147992.67614686 0 112147992.67614686 168928863.60038245 0 0 0 0 1508240845.5556772 -149844675.18815327 0 -149844675.18815327 343655720.13508385 0 0 0 0 703962743.02137196 29640399.40800041 0 29640399.40800041 319755227.83464742 0 0 0 0 37458265.332520485 -88510155.842170238 0 -88510155.842170238 565058966.6572752 0 0 0 0 666874661.84020245 -258613206.45994794 0 -258613206.45994794 1443998288.2050934 0 0 0 0 623926991.11941087 610184820.96280444 0 610184820.96280444 1112406929.1355138 0 0 0 0 1381982425.9679532 475479552.40397263 0 475479552.40397263 733788264.01367652 0 0 0 0 72765573.441466331 77350714.130107641 0 77350714.130107641 567992781.14359903 0 0 0 0 217542851.87153172 92665594.670979738 0 92665594.670979738 649987536.47404373 0 0 0 0 225554525.07332253 80757862.567501664 0 80757862.567501664 430897888.78035462 0 0 0 0 37272564.181135178 -138879656.91389179 0 -138879656.91389179 559854407.81084156 0 0 0 0 48745873.600143433 -77252351.066542149 0 -77252351.066542149 350518641.35306811 0 0 0 0 -23076090.516939163 -20542171.278432608 0 -20542171.278432608 415492948.89849198 0 0 0 0 30633489.564017296 -115202420.49873996 0 -115202420.49873996 336568485.10126114 0 0 0 0 51052334.192606449 -15115775.393575847 0 -15115775.393575847 376840800.416224 0 0 0 0 -53774138.866020203 50497884.302504539 0 50497884.302504539 318371165.36348033 0 0 0 0 -19111434.878218651 -18689982.246203184 0 -18689982.246203184 296877455.78471375 0 0 0 0 -82747846.756425858 -14270070.807474494 0 -14270070.807474494 232546117.83384585 0 0 0 0 -78900486.564586639 -5689697.1911072731 0 -5689697.1911072731 249981923.127509 0 0 0 0 -106779014.78616238 43909398.686522186 0 43909398.686522186 235813316.59173846 0 0 0 0 -57978717.095349312 -40599085.257110596 0 -40599085.257110596 306390617.58128071 0 0 0 0 -78687487.869645119 11218346.500491589 0 11218346.500491589 258898013.39324546 0 0 0 0 -85110388.22485733 96831552.140564203 0 96831552.140564203 238458781.99377966 0 0 0 0 -63884067.284029007 108378109.70949191 0 108378109.70949191 242703657.62660274 0 0 0 0 -19190205.446022034 84697484.419747591 0 84697484.419747591 216118122.1107688 0 0 0 0 2949779.6486434937 136016528.70491338 0 136016528.70491338 334224264.60721421 0 0 0 0 43032797.831420898 91167194.542706966 0 91167194.542706966 303113667.84306002 0 0 0 0 104708505.6497612 135081381.73176777 0 135081381.73176777 322031878.32161069 0 0 0 0 57539.457754135132 83296602.729801536 0 83296602.729801536 468673299.18017316 0 0 0 0 -16417494.662680149 30207133.050797604 0 30207133.050797604 297931651.66698933 0 0 0 0 -76146955.678805232 61406128.909851454 0 61406128.909851454 234010548.2830224 0 0 0 0 -177153654.58949661 30212723.402499914 0 30212723.402499914 235359977.08719447 0 0 0 0 -125021031.22743034 17939849.813725948 0 17939849.813725948 202987598.65770364 0 0 0 0 -130980486.28320122 58712592.353143245 0 58712592.353143245 137825054.2747972 0 0 0 0 -81016753.93721199 105877477.24571705 0 105877477.24571705 107325273.79201913 0 0 0 0 -114308834.37096596 34849373.560052395 0 34849373.560052395 45752525.901880264 0 0 0 0 -161091158.11770248 -5709123.9732273221 0 -5709123.9732273221 145222661.01407313 0 0 0 0 -165432109.76603991 103366889.25478905 0 103366889.25478905 286067137.89465761 0 0 0 0 -128108420.26768208 188354508.2694144 0 188354508.2694144 -202613041.23488283 0 0 0 0 -184687788.48565102 100961534.51669526 0 100961534.51669526 72855071.102332711 0 0 0 0 -136946983.93033218 223078086.53228045 0 223078086.53228045 -15395689.063434124 0 0 0 0 -105992508.6301651 101896776.74029541 0 101896776.74029541 -27187987.805136681 0 0 0 0 -124526958.86437798 115819940.6648742 0 115819940.6648742 129830192.24333429 0 0 0 0 -97741637.368053436 172836061.49045992 0 172836061.49045992 -1553429.3018188477 0 0 0 0 -100694869.80281639 229006408.85077 0 229006408.85077 -26851539.182457924 0 0 0 0 -121340831.51039696 205834763.11268806 0 205834763.11268806 -49753491.164012909 0 0 0 0 -128532129.49103737 214526692.85315514 0 214526692.85315514 -23892079.442506671 0 0 0 0 -206110854.2665239 135422958.80581698 0 135422958.80581698 -40370340.140962601 0 0 0 0 -207972715.31167984 181327873.36510897 0 181327873.36510897 -19678729.538412094 0 0 0 0 11674149.920948029 183253319.0577426 0 183253319.0577426 141443527.58095455 0 0 0 0 20131452.216270447 186995132.73246717 0 186995132.73246717 57234905.941809654 0 0 0 0 74721501.626462936 205182224.80234504 0 205182224.80234504 274632900.21885967 0 0 0 0 47436376.235267639 140264175.35617089 0 140264175.35617089 120234601.65367377 0 0 0 0 -25104093.951407433 159698473.45210373 0 159698473.45210373 263376464.66789007 0 0 0 0 -32455134.417312622 115298537.67466426 0 115298537.67466426 116544035.79438877 0 0 0 0 -46626270.65448761 151900472.01910877 0 151900472.01910877 50730495.516004086 0 0 0 0 -69280314.123809814 165391900.28999424 0 165391900.28999424 153814753.97924232 0 0 0 0 -42984831.904053211 164840303.98051491 0 164840303.98051491 55465564.672746658 0 0 0 0 -40143569.518320084 209433813.54419184 0 209433813.54419184 1155964.2835302353 0 0 0 0 -102685309.2770195 187903245.77082443 0 187903245.77082443 70928563.045787811 0 0 0 0 -95385537.567882538 226256759.47037697 0 226256759.47037697 -35940751.368254662 0 0 0 0 -83622291.668481827 185525712.5996176 0 185525712.5996176 -11872942.07734108 0 0 0 0 4635644.9113426208 202623923.45925426 0 202623923.45925426 -19274018.438766479 0 0 0 0 27206638.895200729 147529353.49788284 0 147529353.49788284 -35638557.82009697 0 0 0 0 94753020.13914299 174203961.85297489 0 174203961.85297489 133163469.79901695 0 0 0 0 92582934.094285965 151362783.86024046 0 151362783.86024046 34502294.251195908 0 0 0 0 124153597.53742695 130269690.51108742 0 130269690.51108742 -55472890.985496521 0 0 0 0 43270851.879091263 183290281.13326931 0 183290281.13326931 36958305.447049022 0 0 0 0 43955451.827577591 145820220.82679462 0 145820220.82679462 -54535544.670703053 0 0 0 0 55239474.618003845 145700064.74541616 0 145700064.74541616 -119618766.96051407 0 0 0 0 -13349916.371324539 176129600.19593906 0 176129600.19593906 -41981510.715094566 0 0 0 0 -5171566.5308961868 182622122.10231924 0 182622122.10231924 -92910841.188392639 0 0 0 0 -4621410.2417440414 157686597.14589214 0 157686597.14589214 -180920737.11952972 0 0 0 0 57856511.436616421 138562587.37950993 0 138562587.37950993 -210353807.9574337 0 0 0 0 -18794049.526802063 148717035.45958519 0 148717035.45958519 -119437310.6284346 0 0 0 0 31988151.351528049 190372776.89812028 0 190372776.89812028 -296928515.73805237 0 0 0 0 9863022.230096817 140137861.34264183 0 140137861.34264183 -206821426.72217369 0 0 0 0 17371553.769452572 146812867.19823742 0 146812867.19823742 -288054673.60955429 0 0 0 0 -93216557.491127014 143320560.57658195 0 143320560.57658195 -182920561.26254272 0 0 0 0 58044428.190582275 172746741.27009583 0 172746741.27009583 -384927044.6982708 0 0 0 0 -27688617.709293365 122673853.94646072 0 122673853.94646072 -299346245.76879311 0 0 0 0 -41809081.595843792 75176425.68854332 0 75176425.68854332 -387204577.66134262 0 0 0 0 25980405.532104492 112194127.37896347 0 112194127.37896347 -388403724.12478763 0 0 0 0 25504802.140144348 118654702.12743187 0 118654702.12743187 -440636915.91624832 0 0 0 0 59109135.300878525 189406080.54677391 0 189406080.54677391 -306448981.03744698 0 0 0 0 -177773736.10906315 156689132.37409878 0 156689132.37409878 -323146766.76024246 0 0 0 0 -202129076.10437107 225056308.56966782 0 225056308.56966782 -264547472.59453201 0 0 0 0 -93423970.360603333 205982317.06837845 0 205982317.06837845 -391546389.53012848 0 0 0 0 -117303536.64295959 199684794.40299988 0 199684794.40299988 -392641152.95816135 0 0 0 0 -426709995.63313675 268564156.88090706 0 268564156.88090706 -359311986.21785164 0 0 0 0 -149054043.81480789 204929989.07992172 0 204929989.07992172 -281275065.45620155 0 0 0 0 -77753655.906196594 137921111.10724258 0 137921111.10724258 -234505273.04193544 0 0 0 0 -226065763.5562706 120342840.0776968 0 120342840.0776968 -235389598.29800415 0 0 0 0 -167068643.83976936 183291982.68015671 0 183291982.68015671 -154790603.72896576 0 0 0 0 -117199182.01010513 217410671.31025696 0 217410671.31025696 -201695391.52320099 0 0 0 0 -186633553.97261047 185183603.74958801 0 185183603.74958801 -212906427.3042984 0 0 0 0 -120438787.72865677 212562346.03406334 0 212562346.03406334 -263170131.53419113 0 0 0 0 -130182806.83533478 188720738.06389618 0 188720738.06389618 -154429589.02297783 0 0 0 0 -95530129.618031502 214483765.15834141 0 214483765.15834141 -111789261.9834404 0 0 0 0 -122161752.75725579 224992535.48022997 0 224992535.48022997 -114811925.12164688 0 0 0 0 -81073465.749174118 153577833.92431259 0 153577833.92431259 -103945885.76237869 0 0 0 0 -76156218.821573257 202574238.27021408 0 202574238.27021408 -119482011.91152 0 0 0 0 -110894742.06855845 168251234.61411762 0 168251234.61411762 -151254604.93190002 0 0 0 0 -60887165.347097397 174141054.27848434 0 174141054.27848434 -31618250.04020977 0 0 0 0 -47512724.788199425 199573464.12448597 0 199573464.12448597 -65265325.140853882 0 0 0 0 -103532375.67718506 186522506.67595863 0 186522506.67595863 -68294971.146705627 0 0 0 0 -109779856.20345879 199525332.77890682 0 199525332.77890682 -58462480.369034767 0 0 0 0 -109542261.58735085 233009103.87234116 0 233009103.87234116 -75212969.255599976 0 0 0 0 -91482984.997344971 196707891.33421993 0 196707891.33421993 -111713272.62580776 0 0 0 0 -93045871.487533569 190922306.82972908 0 190922306.82972908 -131678926.92212296 0 0 0 0 -175856461.82541847 169524740.74074745 0 169524740.74074745 -62331431.460191727 0 0 0 0 -77571257.617881775 156889785.43173313 0 156889785.43173313 -66706075.688980818 0 0 0 0 -14930716.146066308 20246512.852853298 0 20246512.852853298 -32714407.980035782 0 0 0 0 -23846964.29955864 103334544.33784199 0 103334544.33784199 -185424855.81889248 0 0 0 0 -31944981.589956284 85603069.288685322 0 85603069.288685322 -167860046.40679359 0 0 0 0 -102719500.20191002 223566677.94473362 0 223566677.94473362 -195774915.44630432 0 0 0 0 -59675546.007465363 182554053.4117775 0 182554053.4117775 -213613163.87897491 0 0 0 0 -108804341.58021736 223249531.26413488 0 223249531.26413488 -137659171.59185028 0 0 0 0 -129102642.95939255 212078636.66140747 0 212078636.66140747 -186559271.31562233 0 0 0 0 -66618020.30708313 162550823.64445114 0 162550823.64445114 -122666982.79172564 0 0 0 0 -73542262.415882111 209129988.70105934 0 209129988.70105934 -257078279.20958328 0 0 0 0 -93520739.551200867 197752742.44060516 0 197752742.44060516 -252310042.50866127 0 0 0 0 -9299962.2377929688 97605018.04384613 0 97605018.04384613 -319226322.01910782 0 0 0 0 32946508.682479858 74593084.406497955 0 74593084.406497955 -381481206.68293762 0 0 0 0 -57100792.502388 206080935.8539753 0 206080935.8539753 -533873824.42485046 0 0 0 0 -16384858.046157837 115660639.66253281 0 115660639.66253281 -333709976.08916473 0 0 0 0 38036362.970848083 95789595.509114265 0 95789595.509114265 -535464172.76243591 0 0 0 0 38686444.76700592 93713834.01461792 0 93713834.01461792 -528846931.28335571 0 0 0 0 9602034.4586366974 2226768.5847340645 0 2226768.5847340645 -1496276.543185459 0 0 0 0 15234394.119567871 1144627.7933149338 0 1144627.7933149338 -12239000.084629059 0 0 0 0 2215078.699256897 14334661.204751492 0 14334661.204751492 -9968753.8140449524 0 0 0 0 5908867.6127166748 7797168.7343578339 0 7797168.7343578339 -16976034.939823151 0 0 0 0 37139781.598240852 -3302559.8725197315 0 -3302559.8725197315 -65936259.68730545 0 0 0 0 34418731.704414368 4174505.6356973648 0 4174505.6356973648 -27916519.881826401 0 0 0 0 21230768.092529297 49377021.708844185 0 49377021.708844185 -19135583.144670486 0 0 0 0 22366748.339790344 17461662.385169983 0 17461662.385169983 -39043956.021364212 0 0 0 0 30147552.747554779 68242822.155692577 0 68242822.155692577 16380904.840787888 0 0 0 0 8226511.0236816406 19186715.707243919 0 19186715.707243919 -6056297.1758804321 0 0 0 0 16572407.959442139 13259200.166654587 0 13259200.166654587 -14495533.850845337 0 0 0 0 1131156.5135955811 16428542.687060356 0 16428542.687060356 -3928669.5845584869 0 0 0 0 204848.52751922607 12490528.788618088 0 12490528.788618088 -8838232.7647314072 0 0 0 0 2369171.3552093506 14998027.981290817 0 14998027.981290817 -7113338.6070518494 0 0 0 0 113756823.11135006 -325491581.56535625 0 -325491581.56535625 -64062165.437746406 0 0 0 0 203654991.68115902 96514634.754011631 0 96514634.754011631 -15575299.092658997 0 0 0 0 2124900.5945129395 131548906.99947357 0 131548906.99947357 -156196037.00284195 0 0 0 0 94710.989063019399 282813.61176866619 0 282813.61176866619 440086.46807604749 0 0 0 0 -20383776.494297981 251489051.0668211 0 251489051.0668211 -268986255.84655762 0 0 0 0 48411857.640733719 365948401.52861977 0 365948401.52861977 -89063095.879738808 0 0 0 0 106983664.85940552 331417798.89592361 0 331417798.89592361 -296628063.77761364 0 0 0 0 -4626018.1491880417 255185101.65048656 0 255185101.65048656 -348595800.84937286 0 0 0 0 293666167.59649277 458922320.60274124 0 458922320.60274124 -305712230.60127068 0 0 0 0 136414976.41862869 259980511.16950321 0 259980511.16950321 -529200939.25505066 0 0 0 0 425540059.24186087 127151185.17346382 0 127151185.17346382 -788205807.98045731 0 0 0 0 -338713748.522686 -125869696.65656662 0 -125869696.65656662 -503519072.31859207 0 0 0 0 6602277.1953836028 3923376.185875589 0 3923376.185875589 613472.72395626269 0 0 0 0 -65838862.817950249 233949933.34686565 0 233949933.34686565 154543974.90795708 0 0 0 0 -382696786.31524658 -140349445.71290588 0 -140349445.71290588 -112946029.18692017 0 0 0 0 -186836394.37240601 315807788.79521179 0 315807788.79521179 -575800673.21174622 0 0 0 0 -52750925.767494202 242522438.25958252 0 242522438.25958252 -673830015.73661423 0 0 0 0 -761447.57080070022 2309839.8730484243 0 2309839.8730484243 466391.53945363645 0 0 0 0 435884939.34721375 -287230310.98500252 0 -287230310.98500252 31815225.068977356 0 0 0 0 222052031.07286072 -164232139.28429604 0 -164232139.28429604 -34801454.671674728 0 0 0 0 45974002.632354736 -355192952.19268417 0 -355192952.19268417 36144935.810014725 0 0 0 0 1015626342.863533 -427938178.95042419 0 -427938178.95042419 -223592012.7098608 0 0 0 0 1150441146.1831284 -150302517.65092278 0 -150302517.65092278 -355548578.16725779 0 0 0 0 593842454.35660934 -74629601.783336639 0 -74629601.783336639 -243393932.89658165 0 0 0 0 711703966.14219666 -46908670.497819901 0 -46908670.497819901 -359245494.36079627 0 0 0 0 637455069.35693359 -320069388.57605171 0 -320069388.57605171 -238982308.45769334 0 0 0 0 529349939.58533478 -247334961.83353806 0 -247334961.83353806 -164653725.3125 0 0 0 0 527241234.86637878 -132799602.21134472 0 -132799602.21134472 -118616905.78685474 0 0 0 0 527342553.96660614 -135520065.52910233 0 -135520065.52910233 -158092107.32988548 0 0 0 0 335412963.466362 54705960.416082382 0 54705960.416082382 -284359627.06108093 0 0 0 0 579018057.13788605 -201992345.84351826 0 -201992345.84351826 -27185181.987714767 0 0 0 0 890546369.36148071 47146820.030820847 0 47146820.030820847 -150129902.13327789 0 0 0 0 557408873.38372135 -80057629.114624411 0 -80057629.114624411 -159831273.06351471 0 0 0 0 557015189.77716064 -192266626.47060776 0 -192266626.47060776 -192849315.22360516 0 0 0 0 33890244.828922272 119153436.5185976 0 119153436.5185976 15489076.948570251 0 0 0 0 413418292.10505676 -42344006.63609314 0 -42344006.63609314 -151687589.91401291 0 0 0 0 519171147.74734497 258304264.49019623 0 258304264.49019623 -85515444.760246277 0 0 0 0 578173020.52876282 240137429.29677963 0 240137429.29677963 -80464545.751713753 0 0 0 0 570370685.33033752 225014553.2704792 0 225014553.2704792 -108981743.41466141 0 0 0 0 1137521265.3000336 324625102.04095268 0 324625102.04095268 -93906279.790600777 0 0 0 0 444422.26141302474 225541.10485235322 0 225541.10485235322 -227218.21214709477 0 0 0 0 199629409.16085815 165168606.52190971 0 165168606.52190971 54133083.619380951 0 0 0 0 177912477.71420288 -318426834.05948639 0 -318426834.05948639 -753499565.44244385 0 0 0 0 202028914.245224 403506700.7294693 0 403506700.7294693 -170833610.39313126 0 0 0 0 162760821.31067276 404955720.39894104 0 404955720.39894104 -13927366.961250305 0 0 0 0 402178818.02526855 347492231.82718086 0 347492231.82718086 -206990256.89633179 0 0 0 0 466423971.07992554 473558300.66165257 0 473558300.66165257 37960582.022201538 0 0 0 0 132773123.79104614 -30002401.54511261 0 -30002401.54511261 -494059052.60874176 0 0 0 0 107919848.98156738 110435344.45108986 0 110435344.45108986 -148993146.10776901 0 0 0 0 91694244.631530762 46056864.979917526 0 46056864.979917526 -397484749.90830994 0 0 0 0 20242096.143132687 1168590834.482759 0 1168590834.482759 99893773.801773071 0 0 0 0 17813304.227600098 -56576785.574386597 0 -56576785.574386597 -259183899.14619827 0 0 0 0 21999558.838226318 -22382989.217933655 0 -22382989.217933655 -78977244.03496933 0 0 0 0 -31862034.241966248 -25882498.634939194 0 -25882498.634939194 18640547.97812748 0 0 0 0 2066115.3954903828 60441.489016461186 0 60441.489016461186 -1009247.5787726585 0 0 0 0 8885940.5601221062 1651403.3614106271 0 1651403.3614106271 -1603463.0556164016 0 0 0 0 -42974335.279281616 -63671904.957008839 0 -63671904.957008839 -93492750.79681015 0 0 0 0 186620544.86800385 322187477.11102867 0 322187477.11102867 -261059872.93235016 0 0 0 0 -195720974.4785347 -15419037.392842293 0 -15419037.392842293 171362064.14091873 0 0 0 0 134443647.90052795 59482389.704999924 0 59482389.704999924 24213279.655036926 0 0 0 0 27944854.31086731 32932341.025032043 0 32932341.025032043 71459190.347888947 0 0 0 0 6143558.9220424956 1851855.425322826 0 1851855.425322826 -1305644.2289021129 0 0 0 0 -24253386.482894897 48533870.67980051 0 48533870.67980051 -60701972.785779953 0 0 0 0 4045860.5491993129 -671831.75997931091 0 -671831.75997931091 -2953169.0047253966 0 0 0 0 -246604603.61725426 116582016.06192303 0 116582016.06192303 -14163174.834264517 0 0 0 0 -138342148.82407665 84914243.411585093 0 84914243.411585093 -6994704.7319526672 0 0 0 0 284420153.94530869 118049048.42408085 0 118049048.42408085 -10010459.877678871 0 0 0 0 161525111.00247383 92016377.722554207 0 92016377.722554207 27324755.42051506 0 0 0 0 266332924.75547409 141423550.81696606 0 141423550.81696606 -28883413.929367065 0 0 0 0 444475941.05091858 255137746.2064476 0 255137746.2064476 -186124513.06665611 0 0 0 0 402427521.37406921 155232444.59786987 0 155232444.59786987 -107394766.00646782 0 0 0 0 414707197.18020248 271483837.45081902 0 271483837.45081902 -83588067.916511536 0 0 0 0 341123418.05532837 264382908.87595129 0 264382908.87595129 7162972.9928398132 0 0 0 0 551874009.36832428 -507169052.81919861 0 -507169052.81919861 26089116.208744049 0 0 0 0 19987273.898963928 118572626.14144325 0 118572626.14144325 463838154.89460945 0 0 0 0 2196228.2150508985 662338.70693303645 0 662338.70693303645 -327055.67060491734 0 0 0 0 433253195.65577698 449667394.30488968 0 449667394.30488968 97081299.933273315 0 0 0 0 89516451.035476685 628787558.04393196 0 628787558.04393196 1492852477.9594936 0 0 0 0 480697677.08078957 350704961.0743618 0 350704961.0743618 -188706858.69671631 0 0 0 0 -404603422.03692627 747849055.82482052 0 747849055.82482052 3234515318.0593643 0 0 0 0 819584389.26325989 1297302836.2375336 0 1297302836.2375336 784294140.54417419 0 0 0 0 2111727994.7644501 1298828885.0005684 0 1298828885.0005684 -1592530901.8542938 0 0 0 0 -197103784.43738747 -163088445.5699892 0 -163088445.5699892 -123559983.14428711 0 0 0 0 7919140.5777324419 -8443494.836973127 0 -8443494.836973127 6434160.5978446677 0 0 0 0 85538250.210578918 -330260660.88080215 0 -330260660.88080215 -346604453.86970711 0 0 0 0 -202624123.68432045 -155028382.65266025 0 -155028382.65266025 -115020651.61039734 0 0 0 0 943371856.29719162 -244828469.73931694 0 -244828469.73931694 -1009693342.2118874 0 0 0 0 -176239731.21773434 -147937006.18244934 0 -147937006.18244934 -129610448.12347412 0 0 0 0 -486407115.45765257 -325867351.75170898 0 -325867351.75170898 -233958507.41886997 0 0 0 0 52337973.509766579 127074795.33526897 0 127074795.33526897 -372583058.10434723 0 0 0 0 -173949139.7972393 -159625245.74964571 0 -159625245.74964571 -147011550.90768051 0 0 0 0 285426849.51325798 199411127.10303164 0 199411127.10303164 86504861.825752258 0 0 0 0 378984511.21668625 175642109.57824278 0 175642109.57824278 36351639.629873276 0 0 0 0 494699671.01782227 208912318.06396198 0 208912318.06396198 31741871.908976555 0 0 0 0 508323302.49716854 181173366.51084435 0 181173366.51084435 -7218410.2515716553 0 0 0 0 467248080.72312927 328230236.03093052 0 328230236.03093052 76948330.155869246 0 0 0 0 610583429.03508759 274983612.35258722 0 274983612.35258722 31851128.778021812 0 0 0 0 -204579618.51441193 -645064793.48040009 0 -645064793.48040009 -150926033.93914795 0 0 0 0 -318015232.41222954 -605517269.5966835 0 -605517269.5966835 44945663.800132751 0 0 0 0 696290.06620156509 -243394.30144560896 0 -243394.30144560896 -496327.45634126384 0 0 0 0 7266895.4612974571 -7968519.0671086889 0 -7968519.0671086889 5069557.1470004674 0 0 0 0 678140282.81051636 125424694.97347784 0 125424694.97347784 85325454.735480309 0 0 0 0 652678893.19523621 160076351.36431885 0 160076351.36431885 38399038.664096832 0 0 0 0 628642840.04120636 38070559.216073036 0 38070559.216073036 235011644.62626457 0 0 0 0 -149282624.69723129 -148865813.20119095 0 -148865813.20119095 -62969386.468719482 0 0 0 0 -135653900.75112915 242243550.07163239 0 242243550.07163239 -741784832.14806366 0 0 0 0 -211686735.95652771 -280394966.89231491 0 -280394966.89231491 -203210907.62475586 0 0 0 0 -245338565.31017685 -348179392.89196396 0 -348179392.89196396 34270101.768989563 0 0 0 0 -370244107.59048271 -624468514.59973717 0 -624468514.59973717 301845784.12333679 0 0 0 0 -236941066.47749519 -320056878.78132248 0 -320056878.78132248 82908928.313262939 0 0 0 0 -231943260.75306511 -466841230.97454071 0 -466841230.97454071 675082159.64872169 0 0 0 0 224193889.45557499 -632003737.91728878 0 -632003737.91728878 259303322.37221527 0 0 0 0 -485662010.24879456 -234197238.51689148 0 -234197238.51689148 49908387.883090973 0 0 0 0 2049054.7483734023 -1097034.1620543464 0 -1097034.1620543464 -1808870.160483263 0 0 0 0 -164619729.08020115 151919123.20857716 0 151919123.20857716 -34756333.527826309 0 0 0 0 298814358.66157913 33251254.381680489 0 33251254.381680489 5502079.7466602325 0 0 0 0 402261666.88601303 112663386.25807381 0 112663386.25807381 -675048.71448087692 0 0 0 0 412309469.38670731 153281777.50587368 0 153281777.50587368 -33985646.032300949 0 0 0 0 538296424.30424023 90533919.687570095 0 90533919.687570095 60722110.728252411 0 0 0 0 436564379.77517223 58060927.390541315 0 58060927.390541315 86147847.172990799 0 0 0 0 519645264.24465179 133719777.16710186 0 133719777.16710186 151076336.56221581 0 0 0 0 472761431.45149994 355446368.173002 0 355446368.173002 391363738.17099905 0 0 0 0 435279550.86943817 179785246.94354248 0 179785246.94354248 152507555.37719822 0 0 0 0 504943307.93513489 146037297.0604372 0 146037297.0604372 422453745.22634602 0 0 0 0 508176521.67288589 151215740.53281021 0 151215740.53281021 155289929.45177269 0 0 0 0 493130758.14896393 396606641.7013433 0 396606641.7013433 230394759.12734318 0 0 0 0 411836523.22922897 169526356.06109881 0 169526356.06109881 -217453539.95498276 0 0 0 0 407321927.05651093 131558551.07540989 0 131558551.07540989 69690984.927777767 0 0 0 0 314308400.26857948 75168884.78491044 0 75168884.78491044 23700038.245535374 0 0 0 0 -615028201.3827877 204358415.19438255 0 204358415.19438255 -5516727.0174700022 0 0 0 0 650069.71965755499 -668257.5417770613 0 -668257.5417770613 -627777.9713834736 0 0 0 0 -181893715.9438076 -75041873.041997075 0 -75041873.041997075 -13230598.646591663 0 0 0 0 169648960.99556351 620039861.64062095 0 620039861.64062095 -334213941.8546989 0 0 0 0 188104207.64006805 41544267.033002138 0 41544267.033002138 329973120.7521317 0 0 0 0 -352143372.34507751 250287220.97198856 0 250287220.97198856 319750535.95936811 0 0 0 0 -608612557.06583214 -39002330.822910309 0 -39002330.822910309 66664011.097480774 0 0 0 0 582954989.36729431 520978720.89975595 0 520978720.89975595 122001702.02232504 0 0 0 0 620450568.69894028 437819307.24745369 0 437819307.24745369 126168928.3168745 0 0 0 0 6096790.4695819318 -7149549.4168085437 0 -7149549.4168085437 3821648.5008132299 0 0 0 0 634268155.61284637 431497002.4046979 0 431497002.4046979 1615812.069075346 0 0 0 0 561495799.39096832 325231285.17429793 0 325231285.17429793 -60174714.511348844 0 0 0 0 342286666.29561615 343527670.40006107 0 343527670.40006107 20042354.439206123 0 0 0 0 582710093.72119284 515635429.367383 0 515635429.367383 -29918603.291319847 0 0 0 0 494756402.67873383 399997610.27409053 0 399997610.27409053 -138219834.7603209 0 0 0 0 410201498.00745583 490462841.56657571 0 490462841.56657571 16451799.318453789 0 0 0 0 -522475192.13822365 -59746697.855113983 0 -59746697.855113983 17282529.763645172 0 0 0 0 -462841850.93559647 16641100.065002441 0 16641100.065002441 -76462621.544319153 0 0 0 0 608635524.50037575 365226465.24177337 0 365226465.24177337 886872207.00930023 0 0 0 0 646089478.26418686 226544826.60083461 0 226544826.60083461 1943749.409283638 0 0 0 0 218025.24416461866 -159376.28966594813 0 -159376.28966594813 241518.36493932083 0 0 0 0 773952.21816923609 -3636307.0936931497 0 -3636307.0936931497 6498227.24052238 0 0 0 0 200409858.16091156 239216133.79850721 0 239216133.79850721 166379088.19546509 0 0 0 0 93769265.496711731 346881146.58070374 0 346881146.58070374 493095692.72585177 0 0 0 0 -66184819.518520355 140750383.75488669 0 140750383.75488669 254637529.73100615 0 0 0 0 -26904148.089393616 127147121.38889647 0 127147121.38889647 234219698.47479486 0 0 0 0 -303732514.63827133 -16225297.975641251 0 -16225297.975641251 202156434.8947134 0 0 0 0 10825220.348594189 70850070.079287052 0 70850070.079287052 315903572.24475479 0 0 0 0 -182709578.97890663 -117859985.05105591 0 -117859985.05105591 147610485.42615223 0 0 0 0 -338241630.1823864 -43876161.124969482 0 -43876161.124969482 138434796.74390888 0 0 0 0 -204928380.6196146 -26699313.010287285 0 -26699313.010287285 39726563.018966675 0 0 0 0 -357072395.84160709 30863530.948809624 0 30863530.948809624 -157764903.39819336 0 0 0 0 -648892559.10050774 166931348.44002342 0 166931348.44002342 -33290638.775497437 0 0 0 0 -490507423.59389782 -13278963.62985611 0 -13278963.62985611 107762458.20946503 0 0 0 0 -398605154.89520359 -3015358.7184963226 0 -3015358.7184963226 54850339.744335175 0 0 0 0 -514481103.09353065 48890633.287864685 0 48890633.287864685 84708448.989265442 0 0 0 0 -370279606.5374527 68617015.151153564 0 68617015.151153564 132589448.54079628 0 0 0 0 -399514591.14314198 146453712.14793873 0 146453712.14793873 7909166.9466323853 0 0 0 0 -411971130.01871777 118935212.52513313 0 118935212.52513313 -32154576.818584442 0 0 0 0 -378271217.46838081 69542961.788971663 0 69542961.788971663 119682045.10123825 0 0 0 0 -456280274.81258774 69278344.211418152 0 69278344.211418152 126007021.33653259 0 0 0 0 -199093694.53811836 103754122.73516655 0 103754122.73516655 66898828.753282547 0 0 0 0 -135342907.45068097 -175112750.91240358 0 -175112750.91240358 316949565.03485489 0 0 0 0 -35096898.679389 -191779169.69842434 0 -191779169.69842434 189691553.34100342 0 0 0 0 258484243.97663641 -327234913.60434246 0 -327234913.60434246 236996433.14021301 0 0 0 0 294683928.87392426 -162737640.65548897 0 -162737640.65548897 354611787.10137749 0 0 0 0 443988876.18419552 2665963.3286495209 0 2665963.3286495209 308963660.43665218 0 0 0 0 -89530388.732557058 -163360032.72555971 0 -163360032.72555971 539355466.79190826 0 0 0 0 1147442647.2117505 791240881.65708923 0 791240881.65708923 812065498.79755211 0 0 0 0 276962397.32044649 160764146.00278854 0 160764146.00278854 355571381.87498856 0 0 0 0 2013877886.5823421 283241690.93444824 0 283241690.93444824 -31260514.075021267 0 0 0 0 625039515.63044453 60656318.609512329 0 60656318.609512329 493602.01934051514 0 0 0 0 89323.464899091079 436039.12148943637 0 436039.12148943637 1226810.3361783279 0 0 0 0 -54826869.121071815 -225700463.83354664 0 -225700463.83354664 1157850894.1092529 0 0 0 0 49402443.494371414 815391182.42459297 0 815391182.42459297 1488714282.9993377 0 0 0 0 1871735783.1429708 157349506.50869751 0 157349506.50869751 142813937.77029419 0 0 0 0 -142712895.59719086 9231348.7650089264 0 9231348.7650089264 1354423132.6410007 0 0 0 0 730016821.77318859 -437567682.52681684 0 -437567682.52681684 -851961754.0623703 0 0 0 0 2529397.3812886169 577476.93717351882 0 577476.93717351882 -792343.25149800675 0 0 0 0 -201724768.4823252 145704591.94956446 0 145704591.94956446 194412990.96842575 0 0 0 0 17362313.257385254 -66087129.328549385 0 -66087129.328549385 -209907732.2815299 0 0 0 0 53223752.612936974 -17099265.507167816 0 -17099265.507167816 -178311197.27423477 0 0 0 0 34035282.276416391 -41227070.158049583 0 -41227070.158049583 -201528428.2139225 0 0 0 0 48418871.099799812 -12044954.300782204 0 -12044954.300782204 -172590123.33484077 0 0 0 0 32487604.175295353 -215677630.43139935 0 -215677630.43139935 -456583764.95766854 0 0 0 0 -28929497.553104877 -60232535.043657303 0 -60232535.043657303 -155556567.79833412 0 0 0 0 425961739.58677328 -75936670.283669472 0 -75936670.283669472 -269326430.28435135 0 0 0 0 128179365.95152089 172265762.45175171 0 172265762.45175171 14131572.290517807 0 0 0 0 -16773059.44874382 -499990980.92562675 0 -499990980.92562675 129006722.59212589 0 0 0 0 1089420.9836397509 225850.61231981497 0 225850.61231981497 -319085.85277215112 0 0 0 0 -465191163.02816296 -104653944.79937172 0 -104653944.79937172 388536905.15215015 0 0 0 0 32362901.323989868 -39103192.19225502 0 -39103192.19225502 130568784.57718658 0 0 0 0 -91597293.393642426 53404633.883798599 0 53404633.883798599 7958193.6386413574 0 0 0 0 65711682.530035973 38658209.412189484 0 38658209.412189484 -100521490.48690796 0 0 0 0 788793.56034074537 1078551.7318428201 0 1078551.7318428201 -330173.31876763329 0 0 0 0 -48310022.26724267 -39656347.512723923 0 -39656347.512723923 -19419064.995910645 0 0 0 0 61061110.897138596 237140546.28388596 0 237140546.28388596 170733913.75439262 0 0 0 0 230830204.39944077 367924744.37147331 0 367924744.37147331 215764167.14201021 0 0 0 0 -25791837.375620842 144010446.14486313 0 144010446.14486313 279355813.50115538 0 0 0 0 13545989.403254509 140542151.65786362 0 140542151.65786362 131775127.96056366 0 0 0 0 -38878524.970943451 100450669.98840523 0 100450669.98840523 42324771.648628235 0 0 0 0 45704474.129780769 -91214465.031539917 0 -91214465.031539917 102078050.64304161 0 0 0 0 3850359.5809986591 552439914.64465523 0 552439914.64465523 521644584.78689098 0 0 0 0 -65618729.987534761 56641479.676703453 0 56641479.676703453 799536407.91693497 0 0 0 0 168632964.00162697 494449259.60206747 0 494449259.60206747 358061937.83567429 0 0 0 0 2575431.0925976774 931065.33917570114 0 931065.33917570114 -958191.64878588263 0 0 0 0 555864751.65471935 255045413.41529751 0 255045413.41529751 -452284373.84416008 0 0 0 0 1192535.2716619559 661454.90044120885 0 661454.90044120885 -540204.62703273236 0 0 0 0 291124357.55631924 647867692.89255762 0 647867692.89255762 549022655.33819389 0 0 0 0 86614256.452041626 492579833.47439766 0 492579833.47439766 365058703.15039444 0 0 0 0 84004984.677183151 207872274.03797865 0 207872274.03797865 207964218.50481224 0 0 0 0 624679513.43681145 339735902.12576628 0 339735902.12576628 200268452.84552065 0 0 0 0 168112752.12898064 149027683.1819849 0 149027683.1819849 196143435.69665909 0 0 0 0 231069840.55461168 27999377.75297451 0 27999377.75297451 402106774.09606361 0 0 0 0 466478792.18698978 250326496.58746696 0 250326496.58746696 43470894.890629768 0 0 0 0 158225540.06527138 212623259.46906853 0 212623259.46906853 146986377.91807556 0 0 0 0 98253346.968894005 197590207.20193791 0 197590207.20193791 143374826.86289597 0 0 0 0 201603779.45659542 312775136.87714648 0 312775136.87714648 375442598.17217255 0 0 0 0 385318351.04095364 -100661224.87807035 0 -100661224.87807035 -139762710.69390869 0 0 0 0 109954534.57547545 15945150.310003638 0 15945150.310003638 -21433026.741668701 0 0 0 0 91949904.499204636 -182994821.40410376 0 -182994821.40410376 -89161399.944814682 0 0 0 0 -22281031.015226603 -1634967.1721873283 0 -1634967.1721873283 -80413119.143486023 0 0 0 0 -4850226.3705821037 -77847752.046981335 0 -77847752.046981335 -28772396.62665081 0 0 0 0 92227226.893964767 -53359642.947202682 0 -53359642.947202682 -39810485.429406166 0 0 0 0 -15141726.34764719 -41460078.428076982 0 -41460078.428076982 -25285862.11937809 0 0 0 0 -21040935.370912552 -98971392.565884113 0 -98971392.565884113 -130734252.99374878 0 0 0 0 -32331887.404712677 -28301736.344718933 0 -28301736.344718933 -72102241.768007696 0 0 0 0 66649085.769816875 -35896628.19554323 0 -35896628.19554323 -121992382.98816848 0 0 0 0 86678194.785993576 7817088.7745296359 0 7817088.7745296359 -86340010.779733539 0 0 0 0 74619911.408708572 -33821749.990026474 0 -33821749.990026474 -79954082.495228291 0 0 0 0 73508359.702588081 -43359002.973651171 0 -43359002.973651171 -28946831.488670349 0 0 0 0 185985501.69095802 42237901.114680052 0 42237901.114680052 -79831912.090376377 0 0 0 0 195696153.88315392 49742055.342436075 0 49742055.342436075 -98764247.523877382 0 0 0 0 77734215.835992813 12191281.496054471 0 12191281.496054471 -86776580.082114264 0 0 0 0 37814050.985815525 123911341.14584059 0 123911341.14584059 -70682557.994799614 0 0 0 0 226398385.38914108 199302085.74227619 0 199302085.74227619 33973862.603234768 0 0 0 0 106581291.84735727 93193217.658107102 0 93193217.658107102 -59762210.861489296 0 0 0 0 -118621363.34958673 -97947012.793208122 0 -97947012.793208122 -51735623.509381771 0 0 0 0 98696134.324476004 -4068434.3911633492 0 -4068434.3911633492 -122290533.95613956 0 0 0 0 795057.27410084521 -148072.38280976843 0 -148072.38280976843 -687991.653186996 0 0 0 0 -167003322.97780514 -106156145.54244804 0 -106156145.54244804 -39894200.116800308 0 0 0 0 -186753457.20888138 -116871885.59969711 0 -116871885.59969711 -63727943.766209602 0 0 0 0 -153172614.58038712 -94260864.443437576 0 -94260864.443437576 -54603040.225240707 0 0 0 0 -116320913.17057276 -105651892.15747547 0 -105651892.15747547 -93061605.462234497 0 0 0 0 -176063423.48326898 -147939116.23653269 0 -147939116.23653269 -130525047.75011826 0 0 0 0 1333621.0363524701 -373778.16496213642 0 -373778.16496213642 -1005439.141635817 0 0 0 0 -167984063.57301521 -151209666.12940598 0 -151209666.12940598 -129211453.88626862 0 0 0 0 -137862606.79081249 -131237726.47875786 0 -131237726.47875786 -123231618.29704666 0 0 0 0 -202079794.48860684 -137129459.66322535 0 -137129459.66322535 -90253795.368583679 0 0 0 0 -2299929.8462500572 -29547454.473053932 0 -29547454.473053932 -128046532.00740433 0 0 0 0 -17689793.694102764 -37910913.759660721 0 -37910913.759660721 -111801557.76703072 0 0 0 0 18454858.612668514 -49592327.855860233 0 -49592327.855860233 -109657092.26974905 0 0 0 0 -26316118.914312124 -50997034.686116695 0 -50997034.686116695 -11947945.52897644 0 0 0 0 51713535.239771843 -103131425.05322409 0 -103131425.05322409 -24636771.070573807 0 0 0 0 21876833.714873791 -18566923.00196743 0 -18566923.00196743 13151585.195377827 0 0 0 0 -10637311.558785915 -63037378.67816925 0 -63037378.67816925 -47638990.419830322 0 0 0 0 -18317415.043216705 -44798626.702856541 0 -44798626.702856541 -49404876.459316373 0 0 0 0 -25225890.652722359 -48156422.107837677 0 -48156422.107837677 -12655296.477856874 0 0 0 0 -8855513.3212659359 -60101155.733523846 0 -60101155.733523846 -55422180.744590759 0 0 0 0 16041964.11935997 -53922920.047459483 0 -53922920.047459483 -210056266.49008775 0 0 0 0 -27946228.633684158 -48021977.159394264 0 -48021977.159394264 -60036023.021146059 0 0 0 0 -11116852.521268368 -66599972.012316465 0 -66599972.012316465 -114770369.21832657 0 0 0 0 -13644762.708838463 -32124981.920877695 0 -32124981.920877695 -125262335.84508079 0 0 0 0 13208104.907607555 -37463913.039752483 0 -37463913.039752483 -113283465.32865906 0 0 0 0 5185002.8708385807 2182796.5886780517 0 2182796.5886780517 -3934568.5927188843 0 0 0 0 -6384991.9252538681 -58843642.006592751 0 -58843642.006592751 -124260140.99947059 0 0 0 0 -230066836.66315556 45117351.380097151 0 45117351.380097151 12303258.512773514 0 0 0 0 8716714.4871143755 -5510333.8054636577 0 -5510333.8054636577 4383692.8022798914 0 0 0 0 -24452492.868624628 -126084696.94068605 0 -126084696.94068605 -58468479.211711884 0 0 0 0 85600361.509692669 -135864485.06710178 0 -135864485.06710178 -2020705.3280589581 0 0 0 0 -22832277.768764853 6938217.1000608802 0 6938217.1000608802 14063410.609499335 0 0 0 0 1576966.4643275109 656190.78622576862 0 656190.78622576862 -1181961.7317558248 0 0 0 0 -32252710.187851667 -136260557.88032341 0 -136260557.88032341 -37849533.202487469 0 0 0 0 62578464.931649327 -146040410.5051384 0 -146040410.5051384 -78831268.444338799 0 0 0 0 124477068.06251967 -20095148.721050978 0 -20095148.721050978 -166242765.17497063 0 0 0 0 -137369585.93598032 -66193099.500206947 0 -66193099.500206947 -39423807.090065002 0 0 0 0 134321433.48125088 -130404355.29391217 0 -130404355.29391217 -103263070.54587173 0 0 0 0 7674777.2421624251 -7430490.096058853 0 -7430490.096058853 6940761.7275405414 0 0 0 0 -443259536.91878188 -559241560.23419821 0 -559241560.23419821 560867828.96577454 0 0 0 0 -183353383.08044004 -102850343.7310257 0 -102850343.7310257 -31250367.020893097 0 0 0 0 -191529291.15745735 -55989832.072452545 0 -55989832.072452545 -34597102.636191368 0 0 0 0 377541518.32004547 252715976.93247795 0 252715976.93247795 -350750881.04536819 0 0 0 0 -260519606.04743195 238425783.63387299 0 238425783.63387299 -89923355.539896011 0 0 0 0 65712706.425033569 83896258.514914513 0 83896258.514914513 -34308131.813165188 0 0 0 0 95755873.574714661 117882796.16398621 0 117882796.16398621 -69329053.017205954 0 0 0 0 140469110.62952423 28885829.700820923 0 28885829.700820923 -17227443.707248688 0 0 0 0 137975545.68583679 78402847.257766724 0 78402847.257766724 -75920020.815608978 0 0 0 0 -109908821.10578156 43172956.949550629 0 43172956.949550629 -55950122.717837334 0 0 0 0 3858859.4013100788 -3069390.2500993479 0 -3069390.2500993479 1308957.3705126282 0 0 0 0 -67874196.782165527 5439455.7648072243 0 5439455.7648072243 175004201.1961422 0 0 0 0 31536048.93081665 -31722648.327094078 0 -31722648.327094078 136372788.6979003 0 0 0 0 -55678357.417549133 48096592.443734169 0 48096592.443734169 64059426.950520515 0 0 0 0 110838069.1388092 67185763.766588211 0 67185763.766588211 52434843.790151596 0 0 0 0 37301217.436233521 105221922.34217072 0 105221922.34217072 99055061.704920292 0 0 0 0 -362414838.33633423 177236350.9956665 0 177236350.9956665 30691480.777952671 0 0 0 0 123608.56037087785 -14009.77385104727 0 -14009.77385104727 -151561.88777638879 0 0 0 0 175980727.08171844 97771925.60076046 0 97771925.60076046 -85862999.028484344 0 0 0 0 53352257.182453156 -107732534.50119352 0 -107732534.50119352 241589105.55423927 0 0 0 0 239801746.09182739 16265026.660210133 0 16265026.660210133 -38828190.10297966 0 0 0 0 10132122.386611938 10276908.795009613 0 10276908.795009613 -8566780.2331433296 0 0 0 0 9002888.0070929527 22108871.357285976 0 22108871.357285976 -31966456.355089188 0 0 0 0 14025296.506644968 -4456814.1276957542 0 -4456814.1276957542 1550846.0141638422 0 0 0 0 236126.30796328047 -2203552.1022063168 0 -2203552.1022063168 373338.79245148052 0 0 0 0 -28011436.888311386 -26713120.690784931 0 -26713120.690784931 1587573.425409317 0 0 0 0 28027037.397830009 -36645474.195649505 0 -36645474.195649505 -149859469.81432343 0 0 0 0 13514275.575350149 -3386134.7030711127 0 -3386134.7030711127 -53130.764958596788 0 0 0 0 104458508.30284882 137018008.12660551 0 137018008.12660551 -179538809.26014042 0 0 0 0 -7360948.2409095764 93451481.765085697 0 93451481.765085697 141638627.44593048 0 0 0 0 3700908.2152291657 -526496.25212164316 0 -526496.25212164316 -1384769.70874225 0 0 0 0 -29648594.506515503 345844765.81196976 0 345844765.81196976 -87910214.696731567 0 0 0 0 -14417731.563083649 184589781.44103336 0 184589781.44103336 313883744.49557495 0 0 0 0 -16100357.954856873 31621514.704219818 0 31621514.704219818 -24685666.492910385 0 0 0 0 117797217.15174866 -86300226.377257347 0 -86300226.377257347 -52219301.931329727 0 0 0 0 242033693.59532547 105210170.10742521 0 105210170.10742521 -15172262.656177521 0 0 0 0 -10631123.697738647 14826790.9926548 0 14826790.9926548 -46225669.47225666 0 0 0 0 42599366.577468872 163401221.68144989 0 163401221.68144989 123121245.32251453 0 0 0 0 75072902.409416199 89304236.599155426 0 89304236.599155426 -23466966.453339577 0 0 0 0 -52565109.132575989 88552553.066433907 0 88552553.066433907 64959828.522748947 0 0 0 0 -48708936.96419096 140796850.30252367 0 140796850.30252367 404087972.64144135 0 0 0 0 94493.864552719519 716872.93963776471 0 716872.93963776471 249280.04208894307 0 0 0 0 98302510.460411072 -3868095.6482231617 0 -3868095.6482231617 -16780895.694723129 0 0 0 0 192143809.24311066 -46687103.221499443 0 -46687103.221499443 -9059426.2806231976 0 0 0 0 826406.14089682885 23454.913759215735 0 23454.913759215735 -432009.76847443683 0 0 0 0 142542701.12668991 -137440715.59491038 0 -137440715.59491038 65374144.995613098 0 0 0 0 -161450.03024864197 778439.71388697624 0 778439.71388697624 -1130626.9969768524 0 0 0 0 629609.85992994159 618348.88157979061 0 618348.88157979061 -49991.304166456102 0 0 0 0 29540574.85320282 -21392522.783484936 0 -21392522.783484936 -56314051.791511536 0 0 0 0 23990.008605957031 1036711.0445404053 0 1036711.0445404053 -2270443.7399215698 0 0 0 0 765735.01932162046 447425.38529206044 0 447425.38529206044 -322669.10990984598 0 0 0 0 25127.677673339844 793485.30406856537 0 793485.30406856537 -1132697.8738601208 0 0 0 0 -96211001.275726318 75471074.510897636 0 75471074.510897636 -123651667.46417427 0 0 0 0 1176662.1472059549 385471.61987145524 0 385471.61987145524 -631841.68503623689 0 0 0 0 14171009.166519165 125479989.67178535 0 125479989.67178535 -176494427.47500086 0 0 0 0 -478452.67359924316 -269275.72250461578 0 -269275.72250461578 -5146773.0703086853 0 0 0 0 444971.07458361611 380654.09403978684 0 380654.09403978684 -174526.27440555103 0 0 0 0 -45278992.584770203 107708809.97605085 0 107708809.97605085 -88228792.45920372 0 0 0 0 6746265.0165748596 143407956.23935843 0 143407956.23935843 -79074920.091955185 0 0 0 0 -49562616.333496094 73755185.894288063 0 73755185.894288063 -26914049.332478523 0 0 0 0 92175811.79681778 31280489.521612167 0 31280489.521612167 -72972029.702920914 0 0 0 0 76520863.045640945 111681719.45737839 0 111681719.45737839 58557111.409862518 0 0 0 0 74906498.424184799 99800760.744113326 0 99800760.744113326 -27707858.553964615 0 0 0 0 535011.74535676371 92419.413601145148 0 92419.413601145148 -721267.26372681838 0 0 0 0 -68220385.975845337 -52887712.405399323 0 -52887712.405399323 -17832090.711744308 0 0 0 0 -55821828.755411983 63151071.325685345 0 63151071.325685345 -55013639.053236008 0 0 0 0 -78030568.504074097 157229787.05307579 0 157229787.05307579 -84846925.416199684 0 0 0 0 -193272366.80609512 144432046.29017782 0 144432046.29017782 -55432976.277334213 0 0 0 0 22237424.928561211 32091473.956818223 0 32091473.956818223 -35992907.39474678 0 0 0 0 41045843.720541 27397780.960624218 0 27397780.960624218 -53900938.932317495 0 0 0 0 117946239.15259647 51271533.654726207 0 51271533.654726207 -67948889.573415458 0 0 0 0 57723599.281023979 -3757118.2618350089 0 -3757118.2618350089 -59190669.236515522 0 0 0 0 -640098.77785873413 -19181444.709677696 0 -19181444.709677696 -42186519.813843727 0 0 0 0 12374676.213108063 -41236894.703611851 0 -41236894.703611851 -56769678.978162229 0 0 0 0 116700621.79676628 -380847443.65007353 0 -380847443.65007353 -102737626.56319237 0 0 0 0 11334666.317741791 -3468223.0565068843 0 -3468223.0565068843 352472.78768242383 0 0 0 0 28278247.754142761 -37153725.05107677 0 -37153725.05107677 -56093440.855051994 0 0 0 0 28970713.781736374 -31938158.821784794 0 -31938158.821784794 -86807605.189509392 0 0 0 0 -25828471.71189785 -85744027.530846953 0 -85744027.530846953 -97148660.92588824 0 0 0 0 -219722655.04654694 46251170.986070633 0 46251170.986070633 11126872.852552414 0 0 0 0 597364868.85775757 176834277.37840271 0 176834277.37840271 26600198.995951176 0 0 0 0 223802224.3826561 -388348845.86115789 0 -388348845.86115789 -123442852.55106544 0 0 0 0 576660436.53872681 372596369.47624493 0 372596369.47624493 308345177.3572464 0 0 0 0 225202.58165093139 236447.47713405592 0 236447.47713405592 24550.386853376403 0 0 0 0 185158806.51069641 -256029933.21928215 0 -256029933.21928215 134272160.37632561 0 0 0 0 4933081.3476142883 57731514.246074677 0 57731514.246074677 202195816.28349972 0 0 0 0 365532568.8923645 -44672713.602608681 0 -44672713.602608681 -31192480.982959747 0 0 0 0 136537923.95188904 -22497086.138957977 0 -22497086.138957977 -28761830.938934803 0 0 0 0 226981.86468177568 285794.09119762015 0 285794.09119762015 75041.965591611341 0 0 0 0 -72336215.112272263 -78264450.492093563 0 -78264450.492093563 69308438.174707413 0 0 0 0 49120022.445251465 -313756467.78514862 0 -313756467.78514862 -134030423.03833961 0 0 0 0 29714319.031291962 216515631.44464445 0 216515631.44464445 -51539889.225323617 0 0 0 0 9814403.4447836671 -2699012.2973385453 0 -2699012.2973385453 158255.52731971908 0 0 0 0 15130452.59783268 -6344227.4380984306 0 -6344227.4380984306 -31810609.741411686 0 0 0 0 -11126009.513492584 -50740996.737663746 0 -50740996.737663746 -16242586.219086647 0 0 0 0 13042362.289609909 11724136.038658142 0 11724136.038658142 2127384.9100103378 0 0 0 0 7623210.9189338684 656312.99747991562 0 656312.99747991562 -12421907.795195341 0 0 0 0 15847398.726760864 10139827.613768578 0 10139827.613768578 8273383.1572422981 0 0 0 0 11793987.670700073 16554143.62503624 0 16554143.62503624 11963553.992206573 0 0 0 0 5210705.0006637573 4797126.3319664001 0 4797126.3319664001 11399589.710586548 0 0 0 0 3264912.8709640503 7429498.3119068146 0 7429498.3119068146 8377501.8753032684 0 0 0 0 -20254444.110435486 -14467782.345277786 0 -14467782.345277786 13311933.168424606 0 0 0 0 -15106901.036851883 11323921.991296828 0 11323921.991296828 39422951.522558212 0 0 0 0 13717248.553750038 27234522.920165658 0 27234522.920165658 21100958.144900322 0 0 0 0 778340.82026726753 1131395.4990025135 0 1131395.4990025135 356713.34780594101 0 0 0 0 35670261.214324951 21532283.022192955 0 21532283.022192955 8220941.8033699989 0 0 0 0 -67330229.65499115 -25596544.521178246 0 -25596544.521178246 22713997.169681549 0 0 0 0 11487362.561401367 15195899.607326508 0 15195899.607326508 6841835.7620677948 0 0 0 0 -22583225.022888184 -4382953.0212402344 0 -4382953.0212402344 -35447885.609767914 0 0 0 0 -20731878.82510376 7213398.5229377747 0 7213398.5229377747 -31568548.065288544 0 0 0 0 -16811820.096191406 14050964.415145874 0 14050964.415145874 -19947317.807491302 0 0 0 0 -29010960.563232422 -6289885.2847747803 0 -6289885.2847747803 -10882380.046955109 0 0 0 0 -27656919.515197754 -14898250.417987823 0 -14898250.417987823 -26630633.985134125 0 0 0 0 -32014251.581130981 -13782730.686517715 0 -13782730.686517715 -18901596.289827347 0 0 0 0 742905.92503285408 12847911.63720499 0 12847911.63720499 4833603.6255760193 0 0 0 0 -35396169.650375366 2602074.9074020386 0 2602074.9074020386 6479829.2821674347 0 0 0 0 722464.10827636719 12033154.950250626 0 12033154.950250626 -13737674.623392105 0 0 0 0 -18001431.959274292 13137433.871244431 0 13137433.871244431 -3053501.8428936005 0 0 0 0 33545693.812835693 18487025.99310112 0 18487025.99310112 21293138.635627747 0 0 0 0 30772048.074127197 9996212.3838367462 0 9996212.3838367462 -3497279.8800678253 0 0 0 0 33898968.715568542 -10833901.66044879 0 -10833901.66044879 20814736.861642838 0 0 0 0 -12257550.549560547 16257221.394798279 0 16257221.394798279 8641897.6588344574 0 0 0 0 28087149.776664734 2421507.7809286118 0 2421507.7809286118 8520596.7607082874 0 0 0 0 80336218.372344971 61857334.602202415 0 61857334.602202415 -45052822.517871857 0 0 0 0 -82820694.102543831 45989009.969320297 0 45989009.969320297 32812011.504241943 0 0 0 0 108215394.13059998 57863469.774634361 0 57863469.774634361 1289527.1787509918 0 0 0 0 106259746.76072693 19349925.833387375 0 19349925.833387375 -29563783.110800743 0 0 0 0 143232311.26963043 -11803715.937351227 0 -11803715.937351227 -11843139.76096344 0 0 0 0 114948385.12182426 -27703460.421778679 0 -27703460.421778679 28027873.38066864 0 0 0 0 212919.54664261453 141373.1261274172 0 141373.1261274172 -195854.63015089137 0 0 0 0 217420521.94040489 -104870324.93241131 0 -104870324.93241131 8097425.4189891815 0 0 0 0 230386446.52175903 -7201262.5116357803 0 -7201262.5116357803 -43833781.49792099 0 0 0 0 128880925.29407501 -35625281.17977047 0 -35625281.17977047 5123128.7290935516 0 0 0 0 219717119.09147263 -91677505.314593792 0 -91677505.314593792 33289580.743824005 0 0 0 0 9200933.472782135 -4896917.0969743729 0 -4896917.0969743729 -24840.897301673889 0 0 0 0 131152.20383700309 162631.5039911028 0 162631.5039911028 -76157.9540206003 0 0 0 0 19049069.461791992 -12900228.119412422 0 -12900228.119412422 2389737.1544744968 0 0 0 0 14838519.652999878 -3480351.7594194412 0 -3480351.7594194412 -1800178.2153968811 0 0 0 0 10539011.597681046 89279.272894144058 0 89279.272894144058 -4516519.9212284088 0 0 0 0 4303273.3854293823 3485101.2169647217 0 3485101.2169647217 -2000117.5995817184 0 0 0 0 6728740.4990196228 4193645.6598598957 0 4193645.6598598957 -6837327.915687561 0 0 0 0 -5915532.1799697876 8501416.01831007 0 8501416.01831007 -2999361.6368970871 0 0 0 0 -3140005.4877548218 18037989.549151897 0 18037989.549151897 -1010345.1199493408 0 0 0 0 8828265.0887756348 7827384.0966622829 0 7827384.0966622829 -8126432.5187854767 0 0 0 0 9122295.9585571289 9611732.7818460464 0 9611732.7818460464 -3615395.6551651955 0 0 0 0 11344342.411361694 27092068.971572876 0 27092068.971572876 318488.69710063934 0 0 0 0 41984088.556106567 5100177.7291150093 0 5100177.7291150093 -8566787.5828762054 0 0 0 0 3396722.4592819214 15668575.640874863 0 15668575.640874863 -7055776.9553642273 0 0 0 0 -16469906.604888916 13602357.189241409 0 13602357.189241409 -1277501.3568691015 0 0 0 0 811508.68115234375 1050954.8152599335 0 1050954.8152599335 577767.36931610107 0 0 0 0 210903.46348491032 1725115.8074969482 0 1725115.8074969482 1733168.1239750658 0 0 0 0 -26840297.743465424 10171175.889089584 0 10171175.889089584 598105.51430511475 0 0 0 0 -19588750.570053101 19725486.515104294 0 19725486.515104294 -9659084.2220001221 0 0 0 0 1146461.0886572376 661641.26091257762 0 661641.26091257762 -451948.61500343494 0 0 0 0 8076996.8586120605 10755882.654348373 0 10755882.654348373 11504429.951868057 0 0 0 0 2063275.7703162637 2555761.3084124085 0 2555761.3084124085 50062.890024090419 0 0 0 0 -17375829.508621216 8304353.5489945412 0 8304353.5489945412 -967003.27343177795 0 0 0 0 -3528448.0325775146 -14622833.549463034 0 -14622833.549463034 -49428540.871676445 0 0 0 0 1678175.2870330811 -354168.78405666351 0 -354168.78405666351 -44387621.038101196 0 0 0 0 -4925078.5232963562 11347174.202112317 0 11347174.202112317 -354967.23470115662 0 0 0 0 2071703.7683661226 2861648.5632225461 0 2861648.5632225461 2292937.3597008865 0 0 0 0 -3592915.4458694458 5040634.6197476387 0 5040634.6197476387 11746345.384595871 0 0 0 0 208487.75548342057 1233059.733440185 0 1233059.733440185 768366.91321789683 0 0 0 0 2545338.7265895829 1177662.1458872166 0 1177662.1458872166 -2697686.8462147973 0 0 0 0 14201830.716049194 30854168.628092289 0 30854168.628092289 -6220905.254748404 0 0 0 0 2723583.9089889489 959384.48283396661 0 959384.48283396661 -2391433.551990197 0 0 0 0 6929227.674118042 7711857.1019191742 0 7711857.1019191742 1841693.732208252 0 0 0 0 13015404.787155151 11584461.852012634 0 11584461.852012634 3069468.1760377884 0 0 0 0 4467941.7848129272 4618595.7764253616 0 4618595.7764253616 13296547.78563118 0 0 0 0 19385172.111312866 2552260.020067215 0 2552260.020067215 -4850592.4526538849 0 0 0 0 8034081.8061218262 7076661.5446119308 0 7076661.5446119308 766127.38789176941 0 0 0 0 7344654.3531861305 522102.3950433135 0 522102.3950433135 -1172929.9414710999 0 0 0 0 8003869.1587324142 11313524.231916666 0 11313524.231916666 19280946.662353516 0 0 0 0 641340.8251880724 -30214.710423732176 0 -30214.710423732176 -686457.88720444404 0 0 0 0 -941871.64127349854 1123252.4136638641 0 1123252.4136638641 -1033911.5914125443 0 0 0 0 1174211.4616928268 705485.01657934487 0 705485.01657934487 -539120.801918054 0 0 0 0 -846602.03498077393 1406119.6827492714 0 1406119.6827492714 -1997155.7188065052 0 0 0 0 -2641597.5778884888 1087619.6884655952 0 1087619.6884655952 -204335.41967582703 0 0 0 0 -6680011.9184417725 -30693023.302203178 0 -30693023.302203178 21674272.747524261 0 0 0 0 91605307.742858887 1120164.6229286194 0 1120164.6229286194 -8289856.9896597862 0 0 0 0 -57677874.37092495 -6381904.2860427499 0 -6381904.2860427499 1107331.580622673 0 0 0 0 -19052425.054363251 -11340071.251739264 0 -11340071.251739264 -8525604.8515138626 0 0 0 0 -64928.043061697856 215058.94772056816 0 215058.94772056816 -118857.6905162069 0 0 0 0 -1760000.7156219482 -490943.63627052307 0 -490943.63627052307 1629957.9066867828 0 0 0 0 3500427.3774414062 6642090.4573907852 0 6642090.4573907852 -4033606.1388568878 0 0 0 0 -1310140.3491287231 2445194.5434322357 0 2445194.5434322357 10545955.78972882 0 0 0 0 6954461.0096874237 15668009.448359013 0 15668009.448359013 11822610.484167099 0 0 0 0 241086081.65878296 38838655.408168316 0 38838655.408168316 -65640745.253068924 0 0 0 0 182175576.51273346 -61536953.415657997 0 -61536953.415657997 3460709.4828414917 0 0 0 0 207559.72897365689 90366.630473827012 0 90366.630473827012 -136993.71664587129 0 0 0 0 81061720.04901123 35537183.221544266 0 35537183.221544266 520745.02388000488 0 0 0 0 197063925.53328705 -98511599.763029695 0 -98511599.763029695 15884551.988170624 0 0 0 0 1119400.2212677002 340771.47594642639 0 340771.47594642639 -1624623.9929695129 0 0 0 0 90691883.499588013 -47376651.922606468 0 -47376651.922606468 15210956.172823519 0 0 0 0 362154.5004988052 284962.22651134524 0 284962.22651134524 -212782.57274802797 0 0 0 0 112885997.74346733 -19756035.915253401 0 -19756035.915253401 -35782866.507476807 0 0 0 0 40328623.390487671 12730222.454754591 0 12730222.454754591 -17561477.332436562 0 0 0 0 84674144.128326416 -47338497.107429504 0 -47338497.107429504 8057634.0415258408 0 0 0 0 117601398.50595093 -35305280.560431957 0 -35305280.560431957 -3469437.2537078857 0 0 0 0 160368704.83943939 -42490551.950125694 0 -42490551.950125694 1722739.5844135284 0 0 0 0 347249.11171189882 214451.26745176502 0 214451.26745176502 -338600.89186936594 0 0 0 0 177423453.77271652 -58951600.7762568 0 -58951600.7762568 -23427815.878519058 0 0 0 0 160194216.14517212 -33588326.422118187 0 -33588326.422118187 17645895.937244415 0 0 0 0 327855.87652477156 374503.2192811463 0 374503.2192811463 -166754.30206316989 0 0 0 0 136024072.7171402 4762245.7705783844 0 4762245.7705783844 16560237.204414368 0 0 0 0 30083951.65410614 -29892031.049177647 0 -29892031.049177647 -13705172.467715263 0 0 0 0 133383403.67245102 -5938690.5481030941 0 -5938690.5481030941 -26337724.960559845 0 0 0 0 93956310.635383606 -48655681.699883938 0 -48655681.699883938 7568703.8027744293 0 0 0 0 169231.7310365811 494618.66347904131 0 494618.66347904131 -99127.240766250063 0 0 0 0 -18226682.029874802 65608915.558048725 0 65608915.558048725 -33609366.443887711 0 0 0 0 43518665.173618317 -71994.605682015419 0 -71994.605682015419 -39153051.901521683 0 0 0 0 -1120047.3205680847 1189703.7634124756 0 1189703.7634124756 -978587.9308757782 0 0 0 0 13234565.40256691 39221755.744779706 0 39221755.744779706 31502612.91472435 0 0 0 0 1247645.4405728653 877600.3418685263 0 877600.3418685263 -468480.55557798175 0 0 0 0 290548492.50257874 -56540285.387970448 0 -56540285.387970448 -19798208.456941605 0 0 0 0 360978923.38846207 52811234.351064682 0 52811234.351064682 -75049329.655268669 0 0 0 0 311649594.12580872 71038366.553866386 0 71038366.553866386 -67067869.704672813 0 0 0 0 326245191.25235367 42155372.150667667 0 42155372.150667667 -76283289.501490593 0 0 0 0 110980884.16941833 -35219970.597320557 0 -35219970.597320557 -10207353.305760384 0 0 0 0 311177312.37268066 42901634.236400127 0 42901634.236400127 -40963842.445668221 0 0 0 0 28614.580705303699 61563.467575825751 0 61563.467575825751 -51771.931199037936 0 0 0 0 317561646.90757751 22282375.229136467 0 22282375.229136467 -36971405.425272703 0 0 0 0 40058319.092573166 67698722.47598505 0 67698722.47598505 43747246.381581306 0 0 0 0 143450338.15279198 104799994.75926781 0 104799994.75926781 22096128.143525124 0 0 0 0 311390581.2909584 22570898.872527599 0 22570898.872527599 -21796433.049688339 0 0 0 0 476659496.97366333 9352650.6321783066 0 9352650.6321783066 -22301738.532357454 0 0 0 0 364138479.00089645 -93054007.089951515 0 -93054007.089951515 13961856.46208477 0 0 0 0 156058068.91999817 90777185.132436752 0 90777185.132436752 74795798.42397213 0 0 0 0 248672660.6381073 37777945.616728783 0 37777945.616728783 -18157293.792226791 0 0 0 0 365846562.56010437 154969883.37773323 0 154969883.37773323 -11824448.689161301 0 0 0 0 244819.90775938332 65639.684453279595 0 65639.684453279595 -84503.040009056102 0 0 0 0 -48772336.297899246 -40015914.771720767 0 -40015914.771720767 45412440.845756531 0 0 0 0 123387126.61265564 30070632.240636826 0 30070632.240636826 25011477.203841925 0 0 0 0 271580815.90629959 -25129874.721632004 0 -25129874.721632004 -8995279.3294527531 0 0 0 0 268793473.16210175 -33807362.502667427 0 -33807362.502667427 34544033.415314674 0 0 0 0 334192138.77198982 -13355123.09248662 0 -13355123.09248662 14737261.796113014 0 0 0 0 141757088.05592346 75302078.347706795 0 75302078.347706795 33003369.46070385 0 0 0 0 84700.143578600138 56636.442042192444 0 56636.442042192444 65938.266800265061 0 0 0 0 63938485.387527466 -37192884.511177063 0 -37192884.511177063 130769886.92193699 0 0 0 0 262039165.82443237 103570069.05343723 0 103570069.05343723 -73493192.924354553 0 0 0 0 296523600.28354645 51591432.491071701 0 51591432.491071701 3287768.5607494116 0 0 0 0 305439266.36473274 57081069.84206152 0 57081069.84206152 -85093290.22870636 0 0 0 0 107047.96025563031 106962.51352815144 0 106962.51352815144 226115.37891655485 0 0 0 0 40218167.288375854 -68389011.257328272 0 -68389011.257328272 43448506.02167511 0 0 0 0 -55055278.812927246 -65086146.314310551 0 -65086146.314310551 -15951399.008348465 0 0 0 0 63273708.626403809 -25506892.642230511 0 -25506892.642230511 -3183971.15239048 0 0 0 0 -14270376.970108032 -15094363.843565464 0 -15094363.843565464 42454990.79154028 0 0 0 0 -16153363.096050262 46915704.66229248 0 46915704.66229248 -22854780.340057373 0 0 0 0 -20538656.119327545 1856027.9422316551 0 1856027.9422316551 30138019.875825882 0 0 0 0 -50634893.692070007 20097410.132178307 0 20097410.132178307 34179496.453825474 0 0 0 0 -38149009.260009766 7046634.8737068176 0 7046634.8737068176 36530211.241800308 0 0 0 0 -164604532.90602875 49114237.120620251 0 49114237.120620251 22554320.213889122 0 0 0 0 -27508418.911022186 108486777.54490602 0 108486777.54490602 -71998819.747777939 0 0 0 0 28471522.920837402 37253994.362182617 0 37253994.362182617 -25223898.469599724 0 0 0 0 92847988.732406616 71731422.351644516 0 71731422.351644516 -100753728.51914024 0 0 0 0 -5441293.5396194458 58140217.875952005 0 58140217.875952005 -36559624.625919342 0 0 0 0 93785357.428741455 -3349637.2017440796 0 -3349637.2017440796 -44229406.024987459 0 0 0 0 17414250.807846069 20554970.925457954 0 20554970.925457954 -50097602.961233854 0 0 0 0 -19905467.833831787 55683098.272583008 0 55683098.272583008 11182211.055366039 0 0 0 0 420522.24469354562 10850.016741996631 0 10850.016741996631 -517327.4310998444 0 0 0 0 92248648.033538818 1061767346.2168751 0 1061767346.2168751 -403707911.70043564 0 0 0 0 -19115157.98928833 -194595925.62331486 0 -194595925.62331486 420162116.88674927 0 0 0 0 -139907089.73088455 35285265.074749708 0 35285265.074749708 7890619.2426509857 0 0 0 0 382690.36352630518 658661.39071286051 0 658661.39071286051 85616.349879189394 0 0 0 0 23660074.473365784 -100761534.70843029 0 -100761534.70843029 -139248930.94086266 0 0 0 0 -120812010.09516144 -6054207.5232248306 0 -6054207.5232248306 3717420.036365509 0 0 0 0 691850.46600835398 2408857.0861922926 0 2408857.0861922926 2209118.1283300095 0 0 0 0 -85502105.975845337 -4854050.5671377182 0 -4854050.5671377182 378408.57918548584 0 0 0 0 -76712903.797622681 41220261.154450417 0 41220261.154450417 5239059.3623828888 0 0 0 0 -138725.07034683228 6163163.5109939575 0 6163163.5109939575 -1461397.9334602356 0 0 0 0 -547266.78443813324 4509094.4235224724 0 4509094.4235224724 -1099232.3501014709 0 0 0 0 -149415.96467924118 5387294.1077301502 0 5387294.1077301502 -2385347.640083313 0 0 0 0 -2284135.2110137939 57893582.95072794 0 57893582.95072794 15822246.389895439 0 0 0 0 -17319196.728042603 -15381432.179270267 0 -15381432.179270267 58907268.490483284 0 0 0 0 -23456363.288520813 22033289.42839241 0 22033289.42839241 -68445642.443296909 0 0 0 0 -105610643.20822906 68129745.847066879 0 68129745.847066879 -3691524.0665388107 0 0 0 0 -99232429.460250854 49974895.204593658 0 49974895.204593658 13427922.10055685 0 0 0 0 -24907779.67678833 28854839.805722713 0 28854839.805722713 -1772643.5200414658 0 0 0 0 -79480451.053237915 62866801.847548485 0 62866801.847548485 -36653565.54771328 0 0 0 0 22459877.258720398 58150919.896213531 0 58150919.896213531 3755516.2311081886 0 0 0 0 71929931.348545074 -13032513.995555878 0 -13032513.995555878 19212050.309987068 0 0 0 0 -7949406.6052017212 20022751.360862255 0 20022751.360862255 -43490050.863334656 0 0 0 0 -14564624.781303406 92508457.620907784 0 92508457.620907784 -50762836.9536888 0 0 0 0 170548.48192658834 -13421.602285145782 0 -13421.602285145782 -168167.82683370449 0 0 0 0 -88813162.324095249 114565214.92713431 0 114565214.92713431 -12274056.191568375 0 0 0 0 596755.94997994788 1787957.1366024492 0 1787957.1366024492 2128495.4032598813 0 0 0 0 -4268548.3659744263 8221486.7050933838 0 8221486.7050933838 -5615985.2061004639 0 0 0 0 -7478269.5113754272 5735113.6159152985 0 5735113.6159152985 -3538884.9151515961 0 0 0 0 -3917893.8564682007 5820823.057767868 0 5820823.057767868 -6611575.0529556274 0 0 0 0 -97769989.392164946 -45877462.73346968 0 -45877462.73346968 -37775486.059289932 0 0 0 0 -107417095.02895355 194866216.11629486 0 194866216.11629486 -2303981.6167118549 0 0 0 0 -1072945.3583679199 6235170.8817834854 0 6235170.8817834854 -2774055.5592956543 0 0 0 0 -1540015.8738250732 6347502.0366573334 0 6347502.0366573334 -4353544.6148500443 0 0 0 0 -1105109.5519943237 6695941.7210674286 0 6695941.7210674286 -4270905.2455940247 0 0 0 0 -4498868.5370597839 7579537.6503477097 0 7579537.6503477097 -3481462.558921814 0 0 0 0 -3168555.4495697021 5807011.2864809036 0 5807011.2864809036 -1178372.9427871704 0 0 0 0 -3065865.6191253662 6400980.3448238373 0 6400980.3448238373 -4713106.9453105927 0 0 0 0 -3713144.4637718201 6495947.0927181244 0 6495947.0927181244 -4448038.2935523987 0 0 0 0 -2135604.504447937 6844881.578769207 0 6844881.578769207 -4758243.5237998962 0 0 0 0 -2512485.303565979 6218559.2578487396 0 6218559.2578487396 -5224336.9259986877 0 0 0 0 -2249506.5550918579 6730349.3860111237 0 6730349.3860111237 -4815314.1479082108 0 0 0 0 -1803088.9625091553 7618280.8598518372 0 7618280.8598518372 -5460076.1252365112 0 0 0 0 -659860.02172088623 7131661.1714630127 0 7131661.1714630127 -5338834.788356781 0 0 0 0 -893058.5460062027 7180970.7155053616 0 7180970.7155053616 -5265883.2993850708 0 0 0 0 -1511816.072365284 8183157.0168215036 0 8183157.0168215036 -4924711.4031257629 0 0 0 0 -3103438.187789917 8641922.7696495056 0 8641922.7696495056 -4591074.4928531647 0 0 0 0 -4642266.4131240845 7495784.9669513702 0 7495784.9669513702 -3419058.4972176552 0 0 0 0 -3034911.290473938 6575352.8061580658 0 6575352.8061580658 -3772006.1713027954 0 0 0 0 -3540513.6550827026 5393807.5414104462 0 5393807.5414104462 -3337634.665643692 0 0 0 0 -4423912.3072357178 6562591.3638734818 0 6562591.3638734818 -218161.67723464966 0 0 0 0 -5909710.7611618042 9512705.4423704147 0 9512705.4423704147 -656052.54424858093 0 0 0 0 -5113509.3136444092 9546657.8282022476 0 9546657.8282022476 -1554383.7327079773 0 0 0 0 6510498.857546472 3956265.9026393984 0 3956265.9026393984 -166238.2330212025 0 0 0 0 -6192861.9938812256 11448805.249801636 0 11448805.249801636 -3585737.369354248 0 0 0 0 -78420350.762116909 65683304.94510603 0 65683304.94510603 37334247.712952614 0 0 0 0 526967.29874640703 1287836.449598128 0 1287836.449598128 1602174.7069494976 0 0 0 0 -7654683.2228546143 14197852.260743141 0 14197852.260743141 -4733686.2948150635 0 0 0 0 2302148.367477417 11254201.977802277 0 11254201.977802277 -6390306.9590377808 0 0 0 0 -3968179.2034378052 7644850.544418335 0 7644850.544418335 -2607163.8092899323 0 0 0 0 -1701489.7113113403 3300333.9669933319 0 3300333.9669933319 1370551.8185529709 0 0 0 0 -431616.12343978882 19485103.042078972 0 19485103.042078972 2294735.8382530212 0 0 0 0 -5539977.9862174988 9369448.9235408306 0 9369448.9235408306 9162666.4444446564 0 0 0 0 5619045.7917404175 -12789110.963507652 0 -12789110.963507652 26768798.907304764 0 0 0 0 -3740620.0898971558 24042635.340671539 0 24042635.340671539 10951672.340177536 0 0 0 0 650097.7707824707 40675269.829161644 0 40675269.829161644 49743518.449523926 0 0 0 0 -5223625.4674530029 61780625.988931656 0 61780625.988931656 15919033.012647152 0 0 0 0 478557.44539738446 709281.72716576792 0 709281.72716576792 607613.40715939552 0 0 0 0 -117709957.84016418 105413054.7215004 0 105413054.7215004 341188714.3964777 0 0 0 0 -1277632.2970428467 -57743987.423877716 0 -57743987.423877716 189836378.71735001 0 0 0 0 -403793086.39481354 204859084.57117081 0 204859084.57117081 22736629.152053833 0 0 0 0 35934910.3203125 239492106.45969582 0 239492106.45969582 -51245724.852259159 0 0 0 0 498287.04142432287 -3107.7104168483056 0 -3107.7104168483056 -376488.92986902874 0 0 0 0 -74220551.821944952 -137904425.56134161 0 -137904425.56134161 -4488532.4776859283 0 0 0 0 1037197140.1682816 -324705517.95416737 0 -324705517.95416737 -210763940.81989479 0 0 0 0 358130694.11474609 -406253752.97731495 0 -406253752.97731495 -150163627.26629734 0 0 0 0 1524977950.8524475 746467017.80360031 0 746467017.80360031 1171774385.1002502 0 0 0 0 464658.16849159449 -5010.6185865788721 0 -5010.6185865788721 -328719.76130365208 0 0 0 0 59413534.756882668 -248138664.67326134 0 -248138664.67326134 -84004065.654808044 0 0 0 0 66850347.045314789 -173589666.62274027 0 -173589666.62274027 231448883.72092247 0 0 0 0 -167483670.00312805 -215853589.30101776 0 -215853589.30101776 132337432.87171173 0 0 0 0 -199766234.74051285 -303236615.2498765 0 -303236615.2498765 -103642897.23625183 0 0 0 0 209661485.30976868 125052146.96662712 0 125052146.96662712 -195996976.19525146 0 0 0 0 221830417.44877625 203945856.93465233 0 203945856.93465233 106875649.20097399 0 0 0 0 -101399583.08018494 -1120914641.3588171 0 -1120914641.3588171 -359915406.31229782 0 0 0 0 474239964.92767334 424341656.07645798 0 424341656.07645798 299317427.92780495 0 0 0 0 954516821.63105106 -274402192.57681394 0 -274402192.57681394 -18585910.227563858 0 0 0 0 1294831.672269702 -744077.99616042664 0 -744077.99616042664 421004.57308848429 0 0 0 0 278945334.37314606 311922806.08998013 0 311922806.08998013 646077630.28510523 0 0 0 0 179387671.27243042 -364647843.19002151 0 -364647843.19002151 379467595.67837501 0 0 0 0 120198180.19799805 -74247102.485639572 0 -74247102.485639572 58729754.247425079 0 0 0 0 510151700.25364685 137551760.92387724 0 137551760.92387724 -41100334.324258804 0 0 0 0 24069073.816288471 22744881.57064122 0 22744881.57064122 321851361.61017227 0 0 0 0 235495956.91181946 222457910.38286877 0 222457910.38286877 237063512.28474855 0 0 0 0 1093015727.9312286 390681252.80963326 0 390681252.80963326 74753168.395068169 0 0 0 0 478445820.44052124 61496457.971323013 0 61496457.971323013 -77984475.109794617 0 0 0 0 456577313.56747437 -46774033.651083946 0 -46774033.651083946 -199796814.959198 0 0 0 0 695609908.32327271 -1969305.3810253143 0 -1969305.3810253143 -206557163.20038223 0 0 0 0 451040833.54802322 -54036961.776266575 0 -54036961.776266575 -205230477.65926933 0 0 0 0 286137045.34414673 85722839.240487099 0 85722839.240487099 -85417202.294281006 0 0 0 0 272600139.7792511 29142451.072452545 0 29142451.072452545 -88425481.44651413 0 0 0 0 228219035.18193054 24258096.587820053 0 24258096.587820053 -85623222.428967476 0 0 0 0 235505509.96020508 78987567.366192818 0 78987567.366192818 -84100934.023526669 0 0 0 0 256156211.14969635 -125236742.79676723 0 -125236742.79676723 -151256638.82852888 0 0 0 0 441993256.46996307 -20646412.579177856 0 -20646412.579177856 -189163830.51792145 0 0 0 0 408709069.06892395 73023136.998651505 0 73023136.998651505 19941812.145830125 0 0 0 0 292732820.46827269 -15315384.107380569 0 -15315384.107380569 -64186286.983852386 0 0 0 0 288017204.38751221 -48952621.278603554 0 -48952621.278603554 -103311373.28586388 0 0 0 0 96789327.447257996 -31170897.059443474 0 -31170897.059443474 -51658836.707564354 0 0 0 0 -29528945.560033798 30337051.924546361 0 30337051.924546361 1638450.5960540771 0 0 0 0 112173167.91359329 4209667.6755905151 0 4209667.6755905151 -27199952.054390907 0 0 0 0 -4119175.5909805298 25880019.636936665 0 25880019.636936665 -61890600.050697327 0 0 0 0 97720330.225082397 -30384558.05191803 0 -30384558.05191803 -53354936.782997131 0 0 0 0 -43908412.377193451 -154936428.31701756 0 -154936428.31701756 -31083683.821325302 0 0 0 0 297990728.85890579 -144619373.09060955 0 -144619373.09060955 -64048961.612009048 0 0 0 0 386537950.91725159 -36448783.061179161 0 -36448783.061179161 -106187988.44497883 0 0 0 0 
</DataArray>
<DataArray type="Float64" Name="cross_section_updated" format="ascii">
1 1 1 1 1 0.051012541742579215 1 1 1 1 1 1 1 0.050045195857499114 1 1 1 1 0.04994365465086481 1 1 0.05125117011164624 1 1 1 1 0.05084578076946282 1 1 1 1 0.052399355303621498 1 1 1 1 1 1 1 1 1 1 1 1 1 0.049976996650120793 1 1 0.049950849778675907 1 1 1 1 1 0.050341590205193541 1 1 1 1 1 1 1 0.051384863780410628 1 1 1 1 0.051121977614666206 1 1 1 1 1 1 1 1 1 0.051246671700479557 1 1 0.052542351889084682 1 1 0.056107610651905282 1 1 1 1 0.049938011724895676 1 1 1 1 1 1 1 0.05598728465564172 0.049982966299255242 0.046783316192361937 1 1 0.047717190544440583 1 1 1 1 1 0.052197418964977441 1 1 1 1 1 1 1 1 1 1 1 1 1 0.049709668263082957 1 1 1 0.049209474794722548 1 1 1 1 1 1 0.049844355268245037 1 1 1 1 1 1 1 1 1 1 1 1 1 1 1 1 1 1 1 1 1 1 1 1 1 0.049994876399961169 1 1 1 0.050056819117253827 1 1 0.049750145209565111 1 1 1 1 1 1 1 1 1 1 1 0.050078361637795832 1 1 1 1 1 1 1 1 0.050372043540277842 1 1 1 1 1 1 1 1 0.050814563760995905 1 1 1 1 1 1 1 1 1 0.050018236566808164 1 1 1 1 1 1 1 1 1 1 1 1 1 1 1 1 1 1 1 1 1 1 1 0.050002724265377087 1 1 1 0.051930870488641874 1 0.050012440217234416 1 0.050873963598346714 1 1 0.055057114373486538 1 1 1 0.050694973409605354 1 0.05100122990456267 1 0.051466747783134564 1 0.050927096183442891 0.053947142206502444 1 0.051564235481971282 1 1 0.052681409482336794 1 0.051231659558696761 1 1 1 0.051191198053738646 1 0.050682274391664846 0.051094865858975838 1 1 0.051288877141175859 1 1 1 0.050332085934442043 1 0.05154934057974038 0.051431018125038384 0.049793883251604998 1 0.050827374708354134 1 1 1 0.049993183335037113 1 0.051277415550973024 0.050864821409839167 0.049987237813835496 1 1 0.05335149015641151 0.053760232686377259 1 1 1 1 0.055172667137331682 1 0.049979289268419276 1 1 0.051175632249990222 1 1 1 0.04996601521043692 1 0.050212733066075009 0.050277175619978992 0.049783525775118076 1 1 1 0.050471802305505908 1 0.050416818626689799 0.052592584479732842 0.050307656802664746 0.051456039469823425 1 1 1 0.051157847449557078 0.049999949638272506 1 1 0.049736771444684552 0.05171745507583627 0.050092265323769307 1 0.049937330479762287 1 1 1 1 0.049999916799586978 1 1 1 1 1 1 1 0.051214121589175959 1 1 1 1 1 1 0.050483141673707217 0.049999503930102003 1 1 1 0.051108115320563904 1 1 1 0.050008415689263515 1 0.050149231317491744 1 0.044819897395939279 0.056353238819569877 1 1 1 1 0.049804050759559182 1 1 0.055610434937108794 1 1 1 1 0.050010005401941997 1 0.049981331210324172 1 1 1 1 1 0.048760220179923416 0.055561783966588729 1 1 1 1 1 1 1 1 0.049773020195795104 1 1 1 0.049605235916952491 1 1 0.054619811703203416 1 0.049999465761743911 1 1 1 1 1 1 1 1 1 1 1 0.054862032629613894 1 0.050267255461619524 1 0.054106915027902533 1 1 1 0.048920857676908472 1 0.050002457073956903 1 0.050445467812887938 1 1 1 1 1 1 0.051948449221869919 1 0.05229587848397077 1 1 1 0.052048195538202564 1 1 1 0.052389709133232563 1 0.051206354150134525 0.049057878943760728 1 1 1 1 0.054822063254900306 1 1 1 1 0.054588990344501147 0.048939372226246572 1 1 0.049146047847742708 1 0.051020186689867027 1 0.053229092279303468 0.052522464753796988 1 1 1 0.05001637978156398 1 1 1 1 0.052666670403786101 1 1 1 1 1 1 1 1 1 1 1 0.050001459908336175 1 1 1 1 0.053310515379618943 1 1 1 0.051336263218796342 1 0.050045882089861299 0.050145765309853443 0.049999829306286644 1 1 1 0.052055663971613493 0.055595513294191372 1 0.057373039306787589 1 1 0.049542240266386608 1 1 1 1 0.057554000030200281 1 1 1 1 1 1 1 1 1 1 1 0.058317668103208216 0.048632129753837426 1 1 0.05427919365295563 1 1 1 0.049997858185038588 1 1 1 1 1 1 0.055578285982215384 1 1 1 0.045419845500856385 1 1 1 0.052976091343189396 1 1 1 1 1 1 1 1 1 1 1 0.053384861228773818 1 1 1 0.051153020983480228 1 1 1 1 1 1 1 0.049884014741059399 1 1 1 1 1 0.049524743845355337 1 1 1 1 1 1 1 1 1 1 1 1 1 1 1 1 1 1 1 0.059518476697371842 1 1 1 1 0.05716189106490828 1 1 0.052881209561147502 1 1 1 1 1 1 1 0.049843913768950143 1 1 1 1 1 1 1 1 0.049756537815505791 1 0.049234440145123765 1 1 0.057409855590987248 1 1 1 0.056677835071538049 1 1 0.061297705704517161 1 1 1 0.050581290092599235 1 0.051931990254398298 1 1 0.04999658682690071 1 0.060872394860228392 1 1 1 1 1 1 1 1 1 1 1 1 1 1 1 1 1 1 1 1 1 1 0.050404694024960124 1 0.049787562240290323 1 0.049951273635801159 1 1 1 1 1 1 1 1 1 1 1 1 1 1 1 0.050180534792517079 1 1 1 1 1 1 1 1 1 0.050224159232443048 1 1 1 1 1 1 1 1 1 1 1 1 1 1 1 1 1 1 1 1 1 1 1 1 1 1 1 1 1 0.050930143968389845 1 1 0.050865515480768717 1 1 1 0.054263138638874317 0.049853865102967992 1 0.051761992427073897 1 1 1 1 1 0.054446432616853412 1 1 1 1 1 0.053792636233974823 1 1 1 1 1 1 1 1 1 1 1 1 1 1 1 1 1 1 1 1 1 1 1 1 1 1 1 1 1 1 1 1 1 1 1 1 1 1 1 1 1 1 1 1 1 1 1 1 1 0.050955539449771478 1 1 1 1 1 1 1 1 1 1 1 1 1 1 1 0.05251612103369855 1 1 1 1 0.051281528170341775 1 1 1 1 1 1 1 1 1 1 1 1 1 1 1 1 1 1 1 1 1 1 1 1 1 1 1 0.052379502678962207 1 1 0.050421402504180785 1 0.053763883497239089 0.050369936491006004 0.048218702949928881 0.049832458946427245 1 1 0.04995754848270359 1 1 1 1 1 1 1 1 1 1 1 1 1 1 1 1 1 0.054609084431443786 1 1 0.055272660537571149 1 0.051939655491107246 1 1 1 1 0.057090522331813408 1 0.049416442598240767 1 1 1 1 0.050020362381025842 1 1 1 0.051010003894747802 1 1 1 1 1 0.050717726163969926 1 0.052247204877629946 1 1 0.050244274811845853 0.052385912263329434 1 0.051598423099149887 1 1 1 1 1 1 1 1 1 1 1 0.058918557752066059 1 1 1 0.056805429540143337 1 1 1 0.053102889446940152 1 1 0.056656311756448627 0.049760507617146892 0.049920833548975876 1 1 1 1 1 1 1 1 1 1 1 0.050000615030906928 1 1 1 1 1 1 1 1 0.055501780185503363 0.059348480122863374 0.054341639523921223 1 1 1 1 1 1 1 1 0.058342637883597795 0.050033381248088794 1 1 1 0.048286106785331406 1 1 0.050201780054347188 1 1 1 1 1 1 1 1 1 1 1 0.050085727208175848 1 1 1 1 1 1 1 1 0.049799581768140075 1 1 1 1 1 1 1 1 1 1 0.049990046746644271 1 0.052373100522565566 0.058252700194621337 0.049625151421462663 1 1 1 1 1 1 1 0.054979315019018919 0.061489551618098659 1 0.049331065971960783 1 1 1 1 1 0.051486205579477674 1 0.049843411819677733 0.05147671948558008 1 1 1 0.052961962782290074 1 0.054047964607883484 1 1 1 1 0.050004596536378676 1 1 1 1 1 1 1 1 1 1 1 1 1 1 1 1 1 0.052631482150099343 1 1 1 0.055195706949363058 1 1 1 1 1 0.051117691537624972 1 1 1 1 1 1 0.053735621328228428 1 0.051439449177012382 1 1 1 1 1 1 1 1 0.049171512246727382 1 1 1 0.051740833849367174 1 1 1 1 1 1 1 1 1 1 1 1 1 1 1 1 1 1 1 1 1 1 1 1 1 0.048193357974082932 0.049995567526711797 0.058899005058872266 1 1 1 1 0.047573194557899857 1 1 1 1 0.045353752019052805 1 1 1 1 1 1 1 0.051286011252669385 1 1 1 1 1 1 1 1 0.052259792681536126 1 1 1 1 1 1 1 1 1 1 1 1 0.051910936075627731 1 1 1 1 1 1 0.050034147950636217 1 1 1 1 1 1 1 1 0.049031307759099502 1 1 1 0.055726630724441867 1 1 1 1 1 1 1 1 1 1 1 1 0.050973781428866743 1 1 1 1 1 1 1 1 1 1 1 1 1 1 1 1 1 1 1 1 1 1 1 1 1 1 1 1 1 1 1 1 1 1 1 1 1 1 1 1 1 1 1 1 1 1 1 0.050065182863816164 1 1 1 1 1 1 1 1 1 1 1 1 1 1 1 1 1 1 1 1 1 1 1 1 0.051032685947886659 1 1 1 1 1 1 1 1 1 1 0.051366697980453298 1 1 0.052152095678350677 1 1 1 1 1 1 1 1 1 0.053026991772826 1 0.053594208274129196 1 1 1 1 0.052249187560236741 1 1 0.055842351311591681 1 0.050773634206619137 1 1 1 1 1 0.052812509179029341 1 1 1 1 1 1 1 1 0.053103708299235913 1 1 1 1 1 1 1 1 1 1 1 1 1 1 0.056445687709349213 1 0.054259702530292366 0.049033049130910285 1 1 1 1 1 0.049663847855814881 1 1 1 1 1 1 1 1 1 1 1 1 1 1 1 0.052263188476162806 1 1 1 1 1 1 1 1 1 1 1 1 1 1 1 1 0.049311478321175869 1 1 1 1 1 0.058973363989429921 0.050410304524526245 1 1 0.056020387328887172 1 1 1 1 1 1 1 1 1 1 0.050063640734775185 1 1 1 1 1 1 1 1 1 0.050580379332985301 1 0.065328226236050765 1 1 1 1 1 0.049786560232555337 1 1 1 1 0.065703591865993616 1 1 1 0.049114230975610317 1 1 1 0.064352910074389716 1 1 0.049150554314606971 1 1 1 1 1 1 1 1 1 1 1 1 1 1 1 1 0.050334318224888361 1 1 1 1 1 1 1 0.048916380169754622 1 1 1 1 1 1 1 1 1 1 1 1 1 1 1 1 1 1 1 1 1 1 1 1 1 1 1 0.067702278247866371 1 1 1 1 0.049733433541391044 1 1 1 0.032952929429109948 1 1 1 1 1 1 1 1 1 0.034631584775062535 1 0.05000226990284444 1 1 1 1 1 1 1 1 1 1 1 1 1 1 1 1 1 1 0.050011761372870153 0.061322949180181441 1 1 1 0.048590839222679531 1 1 0.055765695789268238 1 1 0.054375015221234023 1 1 1 0.049704431316095338 1 1 0.051588747986879104 1 1 1 1 1 1 1 1 1 1 1 1 1 1 1 1 1 1 1 1 0.049015909637271204 1 0.049345314180169263 1 1 1 1 1 1 1 1 1 1 1 0.047124442726243998 1 0.043697880199461733 1 1 1 0.058642961524389012 1 1 1 1 1 0.05013909183710924 1 1 1 1 1 1 0.052183977651395166 1 1 1 1 1 1 1 1 1 1 1 0.054907148059458913 1 1 1 1 1 1 1 1 0.054180035126284262 1 1 1 0.050252856813862053 1 1 0.057548839652623869 1 1 1 1 1 0.050678342428409247 1 1 1 1 1 1 1 1 1 0.050023458905034256 1 1 0.055079191604893496 1 0.053197347894812987 1 0.050068456401532811 0.051187389744042251 0.050376871489464584 1 0.050009067301010117 1 1 1 1 1 1 0.047929873476323957 1 1 1 1 1 1 0.050009084705666181 1 1 1 1 1 1 1 0.045585084202133218 1 1 1 1 0.043210884003954342 1 1 1 1 1 0.053188705729003881 1 0.050012041002962658 1 1 1 1 1 1 1 1 1 1 0.049997019138002856 1 1 1 1 1 1 1 0.06189980197355352 1 1 1 1 1 1 1 0.049997627068431118 1 0.049978056457678478 1 1 1 1 1 1 1 1 0.060126134802252859 1 1 1 0.074551524495615987 0.050017496201731168 1 1 1 1 1 0.05850035198776575 0.049905750804730802 1 0.055692085509789026 1 1 0.050129456388413374 1 1 0.064539757432464873 1 1 1 1 1 1 1 1 0.062031084784321913 1 1 1 1 1 0.069001174016516412 1 1 1 1 0.085061912800862435 1 1 0.080386136775667444 1 1 1 1 1 1 1 1 1 1 1 1 1 1 1 1 1 1 1 1 1 1 1 1 1 1 1 1 1 1 1 1 1 1 1 1 1 1 1 1 1 0.049146436362654256 1 1 0.05001606275594328 1 1 1 1 1 0.0514469796406513 1 1 1 1 0.049353071418610506 1 1 1 1 1 1 1 1 1 1 1 1 1 1 1 1 1 1 1 1 1 1 1 1 0.051144190048683764 1 1 1 0.050481714350824478 1 1 1 1 1 1 0.050099978861906244 1 1 1 1 1 1 1 1 1 1 1 0.051970906954877855 1 0.049894405510572545 0.050913046243757129 1 1 0.050974702884339931 1 1 1 1 1 1 1 1 1 1 1 0.053832060459704616 1 1 0.052083135438333011 1 1 1 1 1 1 1 1 1 1 1 1 1 1 1 0.052956182887800005 1 1 1 1 1 1 1 0.049979471228183803 1 0.050683507271286107 1 1 1 1 0.050542492449779451 1 0.050246061108096943 1 1 1 1 1 1 1 1 1 0.050724171572454131 1 1 1 1 1 1 1 1 1 1 1 1 1 1 1 1 1 0.050321829865793324 1 1 1 1 1 1 1 1 1 1 1 1 1 1 1 1 1 1 1 1 1 1 1 1 1 0.049996003282415311 0.050021507985736603 1 1 1 1 1 1 1 1 1 1 1 0.050141784806612112 1 1 1 1 0.049800740184572083 1 1 1 1 0.049935883064809797 1 1 1 1 1 1 1 1 0.050338564851855394 1 1 1 1 1 1 1 1 1 0.05013937537982055 1 1 1 1 1 1 1 1 1 1 1 1 1 1 1 1 1 1 1 1 0.055021893444202039 1 1 1 1 1 1 1 1 1 1 1 1 1 1 0.048436121986722133 1 0.050080634322402597 1 1 1 1 1 1 1 1 0.050204771951225392 1 1 0.050180613184308838 1 1 1 1 1 1 1 1 1 1 1 1 1 1 1 1 1 1 1 1 1 1 1 1 1 1 1 1 1 1 1 1 1 1 1 1 0.050050095850150973 1 1 0.050100887421945975 1 1 1 1 0.045742037115041691 1 0.059611603342416004 1 1 0.05705232946902964 1 0.051171910194562513 1 1 1 1 1 0.050496874421341466 1 1 1 1 1 1 1 1 1 1 1 1 0.051601872808923366 1 1 1 0.04253057409848339 1 1 1 1 1 1 1 1 1 0.055487080929725596 1 1 1 1 0.054915086967100679 0.046859119291618616 1 1 1 1 1 1 1 1 0.050072827556973273 1 1 1 1 1 0.048529817847072061 1 1 1 0.048765393931321455 1 1 1 0.053600881065305681 1 1 1 1 0.046599425821552187 1 1 1 1 1 1 1 1 1 1 1 1 1 1 0.052232228594795961 1 1 1 1 1 1 0.046156350248237284 1 0.052144201241423306 0.050001128244392734 1 0.039455993274533682 1 0.053550661370673783 1 1 1 1 0.049873425983540227 1 1 1 1 0.049607156123840063 1 1 1 1 1 1 1 1 1 0.050604762927694238 1 1 1 1 1 1 1 1 1 1 1 1 1 1 0.051279798700915279 1 1 1 0.050120522223879915 1 1 1 0.050320815935740656 1 0.049987600493589628 1 1 1 1 1 1 1 1 1 1 1 1 1 1 1 1 0.051330021328379237 1 1 1 1 1 1 0.054309511521155762 1 1 1 1 1 1 1 1 1 1 1 1 1 1 1 1 1 1 0.059363555894548059 1 1 1 1 1 1 1 1 1 1 1 1 1 1 1 1 1 1 1 1 1 1 1 1 1 1 1 1 1 1 1 1 1 1 0.048464014026894368 1 1 1 1 0.050057172541556075 1 1 1 1 1 1 1 0.058987091277965836 1 1 1 1 1 1 1 1 1 0.045985532136388473 1 1 0.065381399892422337 1 1 1 1 1 0.049992090184136806 1 1 1 0.049287640298530055 1 1 0.050801779739127244 1 1 1 1 1 1 1 1 1 1 1 1 1 1 1 1 1 1 1 1 0.049347787374893523 1 1 1 1 1 1 1 1 1 1 0.050284551493879087 0.052479137349633012 1 0.071928714201530616 1 1 1 1 1 0.074846560574350254 1 1 1 1 0.050075908769775711 1 1 1 1 1 0.049929174689039145 1 0.04995529831295472 1 1 0.049068132438904913 1 1 1 1 1 1 1 1 0.049691129208780715 1 1 1 1 1 1 0.050128627531514161 1 1 1 1 1 1 0.050264656178809562 1 1 1 1 0.050783444828511624 1 1 0.049974122841997252 1 0.051330327603608776 1 1 0.050192409466733999 1 1 1 1 1 1 0.050001630473536757 1 1 1 1 0.050055025303916652 1 1 1 1 1 1 1 1 0.050880910612750754 0.051936135154301649 1 1 1 1 1 1 1 1 0.05029147926799251 1 1 1 1 1 1 0.050141990688770843 1 1 1 1 1 1 1 0.051116504161693069 1 1 1 0.053415828499251417 1 1 1 1 1 1 1 1 1 1 1 1 0.049680472619521854 1 1 1 1 0.050842040532693325 1 1 0.049698227644843398 1 1 1 1 0.049581049715694048 1 1 1 0.050007696796499704 0.049220045939525579 1 1 1 0.050267903127158578 1 1 1 0.049321460821134068 1 1 1 1 1 1 1 1 1 0.049196530024939983 1 1 1 0.049996645765818595 1 1 1 1 1 1 1 1 1 1 1 1 0.048032655904681629 1 0.050057221130451454 1 1 0.04909067486768609 1 1 0.050159100377796514 1 1 1 1 1 1 1 0.050005552757442673 1 1 1 1 1 0.049988417703462754 1 0.04751259396294992 1 1 1 0.04682794926445151 0.055436810905014289 1 0.052610513547598325 0.04674914795282234 1 0.048660069552000862 1 1 1 1 1 1 0.050110031144770993 1 0.056877560479773728 1 1 1 1 1 1 1 1 1 1 1 1 1 0.049983094547029872 1 1 0.05340581212330385 1 0.050350617330220074 1 1 0.0561833715077623 1 1 1 0.050858511627039298 0.050551492991028256 1 1 0.056555422562120393 1 1 1 1 1 1 1 1 1 1 1 1 1 1 1 1 1 1 1 1 1 1 1 0.049770921262802754 0.049974061266758379 1 0.050104580283784061 1 0.05163882941922722 1 1 0.050000043530383051 0.048514799423968226 1 1 0.049998940321429437 1 1 0.051322891290482078 1 1 0.049458506895261926 1 0.051675331297154611 1 1 1 1 0.049983319558649007 1 1 1 1 0.05014793979995557 1 0.050845545460612852 0.050847559601820927 1 0.049882359150214703 1 1 0.054700637206424541 0.050214721050835714 1 1 1 0.051903721107685291 1 1 1 1 0.053330673098363077 0.050112629592029265 1 1 1 1 1 0.049867379903340246 1 1 1 1 1 1 1 1 1 1 1 0.04902426212961522 1 0.049904447632570806 1 0.051331648979558032 1 1 0.049999135571845849 1 0.05235610295793533 1 1 1 1 1 1 1 1 0.050924669807488269 1 1 0.049201998631246149 1 1 1 1 0.049999919146356257 1 1 1 1 1 1 1 1 1 1 1 1 0.050644733574588791 1 1 1 1 1 1 1 1 1 1 1 0.050037620143524156 1 1 1 1 1 1 0.050008795263313262 1 0.049386404074110692 1 1 0.050107663222204224 1 1 1 1 1 1 1 1 1 1 1 1 1 1 1 1 1 0.050056543565509121 0.052673771585471575 1 1 1 0.049972096182943793 1 1 0.052871622789411918 1 1 1 1 1 1 1 1 1 1 1 1 1 1 1 1 1 1 1 1 1 1 1 1 1 0.050000758521950107 0.051065313685282152 1 1 1 1 1 1 1 1 1 1 1 0.051225187968424429 1 1 1 1 1 1 1 1 1 1 1 1 1 1 1 1 1 1 1 1 1 1 1 1 1 1 1 1 1 1 1 1 1 0.050015697952317417 1 1 1 1 1 0.050017814266436665 1 1 0.049852975916973644 1 1 0.052192051312107648 0.048890759434709788 1 1 1 1 1 1 1 1 1 1 1 1 1 0.048986466237421145 1 1 0.049951142787200351 1 1 1 1 1 1 0.049999328387864923 1 1 0.049093488788019959 1 1 1 1 1 1 1 1 1 1 1 1 1 0.049811875267123308 1 1 1 1 1 1 1 0.049999353737266709 1 1 1 1 1 1 1 1 1 1 1 1 0.05001202482174727 1 1 0.050003229558434004 1 1 1 1 1 1 1 1 1 1 1 1 1 1 1 1 1 1 1 1 0.049895591174454627 1 1 0.04999735207205637 1 0.049874824468283042 1 1 1 0.050000821835152441 1 1 0.050817645647026316 1 0.050042510034821366 1 1 1 0.05057323757102819 1 1 1 1 0.050018404829387547 1 1 1 1 1 1 1 0.050052940818698044 1 1 1 0.05021627618416144 1 1 1 1 1 1 1 1 1 1 1 1 0.049983285455024083 1 1 1 1 1 1 1 1 0.050230875954911575 1 1 1 1 1 1 1 1 1 1 1 0.050401881901002234 1 1 1 1 1 1 1 1 1 1 1 1 1 1 1 1 1 1 1 0.050527299558968522 0.050174348102881496 1 1 1 0.050067808519968594 1 1 1 1 1 1 1 1 1 1 1 1 0.050028541336679659 1 1 1 1 1 1 1 1 1 0.050086871975015781 1 1 1 1 1 1 1 1 1 1 1 1 1 1 1 1 0.054035482835235654 1 0.050216191196383264 1 1 1 1 1 0.052959979109354169 1 1 1 1 0.050204301501358087 1 1 1 0.049994487889927927 1 1 1 0.050599591921336978 1 1 1 1 1 1 1 1 1 0.050661109961969812 1 1 1 0.051867876781533089 1 1 0.050277739733519365 1 1 1 1 1 1 0.050144308896233968 1 1 1 1 1 1 1 1 0.050413618164047991 1 1 1 0.050207823613500409 1 1 1 1 1 1 1 1 1 1 1 1 1 1 1 1 1 1 1 1 1 1 1 1 1 1 1 0.050152915946191229 1 1 1 1 1 1 1 0.050097992699503976 1 1 1 1 1 1 1 1 1 1 1 1 1 1 1 1 1 1 1 1 1 1 1 1 1 0.049986504703141615 1 0.050010744329563372 1 1 1 1 1 1 0.049938688315978585 1 1 1 0.049878606000495609 1 1 0.049651541512324017 1 1 1 1 1 1 1 1 1 1 1 1 0.057932352486483485 1 1 1 1 1 0.056452729583155947 1 1 1 1 1 1 1 1 1 1 1 1 1 0.049962927942400343 1 1 1 0.050028845448403761 1 1 1 1 1 1 1 1 1 1 1 1 0.050078889740293994 0.050406186984330817 1 1 1 1 0.049742990707628644 1 1 1 1 1 1 1 1 1 0.049979218211401569 0.052465272472679639 1 1 1 1 1 0.053259264057180115 1 1 1 1 1 0.050069693666645675 1 1 1 1 1 0.049994482530659731 1 0.0487983765445364 1 1 1 1 0.050797231358071085 1 0.049416786150493386 1 0.050228955843176076 0.049999918729754636 1 1 1 1 1 1 1 0.049981292295388113 0.050242538655663804 1 1 1 1 1 1 0.049999619582837621 0.053066650824898066 0.050509792450158242 1 0.049785975679637468 0.049492712869494915 1 1 1 0.049862490869598694 1 1 1 1 1 0.052608842933462428 0.050790298999689655 0.049999804159284525 1 0.049483610735083033 1 1 1 0.050001865023922357 1 0.052792199889289411 0.050013130427984887 1 1 1 1 1 1 1 0.050685716919731602 0.049128342156610993 1 1 0.053309850646696751 0.054944320027298946 0.04821059362519195 1 1 1 1 1 1 1 1 1 1 1 1 1 1 1 1 1 1 1 1 1 1 1 1 1 1 1 1 1 1 1 1 1 1 1 1 1 1 1 1 0.050010425992075044 1 1 1 1 1 1 1 1 1 1 0.05008388537569157 1 1 1 1 1 1 0.050217804041477243 1 1 0.049974488031951203 1 1 1 1 1 1 1 1 1 1 1 1 1 0.04997135691513286 1 0.04963361055148989 1 1 1 1 0.051133847007870062 1 1 1 0.058364645077600544 1 1 0.058076282285578713 1 1 1 0.04999774764719013 1 1 0.050027231924475682 1 1 1 1 1 0.050013200149088492 1 1 1 1 1 1 1 0.050003473865479833 1 1 1 1 1 1 1 0.05755617547296582 1 1 0.056959917834276348 1 1 1 1 0.049880234186266012 1 0.049974230067195043 1 1 1 1 1 0.049634581531838542 1 1 1 1 0.050207396453818338 1 1 1 1 1 1 0.050666941633681128 0.046660970349993863 1 1 1 1 1 0.054959030424432696 1 1 0.051180914296697279 1 1 1 1 1 1 1 1 1 1 0.051539674028537284 1 1 1 1 1 1 1 1 1 1 1 1 1 1 1 1 1 1 0.050517995831820331 1 1 1 1 1 1 0.049927087290115711 1 1 1 1 1 1 1 0.047553940361219328 0.049766315113565447 1 1 1 1 0.049978265111773952 1 1 1 1 1 1 1 0.048904248020580389 1 1 0.050225871117830397 1 0.052066215035558965 0.048853326629180835 0.051504473469133977 1 1 1 1 1 1 0.050186507476312273 1 1 1 1 1 0.04999928476040319 1 1 1 1 0.051042408236585915 1 1 1 0.047650039770824021 1 1 1 0.050437962317852816 1 1 1 1 1 1 1 1 1 1 1 1 1 1 1 1 1 1 1 1 1 1 1 1 1 0.050718840187300711 1 1 1 1 1 1 1 0.049943973168839362 1 0.050235115403174463 1 1 1 1 1 1 0.056509522359982745 1 1 0.050194136125100264 1 1 1 0.050009859503167463 1 1 0.050933690719477294 1 1 1 1 1 0.049957486066571154 1 1 1 0.049984570004872469 0.05023337760218842 1 1 1 1 1 1 1 1 1 1 1 1 0.049641657886440323 1 1 1 1 1 1 1 1 1 0.048739240457390857 1 1 1 1 1 0.049989576854012216 0.050777694570729594 1 1 1 1 1 1 1 1 1 0.050074886485067929 1 1 1 1 1 1 1 1 0.050488289614047832 1 1 1 1 1 1 1 1 1 1 1 1 1 1 1 1 1 1 0.050161188681847109 1 1 1 1 0.050377464866008553 1 0.050167216631709602 1 0.050002224163310488 1 1 1 1 1 1 1 1 1 1 1 1 1 1 1 1 1 0.049904937473143736 1 1 1 1 1 0.050974852146113844 1 1 1 0.049657090684755323 0.051262810568486167 1 1 1 1 1 0.050235999160181163 1 1 1 1 0.049903088382560426 1 1 1 1 1 1 1 1 0.05092110525028179 1 1 1 1 1 1 1 0.050484590022605164 1 1 1 1 1 1 1 1 1 0.049884426149838026 1 1 1 1 1 1 1 1 1 1 1 1 1 1 1 1 1 1 0.049940906904538104 1 1 1 1 1 1 1 1 1 1 1 1 1 0.049908119544718049 1 1 1 1 1 1 0.050014392574964275 1 1 0.050205794550547592 1 1 0.050002377384096394 1 1 1 1 1 1 1 1 1 1 1 1 1 1 1 1 1 1 1 1 1 1 1 1 1 1 0.050014549621760614 1 0.050423568736101335 1 0.049999882959187607 0.049123580928668906 1 1 1 0.050365224335844574 1 1 1 1 1 1 1 1 1 0.049835969532859743 0.049734211746811807 1 0.050236389575162195 1 1 1 1 1 1 1 1 1 1 1 1 1 1 0.050000017607758421 1 0.048983131026344391 0.048693941059910789 1 0.050133330000347809 1 1 1 1 1 1 1 1 1 0.046905780690068476 0.049768728860399541 1 1 1 1 1 1 1 1 1 1 1 1 1 1 1 1 1 1 1 1 1 1 0.050780369704719643 1 1 1 1 1 0.049567699139632458 1 1 1 1 1 0.04855642833196059 1 1 1 0.052616371167532719 1 1 1 1 1 1 1 1 1 0.05103538325084632 1 1 1 1 0.051142946482807386 1 1 1 1 1 1 0.047574901634002034 1 1 1 1 1 1 1 0.050133165861033058 1 1 1 1 0.04766318301685496 1 1 1 1 1 1 1 1 1 1 0.050362956368580097 1 1 1 1 0.051028487833640293 1 1 1 0.05402024103971996 1 1 1 1 1 0.048080946065882799 1 1 1 1 1 1 1 1 1 1 1 1 1 1 0.04888117846595081 0.057194959129822566 1 1 0.054862743961174236 1 1 1 1 1 1 1 0.04962013008210938 1 1 1 1 1 1 0.0499379376159561 1 1 1 1 1 1 1 1 1 1 1 1 1 1 1 1 1 1 1 1 1 1 1 0.050098637625394488 1 1 1 1 1 1 1 1 0.050057935055075595 1 1 1 1 0.050186837677662036 1 1 1 1 1 0.050572163542675255 1 0.049996277256695351 1 0.051906818731450276 1 1 1 1 1 1 1 0.049884510859362852 1 1 1 0.055948158952193357 1 1 1 1 1 0.053370906260718845 1 1 1 1 1 0.049747670277698289 1 0.050572025343171026 1 1 0.050876002273317747 1 0.049889518141907292 1 1 1 1 1 0.049790790577052962 1 1 1 0.049191406130483957 1 1 1 1 1 1 1 1 1 1 0.049488861042117978 1 1 1 1 1 1 1 1 1 1 1 1 1 1 1 1 1 1 1 1 1 1 0.053045415717964645 1 1 1 1 1 1 1 1 1 1 1 1 1 1 1 1 1 1 0.057943891953819986 1 1 1 0.061482310666943263 1 1 1 1 1 1 0.071064041178403398 1 1 1 0.051771507150335572 0.054422417798392048 1 0.06162969058751705 1 0.0506523281717298 0.059232594887510967 1 0.058382674146130048 1 1 0.053648178369688188 1 1 0.048059058483029028 0.053914952338634088 1 1 1 1 1 1 1 1 0.051651537340684089 1 0.051559540672385884 1 1 1 1 1 1 1 1 1 1 1 1 1 1 1 1 1 1 1 1 1 1 0.054198068228490097 1 1 1 1 1 1 1 1 0.056092855728046155 1 1 0.050029245698420495 1 1 0.057346702951248857 0.050090886523443345 1 1 0.050025359925716328 1 1 1 1 1 1 1 1 1 1 1 1 1 1 1 1 1 1 1 1 1 1 1 1 1 1 1 1 1 1 1 1 1 1 1 1 1 1 1 0.081922871833632241 1 0.076746922665028625 1 1 1 1 1 1 1 1 1 1 1 1 1 1 1 1 1 1 1 1 1 1 1 1 1 1 1 1 1 1 1 1 1 1 1 1 1 1 1 1 0.051802011799226909 1 1 0.051684642221966046 1 1 1 1 1 0.04962778891421106 1 0.049919244898072535 1 1 0.049515650168941196 1 1 1 1 1 1 0.045617202291984918 1 1 1 1 1 1 1 1 1 1 1 0.049950243028797386 1 1 0.057754841091208306 0.079542121905587279 1 0.090725751159540735 1 1 0.041856528661454145 1 1 1 1 0.086493766360824342 1 1 1 1 1 1 1 1 1 0.050032905269768946 1 0.047086121151187113 1 1 1 1 1 1 1 0.050036484725543749 1 0.043467120559957911 1 1 1 1 1 1 1 1 1 0.049792838031829934 1 0.04520990958344686 1 1 1 1 1 1 1 1 1 1 0.049355023920681938 1 1 1 0.045802165020516934 1 1 0.050002892939295225 1 1 0.053309994759893717 1 1 1 1 0.051958233178768562 1 1 1 0.049987984809132115 1 1 1 1 1 1 1 1 1 1 1 1 1 1 0.050647733086813494 1 1 1 1 1 1 0.051675073376503927 1 0.049217646048811126 1 0.084520275389702693 1 1 1 0.050871797048759736 1 1 1 1 1 1 1 1 0.088697525427917603 1 1 1 1 1 0.050016610951235496 1 1 0.090980173468693554 1 1 1 1 1 1 1 1 1 0.055488900174378977 1 1 1 0.051814194677466625 1 1 1 1 1 1 0.059103074278845875 1 1 1 1 1 1 1 1 1 1 1 1 1 1 1 1 1 1 1 1 1 1 1 1 1 1 1 1 1 1 1 0.051985949710720687 1 1 1 1 1 0.050429207223455348 1 1 0.048968859688711577 0.050949399621160019 1 1 1 1 0.051255391818015895 1 1 1 1 1 0.049823951834995252 1 1 1 1 1 1 1 1 1 1 1 1 1 1 1 1 0.050784112240703325 1 1 1 1 1 1 1 1 0.051378674220448492 0.053133281860691654 1 1 1 1 1 1 0.052676755936832208 1 1 1 1 0.051674438648043039 1 1 1 1 1 1 1 1 1 1 1 1 1 1 1 1 1 1 1 1 1 1 1 1 0.05188720478266786 1 1 0.050685367312650498 1 1 1 1 1 1 1 1 1 1 1 1 1 1 1 1 1 1 1 1 1 1 1 1 1 1 1 0.050828312315681232 1 0.052370900859037131 1 1 1 1 1 0.054918457198818063 1 1 1 1 1 1 1 1 1 1 1 1 1 1 1 1 1 1 1 1 0.052804799663554093 0.051941047471853262 1 0.05384387330883364 1 1 1 1 1 1 1 1 1 1 1 1 1 1 1 1 0.053888564931475348 1 1 1 0.051808271877204201 1 1 1 1 1 1 1 1 1 1 1 1 1 0.052547556339780928 1 1 1 1 1 1 1 1 1 1 1 1 1 1 1 1 1 1 1 1 1 1 0.075670471747247822 1 1 1 1 1 1 1 1 1 1 1 1 1 0.075262550358190392 1 0.062752977513295227 1 1 0.06970795970005797 0.060886034050353921 1 1 1 1 1 1 1 1 1 1 1 1 1 1 1 1 1 1 1 1 0.049297984122972233 1 1 0.064844794129324396 1 1 1 0.050144828519189388 1 1 1 1 1 1 0.064212693906529755 1 1 1 0.050066928856481126 1 1 1 1 1 1 1 1 0.050014038444032134 1 1 0.05139926676972649 1 1 0.055761354240723232 1 0.055559563522284673 1 1 1 1 0.055591240052189565 0.06592309805500593 1 1 0.049605448085563351 0.06583995890024591 1 1 0.055228686278980955 1 1 1 1 0.050021012961342738 1 1 0.054599348713389111 0.049937921864193616 1 0.050003794725572752 1 1 1 1 1 1 1 1 1 1 1 1 1 1 1 1 1 1 1 1 0.04987424541679529 1 1 1 1 0.050352550139265047 1 1 1 1 0.049957348199356572 0.050143345749755451 1 1 1 1 1 1 1 1 1 1 1 1 0.050054454759694611 1 1 1 0.059490853529131443 1 1 1 1 1 1 1 0.061008260648016913 1 1 1 0.049442717392951363 1 1 0.04999742446456195 0.049868831911209617 1 1 1 0.061868382510737695 1 1 1 0.04995869283982482 1 1 1 1 1 1 1 1 1 1 1 1 1 1 1 1 1 1 0.050212525259064604 1 1 1 1 1 1 1 1 1 1 1 1 1 1 1 1 1 1 0.049927186226655457 0.050605667502214388 1 1 1 1 1 0.05096203899816798 0.049779080025920359 1 0.051320697199984833 1 1 1 1 1 1 1 1 1 0.08172878106901002 1 1 1 0.078863075410041755 1 1 1 1 1 1 1 1 1 1 1 1 1 1 0.062561326740440376 1 1 1 1 1 1 1 0.072840771543039945 1 1 0.075900259051049121 1 1 1 1 1 1 0.056633798133442811 1 1 1 1 0.0586828996603945 1 1 1 1 1 1 0.048867978736070225 1 1 1 1 1 1 1 1 0.049917310533411391 0.054640051170803484 1 1 1 0.051442978786816279 0.048806193093521313 1 1 1 1 1 0.050471579133701691 1 1 1 1 1 1 0.050280161832453873 1 1 1 1 0.050057163600932417 1 1 1 1 1 0.05012362311041077 1 1 1 1 0.047686990880130578 1 1 1 1 1 1 1 1 1 1 1 1 1 1 1 1 1 1 1 1 1 1 1 1 1 0.049966191800160834 1 1 1 1 0.062218745317460557 1 0.051118443533465792 1 0.067521288425132747 1 1 0.049512600796549538 1 1 0.048785446705468985 1 1 0.049724703352377678 1 1 1 1 1 1 0.043949124480469164 1 1 0.046912037375712881 1 0.050830890364575512 0.04947572727035035 0.048315093977101042 1 1 0.051000862965077026 1 0.050612017086772806 0.050696335220567927 1 1 1 0.049876213005276421 1 0.049993209651918918 1 1 1 1 1 1 0.050529346878853396 1 1 1 0.049988545261397496 1 1 1 1 1 1 1 0.049915770539506785 1 1 1 0.05222042216485015 1 0.039750544140280966 0.041769680472547741 1 1 1 1 1 1 1 0.050487494003786902 1 1 1 1 1 1 1 1 0.049828262456208278 0.051584707675596961 1 1 1 1 0.052635514045388548 1 1 0.052617141125248248 1 1 1 0.049999868327075279 1 1 1 0.052018227700706673 0.050554891596168439 1 1 1 1 0.049880407065926835 1 1 1 1 1 0.050880769982711502 0.051748923452757181 1 1 1 1 1 1 1 1 1 1 1 1 1 1 1 1 1 1 1 1 1 1 1 1 1 1 1 1 1 1 1 0.05105243958243913 1 1 1 0.050053027848568334 1 1 1 1 1 1 1 1 1 1 1 1 1 1 1 0.052034156373101284 1 0.049803300412296941 0.048129211487540464 1 1 0.052444321963616439 1 1 1 1 1 1 1 1 1 1 1 1 1 1 1 1 1 1 1 1 1 1 1 0.049671329902440844 1 1 0.051403978630469888 0.050024228852941395 1 1 1 1 1 1 1 0.050831186247239334 1 1 1 0.049259323612916586 1 1 1 1 0.049923225509784494 0.049973957920451631 1 1 1 1 1 1 1 0.052025708777830609 1 1 1 1 0.051265499192176905 1 1 1 1 0.050188549917197359 1 1 1 1 1 1 1 1 1 1 1 1 1 1 1 1 1 1 1 0.049686281526199833 1 1 1 1 1 1 1 1 1 1 1 1 1 1 1 1 0.049559643120974911 1 1 1 0.049845682974306138 1 1 1 1 1 1 1 1 1 0.050438109100180754 1 1 1 1 1 1 1 1 1 1 1 1 1 1 1 1 1 1 1 1 1 0.050327606514769946 1 1 1 1 1 1 1 1 1 1 1 1 1 1 1 1 1 0.050872469527807399 1 1 1 1 1 0.049946040873647242 1 1 1 1 1 1 1 1 1 1 1 1 1 1 1 1 1 1 1 1 1 1 1 1 1 1 1 0.049872706325429721 1 1 0.039924171557386409 1 1 1 0.038263263534173794 1 1 1 1 1 1 1 1 1 1 1 1 1 1 1 0.03796535726506018 1 0.051362761110071917 1 1 1 1 1 1 1 1 1 0.04085302068291808 1 1 1 1 1 1 1 1 1 0.048618300987480427 0.044461185047905485 1 1 1 1 1 1 1 1 1 1 1 1 1 1 1 1 1 1 1 1 1 1 1 1 1 1 1 1 1 1 1 1 1 1 1 1 1 1 1 1 1 1 1 1 1 1 1 1 1 1 1 1 1 1 1 1 1 1 1 1 1 1 1 1 1 1 1 1 1 1 1 0.048732647748004634 1 1 1 1 1 1 0.046430631342784523 1 1 1 1 1 1 1 1 1 0.048243631490723964 1 0.046316284582260323 1 1 1 1 1 1 1 1 1 1 1 1 1 1 1 1 1 1 1 1 1 1 1 1 1 1 1 1 1 1 1 1 1 1 0.05093503683423109 1 1 1 0.050667408279785622 0.049554299876403612 1 1 1 1 1 1 1 1 1 1 1 1 1 1 1 1 1 1 1 1 1 1 0.050416514458702308 0.050423352761528283 1 1 1 1 1 1 1 1 0.048722248754558481 1 1 1 1 1 1 0.049039415226380424 1 1 1 1 1 0.05052531933809435 1 1 1 1 0.050184164632966349 1 1 1 0.043722837845661368 1 1 1 0.045857913355342853 1 1 0.048006011776330813 1 1 1 1 1 1 1 1 1 1 1 1 1 0.050223800062121987 1 1 1 1 1 1 1 1 0.050921891755826572 1 1 1 1 1 1 1 1 1 1 1 0.049855937263426874 1 1 1 0.049959107015505086 1 1 1 1 0.050805807734710717 1 1 1 1 1 1 1 1 0.050509713315542909 1 0.048593245235626775 1 1 0.052673871585007775 1 1 1 1 1 0.049581630414213096 1 1 1 1 1 1 1 1 1 1 1 1 0.050237967513140629 1 1 1 1 1 1 1 1 1 0.050962555768206338 1 1 1 1 1 1 0.049522677761857731 1 1 1 1 1 1 1 0.050254006927592153 1 1 1 1 1 0.050491974440732765 1 1 1 1 1 1 1 1 1 1 1 1 1 1 1 1 1 1 1 1 1 1 1 1 1 1 1 1 1 1 1 1 1 1 1 1 1 1 1 1 1 1 1 1 1 1 1 0.050094820700467585 1 0.050080187168224537 1 1 1 1 1 1 1 1 1 1 1 1 1 1 0.049976200213264529 1 1 1 1 1 1 1 1 1 1 1 1 1 1 1 0.052386298940733544 1 1 0.050522805079812223 1 0.048226800768485879 1 1 1 1 1 0.050347790259458652 1 1 1 1 1 1 1 1 1 1 1 1 1 1 1 1 1 1 1 1 0.053711513401982415 1 1 1 1 1 1 1 1 1 1 1 0.053238928045421616 1 0.050083574087675317 1 1 0.052398792752894142 1 0.058196180550648471 1 1 1 1 1 1 1 0.049984871567525957 1 0.054363941553831611 1 1 1 1 0.054267602151713439 1 1 1 1 0.050262516470608032 0.050725111165256159 1 1 0.047555111326644695 1 1 1 1 1 1 1 1 1 1 1 1 1 1 1 1 0.04985751047910137 1 1 1 1 1 1 1 1 1 1 1 1 1 1 0.049579633176972622 1 0.05006175490670467 1 1 1 1 1 1 1 0.058736465624257037 1 0.059344702172942493 1 1 1 1 1 1 1 1 1 0.050039114536299112 0.057907416649581073 1 1 1 0.056305667589259478 1 1 1 1 0.060281495460115631 1 0.054537457813121151 1 1 0.05017037589342653 1 0.059816672178682743 0.060190441846861842 0.050065743947006636 1 1 0.050000962513197737 1 1 1 0.050194066185710956 0.053543964181624937 0.048430857894301488 1 1 1 1 1 1 1 1 1 1 1 0.049076075645042974 1 1 1 1 1 1 0.061337155198869162 1 1 1 0.050019535337220859 1 1 1 1 1 1 1 1 0.049511197876591126 1 1 1 0.049828974347958833 1 1 1 1 1 1 1 1 1 1 1 1 1 1 1 1 1 1 1 1 1 1 1 1 1 1 1 1 1 1 1 1 1 1 1 1 1 1 1 1 1 1 1 1 1 1 1 1 1 1 1 1 1 1 1 1 1 1 1 1 0.051528071768631563 1 1 1 1 1 0.053987199532271865 1 1 1 1 0.051119250351329013 1 1 1 0.054543978383252721 1 1 1 1 1 1 1 1 1 1 1 1 1 1 1 1 1 1 1 1 1 1 1 1 1 1 1 1 1 1 1 1 1 1 1 1 1 1 1 1 0.05233268888939812 1 1 0.05595889541217846 1 1 1 1 1 1 1 0.049629247488705133 1 1 1 1 1 1 1 1 1 1 1 0.048335493161359155 1 1 0.05002950471485107 1 0.051794879227894691 1 1 1 0.058075202120810368 1 1 1 1 1 1 1 1 0.049845055250148179 1 1 1 1 0.049441056251375966 1 1 1 1 0.057336163113020262 1 0.051449775135743787 1 1 1 1 1 1 1 1 1 1 1 1 0.05291544839284857 1 0.05527791114744425 1 1 1 1 1 1 1 1 1 1 1 1 1 0.050104496525699968 1 1 1 1 1 1 1 1 1 0.050295098309705237 1 1 1 0.050190601784005286 1 1 1 1 1 1 1 1 1 1 1 1 1 1 1 1 1 1 1 1 1 1 1 1 1 1 1 1 1 1 1 1 1 1 1 0.050079786677292078 1 1 0.049976257164661815 1 1 1 1 0.051260904581528058 1 1 1 1 1 1 1 1 1 1 1 1 1 1 1 0.050539377759957232 1 1 1 1 1 1 1 1 1 0.050434397752039672 1 0.050280958563925726 1 1 1 1 1 1 1 0.050455219657839126 1 1 1 1 1 1 1 1 1 1 1 1 1 1 0.051008373798442169 1 1 1 1 1 1 1 1 1 1 1 0.052430381309374954 1 1 1 1 1 1 1 1 1 1 1 1 1 1 1 1 1 1 1 1 1 1 1 0.049890935286674189 1 0.049670298215700508 1 1 1 1 1 1 0.052624840235409462 1 0.051272661261565516 1 1 1 0.052580894956911026 1 1 1 0.048051476161783548 1 1 1 0.052631227226247565 1 1 0.04829890965083599 1 1 1 1 1 1 1 0.04924333987491461 1 1 1 1 1 1 1 0.055064330325029769 1 1 1 1 1 1 1 1 1 1 1 1 1 0.051309561995004083 1 1 1 1 1 1 1 1 0.055731714189886448 1 1 1 1 1 1 1 1 1 1 1 1 1 1 1 1 1 1 1 1 0.05343884561773829 1 1 1 1 1 1 1 1 1 1 1 1 1 1 1 1 1 1 1 1 1 1 1 1 1 1 1 1 1 1 1 1 1 1 1 1 1 1 1 1 1 1 1 1 1 1 1 1 1 1 0.049271543998239034 1 0.053068957678198789 1 1 1 0.050137924679282991 1 1 0.049896253488433934 0.053975620165232316 1 0.047752404128801058 1 1 1 1 1 1 1 1 1 1 1 1 1 1 1 1 1 1 1 1 1 1 1 1 1 1 1 1 1 1 1 1 1 1 1 0.049750990098361203 1 1 1 1 0.048667345285303656 1 1 0.051444048078683496 1 1 1 0.05091302040610686 1 1 1 1 0.047310102884849527 1 0.050056880721345322 0.054906091819865707 1 1 1 1 0.05414448550255585 1 1 1 0.046749035851943885 1 1 1 0.051784724041746388 1 1 1 1 1 1 0.049997859995867283 1 1 1 1 1 1 1 1 1 1 1 1 1 1 1 1 1 1 1 1 0.049032973776277064 1 1 1 1 1 1 1 1 1 1 1 1 1 1 1 1 1 1 0.049614001021497475 1 1 0.048937294509556882 1 1 0.060181235583078301 1 1 1 1 1 1 1 1 1 1 1 0.04819267898805861 1 1 1 1 0.050197222430251189 1 1 1 1 0.051999565155771477 1 1 1 0.051327101004089215 1 1 1 1 1 1 1 1 1 1 1 1 1 1 1 1 1 1 1 1 1 1 1 1 1 0.050603955791039865 1 1 1 1 1 1 1 1 0.051324298462237884 1 1 1 0.059563035368881523 1 1 1 1 1 1 1 1 1 1 1 1 1 1 1 1 1 1 1 1 1 1 1 1 0.047597869168939252 1 1 1 0.051808642882376979 1 1 1 1 1 1 1 1 0.04794055291474196 1 1 0.050962207571673218 1 1 1 1 0.050256167576789551 1 1 1 1 1 1 1 0.058706137287781394 1 0.04815988072200212 1 1 0.046386411271209002 1 1 0.061437577040706945 0.049999018609926782 1 1 1 1 1 1 1 1 1 1 1 1 1 1 1 1 1 1 1 1 1 0.053035818667050656 1 1 1 1 0.055864986447789269 1 1 1 1 1 1 1 1 1 1 1 1 1 0.051161302435681608 1 1 0.05001827813171307 1 1 1 1 1 1 1 1 1 1 1 1 1 1 1 1 1 1 1 1 1 1 1 1 1 1 1 1 1 1 1 1 1 1 1 1 1 1 1 1 1 1 1 1 1 1 1 1 1 1 1 1 1 1 1 1 1 1 1 1 1 1 1 1 1 1 1 1 1 1 1 1 1 1 1 1 1 1 1 1 1 1 1 1 1 1 1 1 1 1 1 1 1 1 1 1 1 1 1 1 1 1 1 1 1 1 1 1 1 1 1 1 1 1 1 1 1 1 1 1 1 1 1 1 1 1 1 1 0.049448412974342236 1 1 1 1 1 1 1 0.049263639333309225 1 1 1 1 1 1 1 1 1 0.048180159989991783 1 0.054165636868594137 1 1 1 0.051870801447981549 1 1 0.052684221971662185 1 1 1 1 1 1 1 1 1 1 1 1 1 1 1 1 1 1 1 1 1 1 1 1 1 1 1 1 1 1 1 1 1 1 1 1 1 0.049066082292309902 1 1 0.052585390809112002 0.046966389542202183 1 1 0.049692012732853549 1 1 0.056729962761062694 1 1 1 0.055126625680066682 1 1 1 1 1 1 1 1 1 0.051907672703977559 1 1 1 1 1 1 0.049792467941718821 1 1 1 1 1 1 1 1 1 1 1 1 1 1 1 1 1 1 1 1 1 1 1 1 1 1 1 1 1 1 1 0.047781791269580459 1 1 1 1 1 1 1 1 1 1 1 1 1 1 1 1 1 1 1 1 1 1 1 1 1 1 1 1 1 1 1 1 1 1 1 1 1 1 1 1 1 1 1 1 1 1 0.056367925096619781 1 0.050175623988238785 1 1 1 1 0.050002336626698604 1 1 1 1 0.055562738586793281 1 1 1 1 0.049894935948056773 1 1 1 1 1 1 1 1 0.050290800292762776 1 1 0.050102712522187086 1 0.050131292547419111 1 1 1 1 0.050526681706861518 1 1 0.05092513951666304 0.051940855598571749 1 1 1 1 1 1 0.050017909991152069 1 1 1 1 1 1 1 1 1 1 0.050704903795100564 0.054969547175871263 1 1 1 1 1 0.055145175215063583 1 1 0.050280266265869317 1 1 1 1 0.05067543907077908 1 1 0.050000486044590009 1 1 1 1 1 1 1 1 1 1 1 1 1 1 1 1 1 1 1 1 1 1 1 1 1 1 1 1 1 0.050026350534920452 1 0.050007723304319039 1 1 1 1 1 1 1 1 1 1 1 1 1 0.049983789566907938 1 1 1 1 0.059818986706384886 0.060185277160004214 1 1 1 1 1 1 1 1 1 1 1 1 1 1 1 1 1 1 1 1 1 1 1 1 1 1 1 1 1 1 1 1 1 1 1 1 1 1 1 1 1 1 0.050033456436367772 1 1 1 0.050049666869459837 1 1 1 1 1 1 1 1 1 1 1 1 1 1 1 1 1 1 1 1 0.059427760783210049 1 1 0.058999025599806756 1 1 1 1 1 1 1 1 1 0.05000040547015 1 1 1 1 1 0.056657736259357563 1 1 1 1 1 0.0499439618498798 1 0.049926636531085686 1 1 1 1 1 1 1 1 1 1 1 1 1 0.051695858326626321 1 1 1 0.053629185168277443 0.056008830399442516 1 1 1 1 1 1 1 1 0.050000350275927169 1 1 0.054533525754554737 1 1 0.050000859151854274 0.051951072453123096 1 1 1 1 1 0.049965117227510882 1 1 1 1 1 1 1 0.050519114034597058 1 1 0.051186260410713412 0.050386539893451467 1 1 1 1 1 1 0.053747565082001125 0.048763496814607635 1 1 1 0.051479152809060361 1 1 1 1 1 1 1 0.051355670767778708 1 1 1 1 1 1 1 1 1 1 1 1 1 1 1 1 1 1 1 1 1 1 1 1 1 1 0.056607090511108925 1 1 1 1 1 1 1 0.050006524097382002 1 1 1 1 1 1 1 1 1 1 1 0.056613350247163706 1 1 1 1 1 1 1 1 0.051061515410099977 1 1 1 1 1 1 1 1 1 1 1 1 1 1 1 1 0.051199658681979107 1 1 1 0.05065355517356053 1 1 1 1 1 0.053058504855252084 1 1 1 1 1 1 1 1 1 1 1 1 1 1 0.049776373917387567 1 1 1 1 0.049259630264106284 1 1 0.04860011529414917 1 1 1 1 1 0.049986214518050548 1 1 1 1 1 1 1 1 1 1 1 1 1 1 0.050081384630963323 1 0.047585166812619061 1 1 1 0.050900732690758579 1 0.051252303724172756 1 0.050612235098665984 1 1 1 1 1 1 0.050040599698891186 0.053963610451880556 1 1 1 1 1 1 0.054226628105172689 1 0.050193769063429969 1 1 1 1 1 1 1 1 1 1 1 1 1 1 1 1 1 0.053162168040163403 1 1 1 0.049897471256803369 0.053155834505764624 1 1 1 1 1 0.050551116928630263 1 1 0.050025087760983591 0.050247727952825623 1 1 1 1 1 1 1 1 1 1 1 1 1 1 1 1 1 1 1 1 1 1 1 1 1 1 1 1 1 1 1 1 1 1 1 1 1 1 1 1 1 1 1 1 0.04666917682852971 1 1 0.054010909831113632 0.052355572898262412 0.050421053144751954 1 1 1 1 1 1 0.049849461164867506 1 1 1 1 1 1 1 1 1 0.050244081852637609 1 1 1 0.048871482423465798 1 1 1 1 1 1 1 1 1 1 1 1 1 1 1 1 1 1 1 1 0.050152319700692713 1 1 1 1 0.050219458899727579 1 1 1 1 1 1 1 1 1 1 1 1 1 1 1 1 1 1 1 1 1 1 1 1 1 1 1 1 1 1 1 1 1 1 0.049675921476843979 1 0.050206683729469612 1 1 1 1 1 1 1 1 0.050390590676200928 1 1 1 0.04936064473036373 1 0.050183906946731319 1 1 1 1 1 1 1 1 0.055296834661425681 1 1 1 1 0.052092034507737743 1 1 1 1 0.050129313715324884 1 1 1 1 1 1 1 0.050955910017437447 1 1 1 1 0.050511319555632317 1 1 1 1 1 1 1 1 1 1 1 1 1 1 1 1 1 1 1 1 1 1 1 1 1 1 1 1 1 1 1 1 1 1 1 1 1 1 1 1 1 1 1 1 1 1 0.050371192874828469 1 1 1 1 0.050000845425957174 0.050223612809534149 1 1 0.050465553138761554 0.050512747755839041 1 1 1 1 1 1 1 1 1 1 1 1 1 1 1 1 1 1 1 0.05024193077649905 1 1 1 0.050059733899470445 0.050000359394221643 1 1 1 1 1 1 1 1 1 1 1 1 1 1 1 1 1 1 1 1 1 1 1 1 1 1 1 0.050173982600398279 1 1 1 1 1 1 1 0.049917982122217763 1 1 1 1 1 1 1 1 1 1 1 1 1 1 1 0.049508648905538938 1 1 1 1 1 1 1 1 0.050357666343601983 1 0.049710220817786616 0.050930449261319954 1 1 1 1 1 1 1 1 1 1 1 1 0.050407960236539442 1 1 1 1 1 1 1 1 1 1 1 1 1 1 1 1 1 1 0.05558194723910382 1 1 1 0.050541224419436231 1 1 1 1 1 1 1 1 0.050179994671898813 1 1 1 1 1 1 1 1 1 1 1 1 1 1 1 0.051010160767576612 1 1 1 0.050353355702763572 1 1 1 1 1 1 1 1 1 1 1 1 1 1 1 1 1 1 1 1 1 1 1 1 1 1 1 1 1 1 1 1 1 0.050310008533365286 1 0.05013618107708482 1 1 1 1 1 1 1 1 0.049982384279803511 1 1 1 1 1 1 1 1 1 0.049918426992845266 1 1 0.049960618339836782 1 1 1 1 1 0.04997436471961976 1 1 1 1 0.049996352282224946 1 1 1 1 0.049425976832666411 1 1 1 0.049929880697226606 1 0.049194067159225321 1 1 0.049649950502678827 1 1 1 1 1 1 1 1 1 1 1 1 1 1 0.049998746768139715 1 1 0.050004193523343558 1 0.049991123471122619 1 1 1 0.050014364717693702 1 1 0.048354466819057376 1 1 1 1 0.050589116550271956 1 0.050246759605597241 1 1 1 1 1 1 0.050091351842106543 1 0.050065989132409359 1 1 1 1 1 0.057232704490657552 1 1 1 1 0.050312588129841108 1 1 1 1 1 1 0.057085357728531953 1 1 1 1 1 1 1 1 1 1 1 1 1 1 1 1 1 1 1 1 1 1 1 1 1 1 1 1 1 1 1 1 1 0.050023715994234205 0.049994611930549576 1 1 1 1 1 1 1 1 1 1 0.057182093284354876 1 1 0.050025547153003593 0.056470288565813445 1 0.049998356396764157 1 1 1 1 1 1 1 0.056394212178237368 1 1 1 1 1 1 1 1 1 1 1 1 0.049271377434180308 1 1 1 1 0.04974910502180821 1 1 1 1 1 1 1 1 1 1 1 1 0.051233688461231844 1 1 1 1 1 1 1 1 1 1 1 1 1 1 1 1 1 0.051060432217229626 1 1 1 1 1 0.050308558110053039 1 1 1 0.05231199681861682 1 1 1 1 1 1 0.051572565502100785 1 0.051576555412059126 1 1 1 0.051083597782970967 1 1 1 1 1 1 1 1 1 0.05308970521894911 1 1 0.050025726911697613 1 1 1 1 1 1 1 0.050624480416011967 1 1 1 1 1 1 1 1 1 1 1 1 1 0.04920968722013995 1 1 0.050089345234558588 1 1 1 1 1 1 0.049933397101320005 1 1 1 1 1 1 0.054442168430338493 1 1 1 1 1 1 1 0.05627596984830132 1 1 1 1 1 1 1 1 1 1 1 1 1 1 1 1 1 1 1 1 1 1 0.050409007156349286 1 1 1 1 1 1 1 1 1 1 0.051585474209064897 1 1 1 1 0.051197441682003596 0.050774705302155804 1 1 1 1 0.050651087723218392 1 1 1 1 1 1 1 1 1 0.050527354556469589 1 1 1 1 1 1 1 1 1 1 1 0.052841406307208169 1 1 1 0.051080726825734168 1 1 1 0.051061765799791325 1 1 1 1 1 1 1 1 1 1 1 1 0.051967744319291076 1 1 1 1 1 0.049997060214652903 1 1 0.049977892409973565 1 1 1 1 1 1 1 1 1 1 1 1 1 1 0.052215781747570397 1 1 1 1 1 1 1 0.055925276862507881 1 1 1 0.058253057500332529 1 1 1 1 1 0.049957594755934046 1 1 1 1 1 1 1 1 1 0.04997676256061339 1 1 1 1 1 1 1 1 0.059617898788632918 1 1 1 1 1 0.050335937310468162 1 1 1 1 1 1 1 0.050137873048950135 1 1 1 1 1 1 1 1 1 1 1 1 1 1 1 1 1 1 1 1 1 1 1 1 1 1 1 1 1 1 1 1 1 1 1 1 1 1 1 1 1 1 1 1 1 1 1 1 0.051363911732528002 1 1 1 1 1 1 1 0.050492070180981563 1 1 1 1 1 1 1 1 1 1 1 1 1 1 1 1 1 1 1 1 1 1 0.05034249879976023 0.050240923637949762 1 1 0.051478121846916157 0.054059527731623314 1 1 1 1 1 1 1 0.056199609877308501 1 1 1 1 1 1 1 1 1 1 1 1 1 1 0.050127718153631942 1 1 1 1 1 1 1 1 0.05001365332209954 1 1 0.050031169332507966 1 1 1 0.050097134487043324 1 1 1 1 1 1 1 1 1 1 1 1 1 1 1 1 1 1 1 1 1 1 1 1 1 1 1 1 0.049897610388971982 1 1 1 1 1 1 1 1 0.049995909865846844 1 1 1 1 1 1 0.049572014065754226 0.049985981313041224 1 1 1 1 0.050005989967615884 1 1 0.049808565242011452 1 1 0.049399459438435663 1 1 1 1 1 1 0.049999119663689903 1 1 1 1 1 1 1 1 0.050000204955889652 1 1 1 1 1 1 1 1 1 1 1 0.050001251933333067 1 1 0.050001046588986513 1 1 1 1 1 1 1 0.049988621372044496 1 1 1 0.049997945038009743 1 0.050022362368094216 1 0.049995216531146372 1 1 1 1 1 1 1 1 1 1 1 1 1 1 1 1 1 0.049967606533355066 1 0.049999939724120868 1 1 1 1 1 1 1 1 1 1 0.050021561901601279 1 1 1 1 1 1 1 0.050061016821627544 1 1 1 0.04999808605019198 1 0.051089141526089614 0.050990093441364015 1 1 0.052473174219064229 1 1 1 1 0.0504516365060034 1 1 1 0.051114618567469947 1 1 1 0.050785858248503048 1 0.052136497513749019 0.048862848049076535 1 1 1 1 1 1 0.052535426844384656 1 1 1 1 1 1 1 1 0.047713912196824838 0.050000150216268302 0.048960571567651733 1 0.046562407159234917 1 1 0.05424559089046347 0.050000255085686771 1 1 0.060616336471057727 1 1 1 1 1 1 1 1 1 1 1 0.049993660524750398 1 1 1 1 1 1 1 1 1 1 1 1 1 0.049354575653681225 0.048352145822337891 1 1 1 1 0.049095845945255435 1 1 1 0.050372413066205678 1 1 1 1 1 0.049235695009188729 0.0499993326778208 1 1 1 0.050947510306096129 1 1 1 1 1 1 1 1 1 1 1 1 1 1 1 0.050600567026149776 1 1 1 0.050714716071483389 1 1 1 0.050285752489039964 1 1 1 1 1 1 0.0523423688413195 1 1 1 1 1 0.051885326682746272 1 1 1 1 1 1 1 1 0.050002433595738138 1 1 1 1 1 1 1 1 1 0.050008261100462623 1 1 1 1 0.050003305471567158 1 0.050005627359086327 1 1 0.049822338493065978 1 0.050343609476825785 1 1 1 1 1 1 0.050195029303761268 1 0.050004049296967557 0.050509771038872789 1 1 1 1 1 1 1 1 0.052531794552575839 1 0.050085221272482078 1 0.050027867549805899 1 0.049763798869939403 1 1 1 1 1 1 1 1 1 1 1 0.050282152542591635 1 1 1 0.050241910300850887 1 1 1 1 1 1 1 1 0.049959757758259254 1 1 1 1 1 1 1 1 1 0.050317377129760893 1 1 1 1 0.052958927308484616 1 1 0.057543882769639787 1 1 1 1 1 1 1 1 1 0.061468940444631595 1 1 1 0.060120632629313372 1 1 1 1 1 1 1 1 1 1 1 1 1 1 1 1 1 1 1 0.062121406880606349 1 1 1 1 1 1 1 1 1 1 0.049763582692740491 1 1 1 1 1 1 1 1 1 1 1 1 1 1 1 1 1 1 1 1 1 1 1 1 1 1 1 1 1 1 1 1 1 1 1 1 1 1 1 1 1 1 1 1 1 0.047581520127415462 0.050004482412629156 1 1 1 1 1 1 1 1 1 1 1 1 1 0.045925910246043637 0.054865890630725396 1 1 1 0.053489290011735711 1 1 0.047945048305793783 1 1 1 0.046009518974193746 1 1 1 0.047475542395909329 1 1 1 1 1 1 1 1 0.050146847504329746 1 1 0.04970071060488572 1 0.051816701336044699 0.049935810387088608 1 1 1 1 1 1 0.048262698301478224 1 0.051087855243647985 0.04985964876401601 0.04998028795800015 1 1 0.050529284824093003 1 1 0.04755878777151637 0.047523824688569756 1 1 1 1 1 1 1 1 1 1 1 1 1 1 1 1 1 1 1 1 1 0.062670596796619293 1 1 1 1 1 1 1 1 1 0.05017840311926379 1 1 1 1 1 1 1 0.050751540678293822 0.06306808710179912 1 1 1 1 1 1 1 1 1 1 1 1 1 1 1 1 1 1 1 1 1 1 1 0.049509044733492512 1 0.050011714784022138 1 1 1 1 1 1 1 0.049267579510560731 1 1 1 0.051917971256147152 0.067511550089931455 1 1 0.051395552100080746 1 1 1 1 0.051636651429956298 1 1 1 0.065802445181385436 1 1 1 0.047596682592636733 1 1 1 1 1 1 1 1 1 0.045958286285190858 0.052321940548636522 1 1 1 1 1 0.049519449997052739 1 1 0.050467812283827081 0.04619261362111883 0.046029138191229814 1 1 1 1 1 0.063064764779565269 1 1 1 1 1 1 1 1 1 0.050128120167923056 1 0.050054415786860845 1 1 1 1 1 1 1 1 1 1 1 1 1 1 1 1 1 1 1 1 1 1 1 1 0.051054277345846957 1 1 1 1 0.049142635413163244 0.053198697566921443 1 1 1 0.047496472092880299 1 1 1 1 1 1 1 1 1 1 1 1 1 1 1 1 0.06023792718021985 1 1 1 0.050017018988602668 1 1 0.061556959147796159 1 1 1 1 1 1 1 1 1 1 1 1 1 0.055337327414594746 1 1 0.057361338555769387 1 1 1 0.056636225244573069 1 0.049246390012102188 1 0.050128556438817903 1 0.047627063804725624 0.058582491166319237 0.050034958320812326 1 1 1 1 1 1 1 1 0.050454463812333206 1 1 1 1 1 1 1 1 0.063737198639960135 1 1 0.042044610238571922 1 1 1 1 1 1 1 1 1 1 1 1 1 1 1 1 1 1 1 1 1 0.052283675591363592 1 1 1 1 1 1 1 1 1 1 0.051424997117696339 1 0.046412312595643865 1 1 0.051217131737445569 1 0.056101580629822061 1 0.049969332146958541 1 1 0.049959778335412749 1 0.05822389949184547 1 1 0.05094147939088689 1 1 1 0.049582091075231698 1 1 1 1 1 1 1 1 1 1 1 1 1 1 1 1 1 1 1 1 1 1 1 1 1 1 1 1 1 1 1 1 1 1 1 1 1 1 1 1 1 1 1 1 1 1 1 1 1 1 1 1 1 1 1 1 1 1 1 1 1 0.052887591536340366 1 1 0.058095081130391628 1 1 1 1 1 1 0.048365578837174177 0.055271808485137172 1 1 1 1 1 1 1 1 1 1 1 1 1 1 1 1 1 1 0.056207112872177507 1 1 1 0.05004683092120131 1 1 1 1 1 1 1 1 1 1 1 1 1 1 1 1 0.049947833276234588 1 1 1 1 1 1 1 0.057316380834452216 1 1 1 1 1 1 1 1 0.055282411608686001 1 0.050252498128922247 1 1 1 1 1 1 1 1 1 1 1 1 1 1 1 1 0.053182041767907015 1 1 1 1 1 1 1 0.058386954301894348 1 1 1 1 0.048989666745974748 1 1 1 1 1 1 1 0.046287024486666502 1 1 0.054142937945348558 0.049976731500011841 1 1 0.060116664227388907 1 1 1 1 1 1 0.062112407122720065 1 1 1 1 1 1 1 1 1 0.047319086327173486 1 1 0.050043043262978419 1 1 0.049928684069695695 1 1 0.053340009089725957 1 1 1 1 1 0.052511848448058007 1 1 1 1 1 1 1 1 0.05002723951032622 1 1 1 1 1 1 1 0.050070568803968221 1 1 1 1 1 1 1 1 1 1 1 1 0.050499073792439252 1 1 1 1 1 1 1 0.04994283271519212 0.049943576619875973 1 0.033724704681823897 1 0.044672143503901571 1 1 1 1 1 1 1 1 1 1 1 1 1 1 1 0.049996619612599755 1 0.04446620579430613 1 1 1 1 1 1 1 1 0.059159130585642768 1 0.049989430084848914 1 0.045482198669259406 1 0.061226769778988804 1 0.049699568769355773 1 1 0.049995567230889805 1 1 1 1 1 0.049912990772499222 1 1 1 1 1 1 1 1 0.050060860616598007 1 1 1 1 1 0.050188769429409599 1 1 0.033775704538347044 1 0.050690044450811975 0.047952966926026096 1 1 1 1 1 1 1 1 0.049972753466602612 1 1 1 1 1 1 1 1 1 1 1 1 1 0.057733217877151369 1 1 1 1 1 1 1 0.050600637846073562 1 1 1 0.05059978842617683 1 1 1 1 1 1 1 1 1 1 1 1 1 1 1 1 1 0.049651763726111291 1 1 1 1 1 1 1 0.049824105915688338 1 1 0.052909071880329506 1 1 1 1 1 1 1 1 1 1 1 1 1 1 1 0.052193049275686257 1 1 1 1 0.04947191624352934 1 1 1 1 1 1 1 1 1 1 1 1 1 1 1 1 1 1 1 1 1 1 1 1 1 0.045849083029325693 1 1 1 1 1 1 0.049851692730820581 1 1 1 1 1 1 1 1 1 0.044582725969567964 0.052655009246780203 1 1 1 0.05109064587414152 1 0.049606674601234545 1 1 1 1 1 1 1 1 1 1 1 1 1 1 1 0.051069255705425046 1 1 1 1 1 1 1 1 1 1 1 1 0.050260474207098241 0.050722164432786203 1 1 1 1 1 1 1 1 0.052899084065306995 1 1 0.049884679846696124 1 1 0.054451946855127949 0.047932048424544703 1 1 1 1 1 1 1 0.051906488013446654 1 1 1 1 1 1 1 1 1 0.050461690225687965 1 1 1 0.05061342242934163 1 1 1 1 1 0.050242148345615661 1 1 1 1 1 1 1 1 1 1 1 1 0.049558613031965383 1 1 1 0.049734557617612571 1 1 1 0.051556322920418764 1 1 1 1 1 1 1 1 1 1 1 1 1 1 1 1 1 1 1 1 1 1 1 1 1 1 1 1 1 1 1 1 0.049464774828982316 1 1 1 1 1 1 1 1 1 1 1 1 1 1 1 1 1 1 1 1 1 1 1 1 0.050459234871487235 1 0.05002487070436254 1 1 0.044528286059729284 1 1 1 1 1 1 1 1 1 0.051405167509722863 1 1 1 1 1 1 1 1 1 1 1 1 1 1 0.04641515782082592 1 1 1 1 0.048195858142920246 1 1 1 0.049500957339282586 1 1 1 1 1 1 1 1 1 1 1 1 1 1 1 1 1 1 1 1 1 1 1 1 1 1 1 1 1 1 1 1 1 1 1 1 1 1 1 1 1 1 1 1 1 1 1 1 1 1 1 1 1 1 1 1 1 1 1 1 1 1 1 1 1 1 1 1 1 1 1 1 1 1 1 1 1 1 1 1 1 1 1 1 1 1 1 1 1 1 1 1 1 1 1 1 1 1 1 1 1 1 1 1 1 1 1 1 1 1 1 1 1 1 1 1 1 1 1 1 1 1 1 1 1 1 1 1 1 1 1 1 1 1 1 1 1 1 1 1 1 1 1 1 1 1 1 1 1 1 1 1 1 1 1 1 1 1 1 1 1 1 1 1 1 1 1 1 1 1 1 1 1 1 1 1 1 1 1 1 1 1 1 1 1 1 1 1 1 0.065736044698934668 1 1 1 1 1 1 1 1 1 1 1 1 1 1 1 1 0.050870139987541953 1 1 1 1 1 1 1 1 0.06041632286792363 1 1 1 1 0.049471973859938456 1 1 1 1 1 1 1 1 1 1 1 1 1 1 1 1 1 1 1 1 1 1 0.050442697597844116 1 1 1 1 1 1 1 1 1 1 1 1 1 0.048410418768258093 0.064441872403571715 1 1 1 1 1 0.060186508210676615 1 0.045529441759732447 1 1 1 1 1 1 1 1 1 1 1 0.053643451215499224 1 1 1 1 1 1 1 0.072320337810128338 1 1 1 1 1 1 1 1 1 1 1 1 1 1 1 0.05050479007099902 0.06978283738114878 1 1 1 1 1 1 1 1 1 1 1 1 0.047417905885570898 1 1 1 1 1 1 1 1 1 1 1 1 1 1 1 1 0.049170411245590524 1 1 1 1 1 1 1 0.066713984044660529 1 1 1 1 1 1 1 1 1 1 0.050116487196816023 0.063053207689865082 1 1 1 1 1 1 1 1 1 1 1 1 1 1 1 1 1 1 1 1 1 1 1 1 1 1 1 1 1 1 0.052131936389632615 1 1 1 1 1 0.053015143142349307 1 1 1 1 1 1 1 1 1 1 0.051322590956308312 1 1 1 1 0.049589677616366769 1 1 1 1 1 1 1 1 1 1 0.05273655776375008 1 0.051044005577709078 1 1 1 1 1 1 1 1 1 1 1 1 1 1 1 1 1 1 1 1 1 1 1 1 1 1 1 1 1 1 1 0.050270173874037392 1 1 1 1 1 0.050774963945036417 1 1 1 1 1 1 1 1 1 1 1 1 1 1 1 1 1 1 0.050362393917014227 1 1 0.06616830631356152 1 1 1 0.050129070294119858 1 1 1 1 1 0.071449055418601595 1 1 1 1 1 1 1 1 1 1 0.055375661126746946 1 1 1 1 1 1 0.049772752525141399 1 1 1 1 1 0.071096154725698746 0.049854198133571941 1 1 0.069571099886550483 1 1 0.050499323586157739 1 1 1 1 1 1 1 1 1 1 0.050710250993162717 1 1 0.050915412758479724 1 1 0.051403733599243648 1 1 0.051429167675592469 1 1 0.049425533888689817 1 1 0.05093570284101797 1 1 1 1 1 1 0.049027597540320385 1 1 1 1 1 1 1 1 1 1 1 0.067546862477075476 1 1 1 1 1 1 1 0.050596628414184289 1 1 1 1 0.049860074138783871 1 1 1 0.064668401414389259 1 1 1 1 1 1 1 1 1 1 1 0.049508777061730236 1 1 1 1 1 1 1 1 1 1 1 1 1 1 1 1 1 1 1 1 1 1 1 1 0.049964875303054601 1 1 1 1 1 0.050004599738464071 1 1 1 1 1 1 1 1 1 1 1 1 1 1 0.05075409679337077 1 1 0.049121651023880539 1 0.055858082428224674 1 1 1 1 0.057973598682968128 1 0.049886090219420601 0.046664702549362377 1 0.047409284400749825 1 1 1 1 1 1 1 0.050008470695220728 1 0.04979306386959801 1 1 1 1 1 1 0.050158153236409375 1 1 1 1 1 1 0.050197152955071378 1 1 1 1 0.050567039984467467 1 1 1 1 1 0.049898272404374604 1 1 0.050025574015771027 1 1 1 1 0.050838939645193829 1 1 1 1 0.050028282045852773 1 1 1 1 1 1 0.050098258106525309 1 1 1 1 1 1 1 1 1 0.05040656844617921 1 1 1 1 1 1 0.05020643645404118 1 1 1 1 0.050445873998932377 1 1 1 1 1 1 1 1 1 1 1 1 1 1 1 1 0.049823877322246968 1 1 1 0.049727329800598623 1 1 0.056267131401826792 1 1 1 1 1 1 1 1 1 1 1 1 1 1 1 1 0.049995328929020248 1 0.055156018151635504 1 1 1 1 1 1 1 1 1 1 1 1 1 1 1 1 1 1 1 1 1 1 1 1 1 1 0.059625499329251992 1 1 0.053842208899519961 1 1 1 1 1 1 1 1 1 1 0.051990059887370571 1 1 1 1 0.050129734499329517 1 1 1 1 0.050134405570309279 1 1 1 1 1 1 1 1 1 0.051871321397727738 1 1 1 1 1 1 1 1 1 1 1 1 1 1 1 1 1 1 1 1 1 1 1 1 1 1 1 1 
</DataArray>
</CellData>
</Piece>
</UnstructuredGrid>
</VTKFile>
