<?xml version="1.0"?>
<VTKFile type="UnstructuredGrid" version="0.1" byte_order="LittleEndian">
<UnstructuredGrid>
<Piece NumberOfPoints="31246" NumberOfCells="11002">
<Points>
<DataArray type="Float64" NumberOfComponents="3" format="ascii">
-0.50000000000000122 -0.48626226177556231 0 -0.5 -0.5 0 -0.47744677215909281 -0.48586902102723523 0 -0.5 -0.5 0 -0.47744677215909281 -0.48586902102723523 0 -0.43703850519391679 -0.50000000000000278 0 -0.50000000000000122 -0.48626226177556231 0 -0.47744677215909281 -0.48586902102723523 0 -0.50000000000000122 -0.48626226177556231 0 -0.48837032897421379 -0.47833512104644849 0 -0.47744677215909281 -0.48586902102723523 0 -0.50000000000000122 -0.48626226177556231 0 -0.49146454090854219 -0.4689652822595915 0 -0.5 -0.45947040656488303 0 -0.50000000000000122 -0.48626226177556231 0 -0.48837032897421379 -0.47833512104644849 0 -0.49146454090854219 -0.4689652822595915 0 -0.48837032897421379 -0.47833512104644849 0 -0.49146454090854219 -0.4689652822595915 0 -0.48021754227705432 -0.46921944800154552 0 -0.48837032897421379 -0.47833512104644849 0 -0.48021754227705432 -0.46921944800154552 0 -0.47744677215909281 -0.48586902102723523 0 -0.48021754227705432 -0.46921944800154552 0 -0.47744677215909281 -0.48586902102723523 0 -0.46669504855264982 -0.47411166219005851 0 -0.47744677215909281 -0.48586902102723523 0 -0.45489354431818457 -0.48547578027890798 0 -0.47744677215909281 -0.48586902102723523 0 -0.45489354431818457 -0.48547578027890798 0 -0.43703850519391679 -0.50000000000000278 0 -0.47744677215909281 -0.48586902102723523 0 -0.45489354431818457 -0.48547578027890798 0 -0.46669504855264982 -0.47411166219005851 0 -0.45489354431818457 -0.48547578027890798 0 -0.46669504855264982 -0.47411166219005851 0 -0.45579808238157821 -0.47072871740384009 0 -0.45489354431818457 -0.48547578027890798 0 -0.44201605671313399 -0.47822975049830801 0 -0.43234031647727622 -0.48508253953058089 0 -0.45489354431818457 -0.48547578027890798 0 -0.44755174516591978 -0.47302044260482001 0 -0.44201605671313399 -0.47822975049830801 0 -0.45489354431818457 -0.48547578027890798 0 -0.45579808238157821 -0.47072871740384009 0 -0.44755174516591978 -0.47302044260482001 0 -0.45579808238157821 -0.47072871740384009 0 -0.44755174516591978 -0.47302044260482001 0 -0.44150376996323493 -0.4669915145680098 0 -0.44118509719073001 -0.47397445435401558 0 -0.44150376996323493 -0.4669915145680098 0 -0.43366881692063142 -0.47765610974492489 0 -0.44755174516591978 -0.47302044260482001 0 -0.44118509719073001 -0.47397445435401558 0 -0.44150376996323493 -0.4669915145680098 0 -0.44755174516591978 -0.47302044260482001 0 -0.44118509719073001 -0.47397445435401558 0 -0.44201605671313399 -0.47822975049830801 0 -0.44118509719073001 -0.47397445435401558 0 -0.44201605671313399 -0.47822975049830801 0 -0.43366881692063142 -0.47765610974492489 0 -0.45489354431818457 -0.48547578027890798 0 -0.43234031647727622 -0.48508253953058089 0 -0.43703850519391679 -0.50000000000000278 0 -0.45489354431818457 -0.48547578027890798 0 -0.43234031647727622 -0.48508253953058089 0 -0.44664769923267927 -0.45303951004926701 0 -0.45038812783291587 -0.4394282604525962 0 -0.43664419314036101 -0.43620938163177569 0 -0.44664769923267927 -0.45303951004926701 0 -0.43664419314036101 -0.43620938163177569 0 -0.43399900571453209 -0.45178150049850879 0 -0.44664769923267927 -0.45303951004926701 0 -0.4370815665284552 -0.46337550336760891 0 -0.43399900571453209 -0.45178150049850879 0 -0.44664769923267927 -0.45303951004926701 0 -0.45805437768563673 -0.45314318602980719 0 -0.4370815665284552 -0.46337550336760891 0 -0.45805437768563673 -0.45314318602980719 0 -0.4370815665284552 -0.46337550336760891 0 -0.44150376996323493 -0.4669915145680098 0 -0.45805437768563673 -0.45314318602980719 0 -0.4370815665284552 -0.46337550336760891 0 -0.44150376996323493 -0.4669915145680098 0 -0.46511930162733889 -0.45926534423876397 0 -0.44150376996323493 -0.4669915145680098 0 -0.45805437768563673 -0.45314318602980719 0 -0.46511930162733889 -0.45926534423876397 0 -0.45579808238157821 -0.47072871740384009 0 -0.44150376996323493 -0.4669915145680098 0 -0.46511930162733889 -0.45926534423876397 0 -0.46669504855264982 -0.47411166219005851 0 -0.45579808238157821 -0.47072871740384009 0 -0.46511930162733889 -0.45926534423876397 0 -0.45805437768563673 -0.45314318602980719 0 -0.46511930162733889 -0.45926534423876397 0 -0.47902718884281831 -0.44291086869200552 0 -0.45805437768563673 -0.45314318602980719 0 -0.47902718884281831 -0.44291086869200552 0 -0.45805437768563673 -0.45314318602980719 0 -0.46443179948845359 -0.43800270507739131 0 -0.47902718884281831 -0.44291086869200552 0 -0.44664769923267927 -0.45303951004926701 0 -0.45038812783291587 -0.4394282604525962 0 -0.46443179948845359 -0.43800270507739131 0 -0.44664769923267927 -0.45303951004926701 0 -0.46443179948845359 -0.43800270507739131 0 -0.44664769923267927 -0.45303951004926701 0 -0.45805437768563673 -0.45314318602980719 0 -0.46443179948845359 -0.43800270507739131 0 -0.46511930162733889 -0.45926534423876397 0 -0.47902718884281831 -0.44291086869200552 0 -0.4887348332914429 -0.45153917390951809 0 -0.48021754227705432 -0.46921944800154552 0 -0.46511930162733889 -0.45926534423876397 0 -0.4887348332914429 -0.45153917390951809 0 -0.46511930162733889 -0.45926534423876397 0 -0.4887348332914429 -0.45153917390951809 0 -0.48021754227705432 -0.46921944800154552 0 -0.46669504855264982 -0.47411166219005851 0 -0.46511930162733889 -0.45926534423876397 0 -0.49146454090854219 -0.4689652822595915 0 -0.5 -0.45947040656488303 0 -0.4887348332914429 -0.45153917390951809 0 -0.49146454090854219 -0.4689652822595915 0 -0.48021754227705432 -0.46921944800154552 0 -0.4887348332914429 -0.45153917390951809 0 -0.47902718884281831 -0.44291086869200552 0 -0.49999999999999978 -0.43267855135420391 0 -0.5 -0.45947040656488303 0 -0.4887348332914429 -0.45153917390951809 0 -0.49999999999999978 -0.43267855135420391 0 -0.47902718884281831 -0.44291086869200552 0 -0.4887348332914429 -0.45153917390951809 0 -0.49999999999999978 -0.43267855135420391 0 -0.47902718884281831 -0.44291086869200552 0 -0.49999999999999978 -0.43267855135420391 0 -0.48221589974422779 -0.42296590010551549 0 -0.49999999999999978 -0.43267855135420391 0 -0.50000000000000155 -0.40792909513363901 0 -0.48221589974422779 -0.42296590010551549 0 -0.50000000000000155 -0.40792909513363901 0 -0.47888139771345339 -0.41656785451713441 0 -0.50000000000000155 -0.40792909513363901 0 -0.47888139771345339 -0.41656785451713441 0 -0.48221589974422779 -0.42296590010551549 0 -0.50000000000000155 -0.40792909513363901 0 -0.48221589974422779 -0.42296590010551549 0 -0.50000000000000155 -0.40792909513363901 0 -0.47888139771345339 -0.41656785451713441 0 -0.48523795207419068 -0.40261987222061291 0 -0.47888139771345339 -0.41656785451713441 0 -0.47060689193340433 -0.42576656779493222 0 -0.48221589974422779 -0.42296590010551549 0 -0.47888139771345339 -0.41656785451713441 0 -0.48523795207419068 -0.40261987222061291 0 -0.47329317342806781 -0.40581336687804759 0 -0.47888139771345339 -0.41656785451713441 0 -0.47329317342806781 -0.40581336687804759 0 -0.46810494572993111 -0.41519780141367668 0 -0.46443179948845359 -0.43800270507739131 0 -0.48221589974422779 -0.42296590010551549 0 -0.46443179948845359 -0.43800270507739131 0 -0.47060689193340433 -0.42576656779493222 0 -0.48221589974422779 -0.42296590010551549 0 -0.46443179948845359 -0.43800270507739131 0 -0.47902718884281831 -0.44291086869200552 0 -0.48221589974422779 -0.42296590010551549 0 -0.47888139771345339 -0.41656785451713441 0 -0.47060689193340433 -0.42576656779493222 0 -0.45776279542690718 -0.42638861807445511 0 -0.5 -0.38187796089046422 0 -0.50000000000000144 -0.39849265348142099 0 -0.48211600502069152 -0.3760246097946216 0 -0.50000000000000144 -0.39849265348142099 0 -0.48211600502069152 -0.3760246097946216 0 -0.50000000000000144 -0.39849265348142099 0 -0.48523795207419068 -0.40261987222061291 0 -0.48211600502069152 -0.3760246097946216 0 -0.50000000000000155 -0.40792909513363901 0 -0.50000000000000144 -0.39849265348142099 0 -0.48523795207419068 -0.40261987222061291 0 -0.48523795207419068 -0.40261987222061291 0 -0.47329317342806781 -0.40581336687804759 0 -0.47128289689518682 -0.38940204097588438 0 -0.48523795207419068 -0.40261987222061291 0 -0.48211600502069152 -0.3760246097946216 0 -0.47128289689518682 -0.38940204097588438 0 -0.48211600502069152 -0.3760246097946216 0 -0.47128289689518682 -0.38940204097588438 0 -0.46272413438504778 -0.37197463574957518 0 -0.45666452308407002 -0.38403218141984879 0 -0.46272413438504778 -0.37197463574957518 0 -0.4468028840339533 -0.37260501215794462 0 -0.47128289689518682 -0.38940204097588438 0 -0.45666452308407002 -0.38403218141984879 0 -0.46272413438504778 -0.37197463574957518 0 -0.47329317342806781 -0.40581336687804759 0 -0.47128289689518682 -0.38940204097588438 0 -0.45802941365459171 -0.39913142839865517 0 -0.47128289689518682 -0.38940204097588438 0 -0.45666452308407002 -0.38403218141984879 0 -0.45802941365459171 -0.39913142839865517 0 -0.47329317342806781 -0.40581336687804759 0 -0.45802941365459171 -0.39913142839865517 0 -0.4624824163512955 -0.41202136618506952 0 -0.44099050176866039 -0.40146257059613788 0 -0.44448328645156998 -0.38704778981718452 0 -0.42826734873076489 -0.39057865011278309 0 -0.45802941365459171 -0.39913142839865517 0 -0.44099050176866039 -0.40146257059613788 0 -0.44448328645156998 -0.38704778981718452 0 -0.45802941365459171 -0.39913142839865517 0 -0.44099050176866039 -0.40146257059613788 0 -0.45070919959982558 -0.41340366927254929 0 -0.44448328645156998 -0.38704778981718452 0 -0.4468028840339533 -0.37260501215794462 0 -0.43074289611824362 -0.37317088890264333 0 -0.45666452308407002 -0.38403218141984879 0 -0.45802941365459171 -0.39913142839865517 0 -0.44448328645156998 -0.38704778981718452 0 -0.45666452308407002 -0.38403218141984879 0 -0.44448328645156998 -0.38704778981718452 0 -0.4468028840339533 -0.37260501215794462 0 -0.45038812783291587 -0.4394282604525962 0 -0.46443179948845359 -0.43800270507739131 0 -0.45776279542690718 -0.42638861807445511 0 -0.46443179948845359 -0.43800270507739131 0 -0.47060689193340433 -0.42576656779493222 0 -0.45776279542690718 -0.42638861807445511 0 -0.47888139771345339 -0.41656785451713441 0 -0.45776279542690718 -0.42638861807445511 0 -0.45776279542690718 -0.42638861807445511 0 -0.46810494572993111 -0.41519780141367668 0 -0.4624824163512955 -0.41202136618506952 0 -0.47888139771345339 -0.41656785451713441 0 -0.45776279542690718 -0.42638861807445511 0 -0.46810494572993111 -0.41519780141367668 0 -0.47329317342806781 -0.40581336687804759 0 -0.46810494572993111 -0.41519780141367668 0 -0.4624824163512955 -0.41202136618506952 0 -0.45802941365459171 -0.39913142839865517 0 -0.4624824163512955 -0.41202136618506952 0 -0.45070919959982558 -0.41340366927254929 0 -0.45776279542690718 -0.42638861807445511 0 -0.4624824163512955 -0.41202136618506952 0 -0.45070919959982558 -0.41340366927254929 0 -0.45776279542690718 -0.42638861807445511 0 -0.45070919959982558 -0.41340366927254929 0 -0.44231460729048711 -0.42200616904748672 0 -0.44099050176866039 -0.40146257059613788 0 -0.45070919959982558 -0.41340366927254929 0 -0.43784518156242103 -0.41315198363952732 0 -0.45070919959982558 -0.41340366927254929 0 -0.43784518156242103 -0.41315198363952732 0 -0.44231460729048711 -0.42200616904748672 0 -0.45776279542690718 -0.42638861807445511 0 -0.43664419314036101 -0.43620938163177569 0 -0.45776279542690718 -0.42638861807445511 0 -0.44231460729048711 -0.42200616904748672 0 -0.43664419314036101 -0.43620938163177569 0 -0.45038812783291587 -0.4394282604525962 0 -0.45776279542690718 -0.42638861807445511 0 -0.43664419314036101 -0.43620938163177569 0 -0.43664419314036101 -0.43620938163177569 0 -0.42861166672292078 -0.42087719261912659 0 -0.41681292690822419 -0.43279026451406849 0 -0.44231460729048711 -0.42200616904748672 0 -0.43664419314036101 -0.43620938163177569 0 -0.42861166672292078 -0.42087719261912659 0 -0.42861166672292078 -0.42087719261912659 0 -0.41144021897243532 -0.41306919613259407 0 -0.42660858061278928 -0.40546190233612822 0 -0.43784518156242103 -0.41315198363952732 0 -0.44231460729048711 -0.42200616904748672 0 -0.42861166672292078 -0.42087719261912659 0 -0.43784518156242103 -0.41315198363952732 0 -0.42861166672292078 -0.42087719261912659 0 -0.42660858061278928 -0.40546190233612822 0 -0.44099050176866039 -0.40146257059613788 0 -0.43784518156242103 -0.41315198363952732 0 -0.42660858061278928 -0.40546190233612822 0 -0.42861166672292078 -0.42087719261912659 0 -0.41144021897243532 -0.41306919613259407 0 -0.41681292690822419 -0.43279026451406849 0 -0.41144021897243532 -0.41306919613259407 0 -0.41681292690822419 -0.43279026451406849 0 -0.4015513766708001 -0.42597864477089009 0 -0.44448328645156998 -0.38704778981718452 0 -0.42826734873076489 -0.39057865011278309 0 -0.43074289611824362 -0.37317088890264333 0 -0.42826734873076489 -0.39057865011278309 0 -0.41358042077863538 -0.37938841648031058 0 -0.43074289611824362 -0.37317088890264333 0 -0.42826734873076489 -0.39057865011278309 0 -0.42660858061278928 -0.40546190233612822 0 -0.41103717769915732 -0.39543872985330791 0 -0.44099050176866039 -0.40146257059613788 0 -0.42826734873076489 -0.39057865011278309 0 -0.42660858061278928 -0.40546190233612822 0 -0.41144021897243532 -0.41306919613259407 0 -0.42660858061278928 -0.40546190233612822 0 -0.41103717769915732 -0.39543872985330791 0 -0.42826734873076489 -0.39057865011278309 0 -0.41103717769915732 -0.39543872985330791 0 -0.41358042077863538 -0.37938841648031058 0 -0.41103717769915732 -0.39543872985330791 0 -0.41358042077863538 -0.37938841648031058 0 -0.39510960463242001 -0.38671376529896728 0 -0.41358042077863538 -0.37938841648031058 0 -0.39510960463242001 -0.38671376529896728 0 -0.39911670822999479 -0.37041026879710348 0 -0.39510960463242001 -0.38671376529896728 0 -0.39911670822999479 -0.37041026879710348 0 -0.38203136194084147 -0.36823636963525358 0 -0.41103717769915732 -0.39543872985330791 0 -0.39510960463242001 -0.38671376529896728 0 -0.39078101206139199 -0.40918545344444501 0 -0.41144021897243532 -0.41306919613259407 0 -0.41103717769915732 -0.39543872985330791 0 -0.39078101206139199 -0.40918545344444501 0 -0.39510960463242001 -0.38671376529896728 0 -0.37588905238984671 -0.38965774263405911 0 -0.39078101206139199 -0.40918545344444501 0 -0.37588905238984671 -0.38965774263405911 0 -0.39078101206139199 -0.40918545344444501 0 -0.3708690937488785 -0.41264268432870499 0 -0.39510960463242001 -0.38671376529896728 0 -0.37588905238984671 -0.38965774263405911 0 -0.38203136194084147 -0.36823636963525358 0 -0.4015513766708001 -0.42597864477089009 0 -0.39078101206139199 -0.40918545344444501 0 -0.38654214193229702 -0.43333435118488739 0 -0.41144021897243532 -0.41306919613259407 0 -0.4015513766708001 -0.42597864477089009 0 -0.39078101206139199 -0.40918545344444501 0 -0.39078101206139199 -0.40918545344444501 0 -0.38654214193229702 -0.43333435118488739 0 -0.3708690937488785 -0.41264268432870499 0 -0.38654214193229702 -0.43333435118488739 0 -0.37478178800645029 -0.4456876482273574 0 -0.36476515059176751 -0.42972235092762079 0 -0.38654214193229702 -0.43333435118488739 0 -0.3708690937488785 -0.41264268432870499 0 -0.38654214193229702 -0.43333435118488739 0 -0.40221519011571538 -0.45402601804106968 0 -0.37478178800645029 -0.4456876482273574 0 -0.4015513766708001 -0.42597864477089009 0 -0.38654214193229702 -0.43333435118488739 0 -0.40221519011571538 -0.45402601804106968 0 -0.38654214193229702 -0.43333435118488739 0 -0.40221519011571538 -0.45402601804106968 0 -0.40221519011571538 -0.45402601804106968 0 -0.39258715260215837 -0.4675375217044393 0 -0.37859331801532692 -0.46185509652680878 0 -0.40221519011571538 -0.45402601804106968 0 -0.39258715260215837 -0.4675375217044393 0 -0.41788823829913058 -0.47471768489725441 0 -0.40221519011571538 -0.45402601804106968 0 -0.37859331801532692 -0.46185509652680878 0 -0.37478178800645029 -0.4456876482273574 0 -0.39258715260215837 -0.4675375217044393 0 -0.37859331801532692 -0.46185509652680878 0 -0.37970953243293287 -0.4733593997003081 0 -0.37859331801532692 -0.46185509652680878 0 -0.37970953243293287 -0.4733593997003081 0 -0.36722472811782231 -0.47009183302341873 0 -0.37970953243293287 -0.4733593997003081 0 -0.39212923621454499 -0.48314512326483738 0 -0.36801322721481211 -0.48416742398203633 0 -0.39258715260215837 -0.4675375217044393 0 -0.37970953243293287 -0.4733593997003081 0 -0.39212923621454499 -0.48314512326483738 0 -0.38882486861964483 -0.5 0 -0.39212923621454499 -0.48314512326483738 0 -0.36637023412995912 -0.49157256163241903 0 -0.39212923621454499 -0.48314512326483738 0 -0.36637023412995912 -0.49157256163241903 0 -0.36801322721481211 -0.48416742398203633 0 -0.39212923621454499 -0.48314512326483738 0 -0.36637023412995912 -0.49157256163241903 0 -0.38882486861964483 -0.5 0 -0.39212923621454499 -0.48314512326483738 0 -0.40755092103475959 -0.48743446854026112 0 -0.38882486861964483 -0.5 0 -0.41293168690678078 -0.5 0 -0.40755092103475959 -0.48743446854026112 0 -0.39212923621454499 -0.48314512326483738 0 -0.41788823829913058 -0.47471768489725441 0 -0.40755092103475959 -0.48743446854026112 0 -0.39212923621454499 -0.48314512326483738 0 -0.41788823829913058 -0.47471768489725441 0 -0.39258715260215837 -0.4675375217044393 0 -0.39212923621454499 -0.48314512326483738 0 -0.41788823829913058 -0.47471768489725441 0 -0.41788823829913058 -0.47471768489725441 0 -0.40755092103475959 -0.48743446854026112 0 -0.4274633717465246 -0.48735884244862793 0 -0.41293168690678078 -0.5 0 -0.40755092103475959 -0.48743446854026112 0 -0.4274633717465246 -0.48735884244862793 0 -0.41293168690678078 -0.5 0 -0.4274633717465246 -0.48735884244862793 0 -0.43703850519391679 -0.50000000000000278 0 -0.4274633717465246 -0.48735884244862793 0 -0.43234031647727622 -0.48508253953058089 0 -0.43703850519391679 -0.50000000000000278 0 -0.4274633717465246 -0.48735884244862793 0 -0.43703850519391679 -0.50000000000000278 0 -0.44150376996323493 -0.4669915145680098 0 -0.41788823829913058 -0.47471768489725441 0 -0.43366881692063142 -0.47765610974492489 0 -0.44150376996323493 -0.4669915145680098 0 -0.41788823829913058 -0.47471768489725441 0 -0.41788823829913058 -0.47471768489725441 0 -0.4274633717465246 -0.48735884244862793 0 -0.43366881692063142 -0.47765610974492489 0 -0.41788823829913058 -0.47471768489725441 0 -0.4274633717465246 -0.48735884244862793 0 -0.4274633717465246 -0.48735884244862793 0 -0.43234031647727622 -0.48508253953058089 0 -0.43366881692063142 -0.47765610974492489 0 -0.44201605671313399 -0.47822975049830801 0 -0.43234031647727622 -0.48508253953058089 0 -0.43366881692063142 -0.47765610974492489 0 -0.44150376996323493 -0.4669915145680098 0 -0.41788823829913058 -0.47471768489725441 0 -0.4370815665284552 -0.46337550336760891 0 -0.41788823829913058 -0.47471768489725441 0 -0.4370815665284552 -0.46337550336760891 0 -0.42334018983018468 -0.46065055022412971 0 -0.42334018983018468 -0.46065055022412971 0 -0.43399900571453209 -0.45178150049850879 0 -0.42266780307861851 -0.44789551954806578 0 -0.4370815665284552 -0.46337550336760891 0 -0.42334018983018468 -0.46065055022412971 0 -0.43399900571453209 -0.45178150049850879 0 -0.43664419314036101 -0.43620938163177569 0 -0.41681292690822419 -0.43279026451406849 0 -0.42266780307861851 -0.44789551954806578 0 -0.43664419314036101 -0.43620938163177569 0 -0.43399900571453209 -0.45178150049850879 0 -0.42266780307861851 -0.44789551954806578 0 -0.41681292690822419 -0.43279026451406849 0 -0.40221519011571538 -0.45402601804106968 0 -0.42266780307861851 -0.44789551954806578 0 -0.41681292690822419 -0.43279026451406849 0 -0.4015513766708001 -0.42597864477089009 0 -0.40221519011571538 -0.45402601804106968 0 -0.40221519011571538 -0.45402601804106968 0 -0.41788823829913058 -0.47471768489725441 0 -0.42334018983018468 -0.46065055022412971 0 -0.40221519011571538 -0.45402601804106968 0 -0.41788823829913058 -0.47471768489725441 0 -0.40221519011571538 -0.45402601804106968 0 -0.42334018983018468 -0.46065055022412971 0 -0.42266780307861851 -0.44789551954806578 0 -0.44476894967323449 -0.26431224541200993 0 -0.42738578090188423 -0.2471013743623203 0 -0.45159052060125532 -0.24901935536834419 0 -0.44476894967323449 -0.26431224541200993 0 -0.46101104168907792 -0.26379502111145248 0 -0.45159052060125532 -0.24901935536834419 0 -0.44476894967323449 -0.26431224541200993 0 -0.45552408497984498 -0.28231939361097003 0 -0.43470161074148012 -0.28449861942330967 0 -0.46101104168907792 -0.26379502111145248 0 -0.4773763928904281 -0.27238677479157181 0 -0.45552408497984498 -0.28231939361097003 0 -0.44476894967323449 -0.26431224541200993 0 -0.46101104168907792 -0.26379502111145248 0 -0.45552408497984498 -0.28231939361097003 0 -0.46101104168907792 -0.26379502111145248 0 -0.47579526030062652 -0.25093733637436633 0 -0.45159052060125532 -0.24901935536834419 0 -0.46101104168907792 -0.26379502111145248 0 -0.47579526030062652 -0.25093733637436633 0 -0.4773763928904281 -0.27238677479157181 0 -0.47579526030062652 -0.25093733637436633 0 -0.49999999999999778 -0.25285531738038819 0 -0.4773763928904281 -0.27238677479157181 0 -0.47579526030062652 -0.25093733637436633 0 -0.49999999999999778 -0.25285531738038819 0 -0.49999999999999778 -0.25285531738038819 0 -0.5 -0.28095730511016798 0 -0.4773763928904281 -0.27238677479157181 0 -0.5 -0.28095730511016798 0 -0.4773763928904281 -0.27238677479157181 0 -0.47064399099697368 -0.30486022916726252 0 -0.5 -0.28095730511016798 0 -0.5 -0.30905929283994787 0 -0.47064399099697368 -0.30486022916726252 0 -0.4773763928904281 -0.27238677479157181 0 -0.47064399099697368 -0.30486022916726252 0 -0.45552408497984498 -0.28231939361097003 0 -0.47064399099697368 -0.30486022916726252 0 -0.45552408497984498 -0.28231939361097003 0 -0.44266869699586248 -0.30381907027077248 0 -0.47064399099697368 -0.30486022916726252 0 -0.44266869699586248 -0.30381907027077248 0 -0.47064399099697368 -0.30486022916726252 0 -0.44266869699586248 -0.30381907027077248 0 -0.45926580123410671 -0.32331022997679709 0 -0.45552408497984498 -0.28231939361097003 0 -0.44266869699586248 -0.30381907027077248 0 -0.43470161074148012 -0.28449861942330967 0 -0.44266869699586248 -0.30381907027077248 0 -0.44187827630894783 -0.32547309445373329 0 -0.45926580123410671 -0.32331022997679709 0 -0.4530551431751641 -0.33951483028077811 0 -0.44400903221760712 -0.34693767645016832 0 -0.43611152021999922 -0.33692344449925332 0 -0.44187827630894783 -0.32547309445373329 0 -0.4530551431751641 -0.33951483028077811 0 -0.43611152021999922 -0.33692344449925332 0 -0.44187827630894783 -0.32547309445373329 0 -0.4530551431751641 -0.33951483028077811 0 -0.45926580123410671 -0.32331022997679709 0 -0.44187827630894783 -0.32547309445373329 0 -0.4530551431751641 -0.33951483028077811 0 -0.4667342852228491 -0.33815926118458112 0 -0.45926580123410671 -0.32331022997679709 0 -0.47842926666332197 -0.32833709073135398 0 -0.4530551431751641 -0.33951483028077811 0 -0.4667342852228491 -0.33815926118458112 0 -0.45926580123410671 -0.32331022997679709 0 -0.4530551431751641 -0.33951483028077811 0 -0.4667342852228491 -0.33815926118458112 0 -0.46423201004138209 -0.35355656610782149 0 -0.47064399099697368 -0.30486022916726252 0 -0.45926580123410671 -0.32331022997679709 0 -0.47842926666332197 -0.32833709073135398 0 -0.5 -0.30905929283994787 0 -0.47064399099697368 -0.30486022916726252 0 -0.47842926666332197 -0.32833709073135398 0 -0.5 -0.30905929283994787 0 -0.5 -0.33716128056972772 0 -0.47842926666332197 -0.32833709073135398 0 -0.5 -0.33716128056972772 0 -0.47830231338964879 -0.3433248231594293 0 -0.47842926666332197 -0.32833709073135398 0 -0.4667342852228491 -0.33815926118458112 0 -0.47830231338964879 -0.3433248231594293 0 -0.47842926666332197 -0.32833709073135398 0 -0.48211600502069019 -0.35940991720366389 0 -0.46423201004138209 -0.35355656610782149 0 -0.4667342852228491 -0.33815926118458112 0 -0.47830231338964879 -0.3433248231594293 0 -0.46423201004138209 -0.35355656610782149 0 -0.47830231338964879 -0.3433248231594293 0 -0.48211600502069019 -0.35940991720366389 0 -0.46423201004138209 -0.35355656610782149 0 -0.5 -0.33716128056972772 0 -0.47830231338964879 -0.3433248231594293 0 -0.48211600502069019 -0.35940991720366389 0 -0.5 -0.33716128056972772 0 -0.49999999999999778 -0.36526326829950739 0 -0.48211600502069019 -0.35940991720366389 0 -0.48211600502069152 -0.3760246097946216 0 -0.49999999999999778 -0.36526326829950739 0 -0.48211600502069019 -0.35940991720366389 0 -0.5 -0.38187796089046422 0 -0.48211600502069152 -0.3760246097946216 0 -0.49999999999999778 -0.36526326829950739 0 -0.49999999999999778 -0.36526326829950739 0 -0.48211600502069019 -0.35940991720366389 0 -0.48211600502069152 -0.3760246097946216 0 -0.46272413438504778 -0.37197463574957518 0 -0.46423201004138209 -0.35355656610782149 0 -0.48211600502069152 -0.3760246097946216 0 -0.48211600502069019 -0.35940991720366389 0 -0.46423201004138209 -0.35355656610782149 0 -0.48211600502069152 -0.3760246097946216 0 -0.46423201004138209 -0.35355656610782149 0 -0.46272413438504778 -0.37197463574957518 0 -0.4468028840339533 -0.37260501215794462 0 -0.45161386814822241 -0.36037714047361108 0 -0.46272413438504778 -0.37197463574957518 0 -0.46423201004138209 -0.35355656610782149 0 -0.45161386814822241 -0.36037714047361108 0 -0.4530551431751641 -0.33951483028077811 0 -0.46423201004138209 -0.35355656610782149 0 -0.44400903221760712 -0.34693767645016832 0 -0.46423201004138209 -0.35355656610782149 0 -0.44400903221760712 -0.34693767645016832 0 -0.46423201004138209 -0.35355656610782149 0 -0.44400903221760712 -0.34693767645016832 0 -0.45161386814822241 -0.36037714047361108 0 -0.4530551431751641 -0.33951483028077811 0 -0.46423201004138209 -0.35355656610782149 0 -0.44400903221760712 -0.34693767645016832 0 -0.43844022460771681 -0.36022226751269698 0 -0.43037939203381043 -0.34830496411363349 0 -0.44400903221760712 -0.34693767645016832 0 -0.43844022460771681 -0.36022226751269698 0 -0.45161386814822241 -0.36037714047361108 0 -0.43844022460771681 -0.36022226751269698 0 -0.4468028840339533 -0.37260501215794462 0 -0.43074289611824362 -0.37317088890264333 0 -0.43844022460771681 -0.36022226751269698 0 -0.4468028840339533 -0.37260501215794462 0 -0.45161386814822241 -0.36037714047361108 0 -0.42709327509446388 -0.35993792297818122 0 -0.43074289611824362 -0.37317088890264333 0 -0.41567153783784933 -0.36520829234858521 0 -0.43844022460771681 -0.36022226751269698 0 -0.42709327509446388 -0.35993792297818122 0 -0.43074289611824362 -0.37317088890264333 0 -0.43844022460771681 -0.36022226751269698 0 -0.42709327509446388 -0.35993792297818122 0 -0.43037939203381043 -0.34830496411363349 0 -0.44400903221760712 -0.34693767645016832 0 -0.43037939203381043 -0.34830496411363349 0 -0.43611152021999922 -0.33692344449925332 0 -0.43037939203381043 -0.34830496411363349 0 -0.41783790047489688 -0.35172080197837158 0 -0.42125343461139059 -0.33798830833929172 0 -0.42709327509446388 -0.35993792297818122 0 -0.43037939203381043 -0.34830496411363349 0 -0.41783790047489688 -0.35172080197837158 0 -0.42709327509446388 -0.35993792297818122 0 -0.41783790047489688 -0.35172080197837158 0 -0.41567153783784933 -0.36520829234858521 0 -0.41783790047489688 -0.35172080197837158 0 -0.40680219499142201 -0.34287544775580081 0 -0.42125343461139059 -0.33798830833929172 0 -0.41783790047489688 -0.35172080197837158 0 -0.40565802633086162 -0.35662145495490172 0 -0.40680219499142201 -0.34287544775580081 0 -0.41783790047489688 -0.35172080197837158 0 -0.41567153783784933 -0.36520829234858521 0 -0.40565802633086162 -0.35662145495490172 0 -0.41567153783784933 -0.36520829234858521 0 -0.39911670822999479 -0.37041026879710348 0 -0.40565802633086162 -0.35662145495490172 0 -0.41358042077863538 -0.37938841648031058 0 -0.43074289611824362 -0.37317088890264333 0 -0.41567153783784933 -0.36520829234858521 0 -0.41358042077863538 -0.37938841648031058 0 -0.41567153783784933 -0.36520829234858521 0 -0.39911670822999479 -0.37041026879710348 0 -0.39911670822999479 -0.37041026879710348 0 -0.38203136194084147 -0.36823636963525358 0 -0.39037328689125361 -0.35057709233269552 0 -0.38203136194084147 -0.36823636963525358 0 -0.39037328689125361 -0.35057709233269552 0 -0.36764965681162409 -0.34829774836527699 0 -0.39911670822999479 -0.37041026879710348 0 -0.39037328689125361 -0.35057709233269552 0 -0.40565802633086162 -0.35662145495490172 0 -0.39037328689125361 -0.35057709233269552 0 -0.40565802633086162 -0.35662145495490172 0 -0.40680219499142201 -0.34287544775580081 0 -0.39538469216286598 -0.33355677743309792 0 -0.41016844960982501 -0.32371963549394911 0 -0.40680219499142201 -0.34287544775580081 0 -0.39037328689125361 -0.35057709233269552 0 -0.39538469216286598 -0.33355677743309792 0 -0.40680219499142201 -0.34287544775580081 0 -0.39037328689125361 -0.35057709233269552 0 -0.37965965076370678 -0.33162401594497481 0 -0.36764965681162409 -0.34829774836527699 0 -0.39037328689125361 -0.35057709233269552 0 -0.39538469216286598 -0.33355677743309792 0 -0.37965965076370678 -0.33162401594497481 0 -0.37965965076370678 -0.33162401594497481 0 -0.37651280492891259 -0.3153287343181328 0 -0.39385618490895041 -0.318123971173705 0 -0.39538469216286598 -0.33355677743309792 0 -0.37965965076370678 -0.33162401594497481 0 -0.39385618490895041 -0.318123971173705 0 -0.39385618490895041 -0.318123971173705 0 -0.41016844960982501 -0.32371963549394911 0 -0.41469340299475138 -0.30277791137428273 0 -0.39538469216286598 -0.33355677743309792 0 -0.39385618490895041 -0.318123971173705 0 -0.41016844960982501 -0.32371963549394911 0 -0.41016844960982501 -0.32371963549394911 0 -0.42609384297307529 -0.32332179335791489 0 -0.41469340299475138 -0.30277791137428273 0 -0.41016844960982501 -0.32371963549394911 0 -0.42125343461139059 -0.33798830833929172 0 -0.42609384297307529 -0.32332179335791489 0 -0.41016844960982501 -0.32371963549394911 0 -0.40680219499142201 -0.34287544775580081 0 -0.42125343461139059 -0.33798830833929172 0 -0.44187827630894783 -0.32547309445373329 0 -0.43611152021999922 -0.33692344449925332 0 -0.42609384297307529 -0.32332179335791489 0 -0.42125343461139059 -0.33798830833929172 0 -0.43611152021999922 -0.33692344449925332 0 -0.42609384297307529 -0.32332179335791489 0 -0.43037939203381043 -0.34830496411363349 0 -0.42125343461139059 -0.33798830833929172 0 -0.43611152021999922 -0.33692344449925332 0 -0.44266869699586248 -0.30381907027077248 0 -0.44187827630894783 -0.32547309445373329 0 -0.42609384297307529 -0.32332179335791489 0 -0.44266869699586248 -0.30381907027077248 0 -0.41469340299475138 -0.30277791137428273 0 -0.44266869699586248 -0.30381907027077248 0 -0.42609384297307529 -0.32332179335791489 0 -0.41469340299475138 -0.30277791137428273 0 -0.44266869699586248 -0.30381907027077248 0 -0.43470161074148012 -0.28449861942330967 0 -0.41469340299475138 -0.30277791137428273 0 -0.43470161074148012 -0.28449861942330967 0 -0.41469340299475138 -0.30277791137428273 0 -0.4162039780446426 -0.28106650763358582 0 -0.41469340299475138 -0.30277791137428273 0 -0.39741343163198078 -0.28199234360063019 0 -0.4162039780446426 -0.28106650763358582 0 -0.39385618490895041 -0.318123971173705 0 -0.41469340299475138 -0.30277791137428273 0 -0.38671810899364029 -0.3017367524777928 0 -0.41469340299475138 -0.30277791137428273 0 -0.38671810899364029 -0.3017367524777928 0 -0.37651280492891259 -0.3153287343181328 0 -0.39385618490895041 -0.318123971173705 0 -0.38671810899364029 -0.3017367524777928 0 -0.38671810899364029 -0.3017367524777928 0 -0.39741343163198078 -0.28199234360063019 0 -0.37505916253350441 -0.27986672338063301 0 -0.41469340299475138 -0.30277791137428273 0 -0.38671810899364029 -0.3017367524777928 0 -0.39741343163198078 -0.28199234360063019 0 -0.39741343163198078 -0.28199234360063019 0 -0.39137551007448068 -0.25903785317996503 0 -0.40850411641561629 -0.2656756650781068 0 -0.37505916253350441 -0.27986672338063301 0 -0.39137551007448068 -0.25903785317996503 0 -0.39741343163198078 -0.28199234360063019 0 -0.37505916253350441 -0.27986672338063301 0 -0.39137551007448068 -0.25903785317996503 0 -0.37505916253350441 -0.27986672338063301 0 -0.39137551007448068 -0.25903785317996503 0 -0.37189254000853572 -0.25884354583728159 0 -0.39137551007448068 -0.25903785317996503 0 -0.37189254000853572 -0.25884354583728159 0 -0.37593814780524382 -0.24906438692495261 0 -0.39137551007448068 -0.25903785317996503 0 -0.39046599198810128 -0.24588017847354851 0 -0.37593814780524382 -0.24906438692495261 0 -0.39137551007448068 -0.25903785317996503 0 -0.40380550951084798 -0.25607234293907122 0 -0.40850411641561629 -0.2656756650781068 0 -0.39137551007448068 -0.25903785317996503 0 -0.40380550951084798 -0.25607234293907122 0 -0.40400520650128319 -0.24524870012714309 0 -0.40380550951084798 -0.25607234293907122 0 -0.41445630236852021 -0.25450895139220697 0 -0.40400520650128319 -0.24524870012714309 0 -0.41445630236852021 -0.25450895139220697 0 -0.40850411641561629 -0.2656756650781068 0 -0.42890847103630092 -0.26441893275518041 0 -0.40380550951084798 -0.25607234293907122 0 -0.41445630236852021 -0.25450895139220697 0 -0.40850411641561629 -0.2656756650781068 0 -0.39741343163198078 -0.28199234360063019 0 -0.40850411641561629 -0.2656756650781068 0 -0.4162039780446426 -0.28106650763358582 0 -0.40850411641561629 -0.2656756650781068 0 -0.4162039780446426 -0.28106650763358582 0 -0.42890847103630092 -0.26441893275518041 0 -0.43470161074148012 -0.28449861942330967 0 -0.4162039780446426 -0.28106650763358582 0 -0.42890847103630092 -0.26441893275518041 0 -0.44476894967323449 -0.26431224541200993 0 -0.43470161074148012 -0.28449861942330967 0 -0.42890847103630092 -0.26441893275518041 0 -0.42890847103630092 -0.26441893275518041 0 -0.42738578090188423 -0.2471013743623203 0 -0.44476894967323449 -0.26431224541200993 0 -0.42890847103630092 -0.26441893275518041 0 -0.42738578090188423 -0.2471013743623203 0 -0.41445630236852021 -0.25450895139220697 0 -0.42890847103630092 -0.26441893275518041 0 -0.42738578090188423 -0.2471013743623203 0 -0.32192820893965679 -0.2630247103389709 0 -0.30640381119716048 -0.27195778905293772 0 -0.31307032577977428 -0.24998346407264199 0 -0.32192820893965679 -0.2630247103389709 0 -0.33601807461979832 -0.24624908699229031 0 -0.31307032577977428 -0.24998346407264199 0 -0.3239515675100455 -0.27930915733475309 0 -0.30984642056772688 -0.28938643493668048 0 -0.30640381119716048 -0.27195778905293772 0 -0.32192820893965679 -0.2630247103389709 0 -0.3239515675100455 -0.27930915733475309 0 -0.33643494981751487 -0.26486744442742111 0 -0.32192820893965679 -0.2630247103389709 0 -0.3239515675100455 -0.27930915733475309 0 -0.30640381119716048 -0.27195778905293772 0 -0.3239515675100455 -0.27930915733475309 0 -0.33643494981751487 -0.26486744442742111 0 -0.34713738500057872 -0.28198201568402431 0 -0.33643494981751487 -0.26486744442742111 0 -0.35512980953024442 -0.25517221854064309 0 -0.33601807461979832 -0.24624908699229031 0 -0.32192820893965679 -0.2630247103389709 0 -0.33643494981751487 -0.26486744442742111 0 -0.33601807461979832 -0.24624908699229031 0 -0.33643494981751487 -0.26486744442742111 0 -0.35512980953024442 -0.25517221854064309 0 -0.35047030184022082 -0.26883670025001838 0 -0.35512980953024442 -0.25517221854064309 0 -0.3633546054735009 -0.26852208116043758 0 -0.35047030184022082 -0.26883670025001838 0 -0.35512980953024442 -0.25517221854064309 0 -0.36544664870162918 -0.25089776050286028 0 -0.37189254000853572 -0.25884354583728159 0 -0.35512980953024442 -0.25517221854064309 0 -0.37189254000853572 -0.25884354583728159 0 -0.3633546054735009 -0.26852208116043758 0 -0.36544664870162918 -0.25089776050286028 0 -0.37189254000853572 -0.25884354583728159 0 -0.37593814780524382 -0.24906438692495261 0 -0.37505916253350441 -0.27986672338063301 0 -0.3633546054735009 -0.26852208116043758 0 -0.34713738500057872 -0.28198201568402431 0 -0.37505916253350441 -0.27986672338063301 0 -0.37189254000853572 -0.25884354583728159 0 -0.3633546054735009 -0.26852208116043758 0 -0.3633546054735009 -0.26852208116043758 0 -0.35047030184022082 -0.26883670025001838 0 -0.34713738500057872 -0.28198201568402431 0 -0.33643494981751487 -0.26486744442742111 0 -0.35047030184022082 -0.26883670025001838 0 -0.34713738500057872 -0.28198201568402431 0 -0.34713738500057872 -0.28198201568402431 0 -0.35874281499252941 -0.30069559358130188 0 -0.32972467438298447 -0.29961562297387972 0 -0.37505916253350441 -0.27986672338063301 0 -0.35874281499252941 -0.30069559358130188 0 -0.37505916253350441 -0.27986672338063301 0 -0.34713738500057872 -0.28198201568402431 0 -0.35874281499252941 -0.30069559358130188 0 -0.38671810899364029 -0.3017367524777928 0 -0.37505916253350441 -0.27986672338063301 0 -0.35874281499252941 -0.30069559358130188 0 -0.37651280492891259 -0.3153287343181328 0 -0.38671810899364029 -0.3017367524777928 0 -0.35874281499252941 -0.30069559358130188 0 -0.38671810899364029 -0.3017367524777928 0 -0.35874281499252941 -0.30069559358130188 0 -0.37651280492891259 -0.3153287343181328 0 -0.35874281499252941 -0.30069559358130188 0 -0.34770037510817853 -0.32016453658472083 0 -0.35874281499252941 -0.30069559358130188 0 -0.32972467438298447 -0.29961562297387972 0 -0.3454423876308968 -0.31767444711657278 0 -0.35874281499252941 -0.30069559358130188 0 -0.3454423876308968 -0.31767444711657278 0 -0.35874281499252941 -0.30069559358130188 0 -0.32972467438298447 -0.29961562297387972 0 -0.32972467438298447 -0.29961562297387972 0 -0.33123495621664462 -0.31464249310948439 0 -0.3454423876308968 -0.31767444711657278 0 -0.3239515675100455 -0.27930915733475309 0 -0.34713738500057872 -0.28198201568402431 0 -0.32972467438298447 -0.29961562297387972 0 -0.3239515675100455 -0.27930915733475309 0 -0.32972467438298447 -0.29961562297387972 0 -0.30984642056772688 -0.28938643493668048 0 -0.32972467438298447 -0.29961562297387972 0 -0.30966005501656962 -0.30309732504233289 0 -0.30984642056772688 -0.28938643493668048 0 -0.32972467438298447 -0.29961562297387972 0 -0.31787779313103609 -0.31152560576323751 0 -0.30966005501656962 -0.30309732504233289 0 -0.32972467438298447 -0.29961562297387972 0 -0.31787779313103609 -0.31152560576323751 0 -0.33123495621664462 -0.31464249310948439 0 -0.31787779313103609 -0.31152560576323751 0 -0.31888794528744441 -0.3250003388513088 0 -0.3027541459712374 -0.31712503490535848 0 -0.31787779313103609 -0.31152560576323751 0 -0.31888794528744441 -0.3250003388513088 0 -0.33123495621664462 -0.31464249310948439 0 -0.31888794528744441 -0.3250003388513088 0 -0.32721338857275201 -0.33653356424123088 0 -0.3346709594115258 -0.32870432018134249 0 -0.31888794528744441 -0.3250003388513088 0 -0.31524537022797272 -0.33920785895678801 0 -0.30493568633664669 -0.33750324078844868 0 -0.31524537022797272 -0.33920785895678801 0 -0.32721338857275201 -0.33653356424123088 0 -0.32384994919862331 -0.35056768376015818 0 -0.31888794528744441 -0.3250003388513088 0 -0.31524537022797272 -0.33920785895678801 0 -0.32721338857275201 -0.33653356424123088 0 -0.32721338857275201 -0.33653356424123088 0 -0.3346709594115258 -0.32870432018134249 0 -0.33646495060473303 -0.33530839998596212 0 -0.32721338857275201 -0.33653356424123088 0 -0.33356237532659111 -0.34181157579048971 0 -0.33646495060473303 -0.33530839998596212 0 -0.32721338857275201 -0.33653356424123088 0 -0.33356237532659111 -0.34181157579048971 0 -0.32384994919862331 -0.35056768376015818 0 -0.33356237532659111 -0.34181157579048971 0 -0.34271726918852241 -0.33904771992840399 0 -0.33646495060473303 -0.33530839998596212 0 -0.34271726918852241 -0.33904771992840399 0 -0.33646495060473303 -0.33530839998596212 0 -0.34416076052427391 -0.33044481978834339 0 -0.3346709594115258 -0.32870432018134249 0 -0.33646495060473303 -0.33530839998596212 0 -0.34416076052427391 -0.33044481978834339 0 -0.33123495621664462 -0.31464249310948439 0 -0.34770037510817853 -0.32016453658472083 0 -0.3454423876308968 -0.31767444711657278 0 -0.31888794528744441 -0.3250003388513088 0 -0.34770037510817853 -0.32016453658472083 0 -0.3346709594115258 -0.32870432018134249 0 -0.34770037510817853 -0.32016453658472083 0 -0.34416076052427391 -0.33044481978834339 0 -0.31888794528744441 -0.3250003388513088 0 -0.3346709594115258 -0.32870432018134249 0 -0.34770037510817853 -0.32016453658472083 0 -0.31888794528744441 -0.3250003388513088 0 -0.33123495621664462 -0.31464249310948439 0 -0.34770037510817853 -0.32016453658472083 0 -0.34770037510817853 -0.32016453658472083 0 -0.36351237080176041 -0.32612248663946342 0 -0.35205980923716879 -0.32864814792016328 0 -0.35874281499252941 -0.30069559358130188 0 -0.34770037510817853 -0.32016453658472083 0 -0.3454423876308968 -0.31767444711657278 0 -0.34770037510817853 -0.32016453658472083 0 -0.35205980923716879 -0.32864814792016328 0 -0.34416076052427391 -0.33044481978834339 0 -0.37651280492891259 -0.3153287343181328 0 -0.34770037510817853 -0.32016453658472083 0 -0.37651280492891259 -0.3153287343181328 0 -0.34770037510817853 -0.32016453658472083 0 -0.36351237080176041 -0.32612248663946342 0 -0.37965965076370678 -0.33162401594497481 0 -0.37651280492891259 -0.3153287343181328 0 -0.36351237080176041 -0.32612248663946342 0 -0.37965965076370678 -0.33162401594497481 0 -0.36351237080176041 -0.32612248663946342 0 -0.36764965681162409 -0.34829774836527699 0 -0.36351237080176041 -0.32612248663946342 0 -0.35286573051446268 -0.33786074866812582 0 -0.36764965681162409 -0.34829774836527699 0 -0.36351237080176041 -0.32612248663946342 0 -0.35286573051446268 -0.33786074866812582 0 -0.35205980923716879 -0.32864814792016328 0 -0.35286573051446268 -0.33786074866812582 0 -0.35205980923716879 -0.32864814792016328 0 -0.34416076052427391 -0.33044481978834339 0 -0.34271726918852241 -0.33904771992840399 0 -0.35286573051446268 -0.33786074866812582 0 -0.34416076052427391 -0.33044481978834339 0 -0.34271726918852241 -0.33904771992840399 0 -0.35286573051446268 -0.33786074866812582 0 -0.345933747592929 -0.35121184748776302 0 -0.345933747592929 -0.35121184748776302 0 -0.36764965681162409 -0.34829774836527699 0 -0.36134719639008878 -0.36921716562446061 0 -0.35286573051446268 -0.33786074866812582 0 -0.345933747592929 -0.35121184748776302 0 -0.36764965681162409 -0.34829774836527699 0 -0.38203136194084147 -0.36823636963525358 0 -0.36764965681162409 -0.34829774836527699 0 -0.36134719639008878 -0.36921716562446061 0 -0.345933747592929 -0.35121184748776302 0 -0.36134719639008878 -0.36921716562446061 0 -0.33952299738204172 -0.37125935061634041 0 -0.33952299738204172 -0.37125935061634041 0 -0.32384994919862331 -0.35056768376015818 0 -0.33952299738204172 -0.37125935061634041 0 -0.32384994919862331 -0.35056768376015818 0 -0.32281669405225583 -0.36819239665646408 0 -0.345933747592929 -0.35121184748776302 0 -0.33952299738204172 -0.37125935061634041 0 -0.32384994919862331 -0.35056768376015818 0 -0.33356237532659111 -0.34181157579048971 0 -0.345933747592929 -0.35121184748776302 0 -0.32384994919862331 -0.35056768376015818 0 -0.33356237532659111 -0.34181157579048971 0 -0.34271726918852241 -0.33904771992840399 0 -0.345933747592929 -0.35121184748776302 0 -0.33356237532659111 -0.34181157579048971 0 -0.32384994919862331 -0.35056768376015818 0 -0.32384994919862331 -0.35056768376015818 0 -0.30692556588490633 -0.36582563534325963 0 -0.32384994919862331 -0.35056768376015818 0 -0.30692556588490633 -0.36582563534325963 0 -0.30938797420021941 -0.3489908850238207 0 -0.31524537022797272 -0.33920785895678801 0 -0.32384994919862331 -0.35056768376015818 0 -0.30938797420021941 -0.3489908850238207 0 -0.31524537022797272 -0.33920785895678801 0 -0.32384994919862331 -0.35056768376015818 0 -0.33952299738204172 -0.37125935061634041 0 -0.32281669405225583 -0.36819239665646408 0 -0.32096826374345189 -0.38511691690609828 0 -0.32281669405225583 -0.36819239665646408 0 -0.30692556588490633 -0.36582563534325963 0 -0.32096826374345189 -0.38511691690609828 0 -0.32384994919862331 -0.35056768376015818 0 -0.32281669405225583 -0.36819239665646408 0 -0.30692556588490633 -0.36582563534325963 0 -0.30692556588490633 -0.36582563534325963 0 -0.29000118257118901 -0.38108358692636068 0 -0.30692556588490633 -0.36582563534325963 0 -0.30938797420021941 -0.3489908850238207 0 -0.29646978749329977 -0.34819369964445029 0 -0.30938797420021941 -0.3489908850238207 0 -0.29646978749329977 -0.34819369964445029 0 -0.30493568633664669 -0.33750324078844868 0 -0.30692556588490633 -0.36582563534325963 0 -0.29646978749329977 -0.34819369964445029 0 -0.28485930796650999 -0.3633943516606839 0 -0.29646978749329977 -0.34819369964445029 0 -0.28485930796650999 -0.3633943516606839 0 -0.27532746717947842 -0.34233020827698701 0 -0.28485930796650999 -0.3633943516606839 0 -0.29000118257118901 -0.38108358692636068 0 -0.27040447271775342 -0.37998050806436889 0 -0.30692556588490633 -0.36582563534325963 0 -0.28485930796650999 -0.3633943516606839 0 -0.29000118257118901 -0.38108358692636068 0 -0.28485930796650999 -0.3633943516606839 0 -0.26436780724560499 -0.36316076045427542 0 -0.27040447271775342 -0.37998050806436889 0 -0.26436780724560499 -0.36316076045427542 0 -0.27040447271775342 -0.37998050806436889 0 -0.25216722443025408 -0.37931978641128389 0 -0.26436780724560499 -0.36316076045427542 0 -0.25216722443025408 -0.37931978641128389 0 -0.24798357532417231 -0.36455696890170719 0 -0.26436780724560499 -0.36316076045427542 0 -0.25234263673347551 -0.35007329882855392 0 -0.24798357532417231 -0.36455696890170719 0 -0.26436780724560499 -0.36316076045427542 0 -0.25234263673347551 -0.35007329882855392 0 -0.27532746717947842 -0.34233020827698701 0 -0.25234263673347551 -0.35007329882855392 0 -0.27532746717947842 -0.34233020827698701 0 -0.28485930796650999 -0.3633943516606839 0 -0.26436780724560499 -0.36316076045427542 0 -0.27532746717947842 -0.34233020827698701 0 -0.27532746717947842 -0.34233020827698701 0 -0.26126308564597589 -0.33467194338448492 0 -0.29007551546671029 -0.32983614111789678 0 -0.26126308564597589 -0.33467194338448492 0 -0.29007551546671029 -0.32983614111789678 0 -0.25234263673347551 -0.35007329882855392 0 -0.27532746717947842 -0.34233020827698701 0 -0.26126308564597589 -0.33467194338448492 0 -0.26126308564597589 -0.33467194338448492 0 -0.26253559389051417 -0.32160920674028393 0 -0.24693282481476661 -0.32690580272397468 0 -0.25098915179106102 -0.31482824247606489 0 -0.26253559389051417 -0.32160920674028393 0 -0.24693282481476661 -0.32690580272397468 0 -0.25098915179106102 -0.31482824247606489 0 -0.26253559389051417 -0.32160920674028393 0 -0.26079803411496372 -0.31199830950370472 0 -0.26253559389051417 -0.32160920674028393 0 -0.2701803568763344 -0.31001299901765578 0 -0.26079803411496372 -0.31199830950370472 0 -0.26253559389051417 -0.32160920674028393 0 -0.27634608247958142 -0.31944446186335262 0 -0.2701803568763344 -0.31001299901765578 0 -0.26126308564597589 -0.33467194338448492 0 -0.27634608247958142 -0.31944446186335262 0 -0.29007551546671029 -0.32983614111789678 0 -0.26126308564597589 -0.33467194338448492 0 -0.26253559389051417 -0.32160920674028393 0 -0.27634608247958142 -0.31944446186335262 0 -0.27634608247958142 -0.31944446186335262 0 -0.2899076242742275 -0.31446232811067848 0 -0.28170912346310678 -0.30778180171630842 0 -0.2899076242742275 -0.31446232811067848 0 -0.29007551546671029 -0.32983614111789678 0 -0.3027541459712374 -0.31712503490535848 0 -0.27634608247958142 -0.31944446186335262 0 -0.2899076242742275 -0.31446232811067848 0 -0.29007551546671029 -0.32983614111789678 0 -0.29646978749329977 -0.34819369964445029 0 -0.27532746717947842 -0.34233020827698701 0 -0.29007551546671029 -0.32983614111789678 0 -0.29646978749329977 -0.34819369964445029 0 -0.29007551546671029 -0.32983614111789678 0 -0.30493568633664669 -0.33750324078844868 0 -0.31888794528744441 -0.3250003388513088 0 -0.29007551546671029 -0.32983614111789678 0 -0.30493568633664669 -0.33750324078844868 0 -0.31524537022797272 -0.33920785895678801 0 -0.30938797420021941 -0.3489908850238207 0 -0.30493568633664669 -0.33750324078844868 0 -0.31888794528744441 -0.3250003388513088 0 -0.29007551546671029 -0.32983614111789678 0 -0.3027541459712374 -0.31712503490535848 0 -0.31888794528744441 -0.3250003388513088 0 -0.29007551546671029 -0.32983614111789678 0 -0.30966005501656962 -0.30309732504233289 0 -0.30984642056772688 -0.28938643493668048 0 -0.29384286346926258 -0.30153949876486152 0 -0.3027541459712374 -0.31712503490535848 0 -0.30966005501656962 -0.30309732504233289 0 -0.29384286346926258 -0.30153949876486152 0 -0.31787779313103609 -0.31152560576323751 0 -0.3027541459712374 -0.31712503490535848 0 -0.30966005501656962 -0.30309732504233289 0 -0.30984642056772688 -0.28938643493668048 0 -0.29854911577902532 -0.28471195351501882 0 -0.29384286346926258 -0.30153949876486152 0 -0.30984642056772688 -0.28938643493668048 0 -0.29854911577902532 -0.28471195351501882 0 -0.30640381119716048 -0.27195778905293772 0 -0.28814974053071513 -0.28560814171911292 0 -0.28577426969336878 -0.29109160088017882 0 -0.28198104643430888 -0.2706668255676713 0 -0.28814974053071513 -0.28560814171911292 0 -0.29384286346926258 -0.30153949876486152 0 -0.28814974053071513 -0.28560814171911292 0 -0.28577426969336878 -0.29109160088017882 0 -0.29384286346926258 -0.30153949876486152 0 -0.29854911577902532 -0.28471195351501882 0 -0.28814974053071513 -0.28560814171911292 0 -0.29384286346926258 -0.30153949876486152 0 -0.29854911577902532 -0.28471195351501882 0 -0.28814974053071513 -0.28560814171911292 0 -0.29450274313026109 -0.27506790310150159 0 -0.28577426969336878 -0.29109160088017882 0 -0.27939353808210893 -0.28573820961792978 0 -0.28078975760398789 -0.27888075532148621 0 -0.28577426969336878 -0.29109160088017882 0 -0.28222350600348589 -0.29871367498748419 0 -0.27852929361844009 -0.2922035589836664 0 -0.28577426969336878 -0.29109160088017882 0 -0.28222350600348589 -0.29871367498748419 0 -0.29384286346926258 -0.30153949876486152 0 -0.28222350600348589 -0.29871367498748419 0 -0.29384286346926258 -0.30153949876486152 0 -0.28170912346310678 -0.30778180171630842 0 -0.2899076242742275 -0.31446232811067848 0 -0.3027541459712374 -0.31712503490535848 0 -0.29384286346926258 -0.30153949876486152 0 -0.2899076242742275 -0.31446232811067848 0 -0.29384286346926258 -0.30153949876486152 0 -0.28170912346310678 -0.30778180171630842 0 -0.28170912346310678 -0.30778180171630842 0 -0.27495020212990062 -0.29941831720968742 0 -0.2701803568763344 -0.31001299901765578 0 -0.27634608247958142 -0.31944446186335262 0 -0.28170912346310678 -0.30778180171630842 0 -0.2701803568763344 -0.31001299901765578 0 -0.28222350600348589 -0.29871367498748419 0 -0.28170912346310678 -0.30778180171630842 0 -0.27495020212990062 -0.29941831720968742 0 -0.27495020212990062 -0.29941831720968742 0 -0.26472300522785691 -0.3007712941336092 0 -0.26949668153191803 -0.29044503284327933 0 -0.27495020212990062 -0.29941831720968742 0 -0.2701803568763344 -0.31001299901765578 0 -0.26472300522785691 -0.3007712941336092 0 -0.2701803568763344 -0.31001299901765578 0 -0.26079803411496372 -0.31199830950370472 0 -0.26472300522785691 -0.3007712941336092 0 -0.26079803411496372 -0.31199830950370472 0 -0.26472300522785691 -0.3007712941336092 0 -0.25432611049168241 -0.30268117862007088 0 -0.26472300522785691 -0.3007712941336092 0 -0.25432611049168241 -0.30268117862007088 0 -0.25858664622234229 -0.29007192760725742 0 -0.25098915179106102 -0.31482824247606489 0 -0.26079803411496372 -0.31199830950370472 0 -0.25432611049168241 -0.30268117862007088 0 -0.26472300522785691 -0.3007712941336092 0 -0.25858664622234229 -0.29007192760725742 0 -0.26949668153191803 -0.29044503284327933 0 -0.25858664622234229 -0.29007192760725742 0 -0.26949668153191803 -0.29044503284327933 0 -0.26615949790057442 -0.27948777254179158 0 -0.25858664622234229 -0.29007192760725742 0 -0.26615949790057442 -0.27948777254179158 0 -0.25313781606648211 -0.27747372974667112 0 -0.26949668153191803 -0.29044503284327933 0 -0.27410354737454429 -0.28427703015553207 0 -0.26615949790057442 -0.27948777254179158 0 -0.27495020212990062 -0.29941831720968742 0 -0.26949668153191803 -0.29044503284327933 0 -0.27852929361844009 -0.2922035589836664 0 -0.28577426969336878 -0.29109160088017882 0 -0.27852929361844009 -0.2922035589836664 0 -0.27939353808210893 -0.28573820961792978 0 -0.28222350600348589 -0.29871367498748419 0 -0.27495020212990062 -0.29941831720968742 0 -0.27852929361844009 -0.2922035589836664 0 -0.27852929361844009 -0.2922035589836664 0 -0.27410354737454429 -0.28427703015553207 0 -0.27939353808210893 -0.28573820961792978 0 -0.26949668153191803 -0.29044503284327933 0 -0.27852929361844009 -0.2922035589836664 0 -0.27410354737454429 -0.28427703015553207 0 -0.27410354737454429 -0.28427703015553207 0 -0.27939353808210893 -0.28573820961792978 0 -0.27763259514691441 -0.28201954992019751 0 -0.27939353808210893 -0.28573820961792978 0 -0.27763259514691441 -0.28201954992019751 0 -0.28078975760398789 -0.27888075532148621 0 -0.27763259514691441 -0.28201954992019751 0 -0.28078975760398789 -0.27888075532148621 0 -0.27467239445782632 -0.27669804571497653 0 -0.28078975760398789 -0.27888075532148621 0 -0.27851486476541848 -0.2745384159311221 0 -0.27467239445782632 -0.27669804571497653 0 -0.28078975760398789 -0.27888075532148621 0 -0.27851486476541848 -0.2745384159311221 0 -0.28114544599419472 -0.27240637304304 0 -0.27851486476541848 -0.2745384159311221 0 -0.27467239445782632 -0.27669804571497653 0 -0.2763936370621648 -0.26964031173919911 0 -0.27410354737454429 -0.28427703015553207 0 -0.27763259514691441 -0.28201954992019751 0 -0.27467239445782632 -0.27669804571497653 0 -0.27467239445782632 -0.27669804571497653 0 -0.2763936370621648 -0.26964031173919911 0 -0.26977648111006958 -0.26718211085404869 0 -0.28108364371377859 -0.26583472166028638 0 -0.27940754641441451 -0.2704706012182006 0 -0.28198104643430888 -0.2706668255676713 0 -0.28108364371377859 -0.26583472166028638 0 -0.27940754641441451 -0.2704706012182006 0 -0.2763936370621648 -0.26964031173919911 0 -0.27851486476541848 -0.2745384159311221 0 -0.27940754641441451 -0.2704706012182006 0 -0.2763936370621648 -0.26964031173919911 0 -0.27851486476541848 -0.2745384159311221 0 -0.27940754641441451 -0.2704706012182006 0 -0.28114544599419472 -0.27240637304304 0 -0.27940754641441451 -0.2704706012182006 0 -0.28114544599419472 -0.27240637304304 0 -0.28198104643430888 -0.2706668255676713 0 -0.28108364371377859 -0.26583472166028638 0 -0.2763936370621648 -0.26964031173919911 0 -0.27395061960556161 -0.26207225729921718 0 -0.26977648111006958 -0.26718211085404869 0 -0.26615949790057442 -0.27948777254179158 0 -0.26214280274439972 -0.27014652260960942 0 -0.2763936370621648 -0.26964031173919911 0 -0.26977648111006958 -0.26718211085404869 0 -0.27395061960556161 -0.26207225729921718 0 -0.27467239445782632 -0.27669804571497653 0 -0.26977648111006958 -0.26718211085404869 0 -0.26615949790057442 -0.27948777254179158 0 -0.27410354737454429 -0.28427703015553207 0 -0.27467239445782632 -0.27669804571497653 0 -0.26615949790057442 -0.27948777254179158 0 -0.25313781606648211 -0.27747372974667112 0 -0.25857393321876138 -0.2593624870162452 0 -0.24022982443277119 -0.27003553973731909 0 -0.26214280274439972 -0.27014652260960942 0 -0.25313781606648211 -0.27747372974667112 0 -0.25857393321876138 -0.2593624870162452 0 -0.26615949790057442 -0.27948777254179158 0 -0.26214280274439972 -0.27014652260960942 0 -0.25313781606648211 -0.27747372974667112 0 -0.26977648111006958 -0.26718211085404869 0 -0.26214280274439972 -0.27014652260960942 0 -0.25857393321876138 -0.2593624870162452 0 -0.25857393321876138 -0.2593624870162452 0 -0.26671917983361038 -0.2492862093299574 0 -0.25955795366452089 -0.24483287543889989 0 -0.25857393321876138 -0.2593624870162452 0 -0.26895730991288919 -0.25749337758498309 0 -0.26671917983361038 -0.2492862093299574 0 -0.28108364371377859 -0.26583472166028638 0 -0.27715188184557771 -0.24466397919251789 0 -0.27298489710901458 -0.24317158489400781 0 -0.28108364371377859 -0.26583472166028638 0 -0.27273913003497091 -0.25557163015369039 0 -0.27298489710901458 -0.24317158489400781 0 -0.28108364371377859 -0.26583472166028638 0 -0.2822827903891636 -0.25116969047159798 0 -0.27715188184557771 -0.24466397919251789 0 -0.28108364371377859 -0.26583472166028638 0 -0.27298489710901458 -0.24317158489400781 0 -0.28108364371377859 -0.26583472166028638 0 -0.27715188184557771 -0.24466397919251789 0 -0.26895730991288919 -0.25749337758498309 0 -0.27273913003497091 -0.25557163015369039 0 -0.26671917983361038 -0.2492862093299574 0 -0.26977648111006958 -0.26718211085404869 0 -0.25857393321876138 -0.2593624870162452 0 -0.26895730991288919 -0.25749337758498309 0 -0.26977648111006958 -0.26718211085404869 0 -0.26895730991288919 -0.25749337758498309 0 -0.27395061960556161 -0.26207225729921718 0 -0.26895730991288919 -0.25749337758498309 0 -0.27273913003497091 -0.25557163015369039 0 -0.27395061960556161 -0.26207225729921718 0 -0.28108364371377859 -0.26583472166028638 0 -0.27273913003497091 -0.25557163015369039 0 -0.27395061960556161 -0.26207225729921718 0 -0.29012257693975041 -0.25371784115299462 0 -0.28198104643430888 -0.2706668255676713 0 -0.28518330879438558 -0.25452162761084413 0 -0.29012257693975041 -0.25371784115299462 0 -0.28628588004127581 -0.24590091662091079 0 -0.28108364371377859 -0.26583472166028638 0 -0.29012257693975041 -0.25371784115299462 0 -0.28198104643430888 -0.2706668255676713 0 -0.2822827903891636 -0.25116969047159798 0 -0.28518330879438558 -0.25452162761084413 0 -0.28628588004127581 -0.24590091662091079 0 -0.28108364371377859 -0.26583472166028638 0 -0.2822827903891636 -0.25116969047159798 0 -0.28518330879438558 -0.25452162761084413 0 -0.29012257693975041 -0.25371784115299462 0 -0.29318120334279568 -0.26455884157385401 0 -0.28198104643430888 -0.2706668255676713 0 -0.28518330879438558 -0.25452162761084413 0 -0.29012257693975041 -0.25371784115299462 0 -0.28108364371377859 -0.26583472166028638 0 -0.28518330879438558 -0.25452162761084413 0 -0.29012257693975041 -0.25371784115299462 0 -0.29318120334279568 -0.26455884157385401 0 -0.28198104643430888 -0.2706668255676713 0 -0.28938032589533491 -0.27269560091579331 0 -0.28577426969336878 -0.29109160088017882 0 -0.28078975760398789 -0.27888075532148621 0 -0.28198104643430888 -0.2706668255676713 0 -0.28577426969336878 -0.29109160088017882 0 -0.28198104643430888 -0.2706668255676713 0 -0.28108364371377859 -0.26583472166028638 0 -0.28198104643430888 -0.2706668255676713 0 -0.28114544599419472 -0.27240637304304 0 -0.28198104643430888 -0.2706668255676713 0 -0.28814974053071513 -0.28560814171911292 0 -0.28198104643430888 -0.2706668255676713 0 -0.28938032589533491 -0.27269560091579331 0 -0.28814974053071513 -0.28560814171911292 0 -0.28198104643430888 -0.2706668255676713 0 -0.28078975760398789 -0.27888075532148621 0 -0.28114544599419472 -0.27240637304304 0 -0.28198104643430888 -0.2706668255676713 0 -0.28814974053071513 -0.28560814171911292 0 -0.29450274313026109 -0.27506790310150159 0 -0.28938032589533491 -0.27269560091579331 0 -0.29318120334279568 -0.26455884157385401 0 -0.29450274313026109 -0.27506790310150159 0 -0.28938032589533491 -0.27269560091579331 0 -0.29318120334279568 -0.26455884157385401 0 -0.29450274313026109 -0.27506790310150159 0 -0.30640381119716048 -0.27195778905293772 0 -0.29854911577902532 -0.28471195351501882 0 -0.29450274313026109 -0.27506790310150159 0 -0.30640381119716048 -0.27195778905293772 0 -0.29012257693975041 -0.25371784115299462 0 -0.31307032577977428 -0.24998346407264199 0 -0.29012257693975041 -0.25371784115299462 0 -0.29318120334279568 -0.26455884157385401 0 -0.31307032577977428 -0.24998346407264199 0 -0.29318120334279568 -0.26455884157385401 0 -0.30640381119716048 -0.27195778905293772 0 -0.31307032577977428 -0.24998346407264199 0 -0.34340944279416002 -0.46039363397913158 0 -0.3218164744256457 -0.45955111376111818 0 -0.32878372387337251 -0.47422210304623857 0 -0.34340944279416002 -0.46039363397913158 0 -0.330805352451363 -0.44956614011742918 0 -0.3218164744256457 -0.45955111376111818 0 -0.34340944279416002 -0.46039363397913158 0 -0.32878372387337251 -0.47422210304623857 0 -0.33959570065220279 -0.43862111642850471 0 -0.330805352451363 -0.44956614011742918 0 -0.32117273047790912 -0.44235888463540829 0 -0.34340944279416002 -0.46039363397913158 0 -0.33959570065220279 -0.43862111642850471 0 -0.330805352451363 -0.44956614011742918 0 -0.32117273047790912 -0.44235888463540829 0 -0.3218164744256457 -0.45955111376111818 0 -0.30767084708382592 -0.44905044138986711 0 -0.330805352451363 -0.44956614011742918 0 -0.32117273047790912 -0.44235888463540829 0 -0.3218164744256457 -0.45955111376111818 0 -0.3218164744256457 -0.45955111376111818 0 -0.31700149555227841 -0.46944819351161649 0 -0.32878372387337251 -0.47422210304623857 0 -0.3218164744256457 -0.45955111376111818 0 -0.31700149555227841 -0.46944819351161649 0 -0.30643623032201123 -0.46530674269153849 0 -0.31700149555227841 -0.46944819351161649 0 -0.31415800495258472 -0.4880505721133454 0 -0.30833411818712941 -0.47731071199114838 0 -0.31415800495258472 -0.4880505721133454 0 -0.34108561608369842 -0.48610899804769059 0 -0.32878372387337251 -0.47422210304623857 0 -0.31700149555227841 -0.46944819351161649 0 -0.31415800495258472 -0.4880505721133454 0 -0.32878372387337251 -0.47422210304623857 0 -0.31415800495258472 -0.4880505721133454 0 -0.32878372387337251 -0.47422210304623857 0 -0.31262495790778411 -0.5 0 -0.32711995274736011 -0.49353989254025921 0 -0.34061123204537308 -0.50000000000000033 0 -0.31415800495258472 -0.4880505721133454 0 -0.34108561608369842 -0.48610899804769059 0 -0.31415800495258472 -0.4880505721133454 0 -0.32711995274736011 -0.49353989254025921 0 -0.34108561608369842 -0.48610899804769059 0 -0.31262495790778411 -0.5 0 -0.31415800495258472 -0.4880505721133454 0 -0.32711995274736011 -0.49353989254025921 0 -0.32711995274736011 -0.49353989254025921 0 -0.34108561608369842 -0.48610899804769059 0 -0.34061123204537308 -0.50000000000000033 0 -0.34108561608369842 -0.48610899804769059 0 -0.32878372387337251 -0.47422210304623857 0 -0.34127740376491877 -0.47360137820849102 0 -0.34340944279416002 -0.46039363397913158 0 -0.32878372387337251 -0.47422210304623857 0 -0.34127740376491877 -0.47360137820849102 0 -0.34108561608369842 -0.48610899804769059 0 -0.35708719677696132 -0.47795420801311572 0 -0.36801322721481211 -0.48416742398203633 0 -0.34108561608369842 -0.48610899804769059 0 -0.35708719677696132 -0.47795420801311572 0 -0.35202521569151268 -0.47144857699931708 0 -0.34108561608369842 -0.48610899804769059 0 -0.34127740376491877 -0.47360137820849102 0 -0.35202521569151268 -0.47144857699931708 0 -0.35708719677696132 -0.47795420801311572 0 -0.35202521569151268 -0.47144857699931708 0 -0.36722472811782231 -0.47009183302341873 0 -0.34108561608369842 -0.48610899804769059 0 -0.34061123204537308 -0.50000000000000033 0 -0.36637023412995912 -0.49157256163241903 0 -0.34108561608369842 -0.48610899804769059 0 -0.36637023412995912 -0.49157256163241903 0 -0.36801322721481211 -0.48416742398203633 0 -0.34061123204537308 -0.50000000000000033 0 -0.36471805033250893 -0.5 0 -0.36637023412995912 -0.49157256163241903 0 -0.34061123204537308 -0.50000000000000033 0 -0.36637023412995912 -0.49157256163241903 0 -0.34108561608369842 -0.48610899804769059 0 -0.36801322721481211 -0.48416742398203633 0 -0.38882486861964483 -0.5 0 -0.36471805033250893 -0.5 0 -0.36637023412995912 -0.49157256163241903 0 -0.35708719677696132 -0.47795420801311572 0 -0.36801322721481211 -0.48416742398203633 0 -0.36722472811782231 -0.47009183302341873 0 -0.37970953243293287 -0.4733593997003081 0 -0.36801322721481211 -0.48416742398203633 0 -0.36722472811782231 -0.47009183302341873 0 -0.37859331801532692 -0.46185509652680878 0 -0.36080796124021702 -0.45975356526448591 0 -0.37478178800645029 -0.4456876482273574 0 -0.37859331801532692 -0.46185509652680878 0 -0.36722472811782231 -0.47009183302341873 0 -0.36080796124021702 -0.45975356526448591 0 -0.35202521569151268 -0.47144857699931708 0 -0.36722472811782231 -0.47009183302341873 0 -0.36080796124021702 -0.45975356526448591 0 -0.34340944279416002 -0.46039363397913158 0 -0.35202521569151268 -0.47144857699931708 0 -0.36080796124021702 -0.45975356526448591 0 -0.34340944279416002 -0.46039363397913158 0 -0.36080796124021702 -0.45975356526448591 0 -0.35803516171494743 -0.44656516491202453 0 -0.34340944279416002 -0.46039363397913158 0 -0.35803516171494743 -0.44656516491202453 0 -0.34340944279416002 -0.46039363397913158 0 -0.34127740376491877 -0.47360137820849102 0 -0.35202521569151268 -0.47144857699931708 0 -0.34340944279416002 -0.46039363397913158 0 -0.33959570065220279 -0.43862111642850471 0 -0.35803516171494743 -0.44656516491202453 0 -0.33959570065220279 -0.43862111642850471 0 -0.35803516171494743 -0.44656516491202453 0 -0.36476515059176751 -0.42972235092762079 0 -0.35803516171494743 -0.44656516491202453 0 -0.37478178800645029 -0.4456876482273574 0 -0.36476515059176751 -0.42972235092762079 0 -0.36080796124021702 -0.45975356526448591 0 -0.35803516171494743 -0.44656516491202453 0 -0.37478178800645029 -0.4456876482273574 0 -0.38654214193229702 -0.43333435118488739 0 -0.36476515059176751 -0.42972235092762079 0 -0.3708690937488785 -0.41264268432870499 0 -0.36476515059176751 -0.42972235092762079 0 -0.3708690937488785 -0.41264268432870499 0 -0.34956919862951807 -0.41797035203914301 0 -0.3708690937488785 -0.41264268432870499 0 -0.34956919862951807 -0.41797035203914301 0 -0.35519604556545997 -0.3919510174725227 0 -0.33959570065220279 -0.43862111642850471 0 -0.36476515059176751 -0.42972235092762079 0 -0.34956919862951807 -0.41797035203914301 0 -0.37588905238984671 -0.38965774263405911 0 -0.38203136194084147 -0.36823636963525358 0 -0.36134719639008878 -0.36921716562446061 0 -0.37588905238984671 -0.38965774263405911 0 -0.36134719639008878 -0.36921716562446061 0 -0.35519604556545997 -0.3919510174725227 0 -0.3708690937488785 -0.41264268432870499 0 -0.35519604556545997 -0.3919510174725227 0 -0.37588905238984671 -0.38965774263405911 0 -0.3708690937488785 -0.41264268432870499 0 -0.35519604556545997 -0.3919510174725227 0 -0.34956919862951807 -0.41797035203914301 0 -0.35519604556545997 -0.3919510174725227 0 -0.33563583339464131 -0.40074818530439649 0 -0.36134719639008878 -0.36921716562446061 0 -0.33952299738204172 -0.37125935061634041 0 -0.35519604556545997 -0.3919510174725227 0 -0.33952299738204172 -0.37125935061634041 0 -0.35519604556545997 -0.3919510174725227 0 -0.33952299738204172 -0.37125935061634041 0 -0.35519604556545997 -0.3919510174725227 0 -0.33563583339464131 -0.40074818530439649 0 -0.33952299738204172 -0.37125935061634041 0 -0.33563583339464131 -0.40074818530439649 0 -0.32096826374345189 -0.38511691690609828 0 -0.32096826374345189 -0.38511691690609828 0 -0.31557923814013322 -0.40901850788749078 0 -0.30287064894807753 -0.39375777980887439 0 -0.33563583339464131 -0.40074818530439649 0 -0.32096826374345189 -0.38511691690609828 0 -0.31557923814013322 -0.40901850788749078 0 -0.33959570065220279 -0.43862111642850471 0 -0.32117273047790912 -0.44235888463540829 0 -0.32785090726765692 -0.42292007623690109 0 -0.33959570065220279 -0.43862111642850471 0 -0.34956919862951807 -0.41797035203914301 0 -0.32785090726765692 -0.42292007623690109 0 -0.34956919862951807 -0.41797035203914301 0 -0.33563583339464131 -0.40074818530439649 0 -0.32785090726765692 -0.42292007623690109 0 -0.33563583339464131 -0.40074818530439649 0 -0.31557923814013322 -0.40901850788749078 0 -0.32785090726765692 -0.42292007623690109 0 -0.31557923814013322 -0.40901850788749078 0 -0.32785090726765692 -0.42292007623690109 0 -0.30803948311195051 -0.42932843983185248 0 -0.32117273047790912 -0.44235888463540829 0 -0.32785090726765692 -0.42292007623690109 0 -0.30803948311195051 -0.42932843983185248 0 -0.30803948311195051 -0.42932843983185248 0 -0.29084791470774729 -0.42583004070188241 0 -0.29369441774810517 -0.44146750380084032 0 -0.30803948311195051 -0.42932843983185248 0 -0.30023573199687398 -0.41326210317807283 0 -0.29084791470774729 -0.42583004070188241 0 -0.31557923814013322 -0.40901850788749078 0 -0.30803948311195051 -0.42932843983185248 0 -0.30023573199687398 -0.41326210317807283 0 -0.30023573199687398 -0.41326210317807283 0 -0.28600370720276702 -0.40669943308434531 0 -0.29084791470774729 -0.42583004070188241 0 -0.28600370720276702 -0.40669943308434531 0 -0.29084791470774729 -0.42583004070188241 0 -0.27499949738004742 -0.42538993332552028 0 -0.29084791470774729 -0.42583004070188241 0 -0.28180764681045622 -0.43690909746128392 0 -0.27499949738004742 -0.42538993332552028 0 -0.29084791470774729 -0.42583004070188241 0 -0.28180764681045622 -0.43690909746128392 0 -0.29369441774810517 -0.44146750380084032 0 -0.30692556588490633 -0.36582563534325963 0 -0.30287064894807753 -0.39375777980887439 0 -0.29000118257118901 -0.38108358692636068 0 -0.30692556588490633 -0.36582563534325963 0 -0.32096826374345189 -0.38511691690609828 0 -0.30287064894807753 -0.39375777980887439 0 -0.31557923814013322 -0.40901850788749078 0 -0.30023573199687398 -0.41326210317807283 0 -0.30287064894807753 -0.39375777980887439 0 -0.28600370720276702 -0.40669943308434531 0 -0.30287064894807753 -0.39375777980887439 0 -0.29000118257118901 -0.38108358692636068 0 -0.28600370720276702 -0.40669943308434531 0 -0.29000118257118901 -0.38108358692636068 0 -0.27307679925747169 -0.39634153850946169 0 -0.30023573199687398 -0.41326210317807283 0 -0.28600370720276702 -0.40669943308434531 0 -0.30287064894807753 -0.39375777980887439 0 -0.29000118257118901 -0.38108358692636068 0 -0.27307679925747169 -0.39634153850946169 0 -0.29000118257118901 -0.38108358692636068 0 -0.27040447271775342 -0.37998050806436889 0 -0.27307679925747169 -0.39634153850946169 0 -0.27040447271775342 -0.37998050806436889 0 -0.27307679925747169 -0.39634153850946169 0 -0.25795451483549042 -0.39658302442414811 0 -0.28600370720276702 -0.40669943308434531 0 -0.27307679925747169 -0.39634153850946169 0 -0.26956303236881762 -0.41359115338714131 0 -0.25795451483549042 -0.39658302442414811 0 -0.25615241594375449 -0.41159949009256269 0 -0.24288550965420749 -0.3952919456377299 0 -0.27307679925747169 -0.39634153850946169 0 -0.25615241594375449 -0.41159949009256269 0 -0.27307679925747169 -0.39634153850946169 0 -0.25795451483549042 -0.39658302442414811 0 -0.25615241594375449 -0.41159949009256269 0 -0.27040447271775342 -0.37998050806436889 0 -0.25795451483549042 -0.39658302442414811 0 -0.25216722443025408 -0.37931978641128389 0 -0.25795451483549042 -0.39658302442414811 0 -0.25216722443025408 -0.37931978641128389 0 -0.24288550965420749 -0.3952919456377299 0 -0.27499949738004742 -0.42538993332552028 0 -0.25758274206004728 -0.42792537192381619 0 -0.26862203182173661 -0.44202873389627811 0 -0.28180764681045622 -0.43690909746128392 0 -0.27499949738004742 -0.42538993332552028 0 -0.26862203182173661 -0.44202873389627811 0 -0.27499949738004742 -0.42538993332552028 0 -0.26956303236881762 -0.41359115338714131 0 -0.25758274206004728 -0.42792537192381619 0 -0.28600370720276702 -0.40669943308434531 0 -0.27499949738004742 -0.42538993332552028 0 -0.26956303236881762 -0.41359115338714131 0 -0.27307679925747169 -0.39634153850946169 0 -0.26956303236881762 -0.41359115338714131 0 -0.25615241594375449 -0.41159949009256269 0 -0.25615241594375449 -0.41159949009256269 0 -0.25758274206004728 -0.42792537192381619 0 -0.24107416148905919 -0.41562065501938822 0 -0.26956303236881762 -0.41359115338714131 0 -0.25615241594375449 -0.41159949009256269 0 -0.25758274206004728 -0.42792537192381619 0 -0.25758274206004728 -0.42792537192381619 0 -0.25456157613229319 -0.44886255795351532 0 -0.23995675077771439 -0.43513811140294939 0 -0.25456157613229319 -0.44886255795351532 0 -0.26991155765776281 -0.46164976339527392 0 -0.26862203182173661 -0.44202873389627811 0 -0.25758274206004728 -0.42792537192381619 0 -0.25456157613229319 -0.44886255795351532 0 -0.26862203182173661 -0.44202873389627811 0 -0.25456157613229319 -0.44886255795351532 0 -0.26991155765776281 -0.46164976339527392 0 -0.25542131092808429 -0.4724365687375166 0 -0.26991155765776281 -0.46164976339527392 0 -0.28087437239464458 -0.44982927558189839 0 -0.28406999381187992 -0.46307351353981702 0 -0.26991155765776281 -0.46164976339527392 0 -0.28406999381187992 -0.46307351353981702 0 -0.27882973945711542 -0.47130239761780202 0 -0.26991155765776281 -0.46164976339527392 0 -0.26862203182173661 -0.44202873389627811 0 -0.28087437239464458 -0.44982927558189839 0 -0.28180764681045622 -0.43690909746128392 0 -0.26862203182173661 -0.44202873389627811 0 -0.28087437239464458 -0.44982927558189839 0 -0.28180764681045622 -0.43690909746128392 0 -0.28087437239464458 -0.44982927558189839 0 -0.29369441774810517 -0.44146750380084032 0 -0.28087437239464458 -0.44982927558189839 0 -0.29369441774810517 -0.44146750380084032 0 -0.29486574641733398 -0.45628996361844498 0 -0.28087437239464458 -0.44982927558189839 0 -0.28406999381187992 -0.46307351353981702 0 -0.29486574641733398 -0.45628996361844498 0 -0.28406999381187992 -0.46307351353981702 0 -0.29412963408338272 -0.46642003389164438 0 -0.28793634671816498 -0.47160834841454979 0 -0.28406999381187992 -0.46307351353981702 0 -0.28793634671816498 -0.47160834841454979 0 -0.27882973945711542 -0.47130239761780202 0 -0.28406999381187992 -0.46307351353981702 0 -0.29412963408338272 -0.46642003389164438 0 -0.29486574641733398 -0.45628996361844498 0 -0.3218164744256457 -0.45955111376111818 0 -0.30643623032201123 -0.46530674269153849 0 -0.30767084708382592 -0.44905044138986711 0 -0.29486574641733398 -0.45628996361844498 0 -0.30643623032201123 -0.46530674269153849 0 -0.30767084708382592 -0.44905044138986711 0 -0.29412963408338272 -0.46642003389164438 0 -0.29486574641733398 -0.45628996361844498 0 -0.30643623032201123 -0.46530674269153849 0 -0.30803948311195051 -0.42932843983185248 0 -0.29369441774810517 -0.44146750380084032 0 -0.30767084708382592 -0.44905044138986711 0 -0.32117273047790912 -0.44235888463540829 0 -0.30803948311195051 -0.42932843983185248 0 -0.30767084708382592 -0.44905044138986711 0 -0.29369441774810517 -0.44146750380084032 0 -0.29486574641733398 -0.45628996361844498 0 -0.30767084708382592 -0.44905044138986711 0 -0.31415800495258472 -0.4880505721133454 0 -0.29456278163016958 -0.48946345561156002 0 -0.31415800495258472 -0.4880505721133454 0 -0.30833411818712941 -0.47731071199114838 0 -0.29456278163016958 -0.48946345561156002 0 -0.31415800495258472 -0.4880505721133454 0 -0.30203842944385328 -0.50000000000000155 0 -0.29456278163016958 -0.48946345561156002 0 -0.31415800495258472 -0.4880505721133454 0 -0.30203842944385328 -0.50000000000000155 0 -0.31262495790778411 -0.5 0 -0.31415800495258472 -0.4880505721133454 0 -0.30203842944385328 -0.50000000000000155 0 -0.31700149555227841 -0.46944819351161649 0 -0.30643623032201123 -0.46530674269153849 0 -0.30833411818712941 -0.47731071199114838 0 -0.30643623032201123 -0.46530674269153849 0 -0.30833411818712941 -0.47731071199114838 0 -0.29733985314752309 -0.47582160119387212 0 -0.29412963408338272 -0.46642003389164438 0 -0.30643623032201123 -0.46530674269153849 0 -0.29733985314752309 -0.47582160119387212 0 -0.30833411818712941 -0.47731071199114838 0 -0.29733985314752309 -0.47582160119387212 0 -0.29456278163016958 -0.48946345561156002 0 -0.29733985314752309 -0.47582160119387212 0 -0.28402334134283208 -0.47988150655254819 0 -0.29456278163016958 -0.48946345561156002 0 -0.29412963408338272 -0.46642003389164438 0 -0.29733985314752309 -0.47582160119387212 0 -0.28793634671816498 -0.47160834841454979 0 -0.29733985314752309 -0.47582160119387212 0 -0.28793634671816498 -0.47160834841454979 0 -0.28402334134283208 -0.47988150655254819 0 -0.28793634671816498 -0.47160834841454979 0 -0.28402334134283208 -0.47988150655254819 0 -0.27882973945711542 -0.47130239761780202 0 -0.28402334134283208 -0.47988150655254819 0 -0.29456278163016958 -0.48946345561156002 0 -0.27496755830775449 -0.49087633910977507 0 -0.29456278163016958 -0.48946345561156002 0 -0.27496755830775449 -0.49087633910977507 0 -0.29456278163016958 -0.48946345561156002 0 -0.28463868377019519 -0.500000000000004 0 -0.27496755830775449 -0.49087633910977507 0 -0.30203842944385328 -0.50000000000000155 0 -0.29456278163016958 -0.48946345561156002 0 -0.28463868377019519 -0.500000000000004 0 -0.28463868377019519 -0.500000000000004 0 -0.27496755830775449 -0.49087633910977507 0 -0.27076088116868519 -0.49117965510747091 0 -0.28463868377019519 -0.500000000000004 0 -0.27076088116868519 -0.49117965510747091 0 -0.25905625837978302 -0.5 0 -0.27496755830775449 -0.49087633910977507 0 -0.27076088116868519 -0.49117965510747091 0 -0.25542131092808429 -0.4724365687375166 0 -0.28463868377019519 -0.500000000000004 0 -0.27496755830775449 -0.49087633910977507 0 -0.27496755830775449 -0.49087633910977507 0 -0.27076088116868519 -0.49117965510747091 0 -0.27496755830775449 -0.49087633910977507 0 -0.27035912972670811 -0.47651759142085032 0 -0.25542131092808429 -0.4724365687375166 0 -0.28402334134283208 -0.47988150655254819 0 -0.27882973945711542 -0.47130239761780202 0 -0.27035912972670811 -0.47651759142085032 0 -0.28402334134283208 -0.47988150655254819 0 -0.27496755830775449 -0.49087633910977507 0 -0.27035912972670811 -0.47651759142085032 0 -0.26991155765776281 -0.46164976339527392 0 -0.27882973945711542 -0.47130239761780202 0 -0.27035912972670811 -0.47651759142085032 0 -0.27076088116868519 -0.49117965510747091 0 -0.25542131092808429 -0.4724365687375166 0 -0.25058126079239001 -0.48833401644512581 0 -0.27496755830775449 -0.49087633910977507 0 -0.25542131092808429 -0.4724365687375166 0 -0.26991155765776281 -0.46164976339527392 0 -0.27035912972670811 -0.47651759142085032 0 -0.25542131092808429 -0.4724365687375166 0 -0.27076088116868519 -0.49117965510747091 0 -0.25905625837978302 -0.5 0 -0.25058126079239001 -0.48833401644512581 0 -0.25058126079239001 -0.48833401644512581 0 -0.2348650281383611 -0.47785210857312538 0 -0.23347383298937091 -0.5 0 -0.25905625837978302 -0.5 0 -0.25058126079239001 -0.48833401644512581 0 -0.23347383298937091 -0.5 0 -0.25542131092808429 -0.4724365687375166 0 -0.25058126079239001 -0.48833401644512581 0 -0.2348650281383611 -0.47785210857312538 0 -0.2348650281383611 -0.47785210857312538 0 -0.21564299234313289 -0.46673049621159279 0 -0.2172143737371999 -0.48527694188150949 0 -0.23347383298937091 -0.5 0 -0.20789140759895861 -0.50000000000000544 0 -0.2172143737371999 -0.48527694188150949 0 -0.2348650281383611 -0.47785210857312538 0 -0.23347383298937091 -0.5 0 -0.2172143737371999 -0.48527694188150949 0 -0.25456157613229319 -0.44886255795351532 0 -0.23587506354841409 -0.45399679836525791 0 -0.23995675077771439 -0.43513811140294939 0 -0.23587506354841409 -0.45399679836525791 0 -0.2312200743002491 -0.43810821617793561 0 -0.23995675077771439 -0.43513811140294939 0 -0.25542131092808429 -0.4724365687375166 0 -0.23587506354841409 -0.45399679836525791 0 -0.25542131092808429 -0.4724365687375166 0 -0.2348650281383611 -0.47785210857312538 0 -0.23587506354841409 -0.45399679836525791 0 -0.25456157613229319 -0.44886255795351532 0 -0.25542131092808429 -0.4724365687375166 0 -0.23587506354841409 -0.45399679836525791 0 -0.2348650281383611 -0.47785210857312538 0 -0.23587506354841409 -0.45399679836525791 0 -0.21564299234313289 -0.46673049621159279 0 -0.23587506354841409 -0.45399679836525791 0 -0.21913590377993611 -0.45096623952885162 0 -0.21564299234313289 -0.46673049621159279 0 -0.23587506354841409 -0.45399679836525791 0 -0.2194811484640585 -0.43756068374977342 0 -0.2312200743002491 -0.43810821617793561 0 -0.23587506354841409 -0.45399679836525791 0 -0.2194811484640585 -0.43756068374977342 0 -0.21632881616874389 -0.43555702799299922 0 -0.23587506354841409 -0.45399679836525791 0 -0.21913590377993611 -0.45096623952885162 0 -0.21632881616874389 -0.43555702799299922 0 -0.23587506354841409 -0.45399679836525791 0 -0.21632881616874389 -0.43555702799299922 0 -0.21229461677049341 -0.44269513493934609 0 -0.2088689142446423 -0.45435561994879919 0 -0.19157996686327 -0.4425044509386265 0 -0.21229461677049341 -0.44269513493934609 0 -0.19157996686327 -0.4425044509386265 0 -0.20754974346911759 -0.43678273291182762 0 -0.21913590377993611 -0.45096623952885162 0 -0.21229461677049341 -0.44269513493934609 0 -0.21632881616874389 -0.43555702799299922 0 -0.21229461677049341 -0.44269513493934609 0 -0.21632881616874389 -0.43555702799299922 0 -0.20754974346911759 -0.43678273291182762 0 -0.21913590377993611 -0.45096623952885162 0 -0.21229461677049341 -0.44269513493934609 0 -0.2088689142446423 -0.45435561994879919 0 -0.21564299234313289 -0.46673049621159279 0 -0.2088689142446423 -0.45435561994879919 0 -0.19926255939143969 -0.46101527454008739 0 -0.21913590377993611 -0.45096623952885162 0 -0.21564299234313289 -0.46673049621159279 0 -0.2088689142446423 -0.45435561994879919 0 -0.19926255939143969 -0.46101527454008739 0 -0.18754532839268859 -0.45927007061311059 0 -0.19157996686327 -0.4425044509386265 0 -0.19926255939143969 -0.46101527454008739 0 -0.18754532839268859 -0.45927007061311059 0 -0.19223593863302951 -0.48112644502732138 0 -0.2088689142446423 -0.45435561994879919 0 -0.19926255939143969 -0.46101527454008739 0 -0.19157996686327 -0.4425044509386265 0 -0.21229461677049341 -0.44269513493934609 0 -0.19157996686327 -0.4425044509386265 0 -0.20789140759895861 -0.50000000000000544 0 -0.2172143737371999 -0.48527694188150949 0 -0.19223593863302951 -0.48112644502732138 0 -0.21564299234313289 -0.46673049621159279 0 -0.2172143737371999 -0.48527694188150949 0 -0.19223593863302951 -0.48112644502732138 0 -0.21564299234313289 -0.46673049621159279 0 -0.19926255939143969 -0.46101527454008739 0 -0.19223593863302951 -0.48112644502732138 0 -0.20789140759895861 -0.50000000000000544 0 -0.19223593863302951 -0.48112644502732138 0 -0.20789140759895861 -0.50000000000000544 0 -0.19223593863302951 -0.48112644502732138 0 -0.18108403838349069 -0.5 0 -0.19223593863302951 -0.48112644502732138 0 -0.18108403838349069 -0.5 0 -0.16581429521955771 -0.48220848830447149 0 -0.18108403838349069 -0.5 0 -0.16581429521955771 -0.48220848830447149 0 -0.1542766691680228 -0.5 0 -0.16581429521955771 -0.48220848830447149 0 -0.1765804696671042 -0.46225289005463432 0 -0.15066150622517879 -0.46613286349038902 0 -0.19223593863302951 -0.48112644502732138 0 -0.1765804696671042 -0.46225289005463432 0 -0.19223593863302951 -0.48112644502732138 0 -0.16581429521955771 -0.48220848830447149 0 -0.1765804696671042 -0.46225289005463432 0 -0.19223593863302951 -0.48112644502732138 0 -0.17800261459891301 -0.46204000019236813 0 -0.1765804696671042 -0.46225289005463432 0 -0.18754532839268859 -0.45927007061311059 0 -0.19223593863302951 -0.48112644502732138 0 -0.17800261459891301 -0.46204000019236813 0 -0.18754532839268859 -0.45927007061311059 0 -0.18134314961323719 -0.45678424263767592 0 -0.17800261459891301 -0.46204000019236813 0 -0.18754532839268859 -0.45927007061311059 0 -0.18134314961323719 -0.45678424263767592 0 -0.18219391625480039 -0.45046703095494428 0 -0.18134314961323719 -0.45678424263767592 0 -0.1776307392065466 -0.45535986879028051 0 -0.18219391625480039 -0.45046703095494428 0 -0.1776307392065466 -0.45535986879028051 0 -0.17800261459891301 -0.46204000019236813 0 -0.1765804696671042 -0.46225289005463432 0 -0.18134314961323719 -0.45678424263767592 0 -0.1776307392065466 -0.45535986879028051 0 -0.17800261459891301 -0.46204000019236813 0 -0.1776307392065466 -0.45535986879028051 0 -0.1765804696671042 -0.46225289005463432 0 -0.17094092854816781 -0.45545410366499051 0 -0.1765804696671042 -0.46225289005463432 0 -0.17096227350604221 -0.45916358690628989 0 -0.17094092854816781 -0.45545410366499051 0 -0.1765804696671042 -0.46225289005463432 0 -0.17094092854816781 -0.45545410366499051 0 -0.17800261459891301 -0.46204000019236813 0 -0.1765804696671042 -0.46225289005463432 0 -0.19157996686327 -0.4425044509386265 0 -0.17086531695604659 -0.44231376693790669 0 -0.18754532839268859 -0.45927007061311059 0 -0.19157996686327 -0.4425044509386265 0 -0.18219391625480039 -0.45046703095494428 0 -0.19157996686327 -0.4425044509386265 0 -0.18219391625480039 -0.45046703095494428 0 -0.17086531695604659 -0.44231376693790669 0 -0.19157996686327 -0.4425044509386265 0 -0.17086531695604659 -0.44231376693790669 0 -0.18231176488392631 -0.43375072034059658 0 -0.1776307392065466 -0.45535986879028051 0 -0.17086531695604659 -0.44231376693790669 0 -0.17094092854816781 -0.45545410366499051 0 -0.1776307392065466 -0.45535986879028051 0 -0.18219391625480039 -0.45046703095494428 0 -0.17086531695604659 -0.44231376693790669 0 -0.17086531695604659 -0.44231376693790669 0 -0.1599578338035636 -0.44221336058131139 0 -0.17086531695604659 -0.44231376693790669 0 -0.1599578338035636 -0.44221336058131139 0 -0.17094092854816781 -0.45545410366499051 0 -0.17086531695604659 -0.44231376693790669 0 -0.17094092854816781 -0.45545410366499051 0 -0.1599578338035636 -0.44221336058131139 0 -0.17094092854816781 -0.45545410366499051 0 -0.1599578338035636 -0.44221336058131139 0 -0.17094092854816781 -0.45545410366499051 0 -0.159002479054798 -0.4573776024382103 0 -0.1765804696671042 -0.46225289005463432 0 -0.15066150622517879 -0.46613286349038902 0 -0.17096227350604221 -0.45916358690628989 0 -0.159002479054798 -0.4573776024382103 0 -0.15066150622517879 -0.46613286349038902 0 -0.1765804696671042 -0.46225289005463432 0 -0.17096227350604221 -0.45916358690628989 0 -0.15066150622517879 -0.46613286349038902 0 -0.17096227350604221 -0.45916358690628989 0 -0.17094092854816781 -0.45545410366499051 0 -0.159002479054798 -0.4573776024382103 0 -0.17096227350604221 -0.45916358690628989 0 -0.17094092854816781 -0.45545410366499051 0 -0.159002479054798 -0.4573776024382103 0 -0.15066150622517879 -0.46613286349038902 0 -0.13857577240007041 -0.45618689200695239 0 -0.1599578338035636 -0.44221336058131139 0 -0.159002479054798 -0.4573776024382103 0 -0.14107046423764091 -0.44203949719438501 0 -0.1599578338035636 -0.44221336058131139 0 -0.14107046423764091 -0.44203949719438501 0 -0.159002479054798 -0.4573776024382103 0 -0.14107046423764091 -0.44203949719438501 0 -0.13857577240007041 -0.45618689200695239 0 -0.14107046423764091 -0.44203949719438501 0 -0.13857577240007041 -0.45618689200695239 0 -0.1221830946717181 -0.44186563380745669 0 -0.14107046423764091 -0.44203949719438501 0 -0.1221830946717181 -0.44186563380745669 0 -0.14107046423764091 -0.44203949719438501 0 -0.1307274991614775 -0.43356976766927618 0 -0.1221830946717181 -0.44186563380745669 0 -0.15066150622517879 -0.46613286349038902 0 -0.1247425427832535 -0.47001283692614448 0 -0.13857577240007041 -0.45618689200695239 0 -0.1247425427832535 -0.47001283692614448 0 -0.1221830946717181 -0.44186563380745669 0 -0.15066150622517879 -0.46613286349038902 0 -0.13857577240007041 -0.45618689200695239 0 -0.1247425427832535 -0.47001283692614448 0 -0.15066150622517879 -0.46613286349038902 0 -0.14236639078602711 -0.48370409170842199 0 -0.1247425427832535 -0.47001283692614448 0 -0.12746929995255479 -0.49999999999999972 0 -0.14236639078602711 -0.48370409170842199 0 -0.1247425427832535 -0.47001283692614448 0 -0.12746929995255479 -0.49999999999999972 0 -0.1247425427832535 -0.47001283692614448 0 -0.12746929995255479 -0.49999999999999972 0 -0.1542766691680228 -0.5 0 -0.14236639078602711 -0.48370409170842199 0 -0.16581429521955771 -0.48220848830447149 0 -0.1542766691680228 -0.5 0 -0.14236639078602711 -0.48370409170842199 0 -0.16581429521955771 -0.48220848830447149 0 -0.15066150622517879 -0.46613286349038902 0 -0.14236639078602711 -0.48370409170842199 0 -0.14447646017028681 -0.40197702601891411 0 -0.13855494556215911 -0.3888255525407871 0 -0.15666711850361739 -0.39407487367175742 0 -0.14447646017028681 -0.40197702601891411 0 -0.1556363217125338 -0.40932242136593139 0 -0.15666711850361739 -0.39407487367175742 0 -0.14263814212428791 -0.37524463270077812 0 -0.15666711850361739 -0.39407487367175742 0 -0.14263814212428791 -0.37524463270077812 0 -0.13855494556215911 -0.3888255525407871 0 -0.15666711850361739 -0.39407487367175742 0 -0.1544848007479947 -0.38566369915776111 0 -0.14263814212428791 -0.37524463270077812 0 -0.15666711850361739 -0.39407487367175742 0 -0.1544848007479947 -0.38566369915776111 0 -0.15233235979314191 -0.37575332316581028 0 -0.15774718336544499 -0.37963838569474112 0 -0.1544848007479947 -0.38566369915776111 0 -0.15233235979314191 -0.37575332316581028 0 -0.14263814212428791 -0.37524463270077812 0 -0.13855494556215911 -0.3888255525407871 0 -0.12401467436812789 -0.39888184512347119 0 -0.12482747800071579 -0.38046227385892861 0 -0.14263814212428791 -0.37524463270077812 0 -0.13855494556215911 -0.3888255525407871 0 -0.1333873989190579 -0.37809936726873011 0 -0.13855494556215911 -0.3888255525407871 0 -0.1333873989190579 -0.37809936726873011 0 -0.12482747800071579 -0.38046227385892861 0 -0.1333873989190579 -0.37809936726873011 0 -0.12752902998906909 -0.36786500997442639 0 -0.12482747800071579 -0.38046227385892861 0 -0.14447646017028681 -0.40197702601891411 0 -0.13855494556215911 -0.3888255525407871 0 -0.12401467436812789 -0.39888184512347119 0 -0.14198625408584681 -0.42054760285239062 0 -0.12401467436812789 -0.39888184512347119 0 -0.12667571080136819 -0.42660160814618803 0 -0.14198625408584681 -0.42054760285239062 0 -0.1219852137394527 -0.41676446505631559 0 -0.14447646017028681 -0.40197702601891411 0 -0.14198625408584681 -0.42054760285239062 0 -0.12401467436812789 -0.39888184512347119 0 -0.14198625408584681 -0.42054760285239062 0 -0.1219852137394527 -0.41676446505631559 0 -0.12401467436812789 -0.39888184512347119 0 -0.14107046423764091 -0.44203949719438501 0 -0.1307274991614775 -0.43356976766927618 0 -0.14198625408584681 -0.42054760285239062 0 -0.1307274991614775 -0.43356976766927618 0 -0.12667571080136819 -0.42660160814618803 0 -0.12172197201081331 -0.43679449634596079 0 -0.1307274991614775 -0.43356976766927618 0 -0.12667571080136819 -0.42660160814618803 0 -0.14198625408584681 -0.42054760285239062 0 -0.1599578338035636 -0.44221336058131139 0 -0.14198625408584681 -0.42054760285239062 0 -0.16101993746776011 -0.42719418347761767 0 -0.1599578338035636 -0.44221336058131139 0 -0.14107046423764091 -0.44203949719438501 0 -0.14198625408584681 -0.42054760285239062 0 -0.1599578338035636 -0.44221336058131139 0 -0.14198625408584681 -0.42054760285239062 0 -0.14447646017028681 -0.40197702601891411 0 -0.14198625408584681 -0.42054760285239062 0 -0.1556363217125338 -0.40932242136593139 0 -0.14198625408584681 -0.42054760285239062 0 -0.15855166220102171 -0.41763482823868991 0 -0.16101993746776011 -0.42719418347761767 0 -0.14198625408584681 -0.42054760285239062 0 -0.1556363217125338 -0.40932242136593139 0 -0.15855166220102171 -0.41763482823868991 0 -0.1556363217125338 -0.40932242136593139 0 -0.15855166220102171 -0.41763482823868991 0 -0.17069609488294829 -0.4129051146427356 0 -0.15855166220102171 -0.41763482823868991 0 -0.17069609488294829 -0.4129051146427356 0 -0.16101993746776011 -0.42719418347761767 0 -0.17086531695604659 -0.44231376693790669 0 -0.17069609488294829 -0.4129051146427356 0 -0.16101993746776011 -0.42719418347761767 0 -0.17086531695604659 -0.44231376693790669 0 -0.17069609488294829 -0.4129051146427356 0 -0.17086531695604659 -0.44231376693790669 0 -0.1599578338035636 -0.44221336058131139 0 -0.16101993746776011 -0.42719418347761767 0 -0.17086531695604659 -0.44231376693790669 0 -0.17069609488294829 -0.4129051146427356 0 -0.17748455682057129 -0.42201685384960658 0 -0.17086531695604659 -0.44231376693790669 0 -0.17748455682057129 -0.42201685384960658 0 -0.18231176488392631 -0.43375072034059658 0 -0.17748455682057129 -0.42201685384960658 0 -0.18578666990519291 -0.42017153214911912 0 -0.18931721889581721 -0.42816780963624662 0 -0.17748455682057129 -0.42201685384960658 0 -0.18231176488392631 -0.43375072034059658 0 -0.18931721889581721 -0.42816780963624662 0 -0.1805791585850875 -0.41289657188921802 0 -0.1772363214094036 -0.3986774872484819 0 -0.19678256878907369 -0.41711725762074048 0 -0.1772363214094036 -0.3986774872484819 0 -0.19678256878907369 -0.41711725762074048 0 -0.17069609488294829 -0.4129051146427356 0 -0.1805791585850875 -0.41289657188921802 0 -0.17477073563045181 -0.40392706865668943 0 -0.17069609488294829 -0.4129051146427356 0 -0.17748455682057129 -0.42201685384960658 0 -0.17069609488294829 -0.4129051146427356 0 -0.17748455682057129 -0.42201685384960658 0 -0.1805791585850875 -0.41289657188921802 0 -0.17748455682057129 -0.42201685384960658 0 -0.18578666990519291 -0.42017153214911912 0 -0.1805791585850875 -0.41289657188921802 0 -0.1705713676443677 -0.39122910084632201 0 -0.18217259138920161 -0.38300399499338178 0 -0.1967727269148089 -0.400293874583669 0 -0.1705713676443677 -0.39122910084632201 0 -0.1967727269148089 -0.400293874583669 0 -0.1772363214094036 -0.3986774872484819 0 -0.1705713676443677 -0.39122910084632201 0 -0.1967727269148089 -0.400293874583669 0 -0.17069609488294829 -0.4129051146427356 0 -0.17477073563045181 -0.40392706865668943 0 -0.1705713676443677 -0.39122910084632201 0 -0.1772363214094036 -0.3986774872484819 0 -0.17477073563045181 -0.40392706865668943 0 -0.1705713676443677 -0.39122910084632201 0 -0.1805791585850875 -0.41289657188921802 0 -0.1772363214094036 -0.3986774872484819 0 -0.17477073563045181 -0.40392706865668943 0 -0.17069609488294829 -0.4129051146427356 0 -0.1705713676443677 -0.39122910084632201 0 -0.15666711850361739 -0.39407487367175742 0 -0.1556363217125338 -0.40932242136593139 0 -0.17069609488294829 -0.4129051146427356 0 -0.15666711850361739 -0.39407487367175742 0 -0.17069609488294829 -0.4129051146427356 0 -0.1705713676443677 -0.39122910084632201 0 -0.17069609488294829 -0.4129051146427356 0 -0.15666711850361739 -0.39407487367175742 0 -0.1544848007479947 -0.38566369915776111 0 -0.1705713676443677 -0.39122910084632201 0 -0.16269865651341001 -0.38282573597506148 0 -0.1544848007479947 -0.38566369915776111 0 -0.1705713676443677 -0.39122910084632201 0 -0.1544848007479947 -0.38566369915776111 0 -0.1705713676443677 -0.39122910084632201 0 -0.15666711850361739 -0.39407487367175742 0 -0.1544848007479947 -0.38566369915776111 0 -0.15774718336544499 -0.37963838569474112 0 -0.16269865651341001 -0.38282573597506148 0 -0.15774718336544499 -0.37963838569474112 0 -0.16269865651341001 -0.38282573597506148 0 -0.16476279656794179 -0.37787728668350312 0 -0.15774718336544499 -0.37963838569474112 0 -0.16476279656794179 -0.37787728668350312 0 -0.15918403209824339 -0.37433455171457369 0 -0.15233235979314191 -0.37575332316581028 0 -0.15774718336544499 -0.37963838569474112 0 -0.15918403209824339 -0.37433455171457369 0 -0.1705713676443677 -0.39122910084632201 0 -0.16713208710118219 -0.38249529981223768 0 -0.17049552767900961 -0.37804907574406449 0 -0.1705713676443677 -0.39122910084632201 0 -0.17049552767900961 -0.37804907574406449 0 -0.1705713676443677 -0.39122910084632201 0 -0.16269865651341001 -0.38282573597506148 0 -0.16713208710118219 -0.38249529981223768 0 -0.16476279656794179 -0.37787728668350312 0 -0.17049552767900961 -0.37804907574406449 0 -0.17276735873495749 -0.3744924357720234 0 -0.16476279656794179 -0.37787728668350312 0 -0.15918403209824339 -0.37433455171457369 0 -0.17276735873495749 -0.3744924357720234 0 -0.16269865651341001 -0.38282573597506148 0 -0.16713208710118219 -0.38249529981223768 0 -0.16476279656794179 -0.37787728668350312 0 -0.16713208710118219 -0.38249529981223768 0 -0.16476279656794179 -0.37787728668350312 0 -0.17049552767900961 -0.37804907574406449 0 -0.17049552767900961 -0.37804907574406449 0 -0.1750669555095003 -0.37959892628767561 0 -0.17276735873495749 -0.3744924357720234 0 -0.18217259138920161 -0.38300399499338178 0 -0.19484645522995739 -0.38353145779313541 0 -0.17276735873495749 -0.3744924357720234 0 -0.19484645522995739 -0.38353145779313541 0 -0.17276735873495749 -0.3744924357720234 0 -0.1822456476370945 -0.3716520410351033 0 -0.19484645522995739 -0.38353145779313541 0 -0.17276735873495749 -0.3744924357720234 0 -0.1750669555095003 -0.37959892628767561 0 -0.18217259138920161 -0.38300399499338178 0 -0.17276735873495749 -0.3744924357720234 0 -0.17049552767900961 -0.37804907574406449 0 -0.1750669555095003 -0.37959892628767561 0 -0.17483234423483229 -0.38285019864123282 0 -0.1750669555095003 -0.37959892628767561 0 -0.17483234423483229 -0.38285019864123282 0 -0.18217259138920161 -0.38300399499338178 0 -0.1705713676443677 -0.39122910084632201 0 -0.17483234423483229 -0.38285019864123282 0 -0.18217259138920161 -0.38300399499338178 0 -0.1705713676443677 -0.39122910084632201 0 -0.17049552767900961 -0.37804907574406449 0 -0.17483234423483229 -0.38285019864123282 0 -0.19484645522995739 -0.38353145779313541 0 -0.1897769381987976 -0.37115032483986798 0 -0.1822456476370945 -0.3716520410351033 0 -0.2003679755188654 -0.37709404238624228 0 -0.19484645522995739 -0.38353145779313541 0 -0.2130690767943669 -0.39203989982927201 0 -0.18217259138920161 -0.38300399499338178 0 -0.19484645522995739 -0.38353145779313541 0 -0.1967727269148089 -0.400293874583669 0 -0.2003679755188654 -0.37709404238624228 0 -0.19484645522995739 -0.38353145779313541 0 -0.1897769381987976 -0.37115032483986798 0 -0.1772363214094036 -0.3986774872484819 0 -0.1967727269148089 -0.400293874583669 0 -0.19678256878907369 -0.41711725762074048 0 -0.19484645522995739 -0.38353145779313541 0 -0.1967727269148089 -0.400293874583669 0 -0.2130690767943669 -0.39203989982927201 0 -0.1967727269148089 -0.400293874583669 0 -0.22297408618525039 -0.40935864832101548 0 -0.1967727269148089 -0.400293874583669 0 -0.2130690767943669 -0.39203989982927201 0 -0.22297408618525039 -0.40935864832101548 0 -0.2130690767943669 -0.39203989982927201 0 -0.21993093518493681 -0.36973205995471581 0 -0.2052156257812161 -0.36594936604972789 0 -0.2130690767943669 -0.39203989982927201 0 -0.2052156257812161 -0.36594936604972789 0 -0.2003679755188654 -0.37709404238624228 0 -0.2130690767943669 -0.39203989982927201 0 -0.2052156257812161 -0.36594936604972789 0 -0.19157996686327 -0.4425044509386265 0 -0.2020331473689424 -0.43218667912187581 0 -0.20754974346911759 -0.43678273291182762 0 -0.19157996686327 -0.4425044509386265 0 -0.2020331473689424 -0.43218667912187581 0 -0.18931721889581721 -0.42816780963624662 0 -0.19157996686327 -0.4425044509386265 0 -0.18231176488392631 -0.43375072034059658 0 -0.18931721889581721 -0.42816780963624662 0 -0.2020331473689424 -0.43218667912187581 0 -0.18931721889581721 -0.42816780963624662 0 -0.19678256878907369 -0.41711725762074048 0 -0.1967727269148089 -0.400293874583669 0 -0.19678256878907369 -0.41711725762074048 0 -0.21203738979653641 -0.42052651666197921 0 -0.18578666990519291 -0.42017153214911912 0 -0.1805791585850875 -0.41289657188921802 0 -0.19678256878907369 -0.41711725762074048 0 -0.18578666990519291 -0.42017153214911912 0 -0.18931721889581721 -0.42816780963624662 0 -0.19678256878907369 -0.41711725762074048 0 -0.1967727269148089 -0.400293874583669 0 -0.21203738979653641 -0.42052651666197921 0 -0.22297408618525039 -0.40935864832101548 0 -0.19678256878907369 -0.41711725762074048 0 -0.21203738979653641 -0.42052651666197921 0 -0.21632881616874389 -0.43555702799299922 0 -0.2020331473689424 -0.43218667912187581 0 -0.19678256878907369 -0.41711725762074048 0 -0.21632881616874389 -0.43555702799299922 0 -0.19678256878907369 -0.41711725762074048 0 -0.21632881616874389 -0.43555702799299922 0 -0.2194811484640585 -0.43756068374977342 0 -0.21203738979653641 -0.42052651666197921 0 -0.21632881616874389 -0.43555702799299922 0 -0.2194811484640585 -0.43756068374977342 0 -0.21203738979653641 -0.42052651666197921 0 -0.22297408618525039 -0.40935864832101548 0 -0.2020331473689424 -0.43218667912187581 0 -0.21632881616874389 -0.43555702799299922 0 -0.20754974346911759 -0.43678273291182762 0 -0.2194811484640585 -0.43756068374977342 0 -0.2295673344108094 -0.42573727119376181 0 -0.22297408618525039 -0.40935864832101548 0 -0.2194811484640585 -0.43756068374977342 0 -0.22297408618525039 -0.40935864832101548 0 -0.2312200743002491 -0.43810821617793561 0 -0.2295673344108094 -0.42573727119376181 0 -0.23995675077771439 -0.43513811140294939 0 -0.2194811484640585 -0.43756068374977342 0 -0.2312200743002491 -0.43810821617793561 0 -0.2295673344108094 -0.42573727119376181 0 -0.22297408618525039 -0.40935864832101548 0 -0.24107416148905919 -0.41562065501938822 0 -0.23327492589122009 -0.40096469195717549 0 -0.2295673344108094 -0.42573727119376181 0 -0.22297408618525039 -0.40935864832101548 0 -0.24107416148905919 -0.41562065501938822 0 -0.22297408618525039 -0.40935864832101548 0 -0.24107416148905919 -0.41562065501938822 0 -0.25615241594375449 -0.41159949009256269 0 -0.24107416148905919 -0.41562065501938822 0 -0.24288550965420749 -0.3952919456377299 0 -0.2295673344108094 -0.42573727119376181 0 -0.24107416148905919 -0.41562065501938822 0 -0.23995675077771439 -0.43513811140294939 0 -0.25758274206004728 -0.42792537192381619 0 -0.24107416148905919 -0.41562065501938822 0 -0.23995675077771439 -0.43513811140294939 0 -0.2130690767943669 -0.39203989982927201 0 -0.2261659462363633 -0.3835875188505688 0 -0.21993093518493681 -0.36973205995471581 0 -0.22297408618525039 -0.40935864832101548 0 -0.2261659462363633 -0.3835875188505688 0 -0.2130690767943669 -0.39203989982927201 0 -0.22297408618525039 -0.40935864832101548 0 -0.2261659462363633 -0.3835875188505688 0 -0.2261659462363633 -0.3835875188505688 0 -0.23327492589122009 -0.40096469195717549 0 -0.24288550965420749 -0.3952919456377299 0 -0.22297408618525039 -0.40935864832101548 0 -0.2261659462363633 -0.3835875188505688 0 -0.23327492589122009 -0.40096469195717549 0 -0.24107416148905919 -0.41562065501938822 0 -0.23327492589122009 -0.40096469195717549 0 -0.24288550965420749 -0.3952919456377299 0 -0.2261659462363633 -0.3835875188505688 0 -0.24288550965420749 -0.3952919456377299 0 -0.2395633906316024 -0.38328783712714909 0 -0.25216722443025408 -0.37931978641128389 0 -0.24288550965420749 -0.3952919456377299 0 -0.2395633906316024 -0.38328783712714909 0 -0.2261659462363633 -0.3835875188505688 0 -0.2395633906316024 -0.38328783712714909 0 -0.23905729718373589 -0.37373401900303921 0 -0.25216722443025408 -0.37931978641128389 0 -0.2395633906316024 -0.38328783712714909 0 -0.23905729718373589 -0.37373401900303921 0 -0.25216722443025408 -0.37931978641128389 0 -0.24798357532417231 -0.36455696890170719 0 -0.23905729718373589 -0.37373401900303921 0 -0.24798357532417231 -0.36455696890170719 0 -0.23905729718373589 -0.37373401900303921 0 -0.22935780628747279 -0.35781638938012161 0 -0.2261659462363633 -0.3835875188505688 0 -0.22935780628747279 -0.35781638938012161 0 -0.2261659462363633 -0.3835875188505688 0 -0.21993093518493681 -0.36973205995471581 0 -0.22935780628747279 -0.35781638938012161 0 -0.2261659462363633 -0.3835875188505688 0 -0.23905729718373589 -0.37373401900303921 0 -0.22935780628747279 -0.35781638938012161 0 -0.22935780628747279 -0.35781638938012161 0 -0.23163787481119091 -0.33940707938993647 0 -0.2173227498711259 -0.34289890456370198 0 -0.22935780628747279 -0.35781638938012161 0 -0.23163787481119091 -0.33940707938993647 0 -0.25234263673347551 -0.35007329882855392 0 -0.22935780628747279 -0.35781638938012161 0 -0.23163787481119091 -0.33940707938993647 0 -0.25234263673347551 -0.35007329882855392 0 -0.24798357532417231 -0.36455696890170719 0 -0.22935780628747279 -0.35781638938012161 0 -0.25234263673347551 -0.35007329882855392 0 -0.22935780628747279 -0.35781638938012161 0 -0.25234263673347551 -0.35007329882855392 0 -0.26126308564597589 -0.33467194338448492 0 -0.23163787481119091 -0.33940707938993647 0 -0.26126308564597589 -0.33467194338448492 0 -0.24693282481476661 -0.32690580272397468 0 -0.23163787481119091 -0.33940707938993647 0 -0.26126308564597589 -0.33467194338448492 0 -0.23163787481119091 -0.33940707938993647 0 -0.24693282481476661 -0.32690580272397468 0 -0.23163787481119091 -0.33940707938993647 0 -0.2329818123359069 -0.32855610616585418 0 -0.2329818123359069 -0.32855610616585418 0 -0.236605818384339 -0.29929582295158669 0 -0.2418774018315184 -0.31739649357937022 0 -0.2329818123359069 -0.32855610616585418 0 -0.236605818384339 -0.29929582295158669 0 -0.25098915179106102 -0.31482824247606489 0 -0.24693282481476661 -0.32690580272397468 0 -0.2418774018315184 -0.31739649357937022 0 -0.24693282481476661 -0.32690580272397468 0 -0.2418774018315184 -0.31739649357937022 0 -0.2329818123359069 -0.32855610616585418 0 -0.2329818123359069 -0.32855610616585418 0 -0.21084640631620319 -0.32877697413211898 0 -0.21484491146648049 -0.3114552110174526 0 -0.2329818123359069 -0.32855610616585418 0 -0.236605818384339 -0.29929582295158669 0 -0.21484491146648049 -0.3114552110174526 0 -0.23163787481119091 -0.33940707938993647 0 -0.2329818123359069 -0.32855610616585418 0 -0.2173227498711259 -0.34289890456370198 0 -0.2329818123359069 -0.32855610616585418 0 -0.2173227498711259 -0.34289890456370198 0 -0.21084640631620319 -0.32877697413211898 0 -0.23163787481119091 -0.33940707938993647 0 -0.2329818123359069 -0.32855610616585418 0 -0.2173227498711259 -0.34289890456370198 0 -0.21084640631620319 -0.32877697413211898 0 -0.19809939456290571 -0.34230800498777147 0 -0.21084640631620319 -0.32877697413211898 0 -0.19098316334459689 -0.31866664392581467 0 -0.21484491146648049 -0.3114552110174526 0 -0.19098316334459689 -0.31866664392581467 0 -0.19809939456290571 -0.34230800498777147 0 -0.21084640631620319 -0.32877697413211898 0 -0.19098316334459689 -0.31866664392581467 0 -0.19809939456290571 -0.34230800498777147 0 -0.19098316334459689 -0.31866664392581467 0 -0.19809939456290571 -0.34230800498777147 0 -0.17503182765290859 -0.33342601151072992 0 -0.19809939456290571 -0.34230800498777147 0 -0.1916198351344503 -0.35777610131453019 0 -0.2052156257812161 -0.36594936604972789 0 -0.19809939456290571 -0.34230800498777147 0 -0.1916198351344503 -0.35777610131453019 0 -0.18263909612988921 -0.34933555335250338 0 -0.19809939456290571 -0.34230800498777147 0 -0.2052156257812161 -0.36594936604972789 0 -0.1897769381987976 -0.37115032483986798 0 -0.2052156257812161 -0.36594936604972789 0 -0.2003679755188654 -0.37709404238624228 0 -0.1897769381987976 -0.37115032483986798 0 -0.2052156257812161 -0.36594936604972789 0 -0.1916198351344503 -0.35777610131453019 0 -0.1897769381987976 -0.37115032483986798 0 -0.2052156257812161 -0.36594936604972789 0 -0.22935780628747279 -0.35781638938012161 0 -0.2052156257812161 -0.36594936604972789 0 -0.21993093518493681 -0.36973205995471581 0 -0.22935780628747279 -0.35781638938012161 0 -0.2052156257812161 -0.36594936604972789 0 -0.22935780628747279 -0.35781638938012161 0 -0.2173227498711259 -0.34289890456370198 0 -0.2052156257812161 -0.36594936604972789 0 -0.2173227498711259 -0.34289890456370198 0 -0.19809939456290571 -0.34230800498777147 0 -0.2052156257812161 -0.36594936604972789 0 -0.2237716177102389 -0.25585513408917238 0 -0.24022982443277119 -0.27003553973731909 0 -0.24385383048120329 -0.24077525652305151 0 -0.24022982443277119 -0.27003553973731909 0 -0.24385383048120329 -0.24077525652305151 0 -0.25857393321876138 -0.2593624870162452 0 -0.24022982443277119 -0.27003553973731909 0 -0.24385383048120329 -0.24077525652305151 0 -0.2237716177102389 -0.25585513408917238 0 -0.24022982443277119 -0.27003553973731909 0 -0.22200230066405491 -0.2779769060628744 0 -0.24022982443277119 -0.27003553973731909 0 -0.22200230066405491 -0.2779769060628744 0 -0.236605818384339 -0.29929582295158669 0 -0.22200230066405491 -0.2779769060628744 0 -0.236605818384339 -0.29929582295158669 0 -0.20629836434289209 -0.29191287156534351 0 -0.25858664622234229 -0.29007192760725742 0 -0.25313781606648211 -0.27747372974667112 0 -0.236605818384339 -0.29929582295158669 0 -0.24022982443277119 -0.27003553973731909 0 -0.236605818384339 -0.29929582295158669 0 -0.25313781606648211 -0.27747372974667112 0 -0.24022982443277119 -0.27003553973731909 0 -0.236605818384339 -0.29929582295158669 0 -0.25098915179106102 -0.31482824247606489 0 -0.2418774018315184 -0.31739649357937022 0 -0.236605818384339 -0.29929582295158669 0 -0.25098915179106102 -0.31482824247606489 0 -0.25432611049168241 -0.30268117862007088 0 -0.236605818384339 -0.29929582295158669 0 -0.25432611049168241 -0.30268117862007088 0 -0.25858664622234229 -0.29007192760725742 0 -0.236605818384339 -0.29929582295158669 0 -0.236605818384339 -0.29929582295158669 0 -0.21484491146648049 -0.3114552110174526 0 -0.20629836434289209 -0.29191287156534351 0 -0.19098316334459689 -0.31866664392581467 0 -0.21484491146648049 -0.3114552110174526 0 -0.20629836434289209 -0.29191287156534351 0 -0.19098316334459689 -0.31866664392581467 0 -0.20629836434289209 -0.29191287156534351 0 -0.1838669321262881 -0.29502528286385782 0 -0.20629836434289209 -0.29191287156534351 0 -0.19080754788926171 -0.27962768459562742 0 -0.1838669321262881 -0.29502528286385782 0 -0.22200230066405491 -0.2779769060628744 0 -0.20629836434289209 -0.29191287156534351 0 -0.20385479996164271 -0.26675595737498242 0 -0.2237716177102389 -0.25585513408917238 0 -0.22200230066405491 -0.2779769060628744 0 -0.20385479996164271 -0.26675595737498242 0 -0.20385479996164271 -0.26675595737498242 0 -0.19080754788926171 -0.27962768459562742 0 -0.18030806293008281 -0.26437770065061172 0 -0.20629836434289209 -0.29191287156534351 0 -0.20385479996164271 -0.26675595737498242 0 -0.19080754788926171 -0.27962768459562742 0 -0.20385479996164271 -0.26675595737498242 0 -0.19309064431599821 -0.25385483861091279 0 -0.20581919006953861 -0.24362129517111319 0 -0.20385479996164271 -0.26675595737498242 0 -0.19309064431599821 -0.25385483861091279 0 -0.18030806293008281 -0.26437770065061172 0 -0.2237716177102389 -0.25585513408917238 0 -0.20385479996164271 -0.26675595737498242 0 -0.20581919006953861 -0.24362129517111319 0 -0.1655721846465236 -0.25120610550541428 0 -0.15600282978651139 -0.26858641787989601 0 -0.14798364056730229 -0.24405517364701901 0 -0.1655721846465236 -0.25120610550541428 0 -0.18030806293008281 -0.26437770065061172 0 -0.15600282978651139 -0.26858641787989601 0 -0.19309064431599821 -0.25385483861091279 0 -0.18030806293008281 -0.26437770065061172 0 -0.18238052430272861 -0.2406644012469441 0 -0.1655721846465236 -0.25120610550541428 0 -0.18030806293008281 -0.26437770065061172 0 -0.18238052430272861 -0.2406644012469441 0 -0.19080754788926171 -0.27962768459562742 0 -0.18030806293008281 -0.26437770065061172 0 -0.16975952329567759 -0.28453828729259079 0 -0.18030806293008281 -0.26437770065061172 0 -0.16975952329567759 -0.28453828729259079 0 -0.15600282978651139 -0.26858641787989601 0 -0.16975952329567759 -0.28453828729259079 0 -0.1532262203079465 -0.29870556621077182 0 -0.15600282978651139 -0.26858641787989601 0 -0.16975952329567759 -0.28453828729259079 0 -0.1838669321262881 -0.29502528286385782 0 -0.17122214761358781 -0.30908930099089932 0 -0.19080754788926171 -0.27962768459562742 0 -0.16975952329567759 -0.28453828729259079 0 -0.1838669321262881 -0.29502528286385782 0 -0.19098316334459689 -0.31866664392581467 0 -0.1838669321262881 -0.29502528286385782 0 -0.17122214761358781 -0.30908930099089932 0 -0.19098316334459689 -0.31866664392581467 0 -0.1838669321262881 -0.29502528286385782 0 -0.17122214761358781 -0.30908930099089932 0 -0.1532262203079465 -0.29870556621077182 0 -0.15421908864335859 -0.32385493504785451 0 -0.16975952329567759 -0.28453828729259079 0 -0.17122214761358781 -0.30908930099089932 0 -0.1532262203079465 -0.29870556621077182 0 -0.1532262203079465 -0.29870556621077182 0 -0.12793110360563659 -0.30416645396056491 0 -0.14017021842131269 -0.31557280842683583 0 -0.1532262203079465 -0.29870556621077182 0 -0.12793110360563659 -0.30416645396056491 0 -0.13620673837386629 -0.28534305049021053 0 -0.12793110360563659 -0.30416645396056491 0 -0.13620673837386629 -0.28534305049021053 0 -0.1135379464188401 -0.29307388197915651 0 -0.1532262203079465 -0.29870556621077182 0 -0.13620673837386629 -0.28534305049021053 0 -0.15600282978651139 -0.26858641787989601 0 -0.13620673837386629 -0.28534305049021053 0 -0.15600282978651139 -0.26858641787989601 0 -0.13669499403557239 -0.26601794919366101 0 -0.13620673837386629 -0.28534305049021053 0 -0.13669499403557239 -0.26601794919366101 0 -0.11807469642340369 -0.27465918334811618 0 -0.13669499403557239 -0.26601794919366101 0 -0.121859097599433 -0.25203113656992021 0 -0.11807469642340369 -0.27465918334811618 0 -0.13669499403557239 -0.26601794919366101 0 -0.121859097599433 -0.25203113656992021 0 -0.14798364056730229 -0.24405517364701901 0 -0.15600282978651139 -0.26858641787989601 0 -0.13669499403557239 -0.26601794919366101 0 -0.14798364056730229 -0.24405517364701901 0 -0.16908986990348371 -0.34934433300940282 0 -0.16691998579349149 -0.36212285141367201 0 -0.15624390782747011 -0.35258613724111659 0 -0.16908986990348371 -0.34934433300940282 0 -0.16691998579349149 -0.36212285141367201 0 -0.1793603492442038 -0.36157730536134008 0 -0.16908986990348371 -0.34934433300940282 0 -0.16029772598231981 -0.34023228380058451 0 -0.15624390782747011 -0.35258613724111659 0 -0.16691998579349149 -0.36212285141367201 0 -0.17276735873495749 -0.3744924357720234 0 -0.15068826223995771 -0.36545341375091139 0 -0.15918403209824339 -0.37433455171457369 0 -0.17276735873495749 -0.3744924357720234 0 -0.15068826223995771 -0.36545341375091139 0 -0.17276735873495749 -0.3744924357720234 0 -0.15068826223995771 -0.36545341375091139 0 -0.16691998579349149 -0.36212285141367201 0 -0.15624390782747011 -0.35258613724111659 0 -0.15068826223995771 -0.36545341375091139 0 -0.16691998579349149 -0.36212285141367201 0 -0.17532333535243691 -0.36746115839553473 0 -0.17276735873495749 -0.3744924357720234 0 -0.16691998579349149 -0.36212285141367201 0 -0.1793603492442038 -0.36157730536134008 0 -0.17532333535243691 -0.36746115839553473 0 -0.1793603492442038 -0.36157730536134008 0 -0.17532333535243691 -0.36746115839553473 0 -0.1822456476370945 -0.3716520410351033 0 -0.17532333535243691 -0.36746115839553473 0 -0.17276735873495749 -0.3744924357720234 0 -0.1822456476370945 -0.3716520410351033 0 -0.1897769381987976 -0.37115032483986798 0 -0.1793603492442038 -0.36157730536134008 0 -0.1822456476370945 -0.3716520410351033 0 -0.1916198351344503 -0.35777610131453019 0 -0.1897769381987976 -0.37115032483986798 0 -0.1793603492442038 -0.36157730536134008 0 -0.16908986990348371 -0.34934433300940282 0 -0.18263909612988921 -0.34933555335250338 0 -0.17503182765290859 -0.33342601151072992 0 -0.1916198351344503 -0.35777610131453019 0 -0.1793603492442038 -0.36157730536134008 0 -0.18263909612988921 -0.34933555335250338 0 -0.16908986990348371 -0.34934433300940282 0 -0.1793603492442038 -0.36157730536134008 0 -0.18263909612988921 -0.34933555335250338 0 -0.19809939456290571 -0.34230800498777147 0 -0.18263909612988921 -0.34933555335250338 0 -0.17503182765290859 -0.33342601151072992 0 -0.19098316334459689 -0.31866664392581467 0 -0.17122214761358781 -0.30908930099089932 0 -0.17503182765290859 -0.33342601151072992 0 -0.17122214761358781 -0.30908930099089932 0 -0.17503182765290859 -0.33342601151072992 0 -0.15421908864335859 -0.32385493504785451 0 -0.16908986990348371 -0.34934433300940282 0 -0.17503182765290859 -0.33342601151072992 0 -0.16029772598231981 -0.34023228380058451 0 -0.17503182765290859 -0.33342601151072992 0 -0.16029772598231981 -0.34023228380058451 0 -0.15421908864335859 -0.32385493504785451 0 -0.14690393588437781 -0.34195000219381799 0 -0.15421908864335859 -0.32385493504785451 0 -0.13329856508281351 -0.33103214084421151 0 -0.16029772598231981 -0.34023228380058451 0 -0.14690393588437781 -0.34195000219381799 0 -0.15421908864335859 -0.32385493504785451 0 -0.1532262203079465 -0.29870556621077182 0 -0.15421908864335859 -0.32385493504785451 0 -0.14017021842131269 -0.31557280842683583 0 -0.15421908864335859 -0.32385493504785451 0 -0.14017021842131269 -0.31557280842683583 0 -0.13329856508281351 -0.33103214084421151 0 -0.14017021842131269 -0.31557280842683583 0 -0.13329856508281351 -0.33103214084421151 0 -0.1193234471887509 -0.32012292832179101 0 -0.12793110360563659 -0.30416645396056491 0 -0.14017021842131269 -0.31557280842683583 0 -0.1193234471887509 -0.32012292832179101 0 -0.14690393588437781 -0.34195000219381799 0 -0.13329856508281351 -0.33103214084421151 0 -0.1362617679307645 -0.34569584547707571 0 -0.13329856508281351 -0.33103214084421151 0 -0.12749328306607971 -0.3426350704087206 0 -0.1362617679307645 -0.34569584547707571 0 -0.12749328306607971 -0.3426350704087206 0 -0.1286091657449579 -0.35641439172979911 0 -0.1362617679307645 -0.34569584547707571 0 -0.1286091657449579 -0.35641439172979911 0 -0.1362617679307645 -0.34569584547707571 0 -0.1437414079255056 -0.35241995807854409 0 -0.14690393588437781 -0.34195000219381799 0 -0.1362617679307645 -0.34569584547707571 0 -0.1437414079255056 -0.35241995807854409 0 -0.1286091657449579 -0.35641439172979911 0 -0.1437414079255056 -0.35241995807854409 0 -0.15068826223995771 -0.36545341375091139 0 -0.1437414079255056 -0.35241995807854409 0 -0.15624390782747011 -0.35258613724111659 0 -0.15068826223995771 -0.36545341375091139 0 -0.16029772598231981 -0.34023228380058451 0 -0.14690393588437781 -0.34195000219381799 0 -0.15624390782747011 -0.35258613724111659 0 -0.14690393588437781 -0.34195000219381799 0 -0.1437414079255056 -0.35241995807854409 0 -0.15624390782747011 -0.35258613724111659 0 -0.14263814212428791 -0.37524463270077812 0 -0.1286091657449579 -0.35641439172979911 0 -0.15068826223995771 -0.36545341375091139 0 -0.15233235979314191 -0.37575332316581028 0 -0.14263814212428791 -0.37524463270077812 0 -0.15068826223995771 -0.36545341375091139 0 -0.15233235979314191 -0.37575332316581028 0 -0.15918403209824339 -0.37433455171457369 0 -0.15068826223995771 -0.36545341375091139 0 -0.14263814212428791 -0.37524463270077812 0 -0.1286091657449579 -0.35641439172979911 0 -0.14263814212428791 -0.37524463270077812 0 -0.1286091657449579 -0.35641439172979911 0 -0.12752902998906909 -0.36786500997442639 0 -0.14263814212428791 -0.37524463270077812 0 -0.1333873989190579 -0.37809936726873011 0 -0.12752902998906909 -0.36786500997442639 0 -0.1286091657449579 -0.35641439172979911 0 -0.15068826223995771 -0.36545341375091139 0 -0.12752902998906909 -0.36786500997442639 0 -0.1190606322433044 -0.37180163675148198 0 -0.12482747800071579 -0.38046227385892861 0 -0.1286091657449579 -0.35641439172979911 0 -0.12752902998906909 -0.36786500997442639 0 -0.1178429263330235 -0.36166317577802082 0 -0.12752902998906909 -0.36786500997442639 0 -0.1190606322433044 -0.37180163675148198 0 -0.1178429263330235 -0.36166317577802082 0 -0.1178429263330235 -0.36166317577802082 0 -0.1050121767854392 -0.36182590891309668 0 -0.10604309465040899 -0.37721608739455231 0 -0.1190606322433044 -0.37180163675148198 0 -0.1178429263330235 -0.36166317577802082 0 -0.10604309465040899 -0.37721608739455231 0 -0.1178429263330235 -0.36166317577802082 0 -0.10604309465040899 -0.37721608739455231 0 -0.1050121767854392 -0.36182590891309668 0 -0.094175244546975748 -0.36290872159016441 0 -0.10604309465040899 -0.37721608739455231 0 -0.094175244546975748 -0.36290872159016441 0 -0.091379527123219464 -0.37433608333195562 0 -0.10604309465040899 -0.37721608739455231 0 -0.094175244546975748 -0.36290872159016441 0 -0.10604309465040899 -0.37721608739455231 0 -0.1050121767854392 -0.36182590891309668 0 -0.094175244546975748 -0.36290872159016441 0 -0.1019874416113483 -0.34551565088964958 0 -0.1178429263330235 -0.36166317577802082 0 -0.1050121767854392 -0.36182590891309668 0 -0.1019874416113483 -0.34551565088964958 0 -0.094175244546975748 -0.36290872159016441 0 -0.1019874416113483 -0.34551565088964958 0 -0.085172634356920005 -0.35173092847407389 0 -0.1286091657449579 -0.35641439172979911 0 -0.1019874416113483 -0.34551565088964958 0 -0.1286091657449579 -0.35641439172979911 0 -0.1019874416113483 -0.34551565088964958 0 -0.1129461790842215 -0.33539091822951728 0 -0.12749328306607971 -0.3426350704087206 0 -0.1286091657449579 -0.35641439172979911 0 -0.1129461790842215 -0.33539091822951728 0 -0.1286091657449579 -0.35641439172979911 0 -0.1178429263330235 -0.36166317577802082 0 -0.1019874416113483 -0.34551565088964958 0 -0.1286091657449579 -0.35641439172979911 0 -0.1129461790842215 -0.33539091822951728 0 -0.13329856508281351 -0.33103214084421151 0 -0.1129461790842215 -0.33539091822951728 0 -0.1193234471887509 -0.32012292832179101 0 -0.13329856508281351 -0.33103214084421151 0 -0.12749328306607971 -0.3426350704087206 0 -0.1129461790842215 -0.33539091822951728 0 -0.1129461790842215 -0.33539091822951728 0 -0.1193234471887509 -0.32012292832179101 0 -0.099302204852493317 -0.32660437343294269 0 -0.1193234471887509 -0.32012292832179101 0 -0.099302204852493317 -0.32660437343294269 0 -0.10348794078553999 -0.30925483439088503 0 -0.099302204852493317 -0.32660437343294269 0 -0.10348794078553999 -0.30925483439088503 0 -0.084090618685884244 -0.31074484987955242 0 -0.1019874416113483 -0.34551565088964958 0 -0.1129461790842215 -0.33539091822951728 0 -0.099302204852493317 -0.32660437343294269 0 -0.1019874416113483 -0.34551565088964958 0 -0.099302204852493317 -0.32660437343294269 0 -0.075365717477738875 -0.33461691004949978 0 -0.1019874416113483 -0.34551565088964958 0 -0.075365717477738875 -0.33461691004949978 0 -0.099302204852493317 -0.32660437343294269 0 -0.075365717477738875 -0.33461691004949978 0 -0.084090618685884244 -0.31074484987955242 0 -0.075365717477738875 -0.33461691004949978 0 -0.084090618685884244 -0.31074484987955242 0 -0.061848187207117017 -0.31409266573704919 0 -0.075365717477738875 -0.33461691004949978 0 -0.072293935394588171 -0.35136044633094637 0 -0.060161817048719549 -0.34349152182476927 0 -0.075365717477738875 -0.33461691004949978 0 -0.072293935394588171 -0.35136044633094637 0 -0.085172634356920005 -0.35173092847407389 0 -0.072293935394588171 -0.35136044633094637 0 -0.06275131632615126 -0.356315443039465 0 -0.060161817048719549 -0.34349152182476927 0 -0.072293935394588171 -0.35136044633094637 0 -0.06275131632615126 -0.356315443039465 0 -0.069421434593556791 -0.36369939855943217 0 -0.06275131632615126 -0.356315443039465 0 -0.069421434593556791 -0.36369939855943217 0 -0.063056274379123534 -0.37134707619554841 0 -0.069421434593556791 -0.36369939855943217 0 -0.063056274379123534 -0.37134707619554841 0 -0.06864180169104861 -0.37256942000465709 0 -0.063056274379123534 -0.37134707619554841 0 -0.06864180169104861 -0.37256942000465709 0 -0.063591235898589948 -0.37566068198231523 0 -0.069421434593556791 -0.36369939855943217 0 -0.06864180169104861 -0.37256942000465709 0 -0.075082882246678251 -0.37204554450386013 0 -0.06864180169104861 -0.37256942000465709 0 -0.075082882246678251 -0.37204554450386013 0 -0.069368551088372032 -0.37737228026236619 0 -0.075082882246678251 -0.37204554450386013 0 -0.082207612916915473 -0.3749612268021687 0 -0.075740952013650803 -0.37779288484933732 0 -0.072293935394588171 -0.35136044633094637 0 -0.069421434593556791 -0.36369939855943217 0 -0.082040832753948953 -0.36425291351010941 0 -0.069421434593556791 -0.36369939855943217 0 -0.075082882246678251 -0.37204554450386013 0 -0.082040832753948953 -0.36425291351010941 0 -0.082040832753948953 -0.36425291351010941 0 -0.082207612916915473 -0.3749612268021687 0 -0.091379527123219464 -0.37433608333195562 0 -0.075082882246678251 -0.37204554450386013 0 -0.082040832753948953 -0.36425291351010941 0 -0.082207612916915473 -0.3749612268021687 0 -0.094175244546975748 -0.36290872159016441 0 -0.082040832753948953 -0.36425291351010941 0 -0.085172634356920005 -0.35173092847407389 0 -0.094175244546975748 -0.36290872159016441 0 -0.082040832753948953 -0.36425291351010941 0 -0.091379527123219464 -0.37433608333195562 0 -0.1019874416113483 -0.34551565088964958 0 -0.075365717477738875 -0.33461691004949978 0 -0.085172634356920005 -0.35173092847407389 0 -0.072293935394588171 -0.35136044633094637 0 -0.082040832753948953 -0.36425291351010941 0 -0.085172634356920005 -0.35173092847407389 0 -0.10069771581708491 -0.26175737292843743 0 -0.121859097599433 -0.25203113656992021 0 -0.1009707391185812 -0.23681977668085311 0 -0.10069771581708491 -0.26175737292843743 0 -0.121859097599433 -0.25203113656992021 0 -0.11807469642340369 -0.27465918334811618 0 -0.10069771581708491 -0.26175737292843743 0 -0.11807469642340369 -0.27465918334811618 0 -0.094204786071940008 -0.28485316633835128 0 -0.11807469642340369 -0.27465918334811618 0 -0.094204786071940008 -0.28485316633835128 0 -0.11807469642340369 -0.27465918334811618 0 -0.094204786071940008 -0.28485316633835128 0 -0.1135379464188401 -0.29307388197915651 0 -0.094204786071940008 -0.28485316633835128 0 -0.1135379464188401 -0.29307388197915651 0 -0.10348794078553999 -0.30925483439088503 0 -0.13620673837386629 -0.28534305049021053 0 -0.11807469642340369 -0.27465918334811618 0 -0.1135379464188401 -0.29307388197915651 0 -0.12793110360563659 -0.30416645396056491 0 -0.1193234471887509 -0.32012292832179101 0 -0.10348794078553999 -0.30925483439088503 0 -0.12793110360563659 -0.30416645396056491 0 -0.1135379464188401 -0.29307388197915651 0 -0.10348794078553999 -0.30925483439088503 0 -0.094204786071940008 -0.28485316633835128 0 -0.10348794078553999 -0.30925483439088503 0 -0.084090618685884244 -0.31074484987955242 0 -0.094204786071940008 -0.28485316633835128 0 -0.084090618685884244 -0.31074484987955242 0 -0.070334875720476267 -0.2950471493285865 0 -0.084090618685884244 -0.31074484987955242 0 -0.070334875720476267 -0.2950471493285865 0 -0.061848187207117017 -0.31409266573704919 0 -0.070334875720476267 -0.2950471493285865 0 -0.065044662163181985 -0.27615709796067611 0 -0.055880976840119653 -0.28194327826993032 0 -0.094204786071940008 -0.28485316633835128 0 -0.070334875720476267 -0.2950471493285865 0 -0.094204786071940008 -0.28485316633835128 0 -0.070334875720476267 -0.2950471493285865 0 -0.07964848763025735 -0.27089124949213239 0 -0.10069771581708491 -0.26175737292843743 0 -0.094204786071940008 -0.28485316633835128 0 -0.07964848763025735 -0.27089124949213239 0 -0.070334875720476267 -0.2950471493285865 0 -0.07964848763025735 -0.27089124949213239 0 -0.065044662163181985 -0.27615709796067611 0 -0.07964848763025735 -0.27089124949213239 0 -0.065044662163181985 -0.27615709796067611 0 -0.067111946651076462 -0.25759930212419208 0 -0.07964848763025735 -0.27089124949213239 0 -0.067111946651076462 -0.25759930212419208 0 -0.083135654354115546 -0.25024566913362889 0 -0.10069771581708491 -0.26175737292843743 0 -0.07964848763025735 -0.27089124949213239 0 -0.083135654354115546 -0.25024566913362889 0 -0.034563382911364807 -0.2565589481494015 0 -0.043752150976774679 -0.254434508296766 0 -0.03701018621659892 -0.24540591086467431 0 -0.034563382911364807 -0.2565589481494015 0 -0.025260565379138691 -0.25327489430515432 0 -0.03701018621659892 -0.24540591086467431 0 -0.034563382911364807 -0.2565589481494015 0 -0.041082905255273958 -0.2637028225516071 0 -0.029430830941428159 -0.26353142275322983 0 -0.034563382911364807 -0.2565589481494015 0 -0.041082905255273958 -0.2637028225516071 0 -0.043752150976774679 -0.254434508296766 0 -0.041082905255273958 -0.2637028225516071 0 -0.043752150976774679 -0.254434508296766 0 -0.052232799124936759 -0.258713316918115 0 -0.043752150976774679 -0.254434508296766 0 -0.052232799124936759 -0.258713316918115 0 -0.053871481375698929 -0.2477915430000322 0 -0.067111946651076462 -0.25759930212419208 0 -0.052232799124936759 -0.258713316918115 0 -0.053871481375698929 -0.2477915430000322 0 -0.067111946651076462 -0.25759930212419208 0 -0.052232799124936759 -0.258713316918115 0 -0.05481834183973254 -0.26925511297854138 0 -0.041082905255273958 -0.2637028225516071 0 -0.052232799124936759 -0.258713316918115 0 -0.05481834183973254 -0.26925511297854138 0 -0.065044662163181985 -0.27615709796067611 0 -0.067111946651076462 -0.25759930212419208 0 -0.05481834183973254 -0.26925511297854138 0 -0.041082905255273958 -0.2637028225516071 0 -0.05481834183973254 -0.26925511297854138 0 -0.045714537292220712 -0.27577104853828099 0 -0.065044662163181985 -0.27615709796067611 0 -0.05481834183973254 -0.26925511297854138 0 -0.055880976840119653 -0.28194327826993032 0 -0.05481834183973254 -0.26925511297854138 0 -0.045714537292220712 -0.27577104853828099 0 -0.055880976840119653 -0.28194327826993032 0 -0.045714537292220712 -0.27577104853828099 0 -0.034100963872920817 -0.27071047823662953 0 -0.027493496660183341 -0.27139160562992048 0 -0.045714537292220712 -0.27577104853828099 0 -0.034444736246736551 -0.28256519620417547 0 -0.027493496660183341 -0.27139160562992048 0 -0.045714537292220712 -0.27577104853828099 0 -0.027493496660183341 -0.27139160562992048 0 -0.041082905255273958 -0.2637028225516071 0 -0.045714537292220712 -0.27577104853828099 0 -0.034100963872920817 -0.27071047823662953 0 -0.041082905255273958 -0.2637028225516071 0 -0.034100963872920817 -0.27071047823662953 0 -0.029430830941428159 -0.26353142275322983 0 -0.034444736246736551 -0.28256519620417547 0 -0.031383743053187613 -0.29185931460580339 0 -0.046902404495073401 -0.29048539697698728 0 -0.031383743053187613 -0.29185931460580339 0 -0.046902404495073401 -0.29048539697698728 0 -0.039680934750726107 -0.29724759802100392 0 -0.045714537292220712 -0.27577104853828099 0 -0.034444736246736551 -0.28256519620417547 0 -0.046902404495073401 -0.29048539697698728 0 -0.045714537292220712 -0.27577104853828099 0 -0.055880976840119653 -0.28194327826993032 0 -0.046902404495073401 -0.29048539697698728 0 -0.070334875720476267 -0.2950471493285865 0 -0.055880976840119653 -0.28194327826993032 0 -0.046902404495073401 -0.29048539697698728 0 -0.046464965369012408 -0.30524113231882172 0 -0.061848187207117017 -0.31409266573704919 0 -0.043091402746195689 -0.31503631079078992 0 -0.070334875720476267 -0.2950471493285865 0 -0.046464965369012408 -0.30524113231882172 0 -0.070334875720476267 -0.2950471493285865 0 -0.046902404495073401 -0.29048539697698728 0 -0.046464965369012408 -0.30524113231882172 0 -0.070334875720476267 -0.2950471493285865 0 -0.046464965369012408 -0.30524113231882172 0 -0.061848187207117017 -0.31409266573704919 0 -0.046464965369012408 -0.30524113231882172 0 -0.022595055017548261 -0.31543511530905621 0 -0.046464965369012408 -0.30524113231882172 0 -0.031385165559381693 -0.30158088344347478 0 -0.022595055017548261 -0.31543511530905621 0 -0.046464965369012408 -0.30524113231882172 0 -0.032839506915661253 -0.31354464127389281 0 -0.022595055017548261 -0.31543511530905621 0 -0.046464965369012408 -0.30524113231882172 0 -0.043091402746195689 -0.31503631079078992 0 -0.032839506915661253 -0.31354464127389281 0 -0.046902404495073401 -0.29048539697698728 0 -0.046464965369012408 -0.30524113231882172 0 -0.039680934750726107 -0.29724759802100392 0 -0.046464965369012408 -0.30524113231882172 0 -0.039680934750726107 -0.29724759802100392 0 -0.031385165559381693 -0.30158088344347478 0 -0.031383743053187613 -0.29185931460580339 0 -0.039680934750726107 -0.29724759802100392 0 -0.031385165559381693 -0.30158088344347478 0 -0.022095352283721559 -0.29790751738423199 0 -0.01332430289762254 -0.30262418330807461 0 -0.022595055017548261 -0.31543511530905621 0 -0.031385165559381693 -0.30158088344347478 0 -0.022095352283721559 -0.29790751738423199 0 -0.022595055017548261 -0.31543511530905621 0 -0.031383743053187613 -0.29185931460580339 0 -0.031385165559381693 -0.30158088344347478 0 -0.022095352283721559 -0.29790751738423199 0 -0.022095352283721559 -0.29790751738423199 0 -0.01332430289762254 -0.30262418330807461 0 -0.015069262028082829 -0.29284146463949479 0 -0.01332430289762254 -0.30262418330807461 0 -0.022595055017548261 -0.31543511530905621 0 -0.0050261169277587229 -0.31027895630002561 0 -0.01332430289762254 -0.30262418330807461 0 -0.0015326328438671039 -0.29349027068459532 0 -0.0050261169277587229 -0.31027895630002561 0 -0.01332430289762254 -0.30262418330807461 0 -0.022595055017548261 -0.31543511530905621 0 -0.0015326328438671039 -0.29349027068459532 0 -0.015147657548790411 -0.28482190393412932 0 -0.014091377387654969 -0.27277315627115628 0 -0.01332430289762254 -0.30262418330807461 0 -0.015069262028082829 -0.29284146463949479 0 -0.0015326328438671039 -0.29349027068459532 0 -0.0015326328438671039 -0.29349027068459532 0 -0.014091377387654969 -0.27277315627115628 0 0.001097648339562227 -0.28250323260201121 0 -0.0015326328438671039 -0.29349027068459532 0 -0.014091377387654969 -0.27277315627115628 0 -0.015069262028082829 -0.29284146463949479 0 -0.0015326328438671039 -0.29349027068459532 0 -0.015147657548790411 -0.28482190393412932 0 -0.015147657548790411 -0.28482190393412932 0 -0.023582246175076801 -0.28641950088280871 0 -0.021462769309270581 -0.2785851271925931 0 -0.015069262028082829 -0.29284146463949479 0 -0.015147657548790411 -0.28482190393412932 0 -0.023582246175076801 -0.28641950088280871 0 -0.022095352283721559 -0.29790751738423199 0 -0.015069262028082829 -0.29284146463949479 0 -0.023582246175076801 -0.28641950088280871 0 -0.031383743053187613 -0.29185931460580339 0 -0.022095352283721559 -0.29790751738423199 0 -0.023582246175076801 -0.28641950088280871 0 -0.034444736246736551 -0.28256519620417547 0 -0.023582246175076801 -0.28641950088280871 0 -0.02674581209781687 -0.27974035747737419 0 -0.034444736246736551 -0.28256519620417547 0 -0.031383743053187613 -0.29185931460580339 0 -0.023582246175076801 -0.28641950088280871 0 -0.023582246175076801 -0.28641950088280871 0 -0.02674581209781687 -0.27974035747737419 0 -0.021462769309270581 -0.2785851271925931 0 -0.034444736246736551 -0.28256519620417547 0 -0.02674581209781687 -0.27974035747737419 0 -0.027493496660183341 -0.27139160562992048 0 -0.02674581209781687 -0.27974035747737419 0 -0.027493496660183341 -0.27139160562992048 0 -0.021462769309270581 -0.2785851271925931 0 -0.027493496660183341 -0.27139160562992048 0 -0.02358583465021238 -0.26630826466153978 0 -0.029430830941428159 -0.26353142275322983 0 -0.034100963872920817 -0.27071047823662953 0 -0.027493496660183341 -0.27139160562992048 0 -0.034100963872920817 -0.27071047823662953 0 -0.027493496660183341 -0.27139160562992048 0 -0.029430830941428159 -0.26353142275322983 0 -0.027493496660183341 -0.27139160562992048 0 -0.014091377387654969 -0.27277315627115628 0 -0.027493496660183341 -0.27139160562992048 0 -0.016526742822887731 -0.26875573684007459 0 -0.027493496660183341 -0.27139160562992048 0 -0.02358583465021238 -0.26630826466153978 0 -0.016526742822887731 -0.26875573684007459 0 -0.027493496660183341 -0.27139160562992048 0 -0.016526742822887731 -0.26875573684007459 0 -0.014091377387654969 -0.27277315627115628 0 -0.015147657548790411 -0.28482190393412932 0 -0.021462769309270581 -0.2785851271925931 0 -0.014091377387654969 -0.27277315627115628 0 -0.027493496660183341 -0.27139160562992048 0 -0.021462769309270581 -0.2785851271925931 0 -0.014091377387654969 -0.27277315627115628 0 -0.014091377387654969 -0.27277315627115628 0 0.001097648339562227 -0.28250323260201121 0 0.01152781044351346 -0.27541409720417359 0 -0.001707453102692475 -0.26968603175048911 0 -0.014091377387654969 -0.27277315627115628 0 0.01152781044351346 -0.27541409720417359 0 -0.016526742822887731 -0.26875573684007459 0 -0.001707453102692475 -0.26968603175048911 0 0.01081292690572268 -0.26218462352509769 0 -0.014091377387654969 -0.27277315627115628 0 0.01152781044351346 -0.27541409720417359 0 -0.016526742822887731 -0.26875573684007459 0 -0.001707453102692475 -0.26968603175048911 0 -0.014091377387654969 -0.27277315627115628 0 -0.016526742822887731 -0.26875573684007459 0 -0.014091377387654969 -0.27277315627115628 0 -0.016526742822887731 -0.26875573684007459 0 -0.01495055754578046 -0.26017110109649833 0 -0.0070486420729985151 -0.25808618295669072 0 -0.016526742822887731 -0.26875573684007459 0 -0.0070486420729985151 -0.25808618295669072 0 0.01081292690572268 -0.26218462352509769 0 -0.016526742822887731 -0.26875573684007459 0 0.01081292690572268 -0.26218462352509769 0 -0.0070486420729985151 -0.25808618295669072 0 -0.01533457711088548 -0.25228819116629242 0 0.00013011639302536529 -0.24575171090548531 0 -0.01495055754578046 -0.26017110109649833 0 -0.0070486420729985151 -0.25808618295669072 0 -0.01533457711088548 -0.25228819116629242 0 -0.01533457711088548 -0.25228819116629242 0 -0.020892268176349999 -0.26155429342293612 0 -0.025260565379138691 -0.25327489430515432 0 -0.016526742822887731 -0.26875573684007459 0 -0.01495055754578046 -0.26017110109649833 0 -0.020892268176349999 -0.26155429342293612 0 -0.01495055754578046 -0.26017110109649833 0 -0.01533457711088548 -0.25228819116629242 0 -0.020892268176349999 -0.26155429342293612 0 -0.016526742822887731 -0.26875573684007459 0 -0.020892268176349999 -0.26155429342293612 0 -0.02358583465021238 -0.26630826466153978 0 -0.016526742822887731 -0.26875573684007459 0 -0.020892268176349999 -0.26155429342293612 0 -0.02358583465021238 -0.26630826466153978 0 -0.020892268176349999 -0.26155429342293612 0 -0.029430830941428159 -0.26353142275322983 0 -0.020892268176349999 -0.26155429342293612 0 -0.029430830941428159 -0.26353142275322983 0 -0.025260565379138691 -0.25327489430515432 0 -0.034563382911364807 -0.2565589481494015 0 -0.029430830941428159 -0.26353142275322983 0 -0.025260565379138691 -0.25327489430515432 0 -0.03634116145438291 -0.3504840624838082 0 -0.048823120214768277 -0.35167877228662869 0 -0.034589966050412917 -0.3320104683777092 0 -0.03634116145438291 -0.3504840624838082 0 -0.03809235685835214 -0.36895765658990731 0 -0.048823120214768277 -0.35167877228662869 0 -0.03634116145438291 -0.3504840624838082 0 -0.03809235685835214 -0.36895765658990731 0 -0.03809235685835214 -0.36895765658990731 0 -0.053390746837708732 -0.36691104676359992 0 -0.048823120214768277 -0.35167877228662869 0 -0.063056274379123534 -0.37134707619554841 0 -0.048823120214768277 -0.35167877228662869 0 -0.06275131632615126 -0.356315443039465 0 -0.063056274379123534 -0.37134707619554841 0 -0.048823120214768277 -0.35167877228662869 0 -0.063056274379123534 -0.37134707619554841 0 -0.053390746837708732 -0.36691104676359992 0 -0.048823120214768277 -0.35167877228662869 0 -0.03809235685835214 -0.36895765658990731 0 -0.063591235898589948 -0.37566068198231523 0 -0.03809235685835214 -0.36895765658990731 0 -0.053390746837708732 -0.36691104676359992 0 -0.063591235898589948 -0.37566068198231523 0 -0.03809235685835214 -0.36895765658990731 0 -0.048830314874088357 -0.38001032228904769 0 -0.063591235898589948 -0.37566068198231523 0 -0.063056274379123534 -0.37134707619554841 0 -0.053390746837708732 -0.36691104676359992 0 -0.063591235898589948 -0.37566068198231523 0 -0.048823120214768277 -0.35167877228662869 0 -0.060161817048719549 -0.34349152182476927 0 -0.048079724164507551 -0.33772473292461419 0 -0.06275131632615126 -0.356315443039465 0 -0.048823120214768277 -0.35167877228662869 0 -0.060161817048719549 -0.34349152182476927 0 -0.075365717477738875 -0.33461691004949978 0 -0.060161817048719549 -0.34349152182476927 0 -0.048743993344129322 -0.32371816920934993 0 -0.075365717477738875 -0.33461691004949978 0 -0.048743993344129322 -0.32371816920934993 0 -0.060161817048719549 -0.34349152182476927 0 -0.048079724164507551 -0.33772473292461419 0 -0.048743993344129322 -0.32371816920934993 0 -0.061848187207117017 -0.31409266573704919 0 -0.048743993344129322 -0.32371816920934993 0 -0.043091402746195689 -0.31503631079078992 0 -0.075365717477738875 -0.33461691004949978 0 -0.061848187207117017 -0.31409266573704919 0 -0.048743993344129322 -0.32371816920934993 0 -0.043091402746195689 -0.31503631079078992 0 -0.032839506915661253 -0.31354464127389281 0 -0.034589966050412917 -0.3320104683777092 0 -0.048743993344129322 -0.32371816920934993 0 -0.043091402746195689 -0.31503631079078992 0 -0.034589966050412917 -0.3320104683777092 0 -0.032839506915661253 -0.31354464127389281 0 -0.034589966050412917 -0.3320104683777092 0 -0.03634116145438291 -0.3504840624838082 0 -0.034589966050412917 -0.3320104683777092 0 -0.048823120214768277 -0.35167877228662869 0 -0.048079724164507551 -0.33772473292461419 0 -0.034589966050412917 -0.3320104683777092 0 -0.048823120214768277 -0.35167877228662869 0 -0.034589966050412917 -0.3320104683777092 0 -0.048079724164507551 -0.33772473292461419 0 -0.048743993344129322 -0.32371816920934993 0 -0.034589966050412917 -0.3320104683777092 0 -0.03634116145438291 -0.3504840624838082 0 -0.034589966050412917 -0.3320104683777092 0 -0.015387596392086251 -0.33761539863824852 0 -0.034589966050412917 -0.3320104683777092 0 -0.022595055017548261 -0.31543511530905621 0 -0.015387596392086251 -0.33761539863824852 0 -0.034589966050412917 -0.3320104683777092 0 -0.022595055017548261 -0.31543511530905621 0 -0.032839506915661253 -0.31354464127389281 0 -0.034589966050412917 -0.3320104683777092 0 -0.022595055017548261 -0.31543511530905621 0 -0.0050261169277587229 -0.31027895630002561 0 -0.022595055017548261 -0.31543511530905621 0 0.0012952944203213699 -0.32563782710036809 0 -0.022595055017548261 -0.31543511530905621 0 0.0012952944203213699 -0.32563782710036809 0 -0.022595055017548261 -0.31543511530905621 0 -0.015387596392086251 -0.33761539863824852 0 0.0012952944203213699 -0.32563782710036809 0 -0.015387596392086251 -0.33761539863824852 0 0.0044153956648271169 -0.34281893438063937 0 0.0012952944203213699 -0.32563782710036809 0 -0.015387596392086251 -0.33761539863824852 0 -0.0090362401402142856 -0.36131952128760292 0 0.0044153956648271169 -0.34281893438063937 0 -0.03634116145438291 -0.3504840624838082 0 -0.015387596392086251 -0.33761539863824852 0 -0.0090362401402142856 -0.36131952128760292 0 -0.03809235685835214 -0.36895765658990731 0 -0.0090362401402142856 -0.36131952128760292 0 -0.03634116145438291 -0.3504840624838082 0 -0.03809235685835214 -0.36895765658990731 0 -0.0090362401402142856 -0.36131952128760292 0 -0.03809235685835214 -0.36895765658990731 0 -0.0090362401402142856 -0.36131952128760292 0 -0.016686063877340541 -0.38983357090349507 0 -0.0090362401402142856 -0.36131952128760292 0 -0.016686063877340541 -0.38983357090349507 0 0.01128197300621782 -0.37905737822271368 0 -0.016686063877340541 -0.38983357090349507 0 0.01128197300621782 -0.37905737822271368 0 -0.0038223116369915742 -0.40294489873934719 0 -0.016686063877340541 -0.38983357090349507 0 0.01128197300621782 -0.37905737822271368 0 -0.0038223116369915742 -0.40294489873934719 0 -0.016686063877340541 -0.38983357090349507 0 -0.021253739089025881 -0.41138811873348702 0 -0.016686063877340541 -0.38983357090349507 0 -0.04035782426654063 -0.39285637472528467 0 -0.021253739089025881 -0.41138811873348702 0 -0.03809235685835214 -0.36895765658990731 0 -0.04035782426654063 -0.39285637472528467 0 -0.03809235685835214 -0.36895765658990731 0 -0.016686063877340541 -0.38983357090349507 0 -0.04035782426654063 -0.39285637472528467 0 -0.03809235685835214 -0.36895765658990731 0 -0.04035782426654063 -0.39285637472528467 0 -0.048830314874088357 -0.38001032228904769 0 -0.04035782426654063 -0.39285637472528467 0 -0.053899572911846633 -0.40023475414541571 0 -0.042623291674728149 -0.41675509286066209 0 -0.04035782426654063 -0.39285637472528467 0 -0.042623291674728149 -0.41675509286066209 0 -0.04035782426654063 -0.39285637472528467 0 -0.053899572911846633 -0.40023475414541571 0 -0.05503946896862745 -0.38850445320018101 0 -0.053899572911846633 -0.40023475414541571 0 -0.065850371008313285 -0.3926529424070872 0 -0.066430187703829954 -0.40478676793929841 0 -0.053899572911846633 -0.40023475414541571 0 -0.056928359598899407 -0.41100959235375178 0 -0.066430187703829954 -0.40478676793929841 0 -0.053899572911846633 -0.40023475414541571 0 -0.05503946896862745 -0.38850445320018101 0 -0.065850371008313285 -0.3926529424070872 0 -0.05503946896862745 -0.38850445320018101 0 -0.057778237046425401 -0.3822057136239797 0 -0.063520493704550512 -0.38306661201027109 0 -0.05503946896862745 -0.38850445320018101 0 -0.063520493704550512 -0.38306661201027109 0 -0.065850371008313285 -0.3926529424070872 0 -0.057778237046425401 -0.3822057136239797 0 -0.063520493704550512 -0.38306661201027109 0 -0.063591235898589948 -0.37566068198231523 0 -0.057778237046425401 -0.3822057136239797 0 -0.048830314874088357 -0.38001032228904769 0 -0.063591235898589948 -0.37566068198231523 0 -0.04035782426654063 -0.39285637472528467 0 -0.05503946896862745 -0.38850445320018101 0 -0.048830314874088357 -0.38001032228904769 0 -0.05503946896862745 -0.38850445320018101 0 -0.057778237046425401 -0.3822057136239797 0 -0.048830314874088357 -0.38001032228904769 0 -0.061498404797166367 -0.43592875744847681 0 -0.04488875908291616 -0.44065381099603951 0 -0.063136207797146529 -0.42095051619510371 0 -0.04488875908291616 -0.44065381099603951 0 -0.063136207797146529 -0.42095051619510371 0 -0.042623291674728149 -0.41675509286066209 0 -0.04488875908291616 -0.44065381099603951 0 -0.063136207797146529 -0.42095051619510371 0 -0.056928359598899407 -0.41100959235375178 0 -0.042623291674728149 -0.41675509286066209 0 -0.063136207797146529 -0.42095051619510371 0 -0.053899572911846633 -0.40023475414541571 0 -0.056928359598899407 -0.41100959235375178 0 -0.042623291674728149 -0.41675509286066209 0 -0.056928359598899407 -0.41100959235375178 0 -0.066430187703829954 -0.40478676793929841 0 -0.063136207797146529 -0.42095051619510371 0 -0.04035782426654063 -0.39285637472528467 0 -0.042623291674728149 -0.41675509286066209 0 -0.021253739089025881 -0.41138811873348702 0 -0.042623291674728149 -0.41675509286066209 0 -0.04488875908291616 -0.44065381099603951 0 -0.042623291674728149 -0.41675509286066209 0 -0.024458041436922661 -0.43497161395283779 0 -0.04488875908291616 -0.44065381099603951 0 -0.024458041436922661 -0.43497161395283779 0 -0.021253739089025881 -0.41138811873348702 0 -0.0016411534123649131 -0.42461349891051081 0 -0.042623291674728149 -0.41675509286066209 0 -0.024458041436922661 -0.43497161395283779 0 -0.021253739089025881 -0.41138811873348702 0 -0.0038223116369915742 -0.40294489873934719 0 -0.021253739089025881 -0.41138811873348702 0 -0.0016411534123649131 -0.42461349891051081 0 -0.024458041436922661 -0.43497161395283779 0 -0.0016411534123649131 -0.42461349891051081 0 -0.0081227538624583772 -0.44865709299024997 0 -0.0016411534123649131 -0.42461349891051081 0 -0.0081227538624583772 -0.44865709299024997 0 0.0089465215249001015 -0.44053456490377751 0 -0.0081227538624583772 -0.44865709299024997 0 -0.010001950914357439 -0.47832401228137361 0 0.0074529577617175029 -0.46440791574023388 0 -0.0081227538624583772 -0.44865709299024997 0 -0.02744535499863713 -0.45948891163870681 0 -0.010001950914357439 -0.47832401228137361 0 -0.024458041436922661 -0.43497161395283779 0 -0.0081227538624583772 -0.44865709299024997 0 -0.02744535499863713 -0.45948891163870681 0 -0.010694058040363009 -0.49088444242858059 0 -0.01743591480800161 -0.5 0 0.01007243147813665 -0.50000000000000344 0 -0.010694058040363009 -0.49088444242858059 0 -0.010001950914357439 -0.47832401228137361 0 0.01007243147813665 -0.50000000000000344 0 -0.010694058040363009 -0.49088444242858059 0 -0.010001950914357439 -0.47832401228137361 0 -0.02298617942367227 -0.48867581536445182 0 -0.010001950914357439 -0.47832401228137361 0 0.0074529577617175029 -0.46440791574023388 0 -0.010001950914357439 -0.47832401228137361 0 -0.02798261237595924 -0.47505645172480809 0 -0.02298617942367227 -0.48867581536445182 0 -0.02744535499863713 -0.45948891163870681 0 -0.010001950914357439 -0.47832401228137361 0 -0.02744535499863713 -0.45948891163870681 0 -0.010001950914357439 -0.47832401228137361 0 -0.02798261237595924 -0.47505645172480809 0 -0.02798261237595924 -0.47505645172480809 0 -0.02298617942367227 -0.48867581536445182 0 -0.034067547445637787 -0.48721228813283418 0 -0.010001950914357439 -0.47832401228137361 0 -0.02298617942367227 -0.48867581536445182 0 -0.02298617942367227 -0.48867581536445182 0 -0.01743591480800161 -0.5 0 -0.035970407932987107 -0.49902761844753007 0 -0.02298617942367227 -0.48867581536445182 0 -0.035970407932987107 -0.49902761844753007 0 -0.034067547445637787 -0.48721228813283418 0 -0.02298617942367227 -0.48867581536445182 0 -0.035970407932987107 -0.49902761844753007 0 -0.010694058040363009 -0.49088444242858059 0 -0.02298617942367227 -0.48867581536445182 0 -0.01743591480800161 -0.5 0 -0.01743591480800161 -0.5 0 -0.044944261094139903 -0.5 0 -0.035970407932987107 -0.49902761844753007 0 -0.044944261094139903 -0.5 0 -0.035970407932987107 -0.49902761844753007 0 -0.043583725941432457 -0.48998365120817539 0 -0.035970407932987107 -0.49902761844753007 0 -0.034067547445637787 -0.48721228813283418 0 -0.043583725941432457 -0.48998365120817539 0 -0.034067547445637787 -0.48721228813283418 0 -0.043583725941432457 -0.48998365120817539 0 -0.040846057451536591 -0.48025812666004919 0 -0.043583725941432457 -0.48998365120817539 0 -0.040846057451536591 -0.48025812666004919 0 -0.05470749917958085 -0.48724500355865102 0 -0.02798261237595924 -0.47505645172480809 0 -0.040846057451536591 -0.48025812666004919 0 -0.046982949433978877 -0.46274570458983372 0 -0.02798261237595924 -0.47505645172480809 0 -0.034067547445637787 -0.48721228813283418 0 -0.040846057451536591 -0.48025812666004919 0 -0.040846057451536591 -0.48025812666004919 0 -0.054527349029804772 -0.47450419064042237 0 -0.046982949433978877 -0.46274570458983372 0 -0.054527349029804772 -0.47450419064042237 0 -0.061931135877357581 -0.4637904457742677 0 -0.068169103206569936 -0.47848167261931079 0 -0.054527349029804772 -0.47450419064042237 0 -0.05470749917958085 -0.48724500355865102 0 -0.068169103206569936 -0.47848167261931079 0 -0.040846057451536591 -0.48025812666004919 0 -0.054527349029804772 -0.47450419064042237 0 -0.05470749917958085 -0.48724500355865102 0 -0.044944261094139903 -0.5 0 -0.05470749917958085 -0.48724500355865102 0 -0.072452607380278256 -0.5 0 -0.044944261094139903 -0.5 0 -0.043583725941432457 -0.48998365120817539 0 -0.05470749917958085 -0.48724500355865102 0 -0.04488875908291616 -0.44065381099603951 0 -0.046982949433978877 -0.46274570458983372 0 -0.02744535499863713 -0.45948891163870681 0 -0.04488875908291616 -0.44065381099603951 0 -0.024458041436922661 -0.43497161395283779 0 -0.02744535499863713 -0.45948891163870681 0 -0.04488875908291616 -0.44065381099603951 0 -0.02744535499863713 -0.45948891163870681 0 -0.04488875908291616 -0.44065381099603951 0 -0.046982949433978877 -0.46274570458983372 0 -0.02744535499863713 -0.45948891163870681 0 -0.02798261237595924 -0.47505645172480809 0 -0.046982949433978877 -0.46274570458983372 0 -0.054527349029804772 -0.47450419064042237 0 -0.046982949433978877 -0.46274570458983372 0 -0.061931135877357581 -0.4637904457742677 0 -0.046982949433978877 -0.46274570458983372 0 -0.061931135877357581 -0.4637904457742677 0 -0.058335435437319463 -0.45160144637503141 0 -0.04488875908291616 -0.44065381099603951 0 -0.058335435437319463 -0.45160144637503141 0 -0.071003255413518818 -0.44139450943172992 0 -0.04488875908291616 -0.44065381099603951 0 -0.046982949433978877 -0.46274570458983372 0 -0.058335435437319463 -0.45160144637503141 0 -0.061498404797166367 -0.43592875744847681 0 -0.04488875908291616 -0.44065381099603951 0 -0.071003255413518818 -0.44139450943172992 0 -0.04488875908291616 -0.44065381099603951 0 -0.071003255413518818 -0.44139450943172992 0 -0.071003255413518818 -0.44139450943172992 0 -0.070054367327817321 -0.45383855281258229 0 -0.081045432160776976 -0.45225063272037208 0 -0.058335435437319463 -0.45160144637503141 0 -0.071003255413518818 -0.44139450943172992 0 -0.070054367327817321 -0.45383855281258229 0 -0.061931135877357581 -0.4637904457742677 0 -0.070054367327817321 -0.45383855281258229 0 -0.077672119229264092 -0.4633414348242153 0 -0.061931135877357581 -0.4637904457742677 0 -0.058335435437319463 -0.45160144637503141 0 -0.070054367327817321 -0.45383855281258229 0 -0.061931135877357581 -0.4637904457742677 0 -0.077672119229264092 -0.4633414348242153 0 -0.068169103206569936 -0.47848167261931079 0 -0.070054367327817321 -0.45383855281258229 0 -0.077672119229264092 -0.4633414348242153 0 -0.081045432160776976 -0.45225063272037208 0 -0.077672119229264092 -0.4633414348242153 0 -0.091868774251622154 -0.45779424780859029 0 -0.096455822994911733 -0.47424725477272772 0 -0.077672119229264092 -0.4633414348242153 0 -0.091868774251622154 -0.45779424780859029 0 -0.081045432160776976 -0.45225063272037208 0 -0.071003255413518818 -0.44139450943172992 0 -0.096593175042618537 -0.44163007161959339 0 -0.080841071996270802 -0.42989819613247798 0 -0.071003255413518818 -0.44139450943172992 0 -0.081045432160776976 -0.45225063272037208 0 -0.096593175042618537 -0.44163007161959339 0 -0.091868774251622154 -0.45779424780859029 0 -0.081045432160776976 -0.45225063272037208 0 -0.096593175042618537 -0.44163007161959339 0 -0.071003255413518818 -0.44139450943172992 0 -0.096593175042618537 -0.44163007161959339 0 -0.05470749917958085 -0.48724500355865102 0 -0.072452607380278256 -0.5 0 -0.068169103206569936 -0.47848167261931079 0 -0.072452607380278256 -0.5 0 -0.068169103206569936 -0.47848167261931079 0 -0.084138856907518586 -0.48771539175528028 0 -0.068169103206569936 -0.47848167261931079 0 -0.096455822994911733 -0.47424725477272772 0 -0.068169103206569936 -0.47848167261931079 0 -0.084138856907518586 -0.48771539175528028 0 -0.096455822994911733 -0.47424725477272772 0 -0.077672119229264092 -0.4633414348242153 0 -0.068169103206569936 -0.47848167261931079 0 -0.096455822994911733 -0.47424725477272772 0 -0.084138856907518586 -0.48771539175528028 0 -0.099960953666416552 -0.5 0 -0.096455822994911733 -0.47424725477272772 0 -0.072452607380278256 -0.5 0 -0.084138856907518586 -0.48771539175528028 0 -0.099960953666416552 -0.5 0 -0.099960953666416552 -0.5 0 -0.096455822994911733 -0.47424725477272772 0 -0.1121571548492843 -0.48606502292471793 0 -0.096455822994911733 -0.47424725477272772 0 -0.1247425427832535 -0.47001283692614448 0 -0.1121571548492843 -0.48606502292471793 0 -0.096455822994911733 -0.47424725477272772 0 -0.1247425427832535 -0.47001283692614448 0 -0.12746929995255479 -0.49999999999999972 0 -0.1247425427832535 -0.47001283692614448 0 -0.1121571548492843 -0.48606502292471793 0 -0.12746929995255479 -0.49999999999999972 0 -0.099960953666416552 -0.5 0 -0.1121571548492843 -0.48606502292471793 0 -0.096593175042618537 -0.44163007161959339 0 -0.1075773218305394 -0.4575018451060433 0 -0.1221830946717181 -0.44186563380745669 0 -0.091868774251622154 -0.45779424780859029 0 -0.096593175042618537 -0.44163007161959339 0 -0.1075773218305394 -0.4575018451060433 0 -0.091868774251622154 -0.45779424780859029 0 -0.096455822994911733 -0.47424725477272772 0 -0.1075773218305394 -0.4575018451060433 0 -0.1247425427832535 -0.47001283692614448 0 -0.1075773218305394 -0.4575018451060433 0 -0.1221830946717181 -0.44186563380745669 0 -0.096455822994911733 -0.47424725477272772 0 -0.1247425427832535 -0.47001283692614448 0 -0.1075773218305394 -0.4575018451060433 0 -0.1247425427832535 -0.47001283692614448 0 -0.1221830946717181 -0.44186563380745669 0 -0.096593175042618537 -0.44163007161959339 0 -0.1221830946717181 -0.44186563380745669 0 -0.12172197201081331 -0.43679449634596079 0 -0.096593175042618537 -0.44163007161959339 0 -0.1221830946717181 -0.44186563380745669 0 -0.1221830946717181 -0.44186563380745669 0 -0.12172197201081331 -0.43679449634596079 0 -0.1307274991614775 -0.43356976766927618 0 -0.1221830946717181 -0.44186563380745669 0 -0.12172197201081331 -0.43679449634596079 0 -0.12172197201081331 -0.43679449634596079 0 -0.11483120508238 -0.4248618138769571 0 -0.10378556533285339 -0.42819958734209079 0 -0.12667571080136819 -0.42660160814618803 0 -0.11483120508238 -0.4248618138769571 0 -0.1219852137394527 -0.41676446505631559 0 -0.12667571080136819 -0.42660160814618803 0 -0.12172197201081331 -0.43679449634596079 0 -0.11483120508238 -0.4248618138769571 0 -0.096593175042618537 -0.44163007161959339 0 -0.12172197201081331 -0.43679449634596079 0 -0.10378556533285339 -0.42819958734209079 0 -0.096593175042618537 -0.44163007161959339 0 -0.10378556533285339 -0.42819958734209079 0 -0.094228340470065036 -0.42407046313129571 0 -0.11483120508238 -0.4248618138769571 0 -0.10378556533285339 -0.42819958734209079 0 -0.1060079889313653 -0.41750254156577182 0 -0.10378556533285339 -0.42819958734209079 0 -0.094228340470065036 -0.42407046313129571 0 -0.1060079889313653 -0.41750254156577182 0 -0.098376229079757835 -0.41454542886186591 0 -0.1023034821829351 -0.40457800628585189 0 -0.090965104734666027 -0.41203070446454432 0 -0.094228340470065036 -0.42407046313129571 0 -0.098376229079757835 -0.41454542886186591 0 -0.090965104734666027 -0.41203070446454432 0 -0.094228340470065036 -0.42407046313129571 0 -0.098376229079757835 -0.41454542886186591 0 -0.1060079889313653 -0.41750254156577182 0 -0.1060079889313653 -0.41750254156577182 0 -0.1132712917893515 -0.4090151454234241 0 -0.1023034821829351 -0.40457800628585189 0 -0.098376229079757835 -0.41454542886186591 0 -0.1060079889313653 -0.41750254156577182 0 -0.1023034821829351 -0.40457800628585189 0 -0.1132712917893515 -0.4090151454234241 0 -0.1219852137394527 -0.41676446505631559 0 -0.12401467436812789 -0.39888184512347119 0 -0.1132712917893515 -0.4090151454234241 0 -0.1140239248856374 -0.41703599148061721 0 -0.1219852137394527 -0.41676446505631559 0 -0.11483120508238 -0.4248618138769571 0 -0.1140239248856374 -0.41703599148061721 0 -0.1219852137394527 -0.41676446505631559 0 -0.1060079889313653 -0.41750254156577182 0 -0.1132712917893515 -0.4090151454234241 0 -0.1140239248856374 -0.41703599148061721 0 -0.11483120508238 -0.4248618138769571 0 -0.1060079889313653 -0.41750254156577182 0 -0.1140239248856374 -0.41703599148061721 0 -0.12401467436812789 -0.39888184512347119 0 -0.1113866016226913 -0.39853238561561638 0 -0.10604309465040899 -0.37721608739455231 0 -0.1132712917893515 -0.4090151454234241 0 -0.12401467436812789 -0.39888184512347119 0 -0.1113866016226913 -0.39853238561561638 0 -0.12401467436812789 -0.39888184512347119 0 -0.12482747800071579 -0.38046227385892861 0 -0.10604309465040899 -0.37721608739455231 0 -0.1190606322433044 -0.37180163675148198 0 -0.12482747800071579 -0.38046227385892861 0 -0.10604309465040899 -0.37721608739455231 0 -0.12401467436812789 -0.39888184512347119 0 -0.10604309465040899 -0.37721608739455231 0 -0.10604309465040899 -0.37721608739455231 0 -0.099631105225606045 -0.38154392659323111 0 -0.091194864699327527 -0.39678697741252672 0 -0.10604309465040899 -0.37721608739455231 0 -0.1027320107888407 -0.39427836417713691 0 -0.091194864699327527 -0.39678697741252672 0 -0.1113866016226913 -0.39853238561561638 0 -0.10604309465040899 -0.37721608739455231 0 -0.1027320107888407 -0.39427836417713691 0 -0.10604309465040899 -0.37721608739455231 0 -0.091194864699327527 -0.39678697741252672 0 -0.091379527123219464 -0.37433608333195562 0 -0.10604309465040899 -0.37721608739455231 0 -0.099631105225606045 -0.38154392659323111 0 -0.1113866016226913 -0.39853238561561638 0 -0.1023034821829351 -0.40457800628585189 0 -0.1027320107888407 -0.39427836417713691 0 -0.1132712917893515 -0.4090151454234241 0 -0.1113866016226913 -0.39853238561561638 0 -0.1023034821829351 -0.40457800628585189 0 -0.1023034821829351 -0.40457800628585189 0 -0.1027320107888407 -0.39427836417713691 0 -0.091194864699327527 -0.39678697741252672 0 -0.1023034821829351 -0.40457800628585189 0 -0.091194864699327527 -0.39678697741252672 0 -0.090965104734666027 -0.41203070446454432 0 -0.099631105225606045 -0.38154392659323111 0 -0.091194864699327527 -0.39678697741252672 0 -0.081383656511376329 -0.4012472213941673 0 -0.099631105225606045 -0.38154392659323111 0 -0.081383656511376329 -0.4012472213941673 0 -0.099631105225606045 -0.38154392659323111 0 -0.081383656511376329 -0.4012472213941673 0 -0.084293765857407665 -0.39031989748000279 0 -0.091194864699327527 -0.39678697741252672 0 -0.081383656511376329 -0.4012472213941673 0 -0.076346634748246975 -0.41635786743050168 0 -0.084293765857407665 -0.39031989748000279 0 -0.076897073446640665 -0.38850252429939741 0 -0.074971010905513585 -0.39550187070399062 0 -0.081383656511376329 -0.4012472213941673 0 -0.084293765857407665 -0.39031989748000279 0 -0.074971010905513585 -0.39550187070399062 0 -0.082207612916915473 -0.3749612268021687 0 -0.091379527123219464 -0.37433608333195562 0 -0.086150659064914495 -0.37950621132196621 0 -0.091379527123219464 -0.37433608333195562 0 -0.099631105225606045 -0.38154392659323111 0 -0.089886689131667391 -0.38321878967351469 0 -0.091379527123219464 -0.37433608333195562 0 -0.086150659064914495 -0.37950621132196621 0 -0.089886689131667391 -0.38321878967351469 0 -0.086150659064914495 -0.37950621132196621 0 -0.089886689131667391 -0.38321878967351469 0 -0.084034195569420864 -0.3851591710437563 0 -0.099631105225606045 -0.38154392659323111 0 -0.089886689131667391 -0.38321878967351469 0 -0.084293765857407665 -0.39031989748000279 0 -0.089886689131667391 -0.38321878967351469 0 -0.084293765857407665 -0.39031989748000279 0 -0.084034195569420864 -0.3851591710437563 0 -0.084293765857407665 -0.39031989748000279 0 -0.084034195569420864 -0.3851591710437563 0 -0.076897073446640665 -0.38850252429939741 0 -0.084034195569420864 -0.3851591710437563 0 -0.08044009127293586 -0.38213830145883237 0 -0.076897073446640665 -0.38850252429939741 0 -0.086150659064914495 -0.37950621132196621 0 -0.084034195569420864 -0.3851591710437563 0 -0.08044009127293586 -0.38213830145883237 0 -0.082207612916915473 -0.3749612268021687 0 -0.08044009127293586 -0.38213830145883237 0 -0.075740952013650803 -0.37779288484933732 0 -0.082207612916915473 -0.3749612268021687 0 -0.086150659064914495 -0.37950621132196621 0 -0.08044009127293586 -0.38213830145883237 0 -0.08044009127293586 -0.38213830145883237 0 -0.075740952013650803 -0.37779288484933732 0 -0.071605622543352399 -0.38244707121945892 0 -0.075082882246678251 -0.37204554450386013 0 -0.075740952013650803 -0.37779288484933732 0 -0.069368551088372032 -0.37737228026236619 0 -0.075740952013650803 -0.37779288484933732 0 -0.071605622543352399 -0.38244707121945892 0 -0.069368551088372032 -0.37737228026236619 0 -0.08044009127293586 -0.38213830145883237 0 -0.071605622543352399 -0.38244707121945892 0 -0.076897073446640665 -0.38850252429939741 0 -0.071605622543352399 -0.38244707121945892 0 -0.076897073446640665 -0.38850252429939741 0 -0.065850371008313285 -0.3926529424070872 0 -0.071605622543352399 -0.38244707121945892 0 -0.063520493704550512 -0.38306661201027109 0 -0.065850371008313285 -0.3926529424070872 0 -0.071605622543352399 -0.38244707121945892 0 -0.063520493704550512 -0.38306661201027109 0 -0.069368551088372032 -0.37737228026236619 0 -0.063520493704550512 -0.38306661201027109 0 -0.063591235898589948 -0.37566068198231523 0 -0.069368551088372032 -0.37737228026236619 0 -0.06864180169104861 -0.37256942000465709 0 -0.063591235898589948 -0.37566068198231523 0 -0.069368551088372032 -0.37737228026236619 0 -0.081383656511376329 -0.4012472213941673 0 -0.074971010905513585 -0.39550187070399062 0 -0.066430187703829954 -0.40478676793929841 0 -0.076897073446640665 -0.38850252429939741 0 -0.074971010905513585 -0.39550187070399062 0 -0.065850371008313285 -0.3926529424070872 0 -0.074971010905513585 -0.39550187070399062 0 -0.065850371008313285 -0.3926529424070872 0 -0.066430187703829954 -0.40478676793929841 0 -0.081383656511376329 -0.4012472213941673 0 -0.066430187703829954 -0.40478676793929841 0 -0.063136207797146529 -0.42095051619510371 0 -0.081383656511376329 -0.4012472213941673 0 -0.063136207797146529 -0.42095051619510371 0 -0.081383656511376329 -0.4012472213941673 0 -0.063136207797146529 -0.42095051619510371 0 -0.076346634748246975 -0.41635786743050168 0 -0.061498404797166367 -0.43592875744847681 0 -0.076346634748246975 -0.41635786743050168 0 -0.061498404797166367 -0.43592875744847681 0 -0.076346634748246975 -0.41635786743050168 0 -0.080841071996270802 -0.42989819613247798 0 -0.061498404797166367 -0.43592875744847681 0 -0.071003255413518818 -0.44139450943172992 0 -0.080841071996270802 -0.42989819613247798 0 -0.061498404797166367 -0.43592875744847681 0 -0.063136207797146529 -0.42095051619510371 0 -0.076346634748246975 -0.41635786743050168 0 -0.096593175042618537 -0.44163007161959339 0 -0.094228340470065036 -0.42407046313129571 0 -0.080841071996270802 -0.42989819613247798 0 -0.076346634748246975 -0.41635786743050168 0 -0.080841071996270802 -0.42989819613247798 0 -0.085532811849797052 -0.42042307920215238 0 -0.094228340470065036 -0.42407046313129571 0 -0.080841071996270802 -0.42989819613247798 0 -0.085532811849797052 -0.42042307920215238 0 -0.091194864699327527 -0.39678697741252672 0 -0.076346634748246975 -0.41635786743050168 0 -0.094228340470065036 -0.42407046313129571 0 -0.090965104734666027 -0.41203070446454432 0 -0.085532811849797052 -0.42042307920215238 0 -0.091194864699327527 -0.39678697741252672 0 -0.076346634748246975 -0.41635786743050168 0 -0.090965104734666027 -0.41203070446454432 0 -0.076346634748246975 -0.41635786743050168 0 -0.090965104734666027 -0.41203070446454432 0 -0.085532811849797052 -0.42042307920215238 0 -0.078855034113402042 -0.069722925556509691 0 -0.08793821176173304 -0.095840946518629719 0 -0.1042014486813384 -0.071587604727522278 0 -0.078855034113402042 -0.069722925556509691 0 -0.08793821176173304 -0.095840946518629719 0 -0.078855034113402042 -0.069722925556509691 0 -0.1042014486813384 -0.071587604727522278 0 -0.082858069714904711 -0.054954669479180741 0 -0.078855034113402042 -0.069722925556509691 0 -0.08793821176173304 -0.095840946518629719 0 -0.057592384703889998 -0.098488586510345352 0 -0.078855034113402042 -0.069722925556509691 0 -0.05720421587825035 -0.067788758913235353 0 -0.057592384703889998 -0.098488586510345352 0 -0.067535872668575178 -0.1194784055018111 0 -0.08793821176173304 -0.095840946518629719 0 -0.057592384703889998 -0.098488586510345352 0 -0.067535872668575178 -0.1194784055018111 0 -0.08793821176173304 -0.095840946518629719 0 -0.09702138941006605 -0.121958967480749 0 -0.08793821176173304 -0.095840946518629719 0 -0.09702138941006605 -0.121958967480749 0 -0.08793821176173304 -0.095840946518629719 0 -0.09702138941006605 -0.121958967480749 0 -0.11276973146524349 -0.10225228402678931 0 -0.09702138941006605 -0.121958967480749 0 -0.11276973146524349 -0.10225228402678931 0 -0.09702138941006605 -0.121958967480749 0 -0.113254155222659 -0.11878528903056509 0 -0.1175007575356643 -0.13372109703407081 0 -0.09702138941006605 -0.121958967480749 0 -0.113254155222659 -0.11878528903056509 0 -0.11276973146524349 -0.10225228402678931 0 -0.113254155222659 -0.11878528903056509 0 -0.12888589304759121 -0.1027624119788627 0 -0.12925371257476059 -0.12297922338489591 0 -0.11276973146524349 -0.10225228402678931 0 -0.1285180735204208 -0.08254560057282942 0 -0.12888589304759121 -0.1027624119788627 0 -0.113254155222659 -0.11878528903056509 0 -0.11276973146524349 -0.10225228402678931 0 -0.12888589304759121 -0.1027624119788627 0 -0.11276973146524349 -0.10225228402678931 0 -0.1042014486813384 -0.071587604727522278 0 -0.1285180735204208 -0.08254560057282942 0 -0.11276973146524349 -0.10225228402678931 0 -0.1285180735204208 -0.08254560057282942 0 -0.08793821176173304 -0.095840946518629719 0 -0.11276973146524349 -0.10225228402678931 0 -0.1042014486813384 -0.071587604727522278 0 -0.1042014486813384 -0.071587604727522278 0 -0.12816748550786239 -0.06327590114801214 0 -0.1285180735204208 -0.08254560057282942 0 -0.1042014486813384 -0.071587604727522278 0 -0.1147715703557621 -0.053881584055765701 0 -0.12816748550786239 -0.06327590114801214 0 -0.1147715703557621 -0.053881584055765701 0 -0.12816748550786239 -0.06327590114801214 0 -0.1278168974952997 -0.044006201723194867 0 -0.10965733712059091 -0.0284109432797293 0 -0.12772179507334119 -0.038778997654293372 0 -0.1278168974952997 -0.044006201723194867 0 -0.11810218921510079 -0.028125888668038699 0 -0.10965733712059091 -0.0284109432797293 0 -0.12772179507334119 -0.038778997654293372 0 -0.10965733712059091 -0.0284109432797293 0 -0.1278168974952997 -0.044006201723194867 0 -0.1147715703557621 -0.053881584055765701 0 -0.10965733712059091 -0.0284109432797293 0 -0.1278168974952997 -0.044006201723194867 0 -0.11810218921510079 -0.028125888668038699 0 -0.12772179507334119 -0.038778997654293372 0 -0.11810218921510079 -0.028125888668038699 0 -0.12634479329777981 -0.027847660905157862 0 -0.12772179507334119 -0.038778997654293372 0 -0.1147715703557621 -0.053881584055765701 0 -0.099733413011379488 -0.050226926462461963 0 -0.10965733712059091 -0.0284109432797293 0 -0.099733413011379488 -0.050226926462461963 0 -0.10965733712059091 -0.0284109432797293 0 -0.087021273751697062 -0.040230763280739483 0 -0.10965733712059091 -0.0284109432797293 0 -0.086454403319930317 -0.029194154543897861 0 -0.087021273751697062 -0.040230763280739483 0 -0.1042014486813384 -0.071587604727522278 0 -0.099733413011379488 -0.050226926462461963 0 -0.082858069714904711 -0.054954669479180741 0 -0.1042014486813384 -0.071587604727522278 0 -0.1147715703557621 -0.053881584055765701 0 -0.099733413011379488 -0.050226926462461963 0 -0.1218358066818003 -0.016501470715471579 0 -0.10477578985490971 -0.01336773881547932 0 -0.12685177027702929 -0.0074551924353097251 0 -0.10477578985490971 -0.01336773881547932 0 -0.12685177027702929 -0.0074551924353097251 0 -0.12610417559565379 0.0050561888116637567 0 -0.10477578985490971 -0.01336773881547932 0 -0.12610417559565379 0.0050561888116637567 0 -0.10477578985490971 -0.01336773881547932 0 -0.12610417559565379 0.0050561888116637567 0 -0.1087758492199227 0.001705343145855055 0 -0.1218358066818003 -0.016501470715471579 0 -0.11810218921510079 -0.028125888668038699 0 -0.10477578985490971 -0.01336773881547932 0 -0.11810218921510079 -0.028125888668038699 0 -0.10477578985490971 -0.01336773881547932 0 -0.11810218921510079 -0.028125888668038699 0 -0.10965733712059091 -0.0284109432797293 0 -0.10477578985490971 -0.01336773881547932 0 -0.1218358066818003 -0.016501470715471579 0 -0.1238192285020569 -0.023415476126444248 0 -0.12827580271321851 -0.024316146848945178 0 -0.1218358066818003 -0.016501470715471579 0 -0.1238192285020569 -0.023415476126444248 0 -0.11810218921510079 -0.028125888668038699 0 -0.1238192285020569 -0.023415476126444248 0 -0.11810218921510079 -0.028125888668038699 0 -0.12634479329777981 -0.027847660905157862 0 -0.11810218921510079 -0.028125888668038699 0 -0.12634479329777981 -0.027847660905157862 0 -0.11810218921510079 -0.028125888668038699 0 -0.10965733712059091 -0.0284109432797293 0 -0.10965733712059091 -0.0284109432797293 0 -0.086454403319930317 -0.029194154543897861 0 -0.10965733712059091 -0.0284109432797293 0 -0.098476649399364624 -0.018809074567593051 0 -0.086454403319930317 -0.029194154543897861 0 -0.10965733712059091 -0.0284109432797293 0 -0.098476649399364624 -0.018809074567593051 0 -0.10965733712059091 -0.0284109432797293 0 -0.098476649399364624 -0.018809074567593051 0 -0.10477578985490971 -0.01336773881547932 0 -0.098476649399364624 -0.018809074567593051 0 -0.10477578985490971 -0.01336773881547932 0 -0.098476649399364624 -0.018809074567593051 0 -0.097566067863505385 -0.0081433517723656385 0 -0.088746710434197518 -0.0030685635260504431 0 -0.098476649399364624 -0.018809074567593051 0 -0.1025176321701919 -0.01086697108362478 0 -0.10477578985490971 -0.01336773881547932 0 -0.1025176321701919 -0.01086697108362478 0 -0.10477578985490971 -0.01336773881547932 0 -0.098476649399364624 -0.018809074567593051 0 -0.1025176321701919 -0.01086697108362478 0 -0.097566067863505385 -0.0081433517723656385 0 -0.1025176321701919 -0.01086697108362478 0 -0.097566067863505385 -0.0081433517723656385 0 -0.1005232794502669 0.0001712020878064599 0 -0.097566067863505385 -0.0081433517723656385 0 -0.088746710434197518 -0.0030685635260504431 0 -0.1005232794502669 0.0001712020878064599 0 -0.1025176321701919 -0.01086697108362478 0 -0.10477578985490971 -0.01336773881547932 0 -0.1087758492199227 0.001705343145855055 0 -0.1025176321701919 -0.01086697108362478 0 -0.1005232794502669 0.0001712020878064599 0 -0.1087758492199227 0.001705343145855055 0 -0.098476649399364624 -0.018809074567593051 0 -0.088746710434197518 -0.0030685635260504431 0 -0.078084610226757528 -0.001296584478394562 0 -0.098476649399364624 -0.018809074567593051 0 -0.078084610226757528 -0.001296584478394562 0 -0.098476649399364624 -0.018809074567593051 0 -0.086454403319930317 -0.029194154543897861 0 -0.078084610226757528 -0.001296584478394562 0 -0.086454403319930317 -0.029194154543897861 0 -0.076625631924314208 -0.029525923126957988 0 -0.078084610226757528 -0.001296584478394562 0 -0.098476649399364624 -0.018809074567593051 0 -0.086454403319930317 -0.029194154543897861 0 -0.086454403319930317 -0.029194154543897861 0 -0.076625631924314208 -0.029525923126957988 0 -0.076625631924314208 -0.029525923126957988 0 -0.06348325468362824 -0.0146943134473904 0 -0.051370929529305831 -0.03037839150698669 0 -0.076625631924314208 -0.029525923126957988 0 -0.051370929529305831 -0.03037839150698669 0 -0.076625631924314208 -0.029525923126957988 0 -0.078084610226757528 -0.001296584478394562 0 -0.06348325468362824 -0.0146943134473904 0 -0.078084610226757528 -0.001296584478394562 0 -0.055398028680376188 0.001238288086679795 0 -0.076625631924314208 -0.029525923126957988 0 -0.06348325468362824 -0.0146943134473904 0 -0.078084610226757528 -0.001296584478394562 0 -0.099733413011379488 -0.050226926462461963 0 -0.082858069714904711 -0.054954669479180741 0 -0.087021273751697062 -0.040230763280739483 0 -0.086454403319930317 -0.029194154543897861 0 -0.076184269084912118 -0.038065721861133398 0 -0.086454403319930317 -0.029194154543897861 0 -0.076625631924314208 -0.029525923126957988 0 -0.076184269084912118 -0.038065721861133398 0 -0.086454403319930317 -0.029194154543897861 0 -0.087021273751697062 -0.040230763280739483 0 -0.076184269084912118 -0.038065721861133398 0 -0.082858069714904711 -0.054954669479180741 0 -0.087021273751697062 -0.040230763280739483 0 -0.076018813415763609 -0.041267074552857143 0 -0.087021273751697062 -0.040230763280739483 0 -0.076018813415763609 -0.041267074552857143 0 -0.076184269084912118 -0.038065721861133398 0 -0.076625631924314208 -0.029525923126957988 0 -0.068698523265442749 -0.040518612539716233 0 -0.057700973412878942 -0.039436415449036151 0 -0.082858069714904711 -0.054954669479180741 0 -0.076018813415763609 -0.041267074552857143 0 -0.069771856465069781 -0.043604904594389989 0 -0.076018813415763609 -0.041267074552857143 0 -0.076184269084912118 -0.038065721861133398 0 -0.076184269084912118 -0.038065721861133398 0 -0.069771856465069781 -0.043604904594389989 0 -0.068698523265442749 -0.040518612539716233 0 -0.076184269084912118 -0.038065721861133398 0 -0.069771856465069781 -0.043604904594389989 0 -0.076018813415763609 -0.041267074552857143 0 -0.076184269084912118 -0.038065721861133398 0 -0.069771856465069781 -0.043604904594389989 0 -0.076625631924314208 -0.029525923126957988 0 -0.076184269084912118 -0.038065721861133398 0 -0.076625631924314208 -0.029525923126957988 0 -0.076184269084912118 -0.038065721861133398 0 -0.068698523265442749 -0.040518612539716233 0 -0.068698523265442749 -0.040518612539716233 0 -0.062993306211092864 -0.04207542907347718 0 -0.057700973412878942 -0.039436415449036151 0 -0.069771856465069781 -0.043604904594389989 0 -0.065182874292656554 -0.047568968094293708 0 -0.069771856465069781 -0.043604904594389989 0 -0.068698523265442749 -0.040518612539716233 0 -0.069771856465069781 -0.043604904594389989 0 -0.068698523265442749 -0.040518612539716233 0 -0.062993306211092864 -0.04207542907347718 0 -0.069771856465069781 -0.043604904594389989 0 -0.062993306211092864 -0.04207542907347718 0 -0.065182874292656554 -0.047568968094293708 0 -0.078855034113402042 -0.069722925556509691 0 -0.065182874292656554 -0.047568968094293708 0 -0.05720421587825035 -0.067788758913235353 0 -0.078855034113402042 -0.069722925556509691 0 -0.069771856465069781 -0.043604904594389989 0 -0.065182874292656554 -0.047568968094293708 0 -0.078855034113402042 -0.069722925556509691 0 -0.082858069714904711 -0.054954669479180741 0 -0.069771856465069781 -0.043604904594389989 0 -0.078855034113402042 -0.069722925556509691 0 -0.069771856465069781 -0.043604904594389989 0 -0.050903983223320452 -0.05212407343265274 0 -0.035966868943260413 -0.061558940331010052 0 -0.05720421587825035 -0.067788758913235353 0 -0.065182874292656554 -0.047568968094293708 0 -0.050903983223320452 -0.05212407343265274 0 -0.05720421587825035 -0.067788758913235353 0 -0.065182874292656554 -0.047568968094293708 0 -0.050903983223320452 -0.05212407343265274 0 -0.057700973412878942 -0.039436415449036151 0 -0.076625631924314208 -0.029525923126957988 0 -0.057700973412878942 -0.039436415449036151 0 -0.051370929529305831 -0.03037839150698669 0 -0.050903983223320452 -0.05212407343265274 0 -0.057700973412878942 -0.039436415449036151 0 -0.039430713432679218 -0.042411521389377843 0 -0.062993306211092864 -0.04207542907347718 0 -0.065182874292656554 -0.047568968094293708 0 -0.057700973412878942 -0.039436415449036151 0 -0.057700973412878942 -0.039436415449036151 0 -0.039430713432679218 -0.042411521389377843 0 -0.051370929529305831 -0.03037839150698669 0 -0.039430713432679218 -0.042411521389377843 0 -0.051370929529305831 -0.03037839150698669 0 -0.026116227134297291 -0.031230859887014378 0 -0.050903983223320452 -0.05212407343265274 0 -0.039430713432679218 -0.042411521389377843 0 -0.035966868943260413 -0.061558940331010052 0 -0.06348325468362824 -0.0146943134473904 0 -0.040083006432681353 -0.0067167165759734263 0 -0.055398028680376188 0.001238288086679795 0 -0.06348325468362824 -0.0146943134473904 0 -0.051370929529305831 -0.03037839150698669 0 -0.040083006432681353 -0.0067167165759734263 0 -0.051370929529305831 -0.03037839150698669 0 -0.026116227134297291 -0.031230859887014378 0 -0.051370929529305831 -0.03037839150698669 0 -0.040083006432681353 -0.0067167165759734263 0 -0.026116227134297291 -0.031230859887014378 0 -0.040083006432681353 -0.0067167165759734263 0 -0.015828118557597009 -0.013356126892409481 0 -0.02087737458560707 0.01125984804016378 0 -0.015828118557597009 -0.013356126892409481 0 -0.026116227134297291 -0.031230859887014378 0 -0.0078335196233025421 -0.032589113900727759 0 -0.040083006432681353 -0.0067167165759734263 0 -0.015828118557597009 -0.013356126892409481 0 -0.026116227134297291 -0.031230859887014378 0 -0.015828118557597009 -0.013356126892409481 0 -0.0078335196233025421 -0.032589113900727759 0 0.0030583570175628252 -0.01856170568743179 0 -0.015828118557597009 -0.013356126892409481 0 -0.0028544830176488989 0.002455641577057118 0 0.0030583570175628252 -0.01856170568743179 0 -0.035966868943260413 -0.061558940331010052 0 -0.017926826096430929 -0.048954679239262951 0 -0.016614742541386021 -0.064625691909047656 0 -0.039430713432679218 -0.042411521389377843 0 -0.035966868943260413 -0.061558940331010052 0 -0.017926826096430929 -0.048954679239262951 0 -0.039430713432679218 -0.042411521389377843 0 -0.026116227134297291 -0.031230859887014378 0 -0.017926826096430929 -0.048954679239262951 0 -0.026116227134297291 -0.031230859887014378 0 -0.017926826096430929 -0.048954679239262951 0 -0.0078335196233025421 -0.032589113900727759 0 -0.017926826096430929 -0.048954679239262951 0 -0.0078335196233025421 -0.032589113900727759 0 0.00050163831282639142 -0.04866532260415745 0 -0.017926826096430929 -0.048954679239262951 0 -0.0026473775239512971 -0.060770750801720619 0 -0.016614742541386021 -0.064625691909047656 0 -0.017926826096430929 -0.048954679239262951 0 -0.0026473775239512971 -0.060770750801720619 0 0.00050163831282639142 -0.04866532260415745 0 -0.0063812297367853267 -0.072804535701982573 0 -0.016614742541386021 -0.064625691909047656 0 -0.02171570712450837 -0.076675916039627298 0 -0.0026473775239512971 -0.060770750801720619 0 -0.0063812297367853267 -0.072804535701982573 0 -0.016614742541386021 -0.064625691909047656 0 -0.0063812297367853267 -0.072804535701982573 0 -0.0022778045491118372 -0.087462392444144915 0 -0.02171570712450837 -0.076675916039627298 0 -0.0022778045491118372 -0.087462392444144915 0 -0.029935094626500919 -0.092975489477245127 0 -0.02171570712450837 -0.076675916039627298 0 -0.0022778045491118372 -0.087462392444144915 0 -0.029935094626500919 -0.092975489477245127 0 -0.029935094626500919 -0.092975489477245127 0 -0.02171570712450837 -0.076675916039627298 0 -0.041487288322732928 -0.079119020022680314 0 -0.035966868943260413 -0.061558940331010052 0 -0.016614742541386021 -0.064625691909047656 0 -0.02171570712450837 -0.076675916039627298 0 -0.035966868943260413 -0.061558940331010052 0 -0.041487288322732928 -0.079119020022680314 0 -0.05720421587825035 -0.067788758913235353 0 -0.035966868943260413 -0.061558940331010052 0 -0.02171570712450837 -0.076675916039627298 0 -0.041487288322732928 -0.079119020022680314 0 -0.029935094626500919 -0.092975489477245127 0 -0.041487288322732928 -0.079119020022680314 0 -0.057592384703889998 -0.098488586510345352 0 -0.041487288322732928 -0.079119020022680314 0 -0.05720421587825035 -0.067788758913235353 0 -0.057592384703889998 -0.098488586510345352 0 -0.067535872668575178 -0.1194784055018111 0 -0.042015248249694159 -0.1095142602757236 0 -0.044860766937747473 -0.1288960530603534 0 -0.067535872668575178 -0.1194784055018111 0 -0.057592384703889998 -0.098488586510345352 0 -0.042015248249694159 -0.1095142602757236 0 -0.029935094626500919 -0.092975489477245127 0 -0.057592384703889998 -0.098488586510345352 0 -0.029935094626500919 -0.092975489477245127 0 -0.057592384703889998 -0.098488586510345352 0 -0.042015248249694159 -0.1095142602757236 0 -0.029935094626500919 -0.092975489477245127 0 -0.042015248249694159 -0.1095142602757236 0 -0.024330272596675171 -0.11668742542406051 0 -0.042015248249694159 -0.1095142602757236 0 -0.024330272596675171 -0.11668742542406051 0 -0.044860766937747473 -0.1288960530603534 0 -0.029935094626500919 -0.092975489477245127 0 -0.024330272596675171 -0.11668742542406051 0 -0.011542980107816989 -0.10169503038402609 0 -0.0022778045491118372 -0.087462392444144915 0 -0.029935094626500919 -0.092975489477245127 0 -0.011542980107816989 -0.10169503038402609 0 -0.011542980107816989 -0.10169503038402609 0 -0.002279793015750931 -0.1129239797741082 0 0.0062589170789450156 -0.10143140261960169 0 -0.0022778045491118372 -0.087462392444144915 0 -0.011542980107816989 -0.10169503038402609 0 0.0062589170789450156 -0.10143140261960169 0 -0.024330272596675171 -0.11668742542406051 0 -0.002279793015750931 -0.1129239797741082 0 -0.01048867978605272 -0.13426005987009121 0 -0.002279793015750931 -0.1129239797741082 0 -0.01048867978605272 -0.13426005987009121 0 -0.024330272596675171 -0.11668742542406051 0 -0.011542980107816989 -0.10169503038402609 0 -0.002279793015750931 -0.1129239797741082 0 -0.002279793015750931 -0.1129239797741082 0 -1.2070200009860959e-05 -0.132078826353103 0 -0.01048867978605272 -0.13426005987009121 0 -1.2070200009860959e-05 -0.132078826353103 0 -0.01048867978605272 -0.13426005987009121 0 0.00092602174662574643 -0.14273889725219441 0 -0.024330272596675171 -0.11668742542406051 0 -0.01048867978605272 -0.13426005987009121 0 -0.029467471872496459 -0.14038560393416841 0 -0.01048867978605272 -0.13426005987009121 0 -0.029467471872496459 -0.14038560393416841 0 -0.018697566556354499 -0.15559613996607399 0 -0.029467471872496459 -0.14038560393416841 0 -0.018697566556354499 -0.15559613996607399 0 -0.033419501178752538 -0.16035376200813009 0 -0.01048867978605272 -0.13426005987009121 0 -0.0058914009887639524 -0.15228858520810309 0 0.00092602174662574643 -0.14273889725219441 0 -0.01048867978605272 -0.13426005987009121 0 -0.018697566556354499 -0.15559613996607399 0 -0.0058914009887639524 -0.15228858520810309 0 -0.01048867978605272 -0.13426005987009121 0 -0.018697566556354499 -0.15559613996607399 0 -0.018697566556354499 -0.15559613996607399 0 -0.0058914009887639524 -0.15228858520810309 0 -0.0164269822119773 -0.16871692112460809 0 -0.0058914009887639524 -0.15228858520810309 0 -0.003196369143550423 -0.16721314943028681 0 -0.0164269822119773 -0.16871692112460809 0 -0.003196369143550423 -0.16721314943028681 0 -0.0164269822119773 -0.16871692112460809 0 -0.01892790830582473 -0.1892199552552114 0 -0.003196369143550423 -0.16721314943028681 0 -0.01892790830582473 -0.1892199552552114 0 -0.003196369143550423 -0.16721314943028681 0 -0.0068799545627493061 -0.1882443111050015 0 -0.01892790830582473 -0.1892199552552114 0 -0.02690645332665861 -0.176932220062056 0 -0.0164269822119773 -0.16871692112460809 0 -0.01892790830582473 -0.1892199552552114 0 -0.018697566556354499 -0.15559613996607399 0 -0.02690645332665861 -0.176932220062056 0 -0.0164269822119773 -0.16871692112460809 0 -0.02690645332665861 -0.176932220062056 0 -0.033419501178752538 -0.16035376200813009 0 -0.018697566556354499 -0.15559613996607399 0 -0.02690645332665861 -0.176932220062056 0 -0.018697566556354499 -0.15559613996607399 0 -0.02690645332665861 -0.176932220062056 0 -0.033419501178752538 -0.16035376200813009 0 -0.038985772667750503 -0.17509623527018009 0 -0.05174826459682811 -0.17943006272303619 0 -0.048474542292160638 -0.16104480615706671 0 -0.02690645332665861 -0.176932220062056 0 -0.033419501178752538 -0.16035376200813009 0 -0.038985772667750503 -0.17509623527018009 0 -0.033419501178752538 -0.16035376200813009 0 -0.038985772667750503 -0.17509623527018009 0 -0.048474542292160638 -0.16104480615706671 0 -0.02690645332665861 -0.176932220062056 0 -0.038985772667750503 -0.17509623527018009 0 -0.035068745128565067 -0.19814719311813039 0 -0.038985772667750503 -0.17509623527018009 0 -0.05174826459682811 -0.17943006272303619 0 -0.035068745128565067 -0.19814719311813039 0 -0.05174826459682811 -0.17943006272303619 0 -0.058637431924941807 -0.19931128122516659 0 -0.068742036238397891 -0.18363496839643981 0 -0.05174826459682811 -0.17943006272303619 0 -0.064850674356788846 -0.1622157828217729 0 -0.068742036238397891 -0.18363496839643981 0 -0.05174826459682811 -0.17943006272303619 0 -0.048474542292160638 -0.16104480615706671 0 -0.064850674356788846 -0.1622157828217729 0 -0.048474542292160638 -0.16104480615706671 0 -0.058258897986761621 -0.14320979272771819 0 -0.043584142966082262 -0.14596320139156291 0 -0.048474542292160638 -0.16104480615706671 0 -0.058258897986761621 -0.14320979272771819 0 -0.064850674356788846 -0.1622157828217729 0 -0.067535872668575178 -0.1194784055018111 0 -0.058258897986761621 -0.14320979272771819 0 -0.044860766937747473 -0.1288960530603534 0 -0.058258897986761621 -0.14320979272771819 0 -0.044860766937747473 -0.1288960530603534 0 -0.043584142966082262 -0.14596320139156291 0 -0.029467471872496459 -0.14038560393416841 0 -0.044860766937747473 -0.1288960530603534 0 -0.043584142966082262 -0.14596320139156291 0 -0.024330272596675171 -0.11668742542406051 0 -0.029467471872496459 -0.14038560393416841 0 -0.044860766937747473 -0.1288960530603534 0 -0.029467471872496459 -0.14038560393416841 0 -0.033419501178752538 -0.16035376200813009 0 -0.043584142966082262 -0.14596320139156291 0 -0.033419501178752538 -0.16035376200813009 0 -0.048474542292160638 -0.16104480615706671 0 -0.043584142966082262 -0.14596320139156291 0 -0.020663975761106929 -0.24039227053699169 0 -0.03092550725024365 -0.2292255388448626 0 -0.03701018621659892 -0.24540591086467431 0 -0.025260565379138691 -0.25327489430515432 0 -0.020663975761106929 -0.24039227053699169 0 -0.03701018621659892 -0.24540591086467431 0 -0.01533457711088548 -0.25228819116629242 0 -0.025260565379138691 -0.25327489430515432 0 -0.020663975761106929 -0.24039227053699169 0 -0.01533457711088548 -0.25228819116629242 0 -0.020663975761106929 -0.24039227053699169 0 0.00013011639302536529 -0.24575171090548531 0 -0.020663975761106929 -0.24039227053699169 0 -0.0088820735135365318 -0.2228118806243424 0 0.00013011639302536529 -0.24575171090548531 0 -0.0088820735135365318 -0.2228118806243424 0 0.00013011639302536529 -0.24575171090548531 0 -0.0088820735135365318 -0.2228118806243424 0 -0.03092550725024365 -0.2292255388448626 0 -0.027797663340918249 -0.2144357573599234 0 -0.020663975761106929 -0.24039227053699169 0 -0.0088820735135365318 -0.2228118806243424 0 -0.03092550725024365 -0.2292255388448626 0 -0.027797663340918249 -0.2144357573599234 0 -0.017894263420098401 -0.1998720503431996 0 -0.035068745128565067 -0.19814719311813039 0 -0.0088820735135365318 -0.2228118806243424 0 -0.027797663340918249 -0.2144357573599234 0 -0.017894263420098401 -0.1998720503431996 0 -0.0088820735135365318 -0.2228118806243424 0 -0.017894263420098401 -0.1998720503431996 0 -0.0088820735135365318 -0.2228118806243424 0 -0.0075635833544800716 -0.20136617793249251 0 0.002585600905848094 -0.21109240395839329 0 -0.0088820735135365318 -0.2228118806243424 0 -0.0075635833544800716 -0.20136617793249251 0 -0.017894263420098401 -0.1998720503431996 0 -0.0075635833544800716 -0.20136617793249251 0 0.0046170987694804516 -0.19695646630880681 0 0.002585600905848094 -0.21109240395839329 0 -0.0075635833544800716 -0.20136617793249251 0 -0.01892790830582473 -0.1892199552552114 0 -0.017894263420098401 -0.1998720503431996 0 -0.0075635833544800716 -0.20136617793249251 0 -0.0068799545627493061 -0.1882443111050015 0 0.0046170987694804516 -0.19695646630880681 0 -0.0075635833544800716 -0.20136617793249251 0 -0.0068799545627493061 -0.1882443111050015 0 -0.01892790830582473 -0.1892199552552114 0 -0.02690645332665861 -0.176932220062056 0 -0.01892790830582473 -0.1892199552552114 0 -0.017894263420098401 -0.1998720503431996 0 -0.02690645332665861 -0.176932220062056 0 -0.035068745128565067 -0.19814719311813039 0 -0.02690645332665861 -0.176932220062056 0 -0.017894263420098401 -0.1998720503431996 0 -0.02690645332665861 -0.176932220062056 0 -0.017894263420098401 -0.1998720503431996 0 -0.035068745128565067 -0.19814719311813039 0 -0.05174826459682811 -0.17943006272303619 0 -0.035068745128565067 -0.19814719311813039 0 -0.058637431924941807 -0.19931128122516659 0 -0.058637431924941807 -0.19931128122516659 0 -0.043231036930473872 -0.21936216617420401 0 -0.067053692428111364 -0.2207142426052934 0 -0.027797663340918249 -0.2144357573599234 0 -0.035068745128565067 -0.19814719311813039 0 -0.043231036930473872 -0.21936216617420401 0 -0.035068745128565067 -0.19814719311813039 0 -0.043231036930473872 -0.21936216617420401 0 -0.035068745128565067 -0.19814719311813039 0 -0.058637431924941807 -0.19931128122516659 0 -0.043231036930473872 -0.21936216617420401 0 -0.03092550725024365 -0.2292255388448626 0 -0.043231036930473872 -0.21936216617420401 0 -0.049920332839383172 -0.23377247263300749 0 -0.03092550725024365 -0.2292255388448626 0 -0.027797663340918249 -0.2144357573599234 0 -0.043231036930473872 -0.21936216617420401 0 -0.049920332839383172 -0.23377247263300749 0 -0.067430092835172289 -0.24013543430897891 0 -0.067053692428111364 -0.2207142426052934 0 -0.043231036930473872 -0.21936216617420401 0 -0.049920332839383172 -0.23377247263300749 0 -0.067053692428111364 -0.2207142426052934 0 -0.049920332839383172 -0.23377247263300749 0 -0.053871481375698929 -0.2477915430000322 0 -0.067430092835172289 -0.24013543430897891 0 -0.049920332839383172 -0.23377247263300749 0 -0.053871481375698929 -0.2477915430000322 0 -0.03701018621659892 -0.24540591086467431 0 -0.043752150976774679 -0.254434508296766 0 -0.053871481375698929 -0.2477915430000322 0 -0.03701018621659892 -0.24540591086467431 0 -0.03092550725024365 -0.2292255388448626 0 -0.049920332839383172 -0.23377247263300749 0 -0.03701018621659892 -0.24540591086467431 0 -0.083135654354115546 -0.25024566913362889 0 -0.082954944072521047 -0.23427087926717979 0 -0.1009707391185812 -0.23681977668085311 0 -0.083135654354115546 -0.25024566913362889 0 -0.067430092835172289 -0.24013543430897891 0 -0.082954944072521047 -0.23427087926717979 0 -0.067111946651076462 -0.25759930212419208 0 -0.083135654354115546 -0.25024566913362889 0 -0.067430092835172289 -0.24013543430897891 0 -0.067111946651076462 -0.25759930212419208 0 -0.053871481375698929 -0.2477915430000322 0 -0.067430092835172289 -0.24013543430897891 0 -0.067430092835172289 -0.24013543430897891 0 -0.067053692428111364 -0.2207142426052934 0 -0.082954944072521047 -0.23427087926717979 0 -0.067053692428111364 -0.2207142426052934 0 -0.087407537484865988 -0.2195756014903785 0 -0.082954944072521047 -0.23427087926717979 0 -0.087407537484865988 -0.2195756014903785 0 -0.082954944072521047 -0.23427087926717979 0 -0.1009707391185812 -0.23681977668085311 0 -0.087407537484865988 -0.2195756014903785 0 -0.081680112209650088 -0.1998238201828669 0 -0.10343217696041949 -0.2122838798458625 0 -0.067053692428111364 -0.2207142426052934 0 -0.087407537484865988 -0.2195756014903785 0 -0.081680112209650088 -0.1998238201828669 0 -0.058637431924941807 -0.19931128122516659 0 -0.067053692428111364 -0.2207142426052934 0 -0.081680112209650088 -0.1998238201828669 0 -0.058637431924941807 -0.19931128122516659 0 -0.081680112209650088 -0.1998238201828669 0 -0.068742036238397891 -0.18363496839643981 0 -0.081680112209650088 -0.1998238201828669 0 -0.1011801743471792 -0.19169138862531179 0 -0.086793698103780542 -0.1773938950293566 0 -0.11921180535908669 -0.19592392536529979 0 -0.10343217696041949 -0.2122838798458625 0 -0.12603530642062319 -0.22774928361452959 0 -0.1011801743471792 -0.19169138862531179 0 -0.11921180535908669 -0.19592392536529979 0 -0.10343217696041949 -0.2122838798458625 0 -0.081680112209650088 -0.1998238201828669 0 -0.1011801743471792 -0.19169138862531179 0 -0.10343217696041949 -0.2122838798458625 0 -0.087407537484865988 -0.2195756014903785 0 -0.10343217696041949 -0.2122838798458625 0 -0.1009707391185812 -0.23681977668085311 0 -0.10343217696041949 -0.2122838798458625 0 -0.1009707391185812 -0.23681977668085311 0 -0.12603530642062319 -0.22774928361452959 0 -0.121859097599433 -0.25203113656992021 0 -0.1009707391185812 -0.23681977668085311 0 -0.12603530642062319 -0.22774928361452959 0 -0.10069771581708491 -0.26175737292843743 0 -0.083135654354115546 -0.25024566913362889 0 -0.1009707391185812 -0.23681977668085311 0 -0.080936031883427906 -0.1420873751512613 0 -0.064850674356788846 -0.1622157828217729 0 -0.090665530610973322 -0.1585547287537156 0 -0.080936031883427906 -0.1420873751512613 0 -0.090665530610973322 -0.1585547287537156 0 -0.1059022342565116 -0.1474951950919616 0 -0.09702138941006605 -0.121958967480749 0 -0.080936031883427906 -0.1420873751512613 0 -0.067535872668575178 -0.1194784055018111 0 -0.09702138941006605 -0.121958967480749 0 -0.080936031883427906 -0.1420873751512613 0 -0.067535872668575178 -0.1194784055018111 0 -0.058258897986761621 -0.14320979272771819 0 -0.080936031883427906 -0.1420873751512613 0 -0.058258897986761621 -0.14320979272771819 0 -0.080936031883427906 -0.1420873751512613 0 -0.064850674356788846 -0.1622157828217729 0 -0.080936031883427906 -0.1420873751512613 0 -0.064850674356788846 -0.1622157828217729 0 -0.064850674356788846 -0.1622157828217729 0 -0.068742036238397891 -0.18363496839643981 0 -0.086793698103780542 -0.1773938950293566 0 -0.081680112209650088 -0.1998238201828669 0 -0.068742036238397891 -0.18363496839643981 0 -0.086793698103780542 -0.1773938950293566 0 -0.064850674356788846 -0.1622157828217729 0 -0.086793698103780542 -0.1773938950293566 0 -0.090665530610973322 -0.1585547287537156 0 -0.086793698103780542 -0.1773938950293566 0 -0.090665530610973322 -0.1585547287537156 0 -0.1147830791029591 -0.1730314227031734 0 -0.090665530610973322 -0.1585547287537156 0 -0.1147830791029591 -0.1730314227031734 0 -0.1059022342565116 -0.1474951950919616 0 -0.1011801743471792 -0.19169138862531179 0 -0.086793698103780542 -0.1773938950293566 0 -0.1147830791029591 -0.1730314227031734 0 -0.11921180535908669 -0.19592392536529979 0 -0.1147830791029591 -0.1730314227031734 0 -0.1351719130419278 -0.18480938886985129 0 -0.1011801743471792 -0.19169138862531179 0 -0.11921180535908669 -0.19592392536529979 0 -0.1147830791029591 -0.1730314227031734 0 -0.1147830791029591 -0.1730314227031734 0 -0.1214393801254003 -0.15516434649399771 0 -0.1059022342565116 -0.1474951950919616 0 -0.1147830791029591 -0.1730314227031734 0 -0.1214393801254003 -0.15516434649399771 0 -0.1331698036611689 -0.16761751323246271 0 -0.1147830791029591 -0.1730314227031734 0 -0.1059022342565116 -0.1474951950919616 0 -0.1214393801254003 -0.15516434649399771 0 -0.1059022342565116 -0.1474951950919616 0 -0.1175007575356643 -0.13372109703407081 0 -0.1214393801254003 -0.15516434649399771 0 -0.1175007575356643 -0.13372109703407081 0 -0.12962153210192989 -0.1431960347909291 0 -0.09702138941006605 -0.121958967480749 0 -0.080936031883427906 -0.1420873751512613 0 -0.1059022342565116 -0.1474951950919616 0 -0.09702138941006605 -0.121958967480749 0 -0.1059022342565116 -0.1474951950919616 0 -0.09702138941006605 -0.121958967480749 0 -0.1059022342565116 -0.1474951950919616 0 -0.1175007575356643 -0.13372109703407081 0 -0.113254155222659 -0.11878528903056509 0 -0.1175007575356643 -0.13372109703407081 0 -0.12925371257476059 -0.12297922338489591 0 -0.12962153210192989 -0.1431960347909291 0 -0.12925371257476059 -0.12297922338489591 0 -0.14779804697629001 -0.13156252014876199 0 -0.12962153210192989 -0.1431960347909291 0 -0.12925371257476059 -0.12297922338489591 0 -0.1175007575356643 -0.13372109703407081 0 -0.12962153210192989 -0.1431960347909291 0 -0.12925371257476059 -0.12297922338489591 0 -0.14779804697629001 -0.13156252014876199 0 -0.14647036542115 -0.14524124707463229 0 -0.16442418672342651 -0.14240374233253661 0 -0.14779804697629001 -0.13156252014876199 0 -0.14647036542115 -0.14524124707463229 0 -0.12962153210192989 -0.1431960347909291 0 -0.14647036542115 -0.14524124707463229 0 -0.16442418672342651 -0.14240374233253661 0 -0.15633164065450231 -0.1514383056885335 0 -0.14647036542115 -0.14524124707463229 0 -0.14672759813418329 -0.157321907423501 0 -0.15633164065450231 -0.1514383056885335 0 -0.14647036542115 -0.14524124707463229 0 -0.13442773526127699 -0.15516205902575 0 -0.14672759813418329 -0.157321907423501 0 -0.14647036542115 -0.14524124707463229 0 -0.13442773526127699 -0.15516205902575 0 -0.12962153210192989 -0.1431960347909291 0 -0.1214393801254003 -0.15516434649399771 0 -0.13442773526127699 -0.15516205902575 0 -0.12962153210192989 -0.1431960347909291 0 -0.1214393801254003 -0.15516434649399771 0 -0.13442773526127699 -0.15516205902575 0 -0.1331698036611689 -0.16761751323246271 0 -0.13442773526127699 -0.15516205902575 0 -0.1331698036611689 -0.16761751323246271 0 -0.14672759813418329 -0.157321907423501 0 -0.1331698036611689 -0.16761751323246271 0 -0.1351719130419278 -0.18480938886985129 0 -0.15061135230423589 -0.17052871365777619 0 -0.1147830791029591 -0.1730314227031734 0 -0.1331698036611689 -0.16761751323246271 0 -0.1351719130419278 -0.18480938886985129 0 -0.1351719130419278 -0.18480938886985129 0 -0.15366359672387911 -0.1858027467289862 0 -0.15061135230423589 -0.17052871365777619 0 -0.1331698036611689 -0.16761751323246271 0 -0.14672759813418329 -0.157321907423501 0 -0.15061135230423589 -0.17052871365777619 0 -0.14672759813418329 -0.157321907423501 0 -0.15510698338999729 -0.16087415583210399 0 -0.15633164065450231 -0.1514383056885335 0 -0.14672759813418329 -0.157321907423501 0 -0.15061135230423589 -0.17052871365777619 0 -0.15510698338999729 -0.16087415583210399 0 -0.15061135230423589 -0.17052871365777619 0 -0.15510698338999729 -0.16087415583210399 0 -0.16646459420245879 -0.16565641617043531 0 -0.15510698338999729 -0.16087415583210399 0 -0.16646459420245879 -0.16565641617043531 0 -0.15633164065450231 -0.1514383056885335 0 -0.15366359672387911 -0.1858027467289862 0 -0.16646459420245879 -0.16565641617043531 0 -0.15366359672387911 -0.1858027467289862 0 -0.16646459420245879 -0.16565641617043531 0 -0.1694466087201103 -0.1807863109411364 0 -0.15366359672387911 -0.1858027467289862 0 -0.1694466087201103 -0.1807863109411364 0 -0.16571034671890561 -0.19259642905275581 0 -0.15366359672387911 -0.1858027467289862 0 -0.15061135230423589 -0.17052871365777619 0 -0.16646459420245879 -0.16565641617043531 0 -0.1694466087201103 -0.1807863109411364 0 -0.16571034671890561 -0.19259642905275581 0 -0.17868844516396351 -0.18750313039593219 0 -0.1694466087201103 -0.1807863109411364 0 -0.1810249419388088 -0.1733554670835325 0 -0.17868844516396351 -0.18750313039593219 0 -0.16646459420245879 -0.16565641617043531 0 -0.1694466087201103 -0.1807863109411364 0 -0.1810249419388088 -0.1733554670835325 0 -0.1810249419388088 -0.1733554670835325 0 -0.17868844516396351 -0.18750313039593219 0 -0.1941460550177764 -0.1817686054410195 0 -0.16646459420245879 -0.16565641617043531 0 -0.18324573147628731 -0.16047838139776391 0 -0.18129188702713511 -0.14385620984344291 0 -0.16646459420245879 -0.16565641617043531 0 -0.1810249419388088 -0.1733554670835325 0 -0.18324573147628731 -0.16047838139776391 0 -0.1810249419388088 -0.1733554670835325 0 -0.18324573147628731 -0.16047838139776391 0 -0.1940904708653011 -0.1673220703954128 0 -0.16646459420245879 -0.16565641617043531 0 -0.18129188702713511 -0.14385620984344291 0 -0.18324573147628731 -0.16047838139776391 0 -0.18129188702713511 -0.14385620984344291 0 -0.19430981528121519 -0.15313715793899349 0 -0.18129188702713511 -0.14385620984344291 0 -0.18406591777330689 -0.12664496627411609 0 -0.17422558586848211 -0.1302336098883165 0 -0.18129188702713511 -0.14385620984344291 0 -0.17422558586848211 -0.1302336098883165 0 -0.16442418672342651 -0.14240374233253661 0 -0.18129188702713511 -0.14385620984344291 0 -0.18406591777330689 -0.12664496627411609 0 -0.19510603217876299 -0.1228829414006711 0 -0.18406591777330689 -0.12664496627411609 0 -0.17422558586848211 -0.1302336098883165 0 -0.17896215857414799 -0.1191120624968493 0 -0.16442418672342651 -0.14240374233253661 0 -0.16238377924439409 -0.1191510684946378 0 -0.14779804697629001 -0.13156252014876199 0 -0.16442418672342651 -0.14240374233253661 0 -0.16238377924439409 -0.1191510684946378 0 -0.17422558586848211 -0.1302336098883165 0 -0.16442418672342651 -0.14240374233253661 0 -0.16238377924439409 -0.1191510684946378 0 -0.16646459420245879 -0.16565641617043531 0 -0.16442418672342651 -0.14240374233253661 0 -0.15633164065450231 -0.1514383056885335 0 -0.16646459420245879 -0.16565641617043531 0 -0.16442418672342651 -0.14240374233253661 0 -0.16646459420245879 -0.16565641617043531 0 -0.18129188702713511 -0.14385620984344291 0 -0.16442418672342651 -0.14240374233253661 0 -0.121859097599433 -0.25203113656992021 0 -0.14798364056730229 -0.24405517364701901 0 -0.12603530642062319 -0.22774928361452959 0 -0.14798364056730229 -0.24405517364701901 0 -0.12603530642062319 -0.22774928361452959 0 -0.14435412953657781 -0.22534885227897039 0 -0.12603530642062319 -0.22774928361452959 0 -0.14435412953657781 -0.22534885227897039 0 -0.13984945157225109 -0.20677601517175789 0 -0.14798364056730229 -0.24405517364701901 0 -0.14435412953657781 -0.22534885227897039 0 -0.16073828389317679 -0.2232942644746079 0 -0.11921180535908669 -0.19592392536529979 0 -0.12603530642062319 -0.22774928361452959 0 -0.13984945157225109 -0.20677601517175789 0 -0.14435412953657781 -0.22534885227897039 0 -0.15593483145281881 -0.20645972528383269 0 -0.13984945157225109 -0.20677601517175789 0 -0.14435412953657781 -0.22534885227897039 0 -0.15593483145281881 -0.20645972528383269 0 -0.16073828389317679 -0.2232942644746079 0 -0.12603530642062319 -0.22774928361452959 0 -0.13984945157225109 -0.20677601517175789 0 -0.11921180535908669 -0.19592392536529979 0 -0.1351719130419278 -0.18480938886985129 0 -0.13984945157225109 -0.20677601517175789 0 -0.15366359672387911 -0.1858027467289862 0 -0.13984945157225109 -0.20677601517175789 0 -0.15366359672387911 -0.1858027467289862 0 -0.15593483145281881 -0.20645972528383269 0 -0.13984945157225109 -0.20677601517175789 0 -0.1351719130419278 -0.18480938886985129 0 -0.15366359672387911 -0.1858027467289862 0 -0.13984945157225109 -0.20677601517175789 0 -0.15366359672387911 -0.1858027467289862 0 -0.15593483145281881 -0.20645972528383269 0 -0.16571034671890561 -0.19259642905275581 0 -0.15593483145281881 -0.20645972528383269 0 -0.16571034671890561 -0.19259642905275581 0 -0.1712931802721222 -0.2049400439959185 0 -0.17868844516396351 -0.18750313039593219 0 -0.1712931802721222 -0.2049400439959185 0 -0.1907031236035307 -0.19761040977156361 0 -0.16571034671890561 -0.19259642905275581 0 -0.17868844516396351 -0.18750313039593219 0 -0.1712931802721222 -0.2049400439959185 0 -0.1712931802721222 -0.2049400439959185 0 -0.17800344455656089 -0.22541302904796739 0 -0.18880898608614349 -0.21341676339863369 0 -0.1712931802721222 -0.2049400439959185 0 -0.18880898608614349 -0.21341676339863369 0 -0.1907031236035307 -0.19761040977156361 0 -0.1712931802721222 -0.2049400439959185 0 -0.16073828389317679 -0.2232942644746079 0 -0.17800344455656089 -0.22541302904796739 0 -0.15593483145281881 -0.20645972528383269 0 -0.1712931802721222 -0.2049400439959185 0 -0.16073828389317679 -0.2232942644746079 0 -0.16073828389317679 -0.2232942644746079 0 -0.17800344455656089 -0.22541302904796739 0 -0.1680699330889609 -0.23651769295437519 0 -0.17800344455656089 -0.22541302904796739 0 -0.18238052430272861 -0.2406644012469441 0 -0.19571249259480161 -0.22935983220749581 0 -0.17800344455656089 -0.22541302904796739 0 -0.18238052430272861 -0.2406644012469441 0 -0.1680699330889609 -0.23651769295437519 0 -0.1655721846465236 -0.25120610550541428 0 -0.18238052430272861 -0.2406644012469441 0 -0.1680699330889609 -0.23651769295437519 0 -0.1655721846465236 -0.25120610550541428 0 -0.14798364056730229 -0.24405517364701901 0 -0.1680699330889609 -0.23651769295437519 0 -0.14798364056730229 -0.24405517364701901 0 -0.16073828389317679 -0.2232942644746079 0 -0.1680699330889609 -0.23651769295437519 0 -0.20581919006953861 -0.24362129517111319 0 -0.2147566412937964 -0.22452317428013799 0 -0.22235383033556691 -0.2379242475650763 0 -0.2237716177102389 -0.25585513408917238 0 -0.20581919006953861 -0.24362129517111319 0 -0.22235383033556691 -0.2379242475650763 0 -0.18238052430272861 -0.2406644012469441 0 -0.20581919006953861 -0.24362129517111319 0 -0.19571249259480161 -0.22935983220749581 0 -0.19309064431599821 -0.25385483861091279 0 -0.18238052430272861 -0.2406644012469441 0 -0.20581919006953861 -0.24362129517111319 0 -0.17800344455656089 -0.22541302904796739 0 -0.19571249259480161 -0.22935983220749581 0 -0.18880898608614349 -0.21341676339863369 0 -0.19571249259480161 -0.22935983220749581 0 -0.2026606288307195 -0.2159661637751312 0 -0.18880898608614349 -0.21341676339863369 0 -0.20581919006953861 -0.24362129517111319 0 -0.19571249259480161 -0.22935983220749581 0 -0.2147566412937964 -0.22452317428013799 0 -0.19571249259480161 -0.22935983220749581 0 -0.2147566412937964 -0.22452317428013799 0 -0.2026606288307195 -0.2159661637751312 0 -0.2147566412937964 -0.22452317428013799 0 -0.215494903679606 -0.2046941460340411 0 -0.2026606288307195 -0.2159661637751312 0 -0.215494903679606 -0.2046941460340411 0 -0.2026606288307195 -0.2159661637751312 0 -0.2025576610875264 -0.20478362520432619 0 -0.18880898608614349 -0.21341676339863369 0 -0.2025576610875264 -0.20478362520432619 0 -0.1907031236035307 -0.19761040977156361 0 -0.2026606288307195 -0.2159661637751312 0 -0.18880898608614349 -0.21341676339863369 0 -0.2025576610875264 -0.20478362520432619 0 -0.17868844516396351 -0.18750313039593219 0 -0.1907031236035307 -0.19761040977156361 0 -0.1941460550177764 -0.1817686054410195 0 -0.1907031236035307 -0.19761040977156361 0 -0.20562138459299609 -0.19155437619831439 0 -0.1941460550177764 -0.1817686054410195 0 -0.2025576610875264 -0.20478362520432619 0 -0.1907031236035307 -0.19761040977156361 0 -0.20562138459299609 -0.19155437619831439 0 -0.215494903679606 -0.2046941460340411 0 -0.20562138459299609 -0.19155437619831439 0 -0.2193585892307475 -0.18555814387724359 0 -0.215494903679606 -0.2046941460340411 0 -0.2025576610875264 -0.20478362520432619 0 -0.20562138459299609 -0.19155437619831439 0 -0.215494903679606 -0.2046941460340411 0 -0.23011838534262999 -0.19513149138861119 0 -0.2193585892307475 -0.18555814387724359 0 -0.23011838534262999 -0.19513149138861119 0 -0.2375733699798718 -0.2017354475737036 0 -0.23139897015103031 -0.2105165349685614 0 -0.24747783652963551 -0.2115149733087838 0 -0.25110184257806772 -0.182254690094516 0 -0.23011838534262999 -0.19513149138861119 0 -0.24129828789619129 -0.189778790628858 0 -0.234288748103814 -0.17960096546085191 0 -0.24129828789619129 -0.189778790628858 0 -0.2375733699798718 -0.2017354475737036 0 -0.24747783652963551 -0.2115149733087838 0 -0.24129828789619129 -0.189778790628858 0 -0.24747783652963551 -0.2115149733087838 0 -0.25110184257806772 -0.182254690094516 0 -0.23011838534262999 -0.19513149138861119 0 -0.24129828789619129 -0.189778790628858 0 -0.2375733699798718 -0.2017354475737036 0 -0.2375733699798718 -0.2017354475737036 0 -0.24747783652963551 -0.2115149733087838 0 -0.23139897015103031 -0.2105165349685614 0 -0.24747783652963551 -0.2115149733087838 0 -0.23139897015103031 -0.2105165349685614 0 -0.23163220777283891 -0.2250426589464336 0 -0.215494903679606 -0.2046941460340411 0 -0.23011838534262999 -0.19513149138861119 0 -0.23139897015103031 -0.2105165349685614 0 -0.2147566412937964 -0.22452317428013799 0 -0.215494903679606 -0.2046941460340411 0 -0.23139897015103031 -0.2105165349685614 0 -0.2147566412937964 -0.22452317428013799 0 -0.23139897015103031 -0.2105165349685614 0 -0.23163220777283891 -0.2250426589464336 0 -0.2147566412937964 -0.22452317428013799 0 -0.23163220777283891 -0.2250426589464336 0 -0.22235383033556691 -0.2379242475650763 0 -0.24747783652963551 -0.2115149733087838 0 -0.24385383048120329 -0.24077525652305151 0 -0.24747783652963551 -0.2115149733087838 0 -0.23163220777283891 -0.2250426589464336 0 -0.24385383048120329 -0.24077525652305151 0 -0.2237716177102389 -0.25585513408917238 0 -0.24385383048120329 -0.24077525652305151 0 -0.22235383033556691 -0.2379242475650763 0 -0.23163220777283891 -0.2250426589464336 0 -0.24385383048120329 -0.24077525652305151 0 -0.22235383033556691 -0.2379242475650763 0 -0.20413316902105261 -0.1450010024128307 0 -0.21521653102353039 -0.14214879203687389 0 -0.20522058001332499 -0.13585261989379019 0 -0.20413316902105261 -0.1450010024128307 0 -0.21521653102353039 -0.14214879203687389 0 -0.2103594486757355 -0.15744225150668889 0 -0.21521653102353039 -0.14214879203687389 0 -0.2103594486757355 -0.15744225150668889 0 -0.22584429717311311 -0.1505085215780432 0 -0.21195363620206531 -0.12907512874648661 0 -0.20522058001332499 -0.13585261989379019 0 -0.20216416530592499 -0.12932863888905871 0 -0.21195363620206531 -0.12907512874648661 0 -0.20216416530592499 -0.12932863888905871 0 -0.20186958626221421 -0.1208930169047276 0 -0.21521653102353039 -0.14214879203687389 0 -0.21195363620206531 -0.12907512874648661 0 -0.20522058001332499 -0.13585261989379019 0 -0.18129188702713511 -0.14385620984344291 0 -0.19667099187325729 -0.1379394874996179 0 -0.19510603217876299 -0.1228829414006711 0 -0.20522058001332499 -0.13585261989379019 0 -0.19667099187325729 -0.1379394874996179 0 -0.20216416530592499 -0.12932863888905871 0 -0.18129188702713511 -0.14385620984344291 0 -0.19510603217876299 -0.1228829414006711 0 -0.20413316902105261 -0.1450010024128307 0 -0.20522058001332499 -0.13585261989379019 0 -0.19667099187325729 -0.1379394874996179 0 -0.19667099187325729 -0.1379394874996179 0 -0.20216416530592499 -0.12932863888905871 0 -0.19510603217876299 -0.1228829414006711 0 -0.20413316902105261 -0.1450010024128307 0 -0.19430981528121519 -0.15313715793899349 0 -0.2103594486757355 -0.15744225150668889 0 -0.18129188702713511 -0.14385620984344291 0 -0.19667099187325729 -0.1379394874996179 0 -0.19430981528121519 -0.15313715793899349 0 -0.20413316902105261 -0.1450010024128307 0 -0.19667099187325729 -0.1379394874996179 0 -0.19430981528121519 -0.15313715793899349 0 -0.19430981528121519 -0.15313715793899349 0 -0.1940904708653011 -0.1673220703954128 0 -0.2103594486757355 -0.15744225150668889 0 -0.18324573147628731 -0.16047838139776391 0 -0.19430981528121519 -0.15313715793899349 0 -0.1940904708653011 -0.1673220703954128 0 -0.20562138459299609 -0.19155437619831439 0 -0.1941460550177764 -0.1817686054410195 0 -0.2089971557057286 -0.17503909868389339 0 -0.1810249419388088 -0.1733554670835325 0 -0.1940904708653011 -0.1673220703954128 0 -0.1941460550177764 -0.1817686054410195 0 -0.1940904708653011 -0.1673220703954128 0 -0.1941460550177764 -0.1817686054410195 0 -0.2089971557057286 -0.17503909868389339 0 -0.2089971557057286 -0.17503909868389339 0 -0.2258780857461285 -0.1669091159362924 0 -0.2193585892307475 -0.18555814387724359 0 -0.20562138459299609 -0.19155437619831439 0 -0.2089971557057286 -0.17503909868389339 0 -0.2193585892307475 -0.18555814387724359 0 -0.1940904708653011 -0.1673220703954128 0 -0.2089971557057286 -0.17503909868389339 0 -0.2103594486757355 -0.15744225150668889 0 -0.2089971557057286 -0.17503909868389339 0 -0.2103594486757355 -0.15744225150668889 0 -0.2258780857461285 -0.1669091159362924 0 -0.2258780857461285 -0.1669091159362924 0 -0.23743186254748219 -0.15372672712019531 0 -0.22584429717311311 -0.1505085215780432 0 -0.2103594486757355 -0.15744225150668889 0 -0.2258780857461285 -0.1669091159362924 0 -0.22584429717311311 -0.1505085215780432 0 -0.2258780857461285 -0.1669091159362924 0 -0.234288748103814 -0.17960096546085191 0 -0.24125234557634251 -0.16674365219156309 0 -0.2258780857461285 -0.1669091159362924 0 -0.2193585892307475 -0.18555814387724359 0 -0.234288748103814 -0.17960096546085191 0 -0.23011838534262999 -0.19513149138861119 0 -0.2193585892307475 -0.18555814387724359 0 -0.234288748103814 -0.17960096546085191 0 -0.234288748103814 -0.17960096546085191 0 -0.24125234557634251 -0.16674365219156309 0 -0.25110184257806772 -0.182254690094516 0 -0.24129828789619129 -0.189778790628858 0 -0.234288748103814 -0.17960096546085191 0 -0.25110184257806772 -0.182254690094516 0 -0.24125234557634251 -0.16674365219156309 0 -0.25110184257806772 -0.182254690094516 0 -0.25472584862650161 -0.1529944068802484 0 -0.24125234557634251 -0.16674365219156309 0 -0.23743186254748219 -0.15372672712019531 0 -0.25472584862650161 -0.1529944068802484 0 -0.2258780857461285 -0.1669091159362924 0 -0.24125234557634251 -0.16674365219156309 0 -0.23743186254748219 -0.15372672712019531 0 -0.23378805505589079 -0.1350132280834038 0 -0.25472584862650161 -0.1529944068802484 0 -0.25699454315764858 -0.13467693068922459 0 -0.23743186254748219 -0.15372672712019531 0 -0.23378805505589079 -0.1350132280834038 0 -0.25472584862650161 -0.1529944068802484 0 -0.23378805505589079 -0.1350132280834038 0 -0.25472584862650161 -0.1529944068802484 0 -0.23743186254748219 -0.15372672712019531 0 -0.22584429717311311 -0.1505085215780432 0 -0.23378805505589079 -0.1350132280834038 0 -0.21521653102353039 -0.14214879203687389 0 -0.22584429717311311 -0.1505085215780432 0 -0.23378805505589079 -0.1350132280834038 0 -0.21521653102353039 -0.14214879203687389 0 -0.21195363620206531 -0.12907512874648661 0 -0.23378805505589079 -0.1350132280834038 0 -0.21195363620206531 -0.12907512874648661 0 -0.23378805505589079 -0.1350132280834038 0 -0.21285026148527789 -0.1170320492865617 0 -0.23378805505589079 -0.1350132280834038 0 -0.21285026148527789 -0.1170320492865617 0 -0.23378805505589079 -0.1350132280834038 0 -0.24647275828660289 -0.1155009856584793 0 -0.25699454315764858 -0.13467693068922459 0 -0.23378805505589079 -0.1350132280834038 0 -0.24647275828660289 -0.1155009856584793 0 -0.23095193889833071 -0.1130749462230916 0 -0.24647275828660289 -0.1155009856584793 0 -0.239398481947282 -0.098138475506568526 0 -0.24755743426064261 -0.1007718446490848 0 -0.24647275828660289 -0.1155009856584793 0 -0.239398481947282 -0.098138475506568526 0 -0.23595097341556509 -0.096325040627729841 0 -0.24647275828660289 -0.1155009856584793 0 -0.23595097341556509 -0.096325040627729841 0 -0.24647275828660289 -0.1155009856584793 0 -0.23595097341556509 -0.096325040627729841 0 -0.23095193889833071 -0.1130749462230916 0 -0.239398481947282 -0.098138475506568526 0 -0.24755743426064261 -0.1007718446490848 0 -0.24392525874702281 -0.082535064791062915 0 -0.23595097341556509 -0.096325040627729841 0 -0.22483953040276219 -0.10192061128800679 0 -0.23095193889833071 -0.1130749462230916 0 -0.23595097341556509 -0.096325040627729841 0 -0.22483953040276219 -0.10192061128800679 0 -0.22428488200313851 -0.090722236223518743 0 -0.22483953040276219 -0.10192061128800679 0 -0.22428488200313851 -0.090722236223518743 0 -0.21267682603826379 -0.096086627065600727 0 -0.23378805505589079 -0.1350132280834038 0 -0.23095193889833071 -0.1130749462230916 0 -0.21285026148527789 -0.1170320492865617 0 -0.22483953040276219 -0.10192061128800679 0 -0.23095193889833071 -0.1130749462230916 0 -0.21285026148527789 -0.1170320492865617 0 -0.24886237825725649 -0.065657060971509779 0 -0.24392525874702281 -0.082535064791062915 0 -0.2274172794323823 -0.058157276941897491 0 -0.24392525874702281 -0.082535064791062915 0 -0.2274172794323823 -0.058157276941897491 0 -0.239398481947282 -0.098138475506568526 0 -0.23595097341556509 -0.096325040627729841 0 -0.22870227999175871 -0.078106281229384761 0 -0.239398481947282 -0.098138475506568526 0 -0.24392525874702281 -0.082535064791062915 0 -0.22870227999175871 -0.078106281229384761 0 -0.239398481947282 -0.098138475506568526 0 -0.22870227999175871 -0.078106281229384761 0 -0.23595097341556509 -0.096325040627729841 0 -0.22428488200313851 -0.090722236223518743 0 -0.22870227999175871 -0.078106281229384761 0 -0.22428488200313851 -0.090722236223518743 0 -0.22870227999175871 -0.078106281229384761 0 -0.21696777424942781 -0.081134171270840605 0 -0.24392525874702281 -0.082535064791062915 0 -0.22870227999175871 -0.078106281229384761 0 -0.2274172794323823 -0.058157276941897491 0 -0.22870227999175871 -0.078106281229384761 0 -0.21696777424942781 -0.081134171270840605 0 -0.21800607803623551 -0.058074086952200961 0 -0.22870227999175871 -0.078106281229384761 0 -0.21800607803623551 -0.058074086952200961 0 -0.2274172794323823 -0.058157276941897491 0 -0.22870227999175871 -0.078106281229384761 0 -0.21800607803623551 -0.058074086952200961 0 -0.20729734103897121 -0.074247521312964859 0 -0.21696777424942781 -0.081134171270840605 0 -0.21800607803623551 -0.058074086952200961 0 -0.20729734103897121 -0.074247521312964859 0 -0.2037326341973654 -0.061901712865931463 0 -0.21800607803623551 -0.058074086952200961 0 -0.20729734103897121 -0.074247521312964859 0 -0.21696777424942781 -0.081134171270840605 0 -0.20260871637140479 -0.086943826084387832 0 -0.22428488200313851 -0.090722236223518743 0 -0.21696777424942781 -0.081134171270840605 0 -0.21267682603826379 -0.096086627065600727 0 -0.21696777424942781 -0.081134171270840605 0 -0.20260871637140479 -0.086943826084387832 0 -0.21267682603826379 -0.096086627065600727 0 -0.20260871637140479 -0.086943826084387832 0 -0.1922961295686452 -0.078415603354967417 0 -0.19191246791466501 -0.099050870489719375 0 -0.20729734103897121 -0.074247521312964859 0 -0.20260871637140479 -0.086943826084387832 0 -0.1922961295686452 -0.078415603354967417 0 -0.1922961295686452 -0.078415603354967417 0 -0.18914227521238219 -0.059555792183947388 0 -0.2037326341973654 -0.061901712865931463 0 -0.20729734103897121 -0.074247521312964859 0 -0.1922961295686452 -0.078415603354967417 0 -0.2037326341973654 -0.061901712865931463 0 -0.21195363620206531 -0.12907512874648661 0 -0.21285026148527789 -0.1170320492865617 0 -0.20186958626221421 -0.1208930169047276 0 -0.21285026148527789 -0.1170320492865617 0 -0.21267682603826379 -0.096086627065600727 0 -0.19191246791466501 -0.099050870489719375 0 -0.22483953040276219 -0.10192061128800679 0 -0.21285026148527789 -0.1170320492865617 0 -0.21267682603826379 -0.096086627065600727 0 -0.19191246791466501 -0.099050870489719375 0 -0.20186958626221421 -0.1208930169047276 0 -0.1873473789369195 -0.1048105848760985 0 -0.21285026148527789 -0.1170320492865617 0 -0.19191246791466501 -0.099050870489719375 0 -0.20260871637140479 -0.086943826084387832 0 -0.21267682603826379 -0.096086627065600727 0 -0.19191246791466501 -0.099050870489719375 0 -0.21285026148527789 -0.1170320492865617 0 -0.19191246791466501 -0.099050870489719375 0 -0.20186958626221421 -0.1208930169047276 0 -0.18842892437315109 -0.1155518087936739 0 -0.20186958626221421 -0.1208930169047276 0 -0.1873473789369195 -0.1048105848760985 0 -0.20186958626221421 -0.1208930169047276 0 -0.1873473789369195 -0.1048105848760985 0 -0.20216416530592499 -0.12932863888905871 0 -0.20186958626221421 -0.1208930169047276 0 -0.19510603217876299 -0.1228829414006711 0 -0.18406591777330689 -0.12664496627411609 0 -0.18842892437315109 -0.1155518087936739 0 -0.19510603217876299 -0.1228829414006711 0 -0.18842892437315109 -0.1155518087936739 0 -0.20186958626221421 -0.1208930169047276 0 -0.19510603217876299 -0.1228829414006711 0 -0.18406591777330689 -0.12664496627411609 0 -0.18842892437315109 -0.1155518087936739 0 -0.17896215857414799 -0.1191120624968493 0 -0.18842892437315109 -0.1155518087936739 0 -0.17987805974500581 -0.1098418949999526 0 -0.17896215857414799 -0.1191120624968493 0 -0.18842892437315109 -0.1155518087936739 0 -0.17987805974500581 -0.1098418949999526 0 -0.1873473789369195 -0.1048105848760985 0 -0.17987805974500581 -0.1098418949999526 0 -0.17896215857414799 -0.1191120624968493 0 -0.17146549903434069 -0.11290469456298741 0 -0.17896215857414799 -0.1191120624968493 0 -0.16238377924439409 -0.1191510684946378 0 -0.17146549903434069 -0.11290469456298741 0 -0.17422558586848211 -0.1302336098883165 0 -0.17896215857414799 -0.1191120624968493 0 -0.16238377924439409 -0.1191510684946378 0 -0.16238377924439409 -0.1191510684946378 0 -0.17146549903434069 -0.11290469456298741 0 -0.1603433717653617 -0.095898394656739119 0 -0.17146549903434069 -0.11290469456298741 0 -0.1603433717653617 -0.095898394656739119 0 -0.1728814347926528 -0.10327523731709561 0 -0.16238377924439409 -0.1191510684946378 0 -0.1603433717653617 -0.095898394656739119 0 -0.1603433717653617 -0.095898394656739119 0 -0.1728814347926528 -0.10327523731709561 0 -0.17282517161162481 -0.088728152847469377 0 -0.1873473789369195 -0.1048105848760985 0 -0.17282517161162481 -0.088728152847469377 0 -0.17823301127155081 -0.101663967510154 0 -0.1873473789369195 -0.1048105848760985 0 -0.17282517161162481 -0.088728152847469377 0 -0.19191246791466501 -0.099050870489719375 0 -0.1873473789369195 -0.1048105848760985 0 -0.17282517161162481 -0.088728152847469377 0 -0.17823301127155081 -0.101663967510154 0 -0.1728814347926528 -0.10327523731709561 0 -0.17282517161162481 -0.088728152847469377 0 -0.17987805974500581 -0.1098418949999526 0 -0.17146549903434069 -0.11290469456298741 0 -0.1728814347926528 -0.10327523731709561 0 -0.17987805974500581 -0.1098418949999526 0 -0.17823301127155081 -0.101663967510154 0 -0.1728814347926528 -0.10327523731709561 0 -0.17987805974500581 -0.1098418949999526 0 -0.17823301127155081 -0.101663967510154 0 -0.1873473789369195 -0.1048105848760985 0 -0.19191246791466501 -0.099050870489719375 0 -0.17282517161162481 -0.088728152847469377 0 -0.1709746743440512 -0.08106969169287799 0 -0.1922961295686452 -0.078415603354967417 0 -0.19191246791466501 -0.099050870489719375 0 -0.1709746743440512 -0.08106969169287799 0 -0.19191246791466501 -0.099050870489719375 0 -0.1709746743440512 -0.08106969169287799 0 -0.1723158118663187 -0.066503537203019283 0 -0.1709746743440512 -0.08106969169287799 0 -0.18914227521238219 -0.059555792183947388 0 -0.1709746743440512 -0.08106969169287799 0 -0.18914227521238219 -0.059555792183947388 0 -0.1922961295686452 -0.078415603354967417 0 -0.1709746743440512 -0.08106969169287799 0 -0.18914227521238219 -0.059555792183947388 0 -0.1723158118663187 -0.066503537203019283 0 -0.15806966229532371 -0.069986989580971659 0 -0.17107663561351971 -0.055401675354277771 0 -0.15806966229532371 -0.069986989580971659 0 -0.1709746743440512 -0.08106969169287799 0 -0.1723158118663187 -0.066503537203019283 0 -0.15806966229532371 -0.069986989580971659 0 -0.1709746743440512 -0.08106969169287799 0 -0.15830296428632981 -0.072645720818840492 0 -0.15806966229532371 -0.069986989580971659 0 -0.1709746743440512 -0.08106969169287799 0 -0.15830296428632981 -0.072645720818840492 0 -0.15806966229532371 -0.069986989580971659 0 -0.17282517161162481 -0.088728152847469377 0 -0.15830296428632981 -0.072645720818840492 0 -0.1603433717653617 -0.095898394656739119 0 -0.17282517161162481 -0.088728152847469377 0 -0.15830296428632981 -0.072645720818840492 0 -0.1603433717653617 -0.095898394656739119 0 -0.15830296428632981 -0.072645720818840492 0 -0.15242583763476369 -0.083096768498854445 0 -0.1603433717653617 -0.095898394656739119 0 -0.15830296428632981 -0.072645720818840492 0 -0.17282517161162481 -0.088728152847469377 0 -0.15830296428632981 -0.072645720818840492 0 -0.16956435886454441 -0.082739773819951165 0 -0.17282517161162481 -0.088728152847469377 0 -0.16956435886454441 -0.082739773819951165 0 -0.1709746743440512 -0.08106969169287799 0 -0.15830296428632981 -0.072645720818840492 0 -0.16956435886454441 -0.082739773819951165 0 -0.1709746743440512 -0.08106969169287799 0 -0.16956435886454441 -0.082739773819951165 0 -0.1709746743440512 -0.08106969169287799 0 -0.142741398485728 -0.089128216497655732 0 -0.14021307424044671 -0.067911064672102603 0 -0.1603433717653617 -0.095898394656739119 0 -0.15242583763476369 -0.083096768498854445 0 -0.142741398485728 -0.089128216497655732 0 -0.15242583763476369 -0.083096768498854445 0 -0.142741398485728 -0.089128216497655732 0 -0.1483156160016349 -0.074714742022182687 0 -0.142741398485728 -0.089128216497655732 0 -0.1483156160016349 -0.074714742022182687 0 -0.14021307424044671 -0.067911064672102603 0 -0.15830296428632981 -0.072645720818840492 0 -0.15806966229532371 -0.069986989580971659 0 -0.14841594637473249 -0.061696469787824747 0 -0.15806966229532371 -0.069986989580971659 0 -0.14841594637473249 -0.061696469787824747 0 -0.15830296428632981 -0.072645720818840492 0 -0.1483156160016349 -0.074714742022182687 0 -0.14841594637473249 -0.061696469787824747 0 -0.15830296428632981 -0.072645720818840492 0 -0.14841594637473249 -0.061696469787824747 0 -0.15830296428632981 -0.072645720818840492 0 -0.15242583763476369 -0.083096768498854445 0 -0.1483156160016349 -0.074714742022182687 0 -0.14021307424044671 -0.067911064672102603 0 -0.14674001214755289 -0.059840477947925921 0 -0.1483156160016349 -0.074714742022182687 0 -0.14021307424044671 -0.067911064672102603 0 -0.14841594637473249 -0.061696469787824747 0 -0.14021307424044671 -0.067911064672102603 0 -0.14841594637473249 -0.061696469787824747 0 -0.14674001214755289 -0.059840477947925921 0 -0.12816748550786239 -0.06327590114801214 0 -0.1285180735204208 -0.08254560057282942 0 -0.14021307424044671 -0.067911064672102603 0 -0.12816748550786239 -0.06327590114801214 0 -0.1285180735204208 -0.08254560057282942 0 -0.14021307424044671 -0.067911064672102603 0 -0.1285180735204208 -0.08254560057282942 0 -0.142741398485728 -0.089128216497655732 0 -0.14021307424044671 -0.067911064672102603 0 -0.1285180735204208 -0.08254560057282942 0 -0.1285180735204208 -0.08254560057282942 0 -0.12888589304759121 -0.1027624119788627 0 -0.142741398485728 -0.089128216497655732 0 -0.1285180735204208 -0.08254560057282942 0 -0.12888589304759121 -0.1027624119788627 0 -0.142741398485728 -0.089128216497655732 0 -0.12888589304759121 -0.1027624119788627 0 -0.14526972273100899 -0.1103453683232089 0 -0.12888589304759121 -0.1027624119788627 0 -0.12925371257476059 -0.12297922338489591 0 -0.12888589304759121 -0.1027624119788627 0 -0.12925371257476059 -0.12297922338489591 0 -0.14526972273100899 -0.1103453683232089 0 -0.14779804697629001 -0.13156252014876199 0 -0.16238377924439409 -0.1191510684946378 0 -0.14526972273100899 -0.1103453683232089 0 -0.14779804697629001 -0.13156252014876199 0 -0.14526972273100899 -0.1103453683232089 0 -0.14779804697629001 -0.13156252014876199 0 -0.12925371257476059 -0.12297922338489591 0 -0.14526972273100899 -0.1103453683232089 0 -0.16238377924439409 -0.1191510684946378 0 -0.1603433717653617 -0.095898394656739119 0 -0.14526972273100899 -0.1103453683232089 0 -0.142741398485728 -0.089128216497655732 0 -0.14526972273100899 -0.1103453683232089 0 -0.1603433717653617 -0.095898394656739119 0 -0.142741398485728 -0.089128216497655732 0 -0.14526972273100899 -0.1103453683232089 0 -0.15361420014680449 -0.019212127598082721 0 -0.1340382922854105 -0.016093626116021581 0 -0.13607557129642289 -0.033190032230996792 0 -0.15361420014680449 -0.019212127598082721 0 -0.13607557129642289 -0.033190032230996792 0 -0.14560824300743691 -0.037962571813951879 0 -0.15361420014680449 -0.019212127598082721 0 -0.14387643640170231 -0.001228344769483762 0 -0.1340382922854105 -0.016093626116021581 0 -0.15361420014680449 -0.019212127598082721 0 -0.14387643640170231 -0.001228344769483762 0 -0.16075095242782511 -0.0052219580539949271 0 -0.14387643640170231 -0.001228344769483762 0 -0.12685177027702929 -0.0074551924353097251 0 -0.1340382922854105 -0.016093626116021581 0 -0.14387643640170231 -0.001228344769483762 0 -0.12685177027702929 -0.0074551924353097251 0 -0.12610417559565379 0.0050561888116637567 0 -0.1218358066818003 -0.016501470715471579 0 -0.12685177027702929 -0.0074551924353097251 0 -0.1340382922854105 -0.016093626116021581 0 -0.1340382922854105 -0.016093626116021581 0 -0.13607557129642289 -0.033190032230996792 0 -0.1340382922854105 -0.016093626116021581 0 -0.12827580271321851 -0.024316146848945178 0 -0.13607557129642289 -0.033190032230996792 0 -0.1218358066818003 -0.016501470715471579 0 -0.1340382922854105 -0.016093626116021581 0 -0.12827580271321851 -0.024316146848945178 0 -0.12827580271321851 -0.024316146848945178 0 -0.12634479329777981 -0.027847660905157862 0 -0.13607557129642289 -0.033190032230996792 0 -0.1238192285020569 -0.023415476126444248 0 -0.12827580271321851 -0.024316146848945178 0 -0.12634479329777981 -0.027847660905157862 0 -0.12772179507334119 -0.038778997654293372 0 -0.13607557129642289 -0.033190032230996792 0 -0.13811285030743611 -0.050286438345971921 0 -0.13607557129642289 -0.033190032230996792 0 -0.13811285030743611 -0.050286438345971921 0 -0.14560824300743691 -0.037962571813951879 0 -0.12634479329777981 -0.027847660905157862 0 -0.12772179507334119 -0.038778997654293372 0 -0.12634479329777981 -0.027847660905157862 0 -0.12772179507334119 -0.038778997654293372 0 -0.13607557129642289 -0.033190032230996792 0 -0.13607557129642289 -0.033190032230996792 0 -0.13811285030743611 -0.050286438345971921 0 -0.12772179507334119 -0.038778997654293372 0 -0.1278168974952997 -0.044006201723194867 0 -0.12772179507334119 -0.038778997654293372 0 -0.1278168974952997 -0.044006201723194867 0 -0.13811285030743611 -0.050286438345971921 0 -0.12772179507334119 -0.038778997654293372 0 -0.13811285030743611 -0.050286438345971921 0 -0.12816748550786239 -0.06327590114801214 0 -0.1278168974952997 -0.044006201723194867 0 -0.13845293158072161 -0.053140327051839839 0 -0.12816748550786239 -0.06327590114801214 0 -0.1278168974952997 -0.044006201723194867 0 -0.1278168974952997 -0.044006201723194867 0 -0.13845293158072161 -0.053140327051839839 0 -0.1278168974952997 -0.044006201723194867 0 -0.13811285030743611 -0.050286438345971921 0 -0.13845293158072161 -0.053140327051839839 0 -0.13811285030743611 -0.050286438345971921 0 -0.13845293158072161 -0.053140327051839839 0 -0.14021307424044671 -0.067911064672102603 0 -0.12816748550786239 -0.06327590114801214 0 -0.13845293158072161 -0.053140327051839839 0 -0.14021307424044671 -0.067911064672102603 0 -0.13845293158072161 -0.053140327051839839 0 -0.14841594637473249 -0.061696469787824747 0 -0.14674001214755289 -0.059840477947925921 0 -0.15584193122106629 -0.04459955858952698 0 -0.13811285030743611 -0.050286438345971921 0 -0.14674001214755289 -0.059840477947925921 0 -0.15584193122106629 -0.04459955858952698 0 -0.15806966229532371 -0.069986989580971659 0 -0.14841594637473249 -0.061696469787824747 0 -0.15584193122106629 -0.04459955858952698 0 -0.14021307424044671 -0.067911064672102603 0 -0.13845293158072161 -0.053140327051839839 0 -0.14674001214755289 -0.059840477947925921 0 -0.13811285030743611 -0.050286438345971921 0 -0.14674001214755289 -0.059840477947925921 0 -0.13845293158072161 -0.053140327051839839 0 -0.14674001214755289 -0.059840477947925921 0 -0.14841594637473249 -0.061696469787824747 0 -0.14674001214755289 -0.059840477947925921 0 -0.13811285030743611 -0.050286438345971921 0 -0.13845293158072161 -0.053140327051839839 0 -0.14674001214755289 -0.059840477947925921 0 -0.13811285030743611 -0.050286438345971921 0 -0.14560824300743691 -0.037962571813951879 0 -0.15584193122106629 -0.04459955858952698 0 -0.15361420014680449 -0.019212127598082721 0 -0.14560824300743691 -0.037962571813951879 0 -0.15584193122106629 -0.04459955858952698 0 -0.15361420014680449 -0.019212127598082721 0 -0.15584193122106629 -0.04459955858952698 0 -0.15361420014680449 -0.019212127598082721 0 -0.15584193122106629 -0.04459955858952698 0 -0.16913239101594679 -0.041176417532040002 0 -0.15806966229532371 -0.069986989580971659 0 -0.15584193122106629 -0.04459955858952698 0 -0.15806966229532371 -0.069986989580971659 0 -0.15584193122106629 -0.04459955858952698 0 -0.17107663561351971 -0.055401675354277771 0 -0.15584193122106629 -0.04459955858952698 0 -0.16913239101594679 -0.041176417532040002 0 -0.17107663561351971 -0.055401675354277771 0 -0.1723158118663187 -0.066503537203019283 0 -0.17107663561351971 -0.055401675354277771 0 -0.18914227521238219 -0.059555792183947388 0 -0.17107663561351971 -0.055401675354277771 0 -0.18397392484486549 -0.042348300201641993 0 -0.18914227521238219 -0.059555792183947388 0 -0.16913239101594679 -0.041176417532040002 0 -0.18397392484486549 -0.042348300201641993 0 -0.1754442374196338 -0.029174643828942332 0 -0.16913239101594679 -0.041176417532040002 0 -0.17107663561351971 -0.055401675354277771 0 -0.18397392484486549 -0.042348300201641993 0 -0.18397392484486549 -0.042348300201641993 0 -0.18741842271595199 -0.02693538311148529 0 -0.1754442374196338 -0.029174643828942332 0 -0.18741842271595199 -0.02693538311148529 0 -0.1754442374196338 -0.029174643828942332 0 -0.17539614082350491 -0.01210095082275685 0 -0.18741842271595199 -0.02693538311148529 0 -0.17539614082350491 -0.01210095082275685 0 -0.19333553751577559 -0.011870297730196639 0 -0.15361420014680449 -0.019212127598082721 0 -0.16913239101594679 -0.041176417532040002 0 -0.1754442374196338 -0.029174643828942332 0 -0.15361420014680449 -0.019212127598082721 0 -0.1754442374196338 -0.029174643828942332 0 -0.17539614082350491 -0.01210095082275685 0 -0.15361420014680449 -0.019212127598082721 0 -0.16075095242782511 -0.0052219580539949271 0 -0.17539614082350491 -0.01210095082275685 0 -0.16075095242782511 -0.0052219580539949271 0 -0.17539614082350491 -0.01210095082275685 0 -0.1694884300125131 0.0041657033155674842 0 -0.17539614082350491 -0.01210095082275685 0 -0.19333553751577559 -0.011870297730196639 0 -0.18752405922247109 0.0049853948854486161 0 -0.17539614082350491 -0.01210095082275685 0 -0.1694884300125131 0.0041657033155674842 0 -0.18752405922247109 0.0049853948854486161 0 -0.19333553751577559 -0.011870297730196639 0 -0.20965295676699849 -0.0097934788175554031 0 -0.18752405922247109 0.0049853948854486161 0 -0.19333553751577559 -0.011870297730196639 0 -0.2054326076551351 -0.02569190645018872 0 -0.20730987608071291 -0.038041892675016717 0 -0.19333553751577559 -0.011870297730196639 0 -0.2054326076551351 -0.02569190645018872 0 -0.20965295676699849 -0.0097934788175554031 0 -0.18741842271595199 -0.02693538311148529 0 -0.19333553751577559 -0.011870297730196639 0 -0.20730987608071291 -0.038041892675016717 0 -0.19333553751577559 -0.011870297730196639 0 -0.20730987608071291 -0.038041892675016717 0 -0.2054326076551351 -0.02569190645018872 0 -0.2109093001177435 -0.033779489092731117 0 -0.22177676567788329 -0.02091034012407729 0 -0.2054326076551351 -0.02569190645018872 0 -0.20965295676699849 -0.0097934788175554031 0 -0.22177676567788329 -0.02091034012407729 0 -0.2054326076551351 -0.02569190645018872 0 -0.2109093001177435 -0.033779489092731117 0 -0.2109093001177435 -0.033779489092731117 0 -0.22177676567788329 -0.02091034012407729 0 -0.18914227521238219 -0.059555792183947388 0 -0.20730987608071291 -0.038041892675016717 0 -0.2037326341973654 -0.061901712865931463 0 -0.18914227521238219 -0.059555792183947388 0 -0.20730987608071291 -0.038041892675016717 0 -0.18397392484486549 -0.042348300201641993 0 -0.18914227521238219 -0.059555792183947388 0 -0.20730987608071291 -0.038041892675016717 0 -0.18397392484486549 -0.042348300201641993 0 -0.18741842271595199 -0.02693538311148529 0 -0.20730987608071291 -0.038041892675016717 0 -0.20730987608071291 -0.038041892675016717 0 -0.2109093001177435 -0.033779489092731117 0 -0.21800607803623551 -0.058074086952200961 0 -0.2054326076551351 -0.02569190645018872 0 -0.20730987608071291 -0.038041892675016717 0 -0.2109093001177435 -0.033779489092731117 0 -0.20730987608071291 -0.038041892675016717 0 -0.2109093001177435 -0.033779489092731117 0 -0.20730987608071291 -0.038041892675016717 0 -0.21800607803623551 -0.058074086952200961 0 -0.20730987608071291 -0.038041892675016717 0 -0.2037326341973654 -0.061901712865931463 0 -0.21800607803623551 -0.058074086952200961 0 -0.2109093001177435 -0.033779489092731117 0 -0.21800607803623551 -0.058074086952200961 0 -0.2274172794323823 -0.058157276941897491 0 -0.2109093001177435 -0.033779489092731117 0 -0.2274172794323823 -0.058157276941897491 0 -0.2109093001177435 -0.033779489092731117 0 -0.2274172794323823 -0.058157276941897491 0 -0.23277692014571161 -0.03294282029000356 0 -0.2274172794323823 -0.058157276941897491 0 -0.23277692014571161 -0.03294282029000356 0 -0.25042254959608901 -0.045130146614874432 0 -0.23277692014571161 -0.03294282029000356 0 -0.24925162148723601 -0.025256270958464649 0 -0.25042254959608901 -0.045130146614874432 0 -0.24886237825725649 -0.065657060971509779 0 -0.2274172794323823 -0.058157276941897491 0 -0.25042254959608901 -0.045130146614874432 0 -0.20965295676699849 -0.0097934788175554031 0 -0.23143938292562269 -3.810352685244356e-05 0 -0.21561162034499581 0.004511641205623469 0 -0.23143938292562269 -3.810352685244356e-05 0 -0.22177676567788329 -0.02091034012407729 0 -0.2369212728040811 -0.016822764739565559 0 -0.20965295676699849 -0.0097934788175554031 0 -0.23143938292562269 -3.810352685244356e-05 0 -0.22177676567788329 -0.02091034012407729 0 -0.23277692014571161 -0.03294282029000356 0 -0.22177676567788329 -0.02091034012407729 0 -0.2369212728040811 -0.016822764739565559 0 -0.2109093001177435 -0.033779489092731117 0 -0.23277692014571161 -0.03294282029000356 0 -0.22177676567788329 -0.02091034012407729 0 -0.23277692014571161 -0.03294282029000356 0 -0.2369212728040811 -0.016822764739565559 0 -0.24925162148723601 -0.025256270958464649 0 -0.2369212728040811 -0.016822764739565559 0 -0.24925162148723601 -0.025256270958464649 0 -0.2494362102662433 -0.0097650222616087502 0 -0.23143938292562269 -3.810352685244356e-05 0 -0.2369212728040811 -0.016822764739565559 0 -0.2494362102662433 -0.0097650222616087502 0 -0.23143938292562269 -3.810352685244356e-05 0 -0.2494362102662433 -0.0097650222616087502 0 -0.25373215836416307 0.0049476990353386208 0 -0.26836868766827021 -0.012773059683471481 0 -0.25373215836416307 0.0049476990353386208 0 -0.26836868766827021 -0.012773059683471481 0 -0.25373215836416307 0.0049476990353386208 0 -0.26639870705666863 0.0034981426146868042 0 -0.2494362102662433 -0.0097650222616087502 0 -0.26836868766827021 -0.012773059683471481 0 -0.25373215836416307 0.0049476990353386208 0 -0.24925162148723601 -0.025256270958464649 0 -0.2494362102662433 -0.0097650222616087502 0 -0.26836868766827021 -0.012773059683471481 0 -0.24925162148723601 -0.025256270958464649 0 -0.26275534786984661 -0.027048018388449429 0 -0.26836868766827021 -0.012773059683471481 0 -0.24925162148723601 -0.025256270958464649 0 -0.26836868766827021 -0.012773059683471481 0 -0.27160721165334673 -0.01669400985901957 0 -0.28630835731890558 -0.034493000987101417 0 -0.26275534786984661 -0.027048018388449429 0 -0.27160721165334673 -0.01669400985901957 0 -0.2688137182554316 -0.039248720554322457 0 -0.27160721165334673 -0.01669400985901957 0 -0.28630835731890558 -0.034493000987101417 0 -0.2688137182554316 -0.039248720554322457 0 -0.27160721165334673 -0.01669400985901957 0 -0.2688137182554316 -0.039248720554322457 0 -0.26275534786984661 -0.027048018388449429 0 -0.27160721165334673 -0.01669400985901957 0 -0.26836868766827021 -0.012773059683471481 0 -0.27160721165334673 -0.01669400985901957 0 -0.28116069489460349 -0.014543504159774951 0 -0.28700052192624392 -0.021885314552049721 0 -0.26836868766827021 -0.012773059683471481 0 -0.27242053113380332 -0.01012725527213235 0 -0.26639870705666863 0.0034981426146868042 0 -0.27160721165334673 -0.01669400985901957 0 -0.26836868766827021 -0.012773059683471481 0 -0.27242053113380332 -0.01012725527213235 0 -0.27160721165334673 -0.01669400985901957 0 -0.27242053113380332 -0.01012725527213235 0 -0.27160721165334673 -0.01669400985901957 0 -0.26836868766827021 -0.012773059683471481 0 -0.26836868766827021 -0.012773059683471481 0 -0.27242053113380332 -0.01012725527213235 0 -0.27160721165334673 -0.01669400985901957 0 -0.27242053113380332 -0.01012725527213235 0 -0.28116069489460349 -0.014543504159774951 0 -0.27242053113380332 -0.01012725527213235 0 -0.28116069489460349 -0.014543504159774951 0 -0.28781052938688112 -0.0081357987425667699 0 -0.27242053113380332 -0.01012725527213235 0 -0.28781052938688112 -0.0081357987425667699 0 -0.29564270005176341 0.0050365380694357394 0 -0.27242053113380332 -0.01012725527213235 0 -0.28584616183210199 -9.6240044796684632e-05 0 -0.29564270005176341 0.0050365380694357394 0 -0.27242053113380332 -0.01012725527213235 0 -0.29564270005176341 0.0050365380694357394 0 -0.29639722379540151 -0.0061770926023202964 0 -0.28781052938688112 -0.0081357987425667699 0 -0.29564270005176341 0.0050365380694357394 0 -0.29639722379540151 -0.0061770926023202964 0 -0.2934314970588392 -0.01486767974804268 0 -0.28781052938688112 -0.0081357987425667699 0 -0.28116069489460349 -0.014543504159774951 0 -0.2934314970588392 -0.01486767974804268 0 -0.28781052938688112 -0.0081357987425667699 0 -0.28116069489460349 -0.014543504159774951 0 -0.2934314970588392 -0.01486767974804268 0 -0.28700052192624392 -0.021885314552049721 0 -0.27160721165334673 -0.01669400985901957 0 -0.28700052192624392 -0.021885314552049721 0 -0.28630835731890558 -0.034493000987101417 0 -0.28700052192624392 -0.021885314552049721 0 -0.30249484870551691 -0.02882837800630907 0 -0.28630835731890558 -0.034493000987101417 0 -0.2934314970588392 -0.01486767974804268 0 -0.28700052192624392 -0.021885314552049721 0 -0.30249484870551691 -0.02882837800630907 0 -0.30249484870551691 -0.02882837800630907 0 -0.3074804215323973 -0.008614507468707934 0 -0.32005087815517669 -0.02159396487001566 0 -0.2934314970588392 -0.01486767974804268 0 -0.30249484870551691 -0.02882837800630907 0 -0.3074804215323973 -0.008614507468707934 0 -0.29639722379540151 -0.0061770926023202964 0 -0.3074804215323973 -0.008614507468707934 0 -0.29564270005176341 0.0050365380694357394 0 -0.29639722379540151 -0.0061770926023202964 0 -0.2934314970588392 -0.01486767974804268 0 -0.3074804215323973 -0.008614507468707934 0 -0.30100950298447338 -0.052291992115175989 0 -0.31571064865004123 -0.07009098324325054 0 -0.30249484870551691 -0.02882837800630907 0 -0.30100950298447338 -0.052291992115175989 0 -0.32428720283868318 -0.045718969762759278 0 -0.30100950298447338 -0.052291992115175989 0 -0.28630835731890558 -0.034493000987101417 0 -0.30249484870551691 -0.02882837800630907 0 -0.30100950298447338 -0.052291992115175989 0 -0.28630835731890558 -0.034493000987101417 0 -0.30100950298447338 -0.052291992115175989 0 -0.28630835731890558 -0.034493000987101417 0 -0.28220229779240708 -0.056601745135049467 0 -0.30100950298447338 -0.052291992115175989 0 -0.28220229779240708 -0.056601745135049467 0 -0.2957017969990316 -0.07736275397623131 0 -0.28220229779240708 -0.056601745135049467 0 -0.26602022485750859 -0.06180343124962441 0 -0.2688137182554316 -0.039248720554322457 0 -0.26602022485750859 -0.06180343124962441 0 -0.2688137182554316 -0.039248720554322457 0 -0.28630835731890558 -0.034493000987101417 0 -0.28220229779240708 -0.056601745135049467 0 -0.2688137182554316 -0.039248720554322457 0 -0.26275534786984661 -0.027048018388449429 0 -0.2688137182554316 -0.039248720554322457 0 -0.25042254959608901 -0.045130146614874432 0 -0.24925162148723601 -0.025256270958464649 0 -0.26275534786984661 -0.027048018388449429 0 -0.25042254959608901 -0.045130146614874432 0 -0.24886237825725649 -0.065657060971509779 0 -0.26602022485750859 -0.06180343124962441 0 -0.25042254959608901 -0.045130146614874432 0 -0.26602022485750859 -0.06180343124962441 0 -0.2688137182554316 -0.039248720554322457 0 -0.25042254959608901 -0.045130146614874432 0 -0.26602022485750859 -0.06180343124962441 0 -0.26322673145958569 -0.084358141944926371 0 -0.24886237825725649 -0.065657060971509779 0 -0.24392525874702281 -0.082535064791062915 0 -0.26322673145958569 -0.084358141944926371 0 -0.24886237825725649 -0.065657060971509779 0 -0.26602022485750859 -0.06180343124962441 0 -0.26322673145958569 -0.084358141944926371 0 -0.24392525874702281 -0.082535064791062915 0 -0.26322673145958569 -0.084358141944926371 0 -0.26043323806166302 -0.1069128526402284 0 -0.26322673145958569 -0.084358141944926371 0 -0.27747094769995051 -0.07479253836754006 0 -0.28020368739121948 -0.093836619531868726 0 -0.26602022485750859 -0.06180343124962441 0 -0.26322673145958569 -0.084358141944926371 0 -0.27747094769995051 -0.07479253836754006 0 -0.28220229779240708 -0.056601745135049467 0 -0.26602022485750859 -0.06180343124962441 0 -0.27747094769995051 -0.07479253836754006 0 -0.26043323806166302 -0.1069128526402284 0 -0.25699454315764858 -0.13467693068922459 0 -0.27634096562765992 -0.13040423219522099 0 -0.24647275828660289 -0.1155009856584793 0 -0.26043323806166302 -0.1069128526402284 0 -0.25699454315764858 -0.13467693068922459 0 -0.26043323806166302 -0.1069128526402284 0 -0.25699454315764858 -0.13467693068922459 0 -0.24392525874702281 -0.082535064791062915 0 -0.26043323806166302 -0.1069128526402284 0 -0.24755743426064261 -0.1007718446490848 0 -0.24392525874702281 -0.082535064791062915 0 -0.26043323806166302 -0.1069128526402284 0 -0.26322673145958569 -0.084358141944926371 0 -0.26043323806166302 -0.1069128526402284 0 -0.24647275828660289 -0.1155009856584793 0 -0.24755743426064261 -0.1007718446490848 0 -0.26043323806166302 -0.1069128526402284 0 -0.26322673145958569 -0.084358141944926371 0 -0.26043323806166302 -0.1069128526402284 0 -0.28020368739121948 -0.093836619531868726 0 -0.26043323806166302 -0.1069128526402284 0 -0.28020368739121948 -0.093836619531868726 0 -0.28367073401013571 -0.112001119513053 0 -0.26043323806166302 -0.1069128526402284 0 -0.27634096562765992 -0.13040423219522099 0 -0.26043323806166302 -0.1069128526402284 0 -0.28367073401013571 -0.112001119513053 0 -0.27634096562765992 -0.13040423219522099 0 -0.28367073401013571 -0.112001119513053 0 -0.29925291923666902 -0.1246244131920764 0 -0.27634096562765992 -0.13040423219522099 0 -0.28367073401013571 -0.112001119513053 0 -0.30212285973346731 -0.1042274800058705 0 -0.29925291923666902 -0.1246244131920764 0 -0.28020368739121948 -0.093836619531868726 0 -0.28367073401013571 -0.112001119513053 0 -0.30212285973346731 -0.1042274800058705 0 -0.30212285973346731 -0.1042274800058705 0 -0.29925291923666902 -0.1246244131920764 0 -0.31873283162121152 -0.1208367277688228 0 -0.28220229779240708 -0.056601745135049467 0 -0.27747094769995051 -0.07479253836754006 0 -0.2957017969990316 -0.07736275397623131 0 -0.27747094769995051 -0.07479253836754006 0 -0.28020368739121948 -0.093836619531868726 0 -0.2957017969990316 -0.07736275397623131 0 -0.28020368739121948 -0.093836619531868726 0 -0.30212285973346731 -0.1042274800058705 0 -0.2957017969990316 -0.07736275397623131 0 -0.30212285973346731 -0.1042274800058705 0 -0.2957017969990316 -0.07736275397623131 0 -0.31458870501423453 -0.089234691798933494 0 -0.2957017969990316 -0.07736275397623131 0 -0.31571064865004123 -0.07009098324325054 0 -0.31458870501423453 -0.089234691798933494 0 -0.30100950298447338 -0.052291992115175989 0 -0.2957017969990316 -0.07736275397623131 0 -0.31571064865004123 -0.07009098324325054 0 -0.31571064865004123 -0.07009098324325054 0 -0.31458870501423453 -0.089234691798933494 0 -0.3332547108713918 -0.088221946511297389 0 -0.31571064865004123 -0.07009098324325054 0 -0.3332547108713918 -0.088221946511297389 0 -0.34117679659981359 -0.067810973062370772 0 -0.31873283162121152 -0.1208367277688228 0 -0.32494383979355079 -0.1039029160124732 0 -0.33740061567083612 -0.1177027850679461 0 -0.30212285973346731 -0.1042274800058705 0 -0.31873283162121152 -0.1208367277688228 0 -0.32494383979355079 -0.1039029160124732 0 -0.30212285973346731 -0.1042274800058705 0 -0.31458870501423453 -0.089234691798933494 0 -0.32494383979355079 -0.1039029160124732 0 -0.31458870501423453 -0.089234691798933494 0 -0.3332547108713918 -0.088221946511297389 0 -0.32494383979355079 -0.1039029160124732 0 -0.3332547108713918 -0.088221946511297389 0 -0.32494383979355079 -0.1039029160124732 0 -0.3435633158501642 -0.10319386492196909 0 -0.32494383979355079 -0.1039029160124732 0 -0.3435633158501642 -0.10319386492196909 0 -0.33740061567083612 -0.1177027850679461 0 -0.31873283162121152 -0.1208367277688228 0 -0.33740061567083612 -0.1177027850679461 0 -0.33246737815035832 -0.13429539137489349 0 -0.33740061567083612 -0.1177027850679461 0 -0.35625322692650802 -0.1124826607150686 0 -0.35163372269432369 -0.13105892338566411 0 -0.3435633158501642 -0.10319386492196909 0 -0.33740061567083612 -0.1177027850679461 0 -0.35625322692650802 -0.1124826607150686 0 -0.35625322692650802 -0.1124826607150686 0 -0.36934545053448892 -0.12269324252622529 0 -0.35163372269432369 -0.13105892338566411 0 -0.3435633158501642 -0.10319386492196909 0 -0.35625322692650802 -0.1124826607150686 0 -0.35809267042692478 -0.091131693922479204 0 -0.3332547108713918 -0.088221946511297389 0 -0.3435633158501642 -0.10319386492196909 0 -0.35809267042692478 -0.091131693922479204 0 -0.35625322692650802 -0.1124826607150686 0 -0.37156766678540171 -0.1077723692342332 0 -0.35809267042692478 -0.091131693922479204 0 -0.37156766678540171 -0.1077723692342332 0 -0.35809267042692478 -0.091131693922479204 0 -0.37923530691542517 -0.094621381490503989 0 -0.35625322692650802 -0.1124826607150686 0 -0.37156766678540171 -0.1077723692342332 0 -0.36934545053448892 -0.12269324252622529 0 -0.37156766678540171 -0.1077723692342332 0 -0.36934545053448892 -0.12269324252622529 0 -0.38327796276069132 -0.1205250692621456 0 -0.34117679659981359 -0.067810973062370772 0 -0.35809267042692478 -0.091131693922479204 0 -0.36378064697556378 -0.065127100328912876 0 -0.3332547108713918 -0.088221946511297389 0 -0.34117679659981359 -0.067810973062370772 0 -0.35809267042692478 -0.091131693922479204 0 -0.35809267042692478 -0.091131693922479204 0 -0.3740794340288558 -0.080280953139633127 0 -0.36378064697556378 -0.065127100328912876 0 -0.35809267042692478 -0.091131693922479204 0 -0.3740794340288558 -0.080280953139633127 0 -0.37923530691542517 -0.094621381490503989 0 -0.36378064697556378 -0.065127100328912876 0 -0.37264742716071197 -0.040785757038920657 0 -0.38790391229289972 -0.062647833994221011 0 -0.36378064697556378 -0.065127100328912876 0 -0.35052257720072538 -0.046463396673772722 0 -0.37264742716071197 -0.040785757038920657 0 -0.34117679659981359 -0.067810973062370772 0 -0.36378064697556378 -0.065127100328912876 0 -0.35052257720072538 -0.046463396673772722 0 -0.35052257720072538 -0.046463396673772722 0 -0.36019194205351612 -0.022184319704278501 0 -0.33829214680459702 -0.027352967929339309 0 -0.35052257720072538 -0.046463396673772722 0 -0.37264742716071197 -0.040785757038920657 0 -0.36019194205351612 -0.022184319704278501 0 -0.37264742716071197 -0.040785757038920657 0 -0.36019194205351612 -0.022184319704278501 0 -0.38288561436956298 -0.01227571684950862 0 -0.36019194205351612 -0.022184319704278501 0 -0.36811041309982828 -0.00046557786001567852 0 -0.38288561436956298 -0.01227571684950862 0 -0.36019194205351612 -0.022184319704278501 0 -0.36811041309982828 -0.00046557786001567852 0 -0.34926271451221519 -0.0020625166386807441 0 -0.36019194205351612 -0.022184319704278501 0 -0.34926271451221519 -0.0020625166386807441 0 -0.33829214680459702 -0.027352967929339309 0 -0.33829214680459702 -0.027352967929339309 0 -0.32871639322815888 -0.004782724970433137 0 -0.32005087815517669 -0.02159396487001566 0 -0.34926271451221519 -0.0020625166386807441 0 -0.33829214680459702 -0.027352967929339309 0 -0.32871639322815888 -0.004782724970433137 0 -0.3074804215323973 -0.008614507468707934 0 -0.32871639322815888 -0.004782724970433137 0 -0.32005087815517669 -0.02159396487001566 0 -0.30249484870551691 -0.02882837800630907 0 -0.32005087815517669 -0.02159396487001566 0 -0.32428720283868318 -0.045718969762759278 0 -0.33829214680459702 -0.027352967929339309 0 -0.32005087815517669 -0.02159396487001566 0 -0.32428720283868318 -0.045718969762759278 0 -0.31571064865004123 -0.07009098324325054 0 -0.34117679659981359 -0.067810973062370772 0 -0.32428720283868318 -0.045718969762759278 0 -0.30100950298447338 -0.052291992115175989 0 -0.31571064865004123 -0.07009098324325054 0 -0.32428720283868318 -0.045718969762759278 0 -0.34117679659981359 -0.067810973062370772 0 -0.35052257720072538 -0.046463396673772722 0 -0.32428720283868318 -0.045718969762759278 0 -0.35052257720072538 -0.046463396673772722 0 -0.33829214680459702 -0.027352967929339309 0 -0.32428720283868318 -0.045718969762759278 0 -0.29012257693975041 -0.25371784115299462 0 -0.30741913761739542 -0.24135182974430219 0 -0.31307032577977428 -0.24998346407264199 0 -0.29012257693975041 -0.25371784115299462 0 -0.29763547352968039 -0.2380775426702135 0 -0.30741913761739542 -0.24135182974430219 0 -0.29763547352968039 -0.2380775426702135 0 -0.30741913761739542 -0.24135182974430219 0 -0.31005347595579869 -0.23137679589255011 0 -0.31005347595579869 -0.23137679589255011 0 -0.30514837011960988 -0.2224372441874321 0 -0.29763547352968039 -0.2380775426702135 0 -0.31005347595579869 -0.23137679589255011 0 -0.30514837011960988 -0.2224372441874321 0 -0.29763547352968039 -0.2380775426702135 0 -0.30514837011960988 -0.2224372441874321 0 -0.29763547352968039 -0.2380775426702135 0 -0.30514837011960988 -0.2224372441874321 0 -0.29406393979401629 -0.22581674487726369 0 -0.31005347595579869 -0.23137679589255011 0 -0.30514837011960988 -0.2224372441874321 0 -0.3176010825851816 -0.22376327521723549 0 -0.30514837011960988 -0.2224372441874321 0 -0.29406393979401629 -0.22581674487726369 0 -0.28885083089808078 -0.21520109434657719 0 -0.29763547352968039 -0.2380775426702135 0 -0.29406393979401629 -0.22581674487726369 0 -0.28599802422011311 -0.2299049522150178 0 -0.29406393979401629 -0.22581674487726369 0 -0.28394523333248561 -0.22142248832967909 0 -0.28885083089808078 -0.21520109434657719 0 -0.29406393979401629 -0.22581674487726369 0 -0.28394523333248561 -0.22142248832967909 0 -0.28599802422011311 -0.2299049522150178 0 -0.29012257693975041 -0.25371784115299462 0 -0.29763547352968039 -0.2380775426702135 0 -0.28628588004127581 -0.24590091662091079 0 -0.29012257693975041 -0.25371784115299462 0 -0.29763547352968039 -0.2380775426702135 0 -0.29763547352968039 -0.2380775426702135 0 -0.28599802422011311 -0.2299049522150178 0 -0.28366676952747072 -0.23782797244947329 0 -0.29763547352968039 -0.2380775426702135 0 -0.28366676952747072 -0.23782797244947329 0 -0.28628588004127581 -0.24590091662091079 0 -0.28366676952747072 -0.23782797244947329 0 -0.28628588004127581 -0.24590091662091079 0 -0.28203454005083689 -0.24490855033985651 0 -0.2822827903891636 -0.25116969047159798 0 -0.28628588004127581 -0.24590091662091079 0 -0.28203454005083689 -0.24490855033985651 0 -0.2822827903891636 -0.25116969047159798 0 -0.28203454005083689 -0.24490855033985651 0 -0.27715188184557771 -0.24466397919251789 0 -0.28366676952747072 -0.23782797244947329 0 -0.27715188184557771 -0.24466397919251789 0 -0.27322011997737689 -0.22349323672474941 0 -0.27715188184557771 -0.24466397919251789 0 -0.27298489710901458 -0.24317158489400781 0 -0.27322011997737689 -0.22349323672474941 0 -0.28366676952747072 -0.23782797244947329 0 -0.28203454005083689 -0.24490855033985651 0 -0.27715188184557771 -0.24466397919251789 0 -0.27298489710901458 -0.24317158489400781 0 -0.26533890150421441 -0.24289391974487359 0 -0.2620935754097119 -0.2342850093166296 0 -0.27273913003497091 -0.25557163015369039 0 -0.27298489710901458 -0.24317158489400781 0 -0.26671917983361038 -0.2492862093299574 0 -0.27298489710901458 -0.24317158489400781 0 -0.26671917983361038 -0.2492862093299574 0 -0.26533890150421441 -0.24289391974487359 0 -0.24385383048120329 -0.24077525652305151 0 -0.25955795366452089 -0.24483287543889989 0 -0.2620935754097119 -0.2342850093166296 0 -0.25857393321876138 -0.2593624870162452 0 -0.24385383048120329 -0.24077525652305151 0 -0.25955795366452089 -0.24483287543889989 0 -0.26671917983361038 -0.2492862093299574 0 -0.25955795366452089 -0.24483287543889989 0 -0.26533890150421441 -0.24289391974487359 0 -0.25955795366452089 -0.24483287543889989 0 -0.26533890150421441 -0.24289391974487359 0 -0.2620935754097119 -0.2342850093166296 0 -0.24747783652963551 -0.2115149733087838 0 -0.24385383048120329 -0.24077525652305151 0 -0.2620935754097119 -0.2342850093166296 0 -0.24747783652963551 -0.2115149733087838 0 -0.26488615050425057 -0.22050844812772921 0 -0.2620935754097119 -0.2342850093166296 0 -0.27298489710901458 -0.24317158489400781 0 -0.26488615050425057 -0.22050844812772921 0 -0.27322011997737689 -0.22349323672474941 0 -0.27298489710901458 -0.24317158489400781 0 -0.26488615050425057 -0.22050844812772921 0 -0.27715188184557771 -0.24466397919251789 0 -0.27322011997737689 -0.22349323672474941 0 -0.27298489710901458 -0.24317158489400781 0 -0.26488615050425057 -0.22050844812772921 0 -0.2620935754097119 -0.2342850093166296 0 -0.28599802422011311 -0.2299049522150178 0 -0.28366676952747072 -0.23782797244947329 0 -0.27322011997737689 -0.22349323672474941 0 -0.28394523333248561 -0.22142248832967909 0 -0.28599802422011311 -0.2299049522150178 0 -0.27322011997737689 -0.22349323672474941 0 -0.27322011997737689 -0.22349323672474941 0 -0.26928835810917601 -0.20232249425698101 0 -0.28394523333248561 -0.22142248832967909 0 -0.27322011997737689 -0.22349323672474941 0 -0.27973851389368209 -0.20992108092083811 0 -0.27322011997737689 -0.22349323672474941 0 -0.27973851389368209 -0.20992108092083811 0 -0.26928835810917601 -0.20232249425698101 0 -0.26488615050425057 -0.22050844812772921 0 -0.27322011997737689 -0.22349323672474941 0 -0.26928835810917601 -0.20232249425698101 0 -0.26488615050425057 -0.22050844812772921 0 -0.25678740389948651 -0.19784531136145059 0 -0.26928835810917601 -0.20232249425698101 0 -0.26488615050425057 -0.22050844812772921 0 -0.25678740389948651 -0.19784531136145059 0 -0.24747783652963551 -0.2115149733087838 0 -0.26488615050425057 -0.22050844812772921 0 -0.25678740389948651 -0.19784531136145059 0 -0.24747783652963551 -0.2115149733087838 0 -0.25678740389948651 -0.19784531136145059 0 -0.25110184257806772 -0.182254690094516 0 -0.25678740389948651 -0.19784531136145059 0 -0.26928835810917601 -0.20232249425698101 0 -0.26598247576952549 -0.18728909191498011 0 -0.25678740389948651 -0.19784531136145059 0 -0.26598247576952549 -0.18728909191498011 0 -0.25110184257806772 -0.182254690094516 0 -0.27973851389368209 -0.20992108092083811 0 -0.26928835810917601 -0.20232249425698101 0 -0.27692376293364968 -0.19405092606713301 0 -0.26928835810917601 -0.20232249425698101 0 -0.27692376293364968 -0.19405092606713301 0 -0.26598247576952549 -0.18728909191498011 0 -0.27692376293364968 -0.19405092606713301 0 -0.29158594567182627 -0.19771973581009819 0 -0.27802352122404039 -0.1730022274327655 0 -0.27973851389368209 -0.20992108092083811 0 -0.27692376293364968 -0.19405092606713301 0 -0.29158594567182627 -0.19771973581009819 0 -0.27973851389368209 -0.20992108092083811 0 -0.29158594567182627 -0.19771973581009819 0 -0.28885083089808078 -0.21520109434657719 0 -0.30514837011960988 -0.2224372441874321 0 -0.29158594567182627 -0.19771973581009819 0 -0.28885083089808078 -0.21520109434657719 0 -0.28394523333248561 -0.22142248832967909 0 -0.27973851389368209 -0.20992108092083811 0 -0.28885083089808078 -0.21520109434657719 0 -0.30514837011960988 -0.2224372441874321 0 -0.29158594567182627 -0.19771973581009819 0 -0.31403791524073699 -0.20393104788799979 0 -0.30514837011960988 -0.2224372441874321 0 -0.31403791524073699 -0.20393104788799979 0 -0.30514837011960988 -0.2224372441874321 0 -0.31403791524073699 -0.20393104788799979 0 -0.3176010825851816 -0.22376327521723549 0 -0.30514837011960988 -0.2224372441874321 0 -0.29158594567182627 -0.19771973581009819 0 -0.29603071823238802 -0.18846663766038349 0 -0.31403791524073699 -0.20393104788799979 0 -0.29158594567182627 -0.19771973581009819 0 -0.29603071823238802 -0.18846663766038349 0 -0.31403791524073699 -0.20393104788799979 0 -0.29603071823238802 -0.18846663766038349 0 -0.31008435138258689 -0.18922660427668339 0 -0.31403791524073699 -0.20393104788799979 0 -0.29603071823238802 -0.18846663766038349 0 -0.30815642075965333 -0.17738699130520649 0 -0.29335626352620792 -0.17336459835392479 0 -0.29603071823238802 -0.18846663766038349 0 -0.31008435138258689 -0.18922660427668339 0 -0.30815642075965333 -0.17738699130520649 0 -0.30815642075965333 -0.17738699130520649 0 -0.29224869319365648 -0.15389561175021371 0 -0.30815642075965333 -0.17738699130520649 0 -0.29224869319365648 -0.15389561175021371 0 -0.31379589073315739 -0.15865185036801571 0 -0.30815642075965333 -0.17738699130520649 0 -0.29335626352620792 -0.17336459835392479 0 -0.29224869319365648 -0.15389561175021371 0 -0.29335626352620792 -0.17336459835392479 0 -0.27802352122404039 -0.1730022274327655 0 -0.29224869319365648 -0.15389561175021371 0 -0.29158594567182627 -0.19771973581009819 0 -0.27802352122404039 -0.1730022274327655 0 -0.29603071823238802 -0.18846663766038349 0 -0.29335626352620792 -0.17336459835392479 0 -0.27802352122404039 -0.1730022274327655 0 -0.29603071823238802 -0.18846663766038349 0 -0.27802352122404039 -0.1730022274327655 0 -0.29158594567182627 -0.19771973581009819 0 -0.29603071823238802 -0.18846663766038349 0 -0.27802352122404039 -0.1730022274327655 0 -0.27692376293364968 -0.19405092606713301 0 -0.27802352122404039 -0.1730022274327655 0 -0.26598247576952549 -0.18728909191498011 0 -0.27802352122404039 -0.1730022274327655 0 -0.26598247576952549 -0.18728909191498011 0 -0.26244961256849492 -0.1732789927947018 0 -0.26598247576952549 -0.18728909191498011 0 -0.26244961256849492 -0.1732789927947018 0 -0.25110184257806772 -0.182254690094516 0 -0.26244961256849492 -0.1732789927947018 0 -0.25110184257806772 -0.182254690094516 0 -0.25472584862650161 -0.1529944068802484 0 -0.25110184257806772 -0.182254690094516 0 -0.25472584862650161 -0.1529944068802484 0 -0.26244961256849492 -0.1732789927947018 0 -0.26637468492527111 -0.16299831715650681 0 -0.25472584862650161 -0.1529944068802484 0 -0.26637468492527111 -0.16299831715650681 0 -0.25472584862650161 -0.1529944068802484 0 -0.26637468492527111 -0.16299831715650681 0 -0.26750903219084188 -0.15383957906099641 0 -0.25472584862650161 -0.1529944068802484 0 -0.27802352122404039 -0.1730022274327655 0 -0.26750903219084188 -0.15383957906099641 0 -0.27802352122404039 -0.1730022274327655 0 -0.26637468492527111 -0.16299831715650681 0 -0.26750903219084188 -0.15383957906099641 0 -0.27802352122404039 -0.1730022274327655 0 -0.26750903219084188 -0.15383957906099641 0 -0.29224869319365648 -0.15389561175021371 0 -0.27802352122404039 -0.1730022274327655 0 -0.26637468492527111 -0.16299831715650681 0 -0.27802352122404039 -0.1730022274327655 0 -0.26244961256849492 -0.1732789927947018 0 -0.26637468492527111 -0.16299831715650681 0 -0.26750903219084188 -0.15383957906099641 0 -0.27634096562765992 -0.13040423219522099 0 -0.29224869319365648 -0.15389561175021371 0 -0.25472584862650161 -0.1529944068802484 0 -0.25699454315764858 -0.13467693068922459 0 -0.26750903219084188 -0.15383957906099641 0 -0.25699454315764858 -0.13467693068922459 0 -0.26750903219084188 -0.15383957906099641 0 -0.25472584862650161 -0.1529944068802484 0 -0.25699454315764858 -0.13467693068922459 0 -0.24647275828660289 -0.1155009856584793 0 -0.25699454315764858 -0.13467693068922459 0 -0.26750903219084188 -0.15383957906099641 0 -0.25699454315764858 -0.13467693068922459 0 -0.27634096562765992 -0.13040423219522099 0 -0.29925291923666902 -0.1246244131920764 0 -0.27634096562765992 -0.13040423219522099 0 -0.30063926347199887 -0.14092037770299781 0 -0.27634096562765992 -0.13040423219522099 0 -0.29224869319365648 -0.15389561175021371 0 -0.30063926347199887 -0.14092037770299781 0 -0.27634096562765992 -0.13040423219522099 0 -0.29224869319365648 -0.15389561175021371 0 -0.29224869319365648 -0.15389561175021371 0 -0.30063926347199887 -0.14092037770299781 0 -0.31379589073315739 -0.15865185036801571 0 -0.30063926347199887 -0.14092037770299781 0 -0.31584729934774469 -0.1381865135919173 0 -0.31379589073315739 -0.15865185036801571 0 -0.29925291923666902 -0.1246244131920764 0 -0.31873283162121152 -0.1208367277688228 0 -0.31584729934774469 -0.1381865135919173 0 -0.29925291923666902 -0.1246244131920764 0 -0.30063926347199887 -0.14092037770299781 0 -0.31584729934774469 -0.1381865135919173 0 -0.31873283162121152 -0.1208367277688228 0 -0.31584729934774469 -0.1381865135919173 0 -0.33246737815035832 -0.13429539137489349 0 -0.31584729934774469 -0.1381865135919173 0 -0.329974922548394 -0.1532213598994405 0 -0.31379589073315739 -0.15865185036801571 0 -0.31584729934774469 -0.1381865135919173 0 -0.329974922548394 -0.1532213598994405 0 -0.33246737815035832 -0.13429539137489349 0 -0.329974922548394 -0.1532213598994405 0 -0.3432490959693536 -0.14545366704225421 0 -0.34754879238666131 -0.16227097809884261 0 -0.329974922548394 -0.1532213598994405 0 -0.3432490959693536 -0.14545366704225421 0 -0.33246737815035832 -0.13429539137489349 0 -0.3432490959693536 -0.14545366704225421 0 -0.33246737815035832 -0.13429539137489349 0 -0.35163372269432369 -0.13105892338566411 0 -0.33740061567083612 -0.1177027850679461 0 -0.33246737815035832 -0.13429539137489349 0 -0.35163372269432369 -0.13105892338566411 0 -0.35163372269432369 -0.13105892338566411 0 -0.36566942683204279 -0.13646162131170239 0 -0.35781589666806002 -0.14814119983077681 0 -0.36934545053448892 -0.12269324252622529 0 -0.35163372269432369 -0.13105892338566411 0 -0.36566942683204279 -0.13646162131170239 0 -0.36566942683204279 -0.13646162131170239 0 -0.372425656928835 -0.14821056050105141 0 -0.37778426515685259 -0.1345416127006489 0 -0.36934545053448892 -0.12269324252622529 0 -0.36566942683204279 -0.13646162131170239 0 -0.37778426515685259 -0.1345416127006489 0 -0.36566942683204279 -0.13646162131170239 0 -0.372425656928835 -0.14821056050105141 0 -0.35781589666806002 -0.14814119983077681 0 -0.372425656928835 -0.14821056050105141 0 -0.35781589666806002 -0.14814119983077681 0 -0.36690409589332612 -0.16058717657948171 0 -0.3432490959693536 -0.14545366704225421 0 -0.35781589666806002 -0.14814119983077681 0 -0.34754879238666131 -0.16227097809884261 0 -0.3432490959693536 -0.14545366704225421 0 -0.35163372269432369 -0.13105892338566411 0 -0.35781589666806002 -0.14814119983077681 0 -0.35781589666806002 -0.14814119983077681 0 -0.34754879238666131 -0.16227097809884261 0 -0.36690409589332612 -0.16058717657948171 0 -0.34754879238666131 -0.16227097809884261 0 -0.35935677008939848 -0.17108568314519421 0 -0.36690409589332612 -0.16058717657948171 0 -0.34754879238666131 -0.16227097809884261 0 -0.35935677008939848 -0.17108568314519421 0 -0.34647088155456968 -0.17466532184100519 0 -0.372425656928835 -0.14821056050105141 0 -0.36690409589332612 -0.16058717657948171 0 -0.38372862610470232 -0.16101761316031971 0 -0.35935677008939848 -0.17108568314519421 0 -0.36690409589332612 -0.16058717657948171 0 -0.37650868074740401 -0.172320067637459 0 -0.36690409589332612 -0.16058717657948171 0 -0.37650868074740401 -0.172320067637459 0 -0.36054105620489157 -0.18449443312043801 0 -0.38611326560148279 -0.18405295869543559 0 -0.35935677008939848 -0.17108568314519421 0 -0.36054105620489157 -0.18449443312043801 0 -0.37650868074740401 -0.172320067637459 0 -0.36054105620489157 -0.18449443312043801 0 -0.38611326560148279 -0.18405295869543559 0 -0.37650868074740401 -0.172320067637459 0 -0.36054105620489157 -0.18449443312043801 0 -0.34647088155456968 -0.17466532184100519 0 -0.33496884680830052 -0.18493590754544109 0 -0.36054105620489157 -0.18449443312043801 0 -0.33496884680830052 -0.18493590754544109 0 -0.35935677008939848 -0.17108568314519421 0 -0.36054105620489157 -0.18449443312043801 0 -0.34647088155456968 -0.17466532184100519 0 -0.34647088155456968 -0.17466532184100519 0 -0.33496884680830052 -0.18493590754544109 0 -0.33018678735440088 -0.17031243261828849 0 -0.33496884680830052 -0.18493590754544109 0 -0.33018678735440088 -0.17031243261828849 0 -0.32211235129756888 -0.1871217402531441 0 -0.34754879238666131 -0.16227097809884261 0 -0.34647088155456968 -0.17466532184100519 0 -0.33018678735440088 -0.17031243261828849 0 -0.329974922548394 -0.1532213598994405 0 -0.34754879238666131 -0.16227097809884261 0 -0.33018678735440088 -0.17031243261828849 0 -0.329974922548394 -0.1532213598994405 0 -0.33018678735440088 -0.17031243261828849 0 -0.31379589073315739 -0.15865185036801571 0 -0.33018678735440088 -0.17031243261828849 0 -0.31379589073315739 -0.15865185036801571 0 -0.31931547976710861 -0.17481311622969881 0 -0.30815642075965333 -0.17738699130520649 0 -0.31379589073315739 -0.15865185036801571 0 -0.31931547976710861 -0.17481311622969881 0 -0.33018678735440088 -0.17031243261828849 0 -0.32211235129756888 -0.1871217402531441 0 -0.33018678735440088 -0.17031243261828849 0 -0.31931547976710861 -0.17481311622969881 0 -0.32211235129756888 -0.1871217402531441 0 -0.31008435138258689 -0.18922660427668339 0 -0.30815642075965333 -0.17738699130520649 0 -0.32211235129756888 -0.1871217402531441 0 -0.30815642075965333 -0.17738699130520649 0 -0.31931547976710861 -0.17481311622969881 0 -0.32211235129756888 -0.1871217402531441 0 -0.31008435138258689 -0.18922660427668339 0 -0.32211235129756888 -0.1871217402531441 0 -0.31403791524073699 -0.20393104788799979 0 -0.32211235129756888 -0.1871217402531441 0 -0.31403791524073699 -0.20393104788799979 0 -0.33135293174909108 -0.2005297302118525 0 -0.32211235129756888 -0.1871217402531441 0 -0.31403791524073699 -0.20393104788799979 0 -0.31403791524073699 -0.20393104788799979 0 -0.33135293174909108 -0.2005297302118525 0 -0.33650186935028031 -0.22322287889996789 0 -0.31403791524073699 -0.20393104788799979 0 -0.33650186935028031 -0.22322287889996789 0 -0.31403791524073699 -0.20393104788799979 0 -0.33650186935028031 -0.22322287889996789 0 -0.3176010825851816 -0.22376327521723549 0 -0.33135293174909108 -0.2005297302118525 0 -0.34914367604856872 -0.20343707647270989 0 -0.33650186935028031 -0.22322287889996789 0 -0.33496884680830052 -0.18493590754544109 0 -0.33135293174909108 -0.2005297302118525 0 -0.34914367604856872 -0.20343707647270989 0 -0.33496884680830052 -0.18493590754544109 0 -0.32211235129756888 -0.1871217402531441 0 -0.33135293174909108 -0.2005297302118525 0 -0.36054105620489157 -0.18449443312043801 0 -0.33496884680830052 -0.18493590754544109 0 -0.34914367604856872 -0.20343707647270989 0 -0.36054105620489157 -0.18449443312043801 0 -0.36410400238312429 -0.20082944353361179 0 -0.34914367604856872 -0.20343707647270989 0 -0.36054105620489157 -0.18449443312043801 0 -0.36410400238312429 -0.20082944353361179 0 -0.37891554452225801 -0.20123528172499369 0 -0.36410400238312429 -0.20082944353361179 0 -0.36781573275677898 -0.21415098281630579 0 -0.34914367604856872 -0.20343707647270989 0 -0.36410400238312429 -0.20082944353361179 0 -0.36781573275677898 -0.21415098281630579 0 -0.37891554452225801 -0.20123528172499369 0 -0.36781573275677898 -0.21415098281630579 0 -0.34914367604856872 -0.20343707647270989 0 -0.35590585522076862 -0.22248744233420639 0 -0.34914367604856872 -0.20343707647270989 0 -0.35590585522076862 -0.22248744233420639 0 -0.33650186935028031 -0.22322287889996789 0 -0.35590585522076862 -0.22248744233420639 0 -0.35896582345982209 -0.2425147099119376 0 -0.33650186935028031 -0.22322287889996789 0 -0.35896582345982209 -0.2425147099119376 0 -0.33650186935028031 -0.22322287889996789 0 -0.35590585522076862 -0.22248744233420639 0 -0.36710217448839239 -0.22911156357010989 0 -0.35896582345982209 -0.2425147099119376 0 -0.36781573275677898 -0.21415098281630579 0 -0.35590585522076862 -0.22248744233420639 0 -0.36710217448839239 -0.22911156357010989 0 -0.36710217448839239 -0.22911156357010989 0 -0.37906845409498707 -0.23924333006452611 0 -0.37878852739175428 -0.22725583262585161 0 -0.36781573275677898 -0.21415098281630579 0 -0.36710217448839239 -0.22911156357010989 0 -0.37878852739175428 -0.22725583262585161 0 -0.36710217448839239 -0.22911156357010989 0 -0.35896582345982209 -0.2425147099119376 0 -0.37906845409498707 -0.23924333006452611 0 -0.35896582345982209 -0.2425147099119376 0 -0.37906845409498707 -0.23924333006452611 0 -0.36544664870162918 -0.25089776050286028 0 -0.35896582345982209 -0.2425147099119376 0 -0.37593814780524382 -0.24906438692495261 0 -0.35896582345982209 -0.2425147099119376 0 -0.37906845409498707 -0.23924333006452611 0 -0.37593814780524382 -0.24906438692495261 0 -0.35512980953024442 -0.25517221854064309 0 -0.36544664870162918 -0.25089776050286028 0 -0.35896582345982209 -0.2425147099119376 0 -0.35896582345982209 -0.2425147099119376 0 -0.33601807461979832 -0.24624908699229031 0 -0.35512980953024442 -0.25517221854064309 0 -0.35896582345982209 -0.2425147099119376 0 -0.33601807461979832 -0.24624908699229031 0 -0.35896582345982209 -0.2425147099119376 0 -0.33601807461979832 -0.24624908699229031 0 -0.33650186935028031 -0.22322287889996789 0 -0.33601807461979832 -0.24624908699229031 0 -0.33650186935028031 -0.22322287889996789 0 -0.32226378225948221 -0.23784840921822731 0 -0.33650186935028031 -0.22322287889996789 0 -0.3176010825851816 -0.22376327521723549 0 -0.32226378225948221 -0.23784840921822731 0 -0.31005347595579869 -0.23137679589255011 0 -0.3176010825851816 -0.22376327521723549 0 -0.32226378225948221 -0.23784840921822731 0 -0.30741913761739542 -0.24135182974430219 0 -0.31005347595579869 -0.23137679589255011 0 -0.32226378225948221 -0.23784840921822731 0 -0.33601807461979832 -0.24624908699229031 0 -0.31307032577977428 -0.24998346407264199 0 -0.33601807461979832 -0.24624908699229031 0 -0.31307032577977428 -0.24998346407264199 0 -0.32226378225948221 -0.23784840921822731 0 -0.30741913761739542 -0.24135182974430219 0 -0.31307032577977428 -0.24998346407264199 0 -0.32226378225948221 -0.23784840921822731 0 -0.42738578090188423 -0.2471013743623203 0 -0.42615562067838592 -0.2329684086560542 0 -0.42738578090188423 -0.2471013743623203 0 -0.42615562067838592 -0.2329684086560542 0 -0.4163545960561667 -0.23868510718665559 0 -0.42738578090188423 -0.2471013743623203 0 -0.42615562067838592 -0.2329684086560542 0 -0.4398431158948789 -0.23838088199954419 0 -0.4254999431263693 -0.22565373701392699 0 -0.42615562067838592 -0.2329684086560542 0 -0.43864816385524469 -0.22971653053878691 0 -0.42615562067838592 -0.2329684086560542 0 -0.43864816385524469 -0.22971653053878691 0 -0.4398431158948789 -0.23838088199954419 0 -0.4254999431263693 -0.22565373701392699 0 -0.43438054901099099 -0.2165198405854131 0 -0.45002048434163833 -0.21764146278110261 0 -0.4254999431263693 -0.22565373701392699 0 -0.42231487008617957 -0.22170923388633801 0 -0.421732983054044 -0.2175178507340835 0 -0.4254999431263693 -0.22565373701392699 0 -0.42349682324279481 -0.22630827174411411 0 -0.42231487008617957 -0.22170923388633801 0 -0.4254999431263693 -0.22565373701392699 0 -0.42349682324279481 -0.22630827174411411 0 -0.4254999431263693 -0.22565373701392699 0 -0.42615562067838592 -0.2329684086560542 0 -0.4254999431263693 -0.22565373701392699 0 -0.42349682324279481 -0.22630827174411411 0 -0.42615562067838592 -0.2329684086560542 0 -0.42349682324279481 -0.22630827174411411 0 -0.42615562067838592 -0.2329684086560542 0 -0.41280816898608458 -0.2166632586691816 0 -0.42615562067838592 -0.2329684086560542 0 -0.41396019342688151 -0.23103140709673359 0 -0.41280816898608458 -0.2166632586691816 0 -0.42615562067838592 -0.2329684086560542 0 -0.41280816898608458 -0.2166632586691816 0 -0.42615562067838592 -0.2329684086560542 0 -0.41396019342688151 -0.23103140709673359 0 -0.4163545960561667 -0.23868510718665559 0 -0.42349682324279481 -0.22630827174411411 0 -0.42231487008617957 -0.22170923388633801 0 -0.41280816898608458 -0.2166632586691816 0 -0.41396019342688151 -0.23103140709673359 0 -0.40550356321984282 -0.22919794663661419 0 -0.41280816898608458 -0.2166632586691816 0 -0.41396019342688151 -0.23103140709673359 0 -0.40769185761545679 -0.2382089829792971 0 -0.40550356321984282 -0.22919794663661419 0 -0.40769185761545679 -0.2382089829792971 0 -0.4163545960561667 -0.23868510718665559 0 -0.40400520650128319 -0.24524870012714309 0 -0.42738578090188423 -0.2471013743623203 0 -0.40400520650128319 -0.24524870012714309 0 -0.41396019342688151 -0.23103140709673359 0 -0.40769185761545679 -0.2382089829792971 0 -0.4163545960561667 -0.23868510718665559 0 -0.42738578090188423 -0.2471013743623203 0 -0.4163545960561667 -0.23868510718665559 0 -0.40400520650128319 -0.24524870012714309 0 -0.41445630236852021 -0.25450895139220697 0 -0.42738578090188423 -0.2471013743623203 0 -0.40400520650128319 -0.24524870012714309 0 -0.39137551007448068 -0.25903785317996503 0 -0.40769185761545679 -0.2382089829792971 0 -0.39046599198810128 -0.24588017847354851 0 -0.39137551007448068 -0.25903785317996503 0 -0.40769185761545679 -0.2382089829792971 0 -0.40769185761545679 -0.2382089829792971 0 -0.39917108473015189 -0.2359719502171137 0 -0.39046599198810128 -0.24588017847354851 0 -0.39137551007448068 -0.25903785317996503 0 -0.40769185761545679 -0.2382089829792971 0 -0.40400520650128319 -0.24524870012714309 0 -0.40769185761545679 -0.2382089829792971 0 -0.39917108473015189 -0.2359719502171137 0 -0.40550356321984282 -0.22919794663661419 0 -0.39917108473015189 -0.2359719502171137 0 -0.39046599198810128 -0.24588017847354851 0 -0.37906845409498707 -0.23924333006452611 0 -0.39917108473015189 -0.2359719502171137 0 -0.37906845409498707 -0.23924333006452611 0 -0.38838571014666168 -0.2283502637229978 0 -0.39917108473015189 -0.2359719502171137 0 -0.37906845409498707 -0.23924333006452611 0 -0.39046599198810128 -0.24588017847354851 0 -0.37906845409498707 -0.23924333006452611 0 -0.37593814780524382 -0.24906438692495261 0 -0.36781573275677898 -0.21415098281630579 0 -0.37878852739175428 -0.22725583262585161 0 -0.38514042697652062 -0.21736233811134881 0 -0.37906845409498707 -0.23924333006452611 0 -0.37878852739175428 -0.22725583262585161 0 -0.38838571014666168 -0.2283502637229978 0 -0.37878852739175428 -0.22725583262585161 0 -0.38838571014666168 -0.2283502637229978 0 -0.38514042697652062 -0.21736233811134881 0 -0.38838571014666168 -0.2283502637229978 0 -0.3997600575398948 -0.2219178675961487 0 -0.38514042697652062 -0.21736233811134881 0 -0.39917108473015189 -0.2359719502171137 0 -0.38838571014666168 -0.2283502637229978 0 -0.3997600575398948 -0.2219178675961487 0 -0.39917108473015189 -0.2359719502171137 0 -0.40550356321984282 -0.22919794663661419 0 -0.3997600575398948 -0.2219178675961487 0 -0.40550356321984282 -0.22919794663661419 0 -0.3997600575398948 -0.2219178675961487 0 -0.41280816898608458 -0.2166632586691816 0 -0.39521698306370823 -0.21150737095679639 0 -0.3994607172937833 -0.20035810868230899 0 -0.41280816898608458 -0.2166632586691816 0 -0.3994607172937833 -0.20035810868230899 0 -0.41280816898608458 -0.2166632586691816 0 -0.3997600575398948 -0.2219178675961487 0 -0.39521698306370823 -0.21150737095679639 0 -0.41280816898608458 -0.2166632586691816 0 -0.39521698306370823 -0.21150737095679639 0 -0.37891554452225801 -0.20123528172499369 0 -0.3994607172937833 -0.20035810868230899 0 -0.3997600575398948 -0.2219178675961487 0 -0.39521698306370823 -0.21150737095679639 0 -0.38514042697652062 -0.21736233811134881 0 -0.36781573275677898 -0.21415098281630579 0 -0.38514042697652062 -0.21736233811134881 0 -0.37891554452225801 -0.20123528172499369 0 -0.39521698306370823 -0.21150737095679639 0 -0.38514042697652062 -0.21736233811134881 0 -0.37891554452225801 -0.20123528172499369 0 -0.36054105620489157 -0.18449443312043801 0 -0.37891554452225801 -0.20123528172499369 0 -0.38611326560148279 -0.18405295869543559 0 -0.37891554452225801 -0.20123528172499369 0 -0.3994607172937833 -0.20035810868230899 0 -0.38611326560148279 -0.18405295869543559 0 -0.3994607172937833 -0.20035810868230899 0 -0.38611326560148279 -0.18405295869543559 0 -0.3994607172937833 -0.20035810868230899 0 -0.41169591626315061 -0.19556038493227651 0 -0.40153878165055829 -0.1837866551186681 0 -0.3994607172937833 -0.20035810868230899 0 -0.40153878165055829 -0.1837866551186681 0 -0.38611326560148279 -0.18405295869543559 0 -0.41434564507596638 -0.1895435673939917 0 -0.41169591626315061 -0.19556038493227651 0 -0.40153878165055829 -0.1837866551186681 0 -0.41799802209630982 -0.19124661537404519 0 -0.42338251169711771 -0.201572184510142 0 -0.42126508026786591 -0.1774906320063569 0 -0.41434564507596638 -0.1895435673939917 0 -0.41799802209630982 -0.19124661537404519 0 -0.41696429769963378 -0.18352035154190119 0 -0.41434564507596638 -0.1895435673939917 0 -0.41799802209630982 -0.19124661537404519 0 -0.41169591626315061 -0.19556038493227651 0 -0.41799802209630982 -0.19124661537404519 0 -0.41728216225244619 -0.19921267550585589 0 -0.42338251169711771 -0.201572184510142 0 -0.41728216225244619 -0.19921267550585589 0 -0.41169591626315061 -0.19556038493227651 0 -0.41364531680833722 -0.20399455785598111 0 -0.41799802209630982 -0.19124661537404519 0 -0.41728216225244619 -0.19921267550585589 0 -0.41169591626315061 -0.19556038493227651 0 -0.41728216225244619 -0.19921267550585589 0 -0.41825037401595461 -0.20326000556056789 0 -0.42338251169711771 -0.201572184510142 0 -0.41728216225244619 -0.19921267550585589 0 -0.41364531680833722 -0.20399455785598111 0 -0.41825037401595461 -0.20326000556056789 0 -0.3994607172937833 -0.20035810868230899 0 -0.41169591626315061 -0.19556038493227651 0 -0.41364531680833722 -0.20399455785598111 0 -0.421732983054044 -0.2175178507340835 0 -0.41869150530591698 -0.20826060437029259 0 -0.42338251169711771 -0.201572184510142 0 -0.3994607172937833 -0.20035810868230899 0 -0.41364531680833722 -0.20399455785598111 0 -0.41280816898608458 -0.2166632586691816 0 -0.42231487008617957 -0.22170923388633801 0 -0.41280816898608458 -0.2166632586691816 0 -0.421732983054044 -0.2175178507340835 0 -0.41280816898608458 -0.2166632586691816 0 -0.421732983054044 -0.2175178507340835 0 -0.41869150530591698 -0.20826060437029259 0 -0.41364531680833722 -0.20399455785598111 0 -0.41280816898608458 -0.2166632586691816 0 -0.41869150530591698 -0.20826060437029259 0 -0.41364531680833722 -0.20399455785598111 0 -0.41869150530591698 -0.20826060437029259 0 -0.41825037401595461 -0.20326000556056789 0 -0.41869150530591698 -0.20826060437029259 0 -0.41825037401595461 -0.20326000556056789 0 -0.42338251169711771 -0.201572184510142 0 -0.4254999431263693 -0.22565373701392699 0 -0.42338251169711771 -0.201572184510142 0 -0.4254999431263693 -0.22565373701392699 0 -0.4275231824979796 -0.21207706281619829 0 -0.42338251169711771 -0.201572184510142 0 -0.42594707262822312 -0.2037190372816077 0 -0.4275231824979796 -0.21207706281619829 0 -0.42338251169711771 -0.201572184510142 0 -0.4254999431263693 -0.22565373701392699 0 -0.421732983054044 -0.2175178507340835 0 -0.42338251169711771 -0.201572184510142 0 -0.42594707262822312 -0.2037190372816077 0 -0.42967908496355472 -0.20693024494324069 0 -0.4275231824979796 -0.21207706281619829 0 -0.42594707262822312 -0.2037190372816077 0 -0.42967908496355472 -0.20693024494324069 0 -0.43010538086186212 -0.20348334487333641 0 -0.4254999431263693 -0.22565373701392699 0 -0.4275231824979796 -0.21207706281619829 0 -0.43438054901099099 -0.2165198405854131 0 -0.4275231824979796 -0.21207706281619829 0 -0.43438054901099099 -0.2165198405854131 0 -0.43447858607797668 -0.21070709973042451 0 -0.43291754987716319 -0.20480568511884351 0 -0.43447858607797668 -0.21070709973042451 0 -0.44164688277875569 -0.20321801087209221 0 -0.42967908496355472 -0.20693024494324069 0 -0.43291754987716319 -0.20480568511884351 0 -0.43010538086186212 -0.20348334487333641 0 -0.42967908496355472 -0.20693024494324069 0 -0.4275231824979796 -0.21207706281619829 0 -0.43447858607797668 -0.21070709973042451 0 -0.42967908496355472 -0.20693024494324069 0 -0.43291754987716319 -0.20480568511884351 0 -0.43447858607797668 -0.21070709973042451 0 -0.43291754987716319 -0.20480568511884351 0 -0.43187781597850777 -0.1984784121496537 0 -0.44164688277875569 -0.20321801087209221 0 -0.43187781597850777 -0.1984784121496537 0 -0.43875020123721442 -0.19381375428687009 0 -0.44164688277875569 -0.20321801087209221 0 -0.42594707262822312 -0.2037190372816077 0 -0.43108978985656499 -0.19060333225852019 0 -0.42932103501958307 -0.17662689619384481 0 -0.42338251169711771 -0.201572184510142 0 -0.42126508026786591 -0.1774906320063569 0 -0.42594707262822312 -0.2037190372816077 0 -0.42338251169711771 -0.201572184510142 0 -0.42932103501958307 -0.17662689619384481 0 -0.42594707262822312 -0.2037190372816077 0 -0.42932103501958307 -0.17662689619384481 0 -0.43291754987716319 -0.20480568511884351 0 -0.43010538086186212 -0.20348334487333641 0 -0.43187781597850777 -0.1984784121496537 0 -0.43187781597850777 -0.1984784121496537 0 -0.43108978985656499 -0.19060333225852019 0 -0.43875020123721442 -0.19381375428687009 0 -0.43108978985656499 -0.19060333225852019 0 -0.43666055591927933 -0.1871285491723923 0 -0.43875020123721442 -0.19381375428687009 0 -0.42594707262822312 -0.2037190372816077 0 -0.43187781597850777 -0.1984784121496537 0 -0.43108978985656499 -0.19060333225852019 0 -0.42594707262822312 -0.2037190372816077 0 -0.43010538086186212 -0.20348334487333641 0 -0.43187781597850777 -0.1984784121496537 0 -0.42338251169711771 -0.201572184510142 0 -0.42932103501958307 -0.17662689619384481 0 -0.42126508026786591 -0.1774906320063569 0 -0.42932103501958307 -0.17662689619384481 0 -0.42214396364758572 -0.16243688348893939 0 -0.42126508026786591 -0.1774906320063569 0 -0.43108978985656499 -0.19060333225852019 0 -0.42932103501958307 -0.17662689619384481 0 -0.43367851806957031 -0.18380996460829299 0 -0.42932103501958307 -0.17662689619384481 0 -0.43367851806957031 -0.18380996460829299 0 -0.43764269148285401 -0.18088108080841489 0 -0.43108978985656499 -0.19060333225852019 0 -0.43367851806957031 -0.18380996460829299 0 -0.43666055591927933 -0.1871285491723923 0 -0.43367851806957031 -0.18380996460829299 0 -0.43666055591927933 -0.1871285491723923 0 -0.43764269148285401 -0.18088108080841489 0 -0.42932103501958307 -0.17662689619384481 0 -0.43749540269626802 -0.1728636228311046 0 -0.43764269148285401 -0.18088108080841489 0 -0.42932103501958307 -0.17662689619384481 0 -0.43269499741094319 -0.1495347551060818 0 -0.42932103501958307 -0.17662689619384481 0 -0.43749540269626802 -0.1728636228311046 0 -0.43269499741094319 -0.1495347551060818 0 -0.42932103501958307 -0.17662689619384481 0 -0.42214396364758572 -0.16243688348893939 0 -0.43269499741094319 -0.1495347551060818 0 -0.42214396364758572 -0.16243688348893939 0 -0.40907354959746728 -0.17334350737615931 0 -0.40077035361639768 -0.15756462440267929 0 -0.42214396364758572 -0.16243688348893939 0 -0.40907354959746728 -0.17334350737615931 0 -0.42126508026786591 -0.1774906320063569 0 -0.40907354959746728 -0.17334350737615931 0 -0.42126508026786591 -0.1774906320063569 0 -0.41696429769963378 -0.18352035154190119 0 -0.41799802209630982 -0.19124661537404519 0 -0.42126508026786591 -0.1774906320063569 0 -0.41696429769963378 -0.18352035154190119 0 -0.41434564507596638 -0.1895435673939917 0 -0.41696429769963378 -0.18352035154190119 0 -0.40153878165055829 -0.1837866551186681 0 -0.41696429769963378 -0.18352035154190119 0 -0.40153878165055829 -0.1837866551186681 0 -0.40907354959746728 -0.17334350737615931 0 -0.41696429769963378 -0.18352035154190119 0 -0.40153878165055829 -0.1837866551186681 0 -0.40907354959746728 -0.17334350737615931 0 -0.40153878165055829 -0.1837866551186681 0 -0.39295554288633538 -0.17201423773178681 0 -0.40153878165055829 -0.1837866551186681 0 -0.39295554288633538 -0.17201423773178681 0 -0.38611326560148279 -0.18405295869543559 0 -0.40153878165055829 -0.1837866551186681 0 -0.38611326560148279 -0.18405295869543559 0 -0.39295554288633538 -0.17201423773178681 0 -0.38611326560148279 -0.18405295869543559 0 -0.37650868074740401 -0.172320067637459 0 -0.38611326560148279 -0.18405295869543559 0 -0.37650868074740401 -0.172320067637459 0 -0.36690409589332612 -0.16058717657948171 0 -0.37650868074740401 -0.172320067637459 0 -0.38372862610470232 -0.16101761316031971 0 -0.39295554288633538 -0.17201423773178681 0 -0.37650868074740401 -0.172320067637459 0 -0.38372862610470232 -0.16101761316031971 0 -0.39295554288633538 -0.17201423773178681 0 -0.38372862610470232 -0.16101761316031971 0 -0.40077035361639768 -0.15756462440267929 0 -0.40907354959746728 -0.17334350737615931 0 -0.39295554288633538 -0.17201423773178681 0 -0.40077035361639768 -0.15756462440267929 0 -0.40077035361639768 -0.15756462440267929 0 -0.39873538839899558 -0.1426826936493793 0 -0.38498936513207149 -0.14730724919047161 0 -0.40077035361639768 -0.15756462440267929 0 -0.39873538839899558 -0.1426826936493793 0 -0.41335205781746531 -0.14477127982465071 0 -0.39873538839899558 -0.1426826936493793 0 -0.38498936513207149 -0.14730724919047161 0 -0.39099772875298688 -0.1320519334122976 0 -0.38372862610470232 -0.16101761316031971 0 -0.40077035361639768 -0.15756462440267929 0 -0.38498936513207149 -0.14730724919047161 0 -0.372425656928835 -0.14821056050105141 0 -0.38498936513207149 -0.14730724919047161 0 -0.37778426515685259 -0.1345416127006489 0 -0.372425656928835 -0.14821056050105141 0 -0.38372862610470232 -0.16101761316031971 0 -0.38498936513207149 -0.14730724919047161 0 -0.36934545053448892 -0.12269324252622529 0 -0.37778426515685259 -0.1345416127006489 0 -0.38327796276069132 -0.1205250692621456 0 -0.38498936513207149 -0.14730724919047161 0 -0.37778426515685259 -0.1345416127006489 0 -0.39099772875298688 -0.1320519334122976 0 -0.37778426515685259 -0.1345416127006489 0 -0.39099772875298688 -0.1320519334122976 0 -0.38327796276069132 -0.1205250692621456 0 -0.39099772875298688 -0.1320519334122976 0 -0.40547710411380328 -0.12906896117146011 0 -0.39573994725161898 -0.11968271981117359 0 -0.39873538839899558 -0.1426826936493793 0 -0.40547710411380328 -0.12906896117146011 0 -0.41335205781746531 -0.14477127982465071 0 -0.39873538839899558 -0.1426826936493793 0 -0.39099772875298688 -0.1320519334122976 0 -0.40547710411380328 -0.12906896117146011 0 -0.40547710411380328 -0.12906896117146011 0 -0.42029053971706692 -0.12733976112936449 0 -0.41335205781746531 -0.14477127982465071 0 -0.42214396364758572 -0.16243688348893939 0 -0.40077035361639768 -0.15756462440267929 0 -0.41335205781746531 -0.14477127982465071 0 -0.42214396364758572 -0.16243688348893939 0 -0.41335205781746531 -0.14477127982465071 0 -0.43269499741094319 -0.1495347551060818 0 -0.42029053971706692 -0.12733976112936449 0 -0.43269499741094319 -0.1495347551060818 0 -0.43606895980230331 -0.12244261401831889 0 -0.43269499741094319 -0.1495347551060818 0 -0.43606895980230331 -0.12244261401831889 0 -0.42029053971706692 -0.12733976112936449 0 -0.41335205781746531 -0.14477127982465071 0 -0.43269499741094319 -0.1495347551060818 0 -0.43269499741094319 -0.1495347551060818 0 -0.44633792145404111 -0.12921535976369261 0 -0.43606895980230331 -0.12244261401831889 0 -0.43269499741094319 -0.1495347551060818 0 -0.44633792145404111 -0.12921535976369261 0 -0.45442493417220481 -0.13848476555007461 0 -0.44633792145404111 -0.12921535976369261 0 -0.45442493417220481 -0.13848476555007461 0 -0.45559874169552139 -0.12299243307248441 0 -0.43269499741094319 -0.1495347551060818 0 -0.45262517949974829 -0.15532950782080671 0 -0.45442493417220481 -0.13848476555007461 0 -0.45262517949974829 -0.15532950782080671 0 -0.45442493417220481 -0.13848476555007461 0 -0.46936143214535009 -0.1458294084984072 0 -0.45262517949974829 -0.15532950782080671 0 -0.46936143214535009 -0.1458294084984072 0 -0.46310937657377471 -0.1628127039378249 0 -0.45442493417220481 -0.13848476555007461 0 -0.46831028098091559 -0.12260133437959959 0 -0.45559874169552139 -0.12299243307248441 0 -0.45442493417220481 -0.13848476555007461 0 -0.46936143214535009 -0.1458294084984072 0 -0.46831028098091559 -0.12260133437959959 0 -0.47992000713000982 -0.13042377581359299 0 -0.46936143214535009 -0.1458294084984072 0 -0.46831028098091559 -0.12260133437959959 0 -0.47992000713000982 -0.13042377581359299 0 -0.5 -0.14127912680553609 0 -0.5 -0.11171639770045071 0 -0.5 -0.14127912680553609 0 -0.48661333808667268 -0.15375071221429781 0 -0.5 -0.17084185591062151 0 -0.47992000713000982 -0.13042377581359299 0 -0.5 -0.14127912680553609 0 -0.48661333808667268 -0.15375071221429781 0 -0.47992000713000982 -0.13042377581359299 0 -0.48661333808667268 -0.15375071221429781 0 -0.46936143214535009 -0.1458294084984072 0 -0.48661333808667268 -0.15375071221429781 0 -0.46936143214535009 -0.1458294084984072 0 -0.47481623738920681 -0.16063866494303439 0 -0.47992000713000982 -0.13042377581359299 0 -0.48661333808667268 -0.15375071221429781 0 -0.46936143214535009 -0.1458294084984072 0 -0.47481623738920681 -0.16063866494303439 0 -0.46310937657377471 -0.1628127039378249 0 -0.48661333808667268 -0.15375071221429781 0 -0.47481623738920681 -0.16063866494303439 0 -0.48117960710268132 -0.17097868385635639 0 -0.47481623738920681 -0.16063866494303439 0 -0.4707119117524548 -0.17156840603550241 0 -0.48117960710268132 -0.17097868385635639 0 -0.47481623738920681 -0.16063866494303439 0 -0.4707119117524548 -0.17156840603550241 0 -0.46310937657377471 -0.1628127039378249 0 -0.48661333808667268 -0.15375071221429781 0 -0.49330666904333559 -0.1770776486150025 0 -0.48661333808667268 -0.15375071221429781 0 -0.48117960710268132 -0.17097868385635639 0 -0.49330666904333559 -0.1770776486150025 0 -0.48661333808667268 -0.15375071221429781 0 -0.5 -0.17084185591062151 0 -0.49330666904333559 -0.1770776486150025 0 -0.49330666904333559 -0.1770776486150025 0 -0.48373406965546589 -0.1821698986904306 0 -0.48805073208669181 -0.19350027482844179 0 -0.5 -0.17084185591062151 0 -0.49330666904333559 -0.1770776486150025 0 -0.49999999999999922 -0.2004045850157069 0 -0.48117960710268132 -0.17097868385635639 0 -0.49330666904333559 -0.1770776486150025 0 -0.48373406965546589 -0.1821698986904306 0 -0.48373406965546589 -0.1821698986904306 0 -0.47665150471271261 -0.17908878278159901 0 -0.47584028765262021 -0.19000272420079581 0 -0.48117960710268132 -0.17097868385635639 0 -0.48373406965546589 -0.1821698986904306 0 -0.47665150471271261 -0.17908878278159901 0 -0.4707119117524548 -0.17156840603550241 0 -0.47665150471271261 -0.17908878278159901 0 -0.46719238003217428 -0.18218075689936161 0 -0.4707119117524548 -0.17156840603550241 0 -0.48117960710268132 -0.17097868385635639 0 -0.47665150471271261 -0.17908878278159901 0 -0.47665150471271261 -0.17908878278159901 0 -0.46719238003217428 -0.18218075689936161 0 -0.47584028765262021 -0.19000272420079581 0 -0.46719238003217428 -0.18218075689936161 0 -0.4549632778267137 -0.18368576445548249 0 -0.46132236470417948 -0.17371084379483859 0 -0.46719238003217428 -0.18218075689936161 0 -0.4549632778267137 -0.18368576445548249 0 -0.46424179540776972 -0.1935507198546578 0 -0.4549632778267137 -0.18368576445548249 0 -0.46132236470417948 -0.17371084379483859 0 -0.45328249533108389 -0.16990175690035819 0 -0.4707119117524548 -0.17156840603550241 0 -0.46719238003217428 -0.18218075689936161 0 -0.46132236470417948 -0.17371084379483859 0 -0.4707119117524548 -0.17156840603550241 0 -0.46132236470417948 -0.17371084379483859 0 -0.46310937657377471 -0.1628127039378249 0 -0.45262517949974829 -0.15532950782080671 0 -0.46310937657377471 -0.1628127039378249 0 -0.45328249533108389 -0.16990175690035819 0 -0.46132236470417948 -0.17371084379483859 0 -0.46310937657377471 -0.1628127039378249 0 -0.45328249533108389 -0.16990175690035819 0 -0.45328249533108389 -0.16990175690035819 0 -0.44431133896859709 -0.16482845606468949 0 -0.44545861990494179 -0.17651263766509601 0 -0.43749540269626802 -0.1728636228311046 0 -0.43269499741094319 -0.1495347551060818 0 -0.44431133896859709 -0.16482845606468949 0 -0.43269499741094319 -0.1495347551060818 0 -0.45262517949974829 -0.15532950782080671 0 -0.44431133896859709 -0.16482845606468949 0 -0.45262517949974829 -0.15532950782080671 0 -0.45328249533108389 -0.16990175690035819 0 -0.44431133896859709 -0.16482845606468949 0 -0.43749540269626802 -0.1728636228311046 0 -0.44431133896859709 -0.16482845606468949 0 -0.44545861990494179 -0.17651263766509601 0 -0.43749540269626802 -0.1728636228311046 0 -0.43764269148285401 -0.18088108080841489 0 -0.44545861990494179 -0.17651263766509601 0 -0.43764269148285401 -0.18088108080841489 0 -0.44393353350757681 -0.18559900785564751 0 -0.44545861990494179 -0.17651263766509601 0 -0.43666055591927933 -0.1871285491723923 0 -0.43764269148285401 -0.18088108080841489 0 -0.44393353350757681 -0.18559900785564751 0 -0.4549632778267137 -0.18368576445548249 0 -0.44393353350757681 -0.18559900785564751 0 -0.44545861990494179 -0.17651263766509601 0 -0.4549632778267137 -0.18368576445548249 0 -0.44393353350757681 -0.18559900785564751 0 -0.44696404305502357 -0.19258025734203521 0 -0.4549632778267137 -0.18368576445548249 0 -0.45328249533108389 -0.16990175690035819 0 -0.44545861990494179 -0.17651263766509601 0 -0.44696404305502357 -0.19258025734203521 0 -0.45639122235853519 -0.20314885747195049 0 -0.4557345239137604 -0.1926586423713566 0 -0.44696404305502357 -0.19258025734203521 0 -0.44164688277875569 -0.20321801087209221 0 -0.45639122235853519 -0.20314885747195049 0 -0.4549632778267137 -0.18368576445548249 0 -0.44696404305502357 -0.19258025734203521 0 -0.4557345239137604 -0.1926586423713566 0 -0.44393353350757681 -0.18559900785564751 0 -0.44696404305502357 -0.19258025734203521 0 -0.43875020123721442 -0.19381375428687009 0 -0.43666055591927933 -0.1871285491723923 0 -0.44393353350757681 -0.18559900785564751 0 -0.43875020123721442 -0.19381375428687009 0 -0.44696404305502357 -0.19258025734203521 0 -0.43875020123721442 -0.19381375428687009 0 -0.44164688277875569 -0.20321801087209221 0 -0.43447858607797668 -0.21070709973042451 0 -0.44164688277875569 -0.20321801087209221 0 -0.45002048434163833 -0.21764146278110261 0 -0.43438054901099099 -0.2165198405854131 0 -0.43447858607797668 -0.21070709973042451 0 -0.45002048434163833 -0.21764146278110261 0 -0.44164688277875569 -0.20321801087209221 0 -0.45002048434163833 -0.21764146278110261 0 -0.45639122235853519 -0.20314885747195049 0 -0.45002048434163833 -0.21764146278110261 0 -0.47454102555690791 -0.20962918854827969 0 -0.45002048434163833 -0.21764146278110261 0 -0.45639122235853519 -0.20314885747195049 0 -0.47454102555690791 -0.20962918854827969 0 -0.45639122235853519 -0.20314885747195049 0 -0.46424179540776972 -0.1935507198546578 0 -0.47454102555690791 -0.20962918854827969 0 -0.45639122235853519 -0.20314885747195049 0 -0.4557345239137604 -0.1926586423713566 0 -0.46424179540776972 -0.1935507198546578 0 -0.4549632778267137 -0.18368576445548249 0 -0.4557345239137604 -0.1926586423713566 0 -0.46424179540776972 -0.1935507198546578 0 -0.47584028765262021 -0.19000272420079581 0 -0.48805073208669181 -0.19350027482844179 0 -0.47454102555690791 -0.20962918854827969 0 -0.46719238003217428 -0.18218075689936161 0 -0.46424179540776972 -0.1935507198546578 0 -0.47584028765262021 -0.19000272420079581 0 -0.46424179540776972 -0.1935507198546578 0 -0.47584028765262021 -0.19000272420079581 0 -0.47454102555690791 -0.20962918854827969 0 -0.48373406965546589 -0.1821698986904306 0 -0.47584028765262021 -0.19000272420079581 0 -0.48805073208669181 -0.19350027482844179 0 -0.49330666904333559 -0.1770776486150025 0 -0.49999999999999922 -0.2004045850157069 0 -0.49330666904333559 -0.1770776486150025 0 -0.49999999999999922 -0.2004045850157069 0 -0.48805073208669181 -0.19350027482844179 0 -0.49999999999999922 -0.2004045850157069 0 -0.48805073208669181 -0.19350027482844179 0 -0.47454102555690791 -0.20962918854827969 0 -0.49999999999999922 -0.2004045850157069 0 -0.48969938595146478 -0.2144922848106586 0 -0.5 -0.22662995119804749 0 -0.49999999999999922 -0.2004045850157069 0 -0.48969938595146478 -0.2144922848106586 0 -0.47454102555690791 -0.20962918854827969 0 -0.49999999999999922 -0.2004045850157069 0 -0.47454102555690791 -0.20962918854827969 0 -0.48969938595146478 -0.2144922848106586 0 -0.47454102555690791 -0.20962918854827969 0 -0.47628494452458769 -0.23024935313744779 0 -0.48969938595146478 -0.2144922848106586 0 -0.47628494452458769 -0.23024935313744779 0 -0.5 -0.22662995119804749 0 -0.49999999999999778 -0.25285531738038819 0 -0.47628494452458769 -0.23024935313744779 0 -0.5 -0.22662995119804749 0 -0.47579526030062652 -0.25093733637436633 0 -0.47628494452458769 -0.23024935313744779 0 -0.45543549343762457 -0.23309874107221529 0 -0.47579526030062652 -0.25093733637436633 0 -0.49999999999999778 -0.25285531738038819 0 -0.47628494452458769 -0.23024935313744779 0 -0.47579526030062652 -0.25093733637436633 0 -0.45159052060125532 -0.24901935536834419 0 -0.47579526030062652 -0.25093733637436633 0 -0.45543549343762457 -0.23309874107221529 0 -0.45159052060125532 -0.24901935536834419 0 -0.45002048434163833 -0.21764146278110261 0 -0.47454102555690791 -0.20962918854827969 0 -0.47628494452458769 -0.23024935313744779 0 -0.45002048434163833 -0.21764146278110261 0 -0.47628494452458769 -0.23024935313744779 0 -0.45543549343762457 -0.23309874107221529 0 -0.45543549343762457 -0.23309874107221529 0 -0.43864816385524469 -0.22971653053878691 0 -0.4398431158948789 -0.23838088199954419 0 -0.4254999431263693 -0.22565373701392699 0 -0.45002048434163833 -0.21764146278110261 0 -0.43864816385524469 -0.22971653053878691 0 -0.4254999431263693 -0.22565373701392699 0 -0.45002048434163833 -0.21764146278110261 0 -0.45002048434163833 -0.21764146278110261 0 -0.45543549343762457 -0.23309874107221529 0 -0.43864816385524469 -0.22971653053878691 0 -0.42738578090188423 -0.2471013743623203 0 -0.45159052060125532 -0.24901935536834419 0 -0.42738578090188423 -0.2471013743623203 0 -0.45159052060125532 -0.24901935536834419 0 -0.4398431158948789 -0.23838088199954419 0 -0.45543549343762457 -0.23309874107221529 0 -0.45159052060125532 -0.24901935536834419 0 -0.4398431158948789 -0.23838088199954419 0 -0.42223884291378389 -0.02852823360292742 0 -0.40507137760334178 -0.045588033798574207 0 -0.42338625152752007 -0.045639102720208852 0 -0.42223884291378389 -0.02852823360292742 0 -0.40507137760334178 -0.045588033798574207 0 -0.42223884291378389 -0.02852823360292742 0 -0.40141101727606843 -0.021936098276046041 0 -0.40507137760334178 -0.045588033798574207 0 -0.41947682107810758 -0.058609239387257581 0 -0.40507137760334178 -0.045588033798574207 0 -0.40764453726956512 -0.06979604859972699 0 -0.41947682107810758 -0.058609239387257581 0 -0.42338625152752007 -0.045639102720208852 0 -0.40507137760334178 -0.045588033798574207 0 -0.43313004978674358 -0.059699904842454882 0 -0.43626817900548559 -0.035584169124868108 0 -0.43313004978674358 -0.059699904842454882 0 -0.43626817900548559 -0.035584169124868108 0 -0.42338625152752007 -0.045639102720208852 0 -0.41947682107810758 -0.058609239387257581 0 -0.43313004978674358 -0.059699904842454882 0 -0.42338625152752007 -0.045639102720208852 0 -0.43626817900548559 -0.035584169124868108 0 -0.42338625152752007 -0.045639102720208852 0 -0.42223884291378389 -0.02852823360292742 0 -0.42223884291378389 -0.02852823360292742 0 -0.42433120734473168 -0.01061594105372818 0 -0.43940630822422683 -0.01146843340728123 0 -0.43626817900548559 -0.035584169124868108 0 -0.42223884291378389 -0.02852823360292742 0 -0.43940630822422683 -0.01146843340728123 0 -0.42223884291378389 -0.02852823360292742 0 -0.43940630822422683 -0.01146843340728123 0 -0.42433120734473168 -0.01061594105372818 0 -0.43940630822422683 -0.01146843340728123 0 -0.43073865897372438 0.0025176005452508731 0 -0.42433120734473168 -0.01061594105372818 0 -0.41980645543922229 -0.0006928132651702122 0 -0.43073865897372438 0.0025176005452508731 0 -0.42433120734473168 -0.01061594105372818 0 -0.41980645543922229 -0.0006928132651702122 0 -0.41124488791442598 -0.01151711200088361 0 -0.41980645543922229 -0.0006928132651702122 0 -0.41124488791442598 -0.01151711200088361 0 -0.40908712262518448 0.0037743638425312819 0 -0.42223884291378389 -0.02852823360292742 0 -0.42433120734473168 -0.01061594105372818 0 -0.41124488791442598 -0.01151711200088361 0 -0.42223884291378389 -0.02852823360292742 0 -0.41124488791442598 -0.01151711200088361 0 -0.40141101727606843 -0.021936098276046041 0 -0.40141101727606843 -0.021936098276046041 0 -0.38288561436956298 -0.01227571684950862 0 -0.39075244126444142 -0.035739742163197613 0 -0.40141101727606843 -0.021936098276046041 0 -0.39776032955944629 -0.0020393617542122451 0 -0.38288561436956298 -0.01227571684950862 0 -0.41124488791442598 -0.01151711200088361 0 -0.40141101727606843 -0.021936098276046041 0 -0.39776032955944629 -0.0020393617542122451 0 -0.41124488791442598 -0.01151711200088361 0 -0.39776032955944629 -0.0020393617542122451 0 -0.40908712262518448 0.0037743638425312819 0 -0.39776032955944629 -0.0020393617542122451 0 -0.38288561436956298 -0.01227571684950862 0 -0.38068793832475789 0.013662118864099919 0 -0.37264742716071197 -0.040785757038920657 0 -0.38288561436956298 -0.01227571684950862 0 -0.39075244126444142 -0.035739742163197613 0 -0.37264742716071197 -0.040785757038920657 0 -0.39075244126444142 -0.035739742163197613 0 -0.38790391229289972 -0.062647833994221011 0 -0.40141101727606843 -0.021936098276046041 0 -0.40507137760334178 -0.045588033798574207 0 -0.39075244126444142 -0.035739742163197613 0 -0.40507137760334178 -0.045588033798574207 0 -0.38790391229289972 -0.062647833994221011 0 -0.40764453726956512 -0.06979604859972699 0 -0.40507137760334178 -0.045588033798574207 0 -0.38790391229289972 -0.062647833994221011 0 -0.40507137760334178 -0.045588033798574207 0 -0.39075244126444142 -0.035739742163197613 0 -0.38790391229289972 -0.062647833994221011 0 -0.3740794340288558 -0.080280953139633127 0 -0.38790391229289972 -0.062647833994221011 0 -0.38973152564489882 -0.079995184080065188 0 -0.3740794340288558 -0.080280953139633127 0 -0.36378064697556378 -0.065127100328912876 0 -0.38790391229289972 -0.062647833994221011 0 -0.3740794340288558 -0.080280953139633127 0 -0.38973152564489882 -0.079995184080065188 0 -0.37923530691542517 -0.094621381490503989 0 -0.38973152564489882 -0.079995184080065188 0 -0.4015333735742963 -0.090987709034160924 0 -0.37923530691542517 -0.094621381490503989 0 -0.38973152564489882 -0.079995184080065188 0 -0.4015333735742963 -0.090987709034160924 0 -0.40764453726956512 -0.06979604859972699 0 -0.38790391229289972 -0.062647833994221011 0 -0.38973152564489882 -0.079995184080065188 0 -0.40764453726956512 -0.06979604859972699 0 -0.37156766678540171 -0.1077723692342332 0 -0.38327796276069132 -0.1205250692621456 0 -0.3915627473904601 -0.1063126836336207 0 -0.39099772875298688 -0.1320519334122976 0 -0.38327796276069132 -0.1205250692621456 0 -0.39573994725161898 -0.11968271981117359 0 -0.38327796276069132 -0.1205250692621456 0 -0.3915627473904601 -0.1063126836336207 0 -0.39573994725161898 -0.11968271981117359 0 -0.37156766678540171 -0.1077723692342332 0 -0.37923530691542517 -0.094621381490503989 0 -0.3915627473904601 -0.1063126836336207 0 -0.4015333735742963 -0.090987709034160924 0 -0.3915627473904601 -0.1063126836336207 0 -0.40738419324015329 -0.11045495157634409 0 -0.4015333735742963 -0.090987709034160924 0 -0.37923530691542517 -0.094621381490503989 0 -0.3915627473904601 -0.1063126836336207 0 -0.40547710411380328 -0.12906896117146011 0 -0.39573994725161898 -0.11968271981117359 0 -0.40738419324015329 -0.11045495157634409 0 -0.3915627473904601 -0.1063126836336207 0 -0.39573994725161898 -0.11968271981117359 0 -0.40738419324015329 -0.11045495157634409 0 -0.40547710411380328 -0.12906896117146011 0 -0.42029053971706692 -0.12733976112936449 0 -0.40738419324015329 -0.11045495157634409 0 -0.42029053971706692 -0.12733976112936449 0 -0.40738419324015329 -0.11045495157634409 0 -0.42685379134925983 -0.1079313762776284 0 -0.4015333735742963 -0.090987709034160924 0 -0.40738419324015329 -0.11045495157634409 0 -0.41686833445928889 -0.094369943196928388 0 -0.40738419324015329 -0.11045495157634409 0 -0.41686833445928889 -0.094369943196928388 0 -0.42685379134925983 -0.1079313762776284 0 -0.42685379134925983 -0.1079313762776284 0 -0.42999192056800167 -0.083815640560041649 0 -0.42685379134925983 -0.1079313762776284 0 -0.43606895980230331 -0.12244261401831889 0 -0.43944292219366332 -0.095350472930555999 0 -0.42685379134925983 -0.1079313762776284 0 -0.42999192056800167 -0.083815640560041649 0 -0.43944292219366332 -0.095350472930555999 0 -0.41686833445928889 -0.094369943196928388 0 -0.42685379134925983 -0.1079313762776284 0 -0.42999192056800167 -0.083815640560041649 0 -0.42029053971706692 -0.12733976112936449 0 -0.42685379134925983 -0.1079313762776284 0 -0.43606895980230331 -0.12244261401831889 0 -0.42164688038216469 -0.070701772567253393 0 -0.40764453726956512 -0.06979604859972699 0 -0.41724508595826798 -0.081402096601823806 0 -0.41947682107810758 -0.058609239387257581 0 -0.42164688038216469 -0.070701772567253393 0 -0.40764453726956512 -0.06979604859972699 0 -0.4015333735742963 -0.090987709034160924 0 -0.41686833445928889 -0.094369943196928388 0 -0.41724508595826798 -0.081402096601823806 0 -0.4015333735742963 -0.090987709034160924 0 -0.40764453726956512 -0.06979604859972699 0 -0.41724508595826798 -0.081402096601823806 0 -0.41686833445928889 -0.094369943196928388 0 -0.41724508595826798 -0.081402096601823806 0 -0.42999192056800167 -0.083815640560041649 0 -0.42164688038216469 -0.070701772567253393 0 -0.41724508595826798 -0.081402096601823806 0 -0.42999192056800167 -0.083815640560041649 0 -0.43313004978674358 -0.059699904842454882 0 -0.42164688038216469 -0.070701772567253393 0 -0.42999192056800167 -0.083815640560041649 0 -0.43313004978674358 -0.059699904842454882 0 -0.42999192056800167 -0.083815640560041649 0 -0.43313004978674358 -0.059699904842454882 0 -0.42999192056800167 -0.083815640560041649 0 -0.44691726763720868 -0.06646196672759272 0 -0.41947682107810758 -0.058609239387257581 0 -0.43313004978674358 -0.059699904842454882 0 -0.42164688038216469 -0.070701772567253393 0 -0.44691726763720868 -0.06646196672759272 0 -0.44396884193570368 -0.092292362754024818 0 -0.44691726763720868 -0.06646196672759272 0 -0.44396884193570368 -0.092292362754024818 0 -0.45576727693966862 -0.081019870474376643 0 -0.42999192056800167 -0.083815640560041649 0 -0.44691726763720868 -0.06646196672759272 0 -0.44396884193570368 -0.092292362754024818 0 -0.42999192056800167 -0.083815640560041649 0 -0.44396884193570368 -0.092292362754024818 0 -0.43944292219366332 -0.095350472930555999 0 -0.44396884193570368 -0.092292362754024818 0 -0.45576727693966862 -0.081019870474376643 0 -0.45758136586686687 -0.093685555099616763 0 -0.45576727693966862 -0.081019870474376643 0 -0.45758136586686687 -0.093685555099616763 0 -0.46868096540984278 -0.084295885580567886 0 -0.45758136586686687 -0.093685555099616763 0 -0.46868096540984278 -0.084295885580567886 0 -0.46994388181036773 -0.09826436189843929 0 -0.44691726763720868 -0.06646196672759272 0 -0.45576727693966862 -0.081019870474376643 0 -0.46340079516708182 -0.068804165676466966 0 -0.44691726763720868 -0.06646196672759272 0 -0.46340079516708182 -0.068804165676466966 0 -0.45883246497685137 -0.054839003282241408 0 -0.45576727693966862 -0.081019870474376643 0 -0.46868096540984278 -0.084295885580567886 0 -0.46340079516708182 -0.068804165676466966 0 -0.43606895980230331 -0.12244261401831889 0 -0.44102041623419858 -0.1181227587804568 0 -0.43944292219366332 -0.095350472930555999 0 -0.44633792145404111 -0.12921535976369261 0 -0.45019953767505549 -0.117579570031978 0 -0.44102041623419858 -0.1181227587804568 0 -0.44633792145404111 -0.12921535976369261 0 -0.45019953767505549 -0.117579570031978 0 -0.45559874169552139 -0.12299243307248441 0 -0.44633792145404111 -0.12921535976369261 0 -0.43606895980230331 -0.12244261401831889 0 -0.44102041623419858 -0.1181227587804568 0 -0.45019953767505549 -0.117579570031978 0 -0.44102041623419858 -0.1181227587804568 0 -0.45047901865646123 -0.10611894359696521 0 -0.45019953767505549 -0.117579570031978 0 -0.45047901865646123 -0.10611894359696521 0 -0.45846030222041068 -0.1126970671353931 0 -0.44396884193570368 -0.092292362754024818 0 -0.44102041623419858 -0.1181227587804568 0 -0.43944292219366332 -0.095350472930555999 0 -0.44396884193570368 -0.092292362754024818 0 -0.44102041623419858 -0.1181227587804568 0 -0.44396884193570368 -0.092292362754024818 0 -0.44102041623419858 -0.1181227587804568 0 -0.45047901865646123 -0.10611894359696521 0 -0.43606895980230331 -0.12244261401831889 0 -0.43944292219366332 -0.095350472930555999 0 -0.44396884193570368 -0.092292362754024818 0 -0.45758136586686687 -0.093685555099616763 0 -0.45047901865646123 -0.10611894359696521 0 -0.45758136586686687 -0.093685555099616763 0 -0.45047901865646123 -0.10611894359696521 0 -0.46086870474724279 -0.1039451691354504 0 -0.45758136586686687 -0.093685555099616763 0 -0.46086870474724279 -0.1039451691354504 0 -0.46994388181036773 -0.09826436189843929 0 -0.46787895518210731 -0.1089599179468379 0 -0.46086870474724279 -0.1039451691354504 0 -0.45846030222041068 -0.1126970671353931 0 -0.46787895518210731 -0.1089599179468379 0 -0.46086870474724279 -0.1039451691354504 0 -0.46994388181036773 -0.09826436189843929 0 -0.45047901865646123 -0.10611894359696521 0 -0.46086870474724279 -0.1039451691354504 0 -0.45846030222041068 -0.1126970671353931 0 -0.46787895518210731 -0.1089599179468379 0 -0.45846030222041068 -0.1126970671353931 0 -0.46831028098091559 -0.12260133437959959 0 -0.45846030222041068 -0.1126970671353931 0 -0.46831028098091559 -0.12260133437959959 0 -0.45559874169552139 -0.12299243307248441 0 -0.45019953767505549 -0.117579570031978 0 -0.45846030222041068 -0.1126970671353931 0 -0.45559874169552139 -0.12299243307248441 0 -0.47992000713000982 -0.13042377581359299 0 -0.46831028098091559 -0.12260133437959959 0 -0.47976775715019959 -0.1111345777009549 0 -0.46787895518210731 -0.1089599179468379 0 -0.46831028098091559 -0.12260133437959959 0 -0.47976775715019959 -0.1111345777009549 0 -0.47976775715019959 -0.1111345777009549 0 -0.46994388181036773 -0.09826436189843929 0 -0.48429052939730127 -0.093112439182064299 0 -0.46787895518210731 -0.1089599179468379 0 -0.47976775715019959 -0.1111345777009549 0 -0.46994388181036773 -0.09826436189843929 0 -0.5 -0.11171639770045071 0 -0.48429052939730127 -0.093112439182064299 0 -0.5 -0.082153668595365326 0 -0.47976775715019959 -0.1111345777009549 0 -0.5 -0.11171639770045071 0 -0.48429052939730127 -0.093112439182064299 0 -0.47992000713000982 -0.13042377581359299 0 -0.47976775715019959 -0.1111345777009549 0 -0.5 -0.11171639770045071 0 -0.46340079516708182 -0.068804165676466966 0 -0.48075200590502132 -0.068708097913367128 0 -0.4691996906208335 -0.055963469207644702 0 -0.46868096540984278 -0.084295885580567886 0 -0.46340079516708182 -0.068804165676466966 0 -0.48075200590502132 -0.068708097913367128 0 -0.46868096540984278 -0.084295885580567886 0 -0.48075200590502132 -0.068708097913367128 0 -0.48429052939730127 -0.093112439182064299 0 -0.46868096540984278 -0.084295885580567886 0 -0.46994388181036773 -0.09826436189843929 0 -0.48429052939730127 -0.093112439182064299 0 -0.48075200590502132 -0.068708097913367128 0 -0.48429052939730127 -0.093112439182064299 0 -0.5 -0.082153668595365326 0 -0.48075200590502132 -0.068708097913367128 0 -0.5 -0.082153668595365326 0 -0.5 -0.052590939490279931 0 -0.48075200590502132 -0.068708097913367128 0 -0.5 -0.052590939490279931 0 -0.48161610819817707 -0.045413687576058501 0 -0.48161610819817707 -0.045413687576058501 0 -0.47496607454278889 -0.029857564361522829 0 -0.5 -0.02302821038519454 0 -0.5 -0.052590939490279931 0 -0.48161610819817707 -0.045413687576058501 0 -0.5 -0.02302821038519454 0 -0.48161610819817707 -0.045413687576058501 0 -0.46477887812041918 -0.042333844098341893 0 -0.47496607454278889 -0.029857564361522829 0 -0.48161610819817707 -0.045413687576058501 0 -0.4691996906208335 -0.055963469207644702 0 -0.46477887812041918 -0.042333844098341893 0 -0.48075200590502132 -0.068708097913367128 0 -0.48161610819817707 -0.045413687576058501 0 -0.4691996906208335 -0.055963469207644702 0 -0.46340079516708182 -0.068804165676466966 0 -0.4691996906208335 -0.055963469207644702 0 -0.45883246497685137 -0.054839003282241408 0 -0.4691996906208335 -0.055963469207644702 0 -0.45883246497685137 -0.054839003282241408 0 -0.46477887812041918 -0.042333844098341893 0 -0.46477887812041918 -0.042333844098341893 0 -0.46269351723939067 -0.027534792921520931 0 -0.47496607454278889 -0.029857564361522829 0 -0.46477887812041918 -0.042333844098341893 0 -0.44986569333871379 -0.040631570701160767 0 -0.46269351723939067 -0.027534792921520931 0 -0.45883246497685137 -0.054839003282241408 0 -0.46477887812041918 -0.042333844098341893 0 -0.44986569333871379 -0.040631570701160767 0 -0.43626817900548559 -0.035584169124868108 0 -0.44986569333871379 -0.040631570701160767 0 -0.44387707461199549 -0.023974505182928769 0 -0.43313004978674358 -0.059699904842454882 0 -0.43626817900548559 -0.035584169124868108 0 -0.44986569333871379 -0.040631570701160767 0 -0.43313004978674358 -0.059699904842454882 0 -0.44691726763720868 -0.06646196672759272 0 -0.44986569333871379 -0.040631570701160767 0 -0.44691726763720868 -0.06646196672759272 0 -0.44986569333871379 -0.040631570701160767 0 -0.44691726763720868 -0.06646196672759272 0 -0.45883246497685137 -0.054839003282241408 0 -0.44986569333871379 -0.040631570701160767 0 -0.43940630822422683 -0.01146843340728123 0 -0.44210271871010298 -0.0087889333586316405 0 -0.44269698862689499 0.013819619885051079 0 -0.45281411904021879 -0.014801174674728889 0 -0.44563632125702413 -0.01504130046659365 0 -0.45221676492794538 -0.004998262467733207 0 -0.44563632125702413 -0.01504130046659365 0 -0.45221676492794538 -0.004998262467733207 0 -0.44210271871010298 -0.0087889333586316405 0 -0.43940630822422683 -0.01146843340728123 0 -0.44210271871010298 -0.0087889333586316405 0 -0.44563632125702413 -0.01504130046659365 0 -0.43940630822422683 -0.01146843340728123 0 -0.44210271871010298 -0.0087889333586316405 0 -0.43626817900548559 -0.035584169124868108 0 -0.43940630822422683 -0.01146843340728123 0 -0.44387707461199549 -0.023974505182928769 0 -0.44563632125702413 -0.01504130046659365 0 -0.43940630822422683 -0.01146843340728123 0 -0.44387707461199549 -0.023974505182928769 0 -0.43626817900548559 -0.035584169124868108 0 -0.43940630822422683 -0.01146843340728123 0 -0.44986569333871379 -0.040631570701160767 0 -0.45281411904021879 -0.014801174674728889 0 -0.44986569333871379 -0.040631570701160767 0 -0.45281411904021879 -0.014801174674728889 0 -0.44387707461199549 -0.023974505182928769 0 -0.45281411904021879 -0.014801174674728889 0 -0.44563632125702413 -0.01504130046659365 0 -0.44387707461199549 -0.023974505182928769 0 -0.45281411904021879 -0.014801174674728889 0 -0.46269351723939067 -0.027534792921520931 0 -0.47104282115481261 -0.01004981077185031 0 -0.44986569333871379 -0.040631570701160767 0 -0.45281411904021879 -0.014801174674728889 0 -0.46269351723939067 -0.027534792921520931 0 -0.45281411904021879 -0.014801174674728889 0 -0.45221676492794538 -0.004998262467733207 0 -0.47104282115481261 -0.01004981077185031 0 -0.45221676492794538 -0.004998262467733207 0 -0.47104282115481261 -0.01004981077185031 0 -0.45900762077861851 0.0048720245803541623 0 -0.47104282115481261 -0.01004981077185031 0 -0.47496607454278889 -0.029857564361522829 0 -0.5 -0.02302821038519454 0 -0.46269351723939067 -0.027534792921520931 0 -0.47104282115481261 -0.01004981077185031 0 -0.47496607454278889 -0.029857564361522829 0 -0.47104282115481261 -0.01004981077185031 0 -0.5 -0.02302821038519454 0 -0.5 0.0065345187198908583 0 -0.5 0.0065345187198908583 0 -0.48246242887277929 0.026404305899535751 0 -0.47203265834435321 0.010423683548524861 0 -0.5 0.0065345187198908583 0 -0.48246242887277929 0.026404305899535751 0 -0.5 0.036097247824976253 0 -0.48246242887277929 0.026404305899535751 0 -0.47203265834435321 0.010423683548524861 0 -0.4655685103936027 0.031223540629621401 0 -0.47104282115481261 -0.01004981077185031 0 -0.5 0.0065345187198908583 0 -0.47203265834435321 0.010423683548524861 0 -0.5 0.036097247824976253 0 -0.47110585747892347 0.054152355267349378 0 -0.5 0.065659976930061537 0 -0.48246242887277929 0.026404305899535751 0 -0.5 0.036097247824976253 0 -0.47110585747892347 0.054152355267349378 0 -0.48246242887277929 0.026404305899535751 0 -0.47110585747892347 0.054152355267349378 0 -0.4655685103936027 0.031223540629621401 0 -0.47110585747892347 0.054152355267349378 0 -0.44467665758782099 0.043263127150643413 0 -0.44448489485800741 0.066054809112753091 0 -0.44467665758782099 0.043263127150643413 0 -0.4655685103936027 0.031223540629621401 0 -0.45714604082274302 0.019775488823421519 0 -0.47110585747892347 0.054152355267349378 0 -0.44467665758782099 0.043263127150643413 0 -0.4655685103936027 0.031223540629621401 0 -0.44467665758782099 0.043263127150643413 0 -0.42361247205878588 0.055080621399464062 0 -0.44448489485800741 0.066054809112753091 0 -0.44467665758782099 0.043263127150643413 0 -0.44448489485800741 0.066054809112753091 0 -0.47104282115481261 -0.01004981077185031 0 -0.47203265834435321 0.010423683548524861 0 -0.45900762077861851 0.0048720245803541623 0 -0.47203265834435321 0.010423683548524861 0 -0.45900762077861851 0.0048720245803541623 0 -0.45714604082274302 0.019775488823421519 0 -0.47203265834435321 0.010423683548524861 0 -0.4655685103936027 0.031223540629621401 0 -0.45714604082274302 0.019775488823421519 0 -0.44467665758782099 0.043263127150643413 0 -0.45714604082274302 0.019775488823421519 0 -0.44269698862689499 0.013819619885051079 0 -0.44467665758782099 0.043263127150643413 0 -0.44269698862689499 0.013819619885051079 0 -0.4286862250431786 0.032076754366496651 0 -0.43940630822422683 -0.01146843340728123 0 -0.44269698862689499 0.013819619885051079 0 -0.43940630822422683 -0.01146843340728123 0 -0.44269698862689499 0.013819619885051079 0 -0.43073865897372438 0.0025176005452508731 0 -0.45221676492794538 -0.004998262467733207 0 -0.45900762077861851 0.0048720245803541623 0 -0.44269698862689499 0.013819619885051079 0 -0.45900762077861851 0.0048720245803541623 0 -0.45714604082274302 0.019775488823421519 0 -0.44269698862689499 0.013819619885051079 0 -0.45221676492794538 -0.004998262467733207 0 -0.44210271871010298 -0.0087889333586316405 0 -0.44269698862689499 0.013819619885051079 0 -0.44269698862689499 0.013819619885051079 0 -0.43073865897372438 0.0025176005452508731 0 -0.42079497618977713 0.014192229969971571 0 -0.41980645543922229 -0.0006928132651702122 0 -0.43073865897372438 0.0025176005452508731 0 -0.42079497618977713 0.014192229969971571 0 -0.42079497618977713 0.014192229969971571 0 -0.40908712262518448 0.0037743638425312819 0 -0.40124539684667782 0.016056273894533599 0 -0.41980645543922229 -0.0006928132651702122 0 -0.42079497618977713 0.014192229969971571 0 -0.40908712262518448 0.0037743638425312819 0 -0.42079497618977713 0.014192229969971571 0 -0.4286862250431786 0.032076754366496651 0 -0.41165003075261392 0.034028173427353127 0 -0.42079497618977713 0.014192229969971571 0 -0.41165003075261392 0.034028173427353127 0 -0.40124539684667782 0.016056273894533599 0 -0.44269698862689499 0.013819619885051079 0 -0.42079497618977713 0.014192229969971571 0 -0.4286862250431786 0.032076754366496651 0 -0.44467665758782099 0.043263127150643413 0 -0.4286862250431786 0.032076754366496651 0 -0.42361247205878588 0.055080621399464062 0 -0.42361247205878588 0.055080621399464062 0 -0.41165003075261392 0.034028173427353127 0 -0.39828681439810298 0.055782110970349429 0 -0.4286862250431786 0.032076754366496651 0 -0.42361247205878588 0.055080621399464062 0 -0.41165003075261392 0.034028173427353127 0 -0.41165003075261392 0.034028173427353127 0 -0.39427429112536572 0.032045814162204617 0 -0.39828681439810298 0.055782110970349429 0 -0.39828681439810298 0.055782110970349429 0 -0.37849026227995269 0.039599954577708443 0 -0.37629258623514761 0.065537790291316955 0 -0.37849026227995269 0.039599954577708443 0 -0.37629258623514761 0.065537790291316955 0 -0.39427429112536572 0.032045814162204617 0 -0.39828681439810298 0.055782110970349429 0 -0.37849026227995269 0.039599954577708443 0 -0.39427429112536572 0.032045814162204617 0 -0.37849026227995269 0.039599954577708443 0 -0.38068793832475789 0.013662118864099919 0 -0.37849026227995269 0.039599954577708443 0 -0.38068793832475789 0.013662118864099919 0 -0.36811041309982828 -0.00046557786001567852 0 -0.38288561436956298 -0.01227571684950862 0 -0.38068793832475789 0.013662118864099919 0 -0.38288561436956298 -0.01227571684950862 0 -0.38068793832475789 0.013662118864099919 0 -0.39776032955944629 -0.0020393617542122451 0 -0.40908712262518448 0.0037743638425312819 0 -0.40124539684667782 0.016056273894533599 0 -0.39776032955944629 -0.0020393617542122451 0 -0.38068793832475789 0.013662118864099919 0 -0.40124539684667782 0.016056273894533599 0 -0.39427429112536572 0.032045814162204617 0 -0.38068793832475789 0.013662118864099919 0 -0.40124539684667782 0.016056273894533599 0 -0.41165003075261392 0.034028173427353127 0 -0.39427429112536572 0.032045814162204617 0 -0.40124539684667782 0.016056273894533599 0 -0.40619189041811782 0.1057811406625275 0 -0.38860389837685988 0.10925835476783941 0 -0.39297540713903512 0.086401722246108259 0 -0.40619189041811782 0.1057811406625275 0 -0.38860389837685988 0.10925835476783941 0 -0.39650221245537809 0.13161329455075649 0 -0.38860389837685988 0.10925835476783941 0 -0.39650221245537809 0.13161329455075649 0 -0.37189723414553733 0.11741346171853401 0 -0.38860389837685988 0.10925835476783941 0 -0.39297540713903512 0.086401722246108259 0 -0.37409491019034241 0.091475626004925439 0 -0.38860389837685988 0.10925835476783941 0 -0.37409491019034241 0.091475626004925439 0 -0.37189723414553733 0.11741346171853401 0 -0.37629258623514761 0.065537790291316955 0 -0.37409491019034241 0.091475626004925439 0 -0.37629258623514761 0.065537790291316955 0 -0.39297540713903512 0.086401722246108259 0 -0.37409491019034241 0.091475626004925439 0 -0.39828681439810298 0.055782110970349429 0 -0.37629258623514761 0.065537790291316955 0 -0.39297540713903512 0.086401722246108259 0 -0.39828681439810298 0.055782110970349429 0 -0.39297540713903512 0.086401722246108259 0 -0.41030255427653922 0.077163856320539556 0 -0.40619189041811782 0.1057811406625275 0 -0.39297540713903512 0.086401722246108259 0 -0.41030255427653922 0.077163856320539556 0 -0.42361247205878588 0.055080621399464062 0 -0.41030255427653922 0.077163856320539556 0 -0.43009218452350279 0.077620837955070382 0 -0.42361247205878588 0.055080621399464062 0 -0.39828681439810298 0.055782110970349429 0 -0.41030255427653922 0.077163856320539556 0 -0.42361247205878588 0.055080621399464062 0 -0.43009218452350279 0.077620837955070382 0 -0.44448489485800741 0.066054809112753091 0 -0.41030255427653922 0.077163856320539556 0 -0.43009218452350279 0.077620837955070382 0 -0.42776786929598742 0.1009584118677324 0 -0.43009218452350279 0.077620837955070382 0 -0.42776786929598742 0.1009584118677324 0 -0.44429313212819371 0.088846491074862768 0 -0.40619189041811782 0.1057811406625275 0 -0.41030255427653922 0.077163856320539556 0 -0.42776786929598742 0.1009584118677324 0 -0.40619189041811782 0.1057811406625275 0 -0.42776786929598742 0.1009584118677324 0 -0.42338858656815292 0.12298215805682081 0 -0.40619189041811782 0.1057811406625275 0 -0.42338858656815292 0.12298215805682081 0 -0.39650221245537809 0.13161329455075649 0 -0.42776786929598742 0.1009584118677324 0 -0.42338858656815292 0.12298215805682081 0 -0.43609793366326072 0.1209797475327293 0 -0.42776786929598742 0.1009584118677324 0 -0.43609793366326072 0.1209797475327293 0 -0.44410136939838002 0.1116381730369724 0 -0.44410136939838002 0.1116381730369724 0 -0.45400450533027442 0.1231181429057278 0 -0.44390960666856583 0.13442985499908211 0 -0.44410136939838002 0.1116381730369724 0 -0.44390960666856583 0.13442985499908211 0 -0.43609793366326072 0.1209797475327293 0 -0.44410136939838002 0.1116381730369724 0 -0.44390960666856583 0.13442985499908211 0 -0.44410136939838002 0.1116381730369724 0 -0.44429313212819371 0.088846491074862768 0 -0.42776786929598742 0.1009584118677324 0 -0.44410136939838002 0.1116381730369724 0 -0.44429313212819371 0.088846491074862768 0 -0.44410136939838002 0.1116381730369724 0 -0.46241697565309092 0.1033464936183013 0 -0.44429313212819371 0.088846491074862768 0 -0.44410136939838002 0.1116381730369724 0 -0.46241697565309092 0.1033464936183013 0 -0.45400450533027442 0.1231181429057278 0 -0.46241697565309092 0.1033464936183013 0 -0.45400450533027442 0.1231181429057278 0 -0.46905371624488712 0.1249574526459878 0 -0.44448489485800741 0.066054809112753091 0 -0.44429313212819371 0.088846491074862768 0 -0.45937943448519952 0.078875371129141711 0 -0.43009218452350279 0.077620837955070382 0 -0.44448489485800741 0.066054809112753091 0 -0.44429313212819371 0.088846491074862768 0 -0.44448489485800741 0.066054809112753091 0 -0.44429313212819371 0.088846491074862768 0 -0.46241697565309092 0.1033464936183013 0 -0.44429313212819371 0.088846491074862768 0 -0.45937943448519952 0.078875371129141711 0 -0.46241697565309092 0.1033464936183013 0 -0.45937943448519952 0.078875371129141711 0 -0.47931202634590347 0.084613575042262718 0 -0.47110585747892347 0.054152355267349378 0 -0.44448489485800741 0.066054809112753091 0 -0.45937943448519952 0.078875371129141711 0 -0.47110585747892347 0.054152355267349378 0 -0.47931202634590347 0.084613575042262718 0 -0.5 0.065659976930061537 0 -0.47110585747892347 0.054152355267349378 0 -0.45937943448519952 0.078875371129141711 0 -0.47931202634590347 0.084613575042262718 0 -0.47931202634590347 0.084613575042262718 0 -0.5 0.065659976930061537 0 -0.50000000000000011 0.095222706035146876 0 -0.46241697565309092 0.1033464936183013 0 -0.46905371624488712 0.1249574526459878 0 -0.48452685812244373 0.1100900793405674 0 -0.46905371624488712 0.1249574526459878 0 -0.48452685812244373 0.1100900793405674 0 -0.48607417231019889 0.12975253209590459 0 -0.46905371624488712 0.1249574526459878 0 -0.48452685812244373 0.1100900793405674 0 -0.46241697565309092 0.1033464936183013 0 -0.47931202634590347 0.084613575042262718 0 -0.48452685812244373 0.1100900793405674 0 -0.47931202634590347 0.084613575042262718 0 -0.50000000000000011 0.095222706035146876 0 -0.48452685812244373 0.1100900793405674 0 -0.50000000000000011 0.095222706035146876 0 -0.5 0.118721806130568 0 -0.48452685812244373 0.1100900793405674 0 -0.50000000000000011 0.095222706035146876 0 -0.48452685812244373 0.1100900793405674 0 -0.5 0.118721806130568 0 -0.48452685812244373 0.1100900793405674 0 -0.48607417231019889 0.12975253209590459 0 -0.5 0.118721806130568 0 -0.48607417231019889 0.12975253209590459 0 -0.5 0.14222090622598921 0 -0.46905371624488712 0.1249574526459878 0 -0.48607417231019889 0.12975253209590459 0 -0.47679028718366379 0.1527724161364106 0 -0.47679028718366379 0.1527724161364106 0 -0.5 0.14222090622598921 0 -0.49999999999999778 0.1657200063214104 0 -0.48607417231019889 0.12975253209590459 0 -0.47679028718366379 0.1527724161364106 0 -0.5 0.14222090622598921 0 -0.47679028718366379 0.1527724161364106 0 -0.49999999999999778 0.1657200063214104 0 -0.488056312381487 0.17266892582801741 0 -0.47679028718366379 0.1527724161364106 0 -0.49999999999999778 0.1657200063214104 0 -0.49999999999999778 0.1657200063214104 0 -0.488056312381487 0.17266892582801741 0 -0.5 0.18861812043620549 0 -0.488056312381487 0.17266892582801741 0 -0.5 0.18861812043620549 0 -0.48026204752574497 0.19231103699127561 0 -0.488056312381487 0.17266892582801741 0 -0.4631911647030566 0.18012928320936281 0 -0.488056312381487 0.17266892582801741 0 -0.46826568687203629 0.16614825204966421 0 -0.4631911647030566 0.18012928320936281 0 -0.488056312381487 0.17266892582801741 0 -0.4631911647030566 0.18012928320936281 0 -0.48026204752574497 0.19231103699127561 0 -0.47679028718366379 0.1527724161364106 0 -0.488056312381487 0.17266892582801741 0 -0.46826568687203629 0.16614825204966421 0 -0.46826568687203629 0.16614825204966421 0 -0.4631911647030566 0.18012928320936281 0 -0.45250851713960938 0.1691204343912166 0 -0.46826568687203629 0.16614825204966421 0 -0.45250851713960938 0.1691204343912166 0 -0.46053161491566169 0.15464100198611699 0 -0.47679028718366379 0.1527724161364106 0 -0.46826568687203629 0.16614825204966421 0 -0.46053161491566169 0.15464100198611699 0 -0.4470444008615857 0.1587993250690167 0 -0.45250851713960938 0.1691204343912166 0 -0.46053161491566169 0.15464100198611699 0 -0.45250851713960938 0.1691204343912166 0 -0.43769221846069001 0.16741510344243121 0 -0.43832601702462631 0.1875896405907081 0 -0.4631911647030566 0.18012928320936281 0 -0.45250851713960938 0.1691204343912166 0 -0.43832601702462631 0.1875896405907081 0 -0.4631911647030566 0.18012928320936281 0 -0.43832601702462631 0.1875896405907081 0 -0.4470444008615857 0.1587993250690167 0 -0.45250851713960938 0.1691204343912166 0 -0.43769221846069001 0.16741510344243121 0 -0.4470444008615857 0.1587993250690167 0 -0.43769221846069001 0.16741510344243121 0 -0.43823441560422022 0.15430677972103529 0 -0.43823441560422022 0.15430677972103529 0 -0.44600470015104399 0.14710410710708721 0 -0.43856395037449092 0.1459812115912279 0 -0.4470444008615857 0.1587993250690167 0 -0.43823441560422022 0.15430677972103529 0 -0.44600470015104399 0.14710410710708721 0 -0.4470444008615857 0.1587993250690167 0 -0.44600470015104399 0.14710410710708721 0 -0.46053161491566169 0.15464100198611699 0 -0.44600470015104399 0.14710410710708721 0 -0.44386443377742257 0.13979881365573019 0 -0.45358057436733079 0.1398248259514086 0 -0.44600470015104399 0.14710410710708721 0 -0.45358057436733079 0.1398248259514086 0 -0.44600470015104399 0.14710410710708721 0 -0.43856395037449092 0.1459812115912279 0 -0.44386443377742257 0.13979881365573019 0 -0.43856395037449092 0.1459812115912279 0 -0.44386443377742257 0.13979881365573019 0 -0.43342485810583359 0.13847086961201779 0 -0.45400450533027442 0.1231181429057278 0 -0.44390960666856583 0.13442985499908211 0 -0.45358057436733079 0.1398248259514086 0 -0.44390960666856583 0.13442985499908211 0 -0.44386443377742257 0.13979881365573019 0 -0.43342485810583359 0.13847086961201779 0 -0.44390960666856583 0.13442985499908211 0 -0.44386443377742257 0.13979881365573019 0 -0.44390960666856583 0.13442985499908211 0 -0.44386443377742257 0.13979881365573019 0 -0.45358057436733079 0.1398248259514086 0 -0.44390960666856583 0.13442985499908211 0 -0.45358057436733079 0.1398248259514086 0 -0.46905371624488712 0.1249574526459878 0 -0.47679028718366379 0.1527724161364106 0 -0.45358057436733079 0.1398248259514086 0 -0.45400450533027442 0.1231181429057278 0 -0.46905371624488712 0.1249574526459878 0 -0.45358057436733079 0.1398248259514086 0 -0.46905371624488712 0.1249574526459878 0 -0.45358057436733079 0.1398248259514086 0 -0.47679028718366379 0.1527724161364106 0 -0.45358057436733079 0.1398248259514086 0 -0.46053161491566169 0.15464100198611699 0 -0.47679028718366379 0.1527724161364106 0 -0.45358057436733079 0.1398248259514086 0 -0.44600470015104399 0.14710410710708721 0 -0.45358057436733079 0.1398248259514086 0 -0.46053161491566169 0.15464100198611699 0 -0.4724381759998435 0.23523531604608811 0 -0.48641204065473309 0.2486069782680855 0 -0.47320998661908892 0.26200857575802239 0 -0.48641204065473309 0.2486069782680855 0 -0.50000000000000044 0.23441434866579569 0 -0.5 0.26276967260243578 0 -0.4724381759998435 0.23523531604608811 0 -0.48641204065473309 0.2486069782680855 0 -0.50000000000000044 0.23441434866579569 0 -0.4724381759998435 0.23523531604608811 0 -0.50000000000000044 0.23441434866579569 0 -0.50000000000000044 0.23441434866579569 0 -0.48034726081565282 0.21432036398108109 0 -0.5 0.2115162345510006 0 -0.4724381759998435 0.23523531604608811 0 -0.50000000000000044 0.23441434866579569 0 -0.48034726081565282 0.21432036398108109 0 -0.4724381759998435 0.23523531604608811 0 -0.48034726081565282 0.21432036398108109 0 -0.45500581396486339 0.20926431094234979 0 -0.48034726081565282 0.21432036398108109 0 -0.48026204752574497 0.19231103699127561 0 -0.45500581396486339 0.20926431094234979 0 -0.48034726081565282 0.21432036398108109 0 -0.5 0.2115162345510006 0 -0.48026204752574497 0.19231103699127561 0 -0.5 0.2115162345510006 0 -0.5 0.18861812043620549 0 -0.48026204752574497 0.19231103699127561 0 -0.4631911647030566 0.18012928320936281 0 -0.48026204752574497 0.19231103699127561 0 -0.45500581396486339 0.20926431094234979 0 -0.43832601702462631 0.1875896405907081 0 -0.45500581396486339 0.20926431094234979 0 -0.42960960601035642 0.2070066551633219 0 -0.4631911647030566 0.18012928320936281 0 -0.43832601702462631 0.1875896405907081 0 -0.45500581396486339 0.20926431094234979 0 -0.45500581396486339 0.20926431094234979 0 -0.43228710677974541 0.22350617936925279 0 -0.42960960601035642 0.2070066551633219 0 -0.4724381759998435 0.23523531604608811 0 -0.45500581396486339 0.20926431094234979 0 -0.44487635199968639 0.23605628342638049 0 -0.45500581396486339 0.20926431094234979 0 -0.44487635199968639 0.23605628342638049 0 -0.43228710677974541 0.22350617936925279 0 -0.44487635199968639 0.23605628342638049 0 -0.42385404684948991 0.24431613557525439 0 -0.44899714721563527 0.25701115501668681 0 -0.4724381759998435 0.23523531604608811 0 -0.44487635199968639 0.23605628342638049 0 -0.44899714721563527 0.25701115501668681 0 -0.4724381759998435 0.23523531604608811 0 -0.44487635199968639 0.23605628342638049 0 -0.42385404684948991 0.24431613557525439 0 -0.40179847413056241 0.23973301272366651 0 -0.40488816753529733 0.26009341929666191 0 -0.44487635199968639 0.23605628342638049 0 -0.42385404684948991 0.24431613557525439 0 -0.43228710677974541 0.22350617936925279 0 -0.42385404684948991 0.24431613557525439 0 -0.43228710677974541 0.22350617936925279 0 -0.40984673079837092 0.2183587821455325 0 -0.42385404684948991 0.24431613557525439 0 -0.40984673079837092 0.2183587821455325 0 -0.40179847413056241 0.23973301272366651 0 -0.40984673079837092 0.2183587821455325 0 -0.42960960601035642 0.2070066551633219 0 -0.4134608693461958 0.1950499979720535 0 -0.40984673079837092 0.2183587821455325 0 -0.4134608693461958 0.1950499979720535 0 -0.39931606348739818 0.1997000424828502 0 -0.43228710677974541 0.22350617936925279 0 -0.40984673079837092 0.2183587821455325 0 -0.42960960601035642 0.2070066551633219 0 -0.43832601702462631 0.1875896405907081 0 -0.42960960601035642 0.2070066551633219 0 -0.4134608693461958 0.1950499979720535 0 -0.43832601702462631 0.1875896405907081 0 -0.4134608693461958 0.1950499979720535 0 -0.39931606348739818 0.1997000424828502 0 -0.38231194580483369 0.19530006799547059 0 -0.39842994133592757 0.18416810645479731 0 -0.39931606348739818 0.1997000424828502 0 -0.38231194580483369 0.19530006799547059 0 -0.39178649245169112 0.21113469051560221 0 -0.4134608693461958 0.1950499979720535 0 -0.39931606348739818 0.1997000424828502 0 -0.39842994133592757 0.18416810645479731 0 -0.38231194580483369 0.19530006799547059 0 -0.37575878146575559 0.2158055818395993 0 -0.39178649245169112 0.21113469051560221 0 -0.37575878146575559 0.2158055818395993 0 -0.39178649245169112 0.21113469051560221 0 -0.38791862186952403 0.22817535740569481 0 -0.40984673079837092 0.2183587821455325 0 -0.39931606348739818 0.1997000424828502 0 -0.39178649245169112 0.21113469051560221 0 -0.40984673079837092 0.2183587821455325 0 -0.39178649245169112 0.21113469051560221 0 -0.38791862186952403 0.22817535740569481 0 -0.40984673079837092 0.2183587821455325 0 -0.38791862186952403 0.22817535740569481 0 -0.40179847413056241 0.23973301272366651 0 -0.37575878146575559 0.2158055818395993 0 -0.38791862186952403 0.22817535740569481 0 -0.36760278801018831 0.23312641541566129 0 -0.38791862186952403 0.22817535740569481 0 -0.36760278801018831 0.23312641541566129 0 -0.38071846436057588 0.25089366179410699 0 -0.38791862186952403 0.22817535740569481 0 -0.40179847413056241 0.23973301272366651 0 -0.38071846436057588 0.25089366179410699 0 -0.41706521094986448 0.15271230349195691 0 -0.39995696726831148 0.1652614409631554 0 -0.40403076121453352 0.14575242614226089 0 -0.41706521094986448 0.15271230349195691 0 -0.41730197547339731 0.13985019297813989 0 -0.42959293788319708 0.14851791863968489 0 -0.41706521094986448 0.15271230349195691 0 -0.41730197547339731 0.13985019297813989 0 -0.40403076121453352 0.14575242614226089 0 -0.42338858656815292 0.12298215805682081 0 -0.41730197547339731 0.13985019297813989 0 -0.39650221245537809 0.13161329455075649 0 -0.42338858656815292 0.12298215805682081 0 -0.43609793366326072 0.1209797475327293 0 -0.44390960666856583 0.13442985499908211 0 -0.42338858656815292 0.12298215805682081 0 -0.44390960666856583 0.13442985499908211 0 -0.43342485810583359 0.13847086961201779 0 -0.42338858656815292 0.12298215805682081 0 -0.44390960666856583 0.13442985499908211 0 -0.42338858656815292 0.12298215805682081 0 -0.41730197547339731 0.13985019297813989 0 -0.43342485810583359 0.13847086961201779 0 -0.41730197547339731 0.13985019297813989 0 -0.43342485810583359 0.13847086961201779 0 -0.42959293788319708 0.14851791863968489 0 -0.43856395037449092 0.1459812115912279 0 -0.43342485810583359 0.13847086961201779 0 -0.42959293788319708 0.14851791863968489 0 -0.41706521094986448 0.15271230349195691 0 -0.42959293788319708 0.14851791863968489 0 -0.42768767331750018 0.15977215699511141 0 -0.43823441560422022 0.15430677972103529 0 -0.42959293788319708 0.14851791863968489 0 -0.42768767331750018 0.15977215699511141 0 -0.43823441560422022 0.15430677972103529 0 -0.43856395037449092 0.1459812115912279 0 -0.42959293788319708 0.14851791863968489 0 -0.43769221846069001 0.16741510344243121 0 -0.42768767331750018 0.15977215699511141 0 -0.4180121793992298 0.1735804241553093 0 -0.43769221846069001 0.16741510344243121 0 -0.43823441560422022 0.15430677972103529 0 -0.42768767331750018 0.15977215699511141 0 -0.43769221846069001 0.16741510344243121 0 -0.43832601702462631 0.1875896405907081 0 -0.4180121793992298 0.1735804241553093 0 -0.43832601702462631 0.1875896405907081 0 -0.4134608693461958 0.1950499979720535 0 -0.4180121793992298 0.1735804241553093 0 -0.4134608693461958 0.1950499979720535 0 -0.4180121793992298 0.1735804241553093 0 -0.39842994133592757 0.18416810645479731 0 -0.41706521094986448 0.15271230349195691 0 -0.42768767331750018 0.15977215699511141 0 -0.4180121793992298 0.1735804241553093 0 -0.41706521094986448 0.15271230349195691 0 -0.4180121793992298 0.1735804241553093 0 -0.39995696726831148 0.1652614409631554 0 -0.39995696726831148 0.1652614409631554 0 -0.38095907046324312 0.16200640350113771 0 -0.39206552521977939 0.15279142049844141 0 -0.4180121793992298 0.1735804241553093 0 -0.39995696726831148 0.1652614409631554 0 -0.39842994133592757 0.18416810645479731 0 -0.39995696726831148 0.1652614409631554 0 -0.39842994133592757 0.18416810645479731 0 -0.38296591169592747 0.1767286198002741 0 -0.39842994133592757 0.18416810645479731 0 -0.38296591169592747 0.1767286198002741 0 -0.38231194580483369 0.19530006799547059 0 -0.39842994133592757 0.18416810645479731 0 -0.38296591169592747 0.1767286198002741 0 -0.38231194580483369 0.19530006799547059 0 -0.38296591169592747 0.1767286198002741 0 -0.36600709633366052 0.18693118124599009 0 -0.38296591169592747 0.1767286198002741 0 -0.36750188205592738 0.169289133145751 0 -0.39995696726831148 0.1652614409631554 0 -0.38296591169592747 0.1767286198002741 0 -0.38095907046324312 0.16200640350113771 0 -0.38296591169592747 0.1767286198002741 0 -0.38095907046324312 0.16200640350113771 0 -0.36750188205592738 0.169289133145751 0 -0.38095907046324312 0.16200640350113771 0 -0.39206552521977939 0.15279142049844141 0 -0.36969955810073207 0.1433512974321425 0 -0.39206552521977939 0.15279142049844141 0 -0.39650221245537809 0.13161329455075649 0 -0.36969955810073207 0.1433512974321425 0 -0.39995696726831148 0.1652614409631554 0 -0.39206552521977939 0.15279142049844141 0 -0.40403076121453352 0.14575242614226089 0 -0.39206552521977939 0.15279142049844141 0 -0.40403076121453352 0.14575242614226089 0 -0.39650221245537809 0.13161329455075649 0 -0.41730197547339731 0.13985019297813989 0 -0.40403076121453352 0.14575242614226089 0 -0.39650221245537809 0.13161329455075649 0 -0.39650221245537809 0.13161329455075649 0 -0.36969955810073207 0.1433512974321425 0 -0.37189723414553733 0.11741346171853401 0 -0.36969955810073207 0.1433512974321425 0 -0.37189723414553733 0.11741346171853401 0 -0.36969955810073207 0.1433512974321425 0 -0.37189723414553733 0.11741346171853401 0 -0.35460069549104511 0.1174876534481418 0 -0.36969955810073207 0.1433512974321425 0 -0.34026769579573268 0.133489736332948 0 -0.35460069549104511 0.1174876534481418 0 -0.36969955810073207 0.1433512974321425 0 -0.34435518598183712 0.15815364384908789 0 -0.34026769579573268 0.133489736332948 0 -0.36969955810073207 0.1433512974321425 0 -0.36750188205592738 0.169289133145751 0 -0.36969955810073207 0.1433512974321425 0 -0.36750188205592738 0.169289133145751 0 -0.34435518598183712 0.15815364384908789 0 -0.38095907046324312 0.16200640350113771 0 -0.36969955810073207 0.1433512974321425 0 -0.36750188205592738 0.169289133145751 0 -0.36750188205592738 0.169289133145751 0 -0.36600709633366052 0.18693118124599009 0 -0.36750188205592738 0.169289133145751 0 -0.36600709633366052 0.18693118124599009 0 -0.35163739204710909 0.17686769159581861 0 -0.38296591169592747 0.1767286198002741 0 -0.36750188205592738 0.169289133145751 0 -0.36600709633366052 0.18693118124599009 0 -0.36600709633366052 0.18693118124599009 0 -0.35163739204710909 0.17686769159581861 0 -0.34820994348718193 0.19201358755472059 0 -0.35163739204710909 0.17686769159581861 0 -0.33689563636015141 0.17860213687998011 0 -0.34820994348718193 0.19201358755472059 0 -0.36750188205592738 0.169289133145751 0 -0.34435518598183712 0.15815364384908789 0 -0.35163739204710909 0.17686769159581861 0 -0.34435518598183712 0.15815364384908789 0 -0.33689563636015141 0.17860213687998011 0 -0.36750188205592738 0.169289133145751 0 -0.35163739204710909 0.17686769159581861 0 -0.34435518598183712 0.15815364384908789 0 -0.34435518598183712 0.15815364384908789 0 -0.32007795208073397 0.17143098125305289 0 -0.32120848990774659 0.1470181545524249 0 -0.34435518598183712 0.15815364384908789 0 -0.33689563636015141 0.17860213687998011 0 -0.32007795208073397 0.17143098125305289 0 -0.33689563636015141 0.17860213687998011 0 -0.32007795208073397 0.17143098125305289 0 -0.328749366107567 0.19265873617630111 0 -0.32007795208073397 0.17143098125305289 0 -0.328749366107567 0.19265873617630111 0 -0.30751972892095919 0.19023939940924581 0 -0.32007795208073397 0.17143098125305289 0 -0.32120848990774659 0.1470181545524249 0 -0.30366866212454979 0.15693803971263801 0 -0.32120848990774659 0.1470181545524249 0 -0.34026769579573268 0.133489736332948 0 -0.31783865623809959 0.1249157038081314 0 -0.34435518598183712 0.15815364384908789 0 -0.32120848990774659 0.1470181545524249 0 -0.34435518598183712 0.15815364384908789 0 -0.32120848990774659 0.1470181545524249 0 -0.34026769579573268 0.133489736332948 0 -0.34858230901893261 0.23379778383600691 0 -0.33706608129848598 0.246495309157616 0 -0.35157908028284229 0.2586700702310234 0 -0.36760278801018831 0.23312641541566129 0 -0.34858230901893261 0.23379778383600691 0 -0.35157908028284229 0.2586700702310234 0 -0.36760278801018831 0.23312641541566129 0 -0.38071846436057588 0.25089366179410699 0 -0.35157908028284229 0.2586700702310234 0 -0.37575878146575559 0.2158055818395993 0 -0.3598324690573938 0.21991926584431909 0 -0.36760278801018831 0.23312641541566129 0 -0.3598324690573938 0.21991926584431909 0 -0.34858230901893261 0.23379778383600691 0 -0.34270615618069861 0.21229331878409849 0 -0.3598324690573938 0.21991926584431909 0 -0.36760278801018831 0.23312641541566129 0 -0.34858230901893261 0.23379778383600691 0 -0.3598324690573938 0.21991926584431909 0 -0.364512310611394 0.2045732293462294 0 -0.34270615618069861 0.21229331878409849 0 -0.38231194580483369 0.19530006799547059 0 -0.37575878146575559 0.2158055818395993 0 -0.364512310611394 0.2045732293462294 0 -0.37575878146575559 0.2158055818395993 0 -0.3598324690573938 0.21991926584431909 0 -0.364512310611394 0.2045732293462294 0 -0.36600709633366052 0.18693118124599009 0 -0.364512310611394 0.2045732293462294 0 -0.34820994348718193 0.19201358755472059 0 -0.36600709633366052 0.18693118124599009 0 -0.364512310611394 0.2045732293462294 0 -0.38231194580483369 0.19530006799547059 0 -0.36600709633366052 0.18693118124599009 0 -0.364512310611394 0.2045732293462294 0 -0.364512310611394 0.2045732293462294 0 -0.34820994348718193 0.19201358755472059 0 -0.34270615618069861 0.21229331878409849 0 -0.33689563636015141 0.17860213687998011 0 -0.34820994348718193 0.19201358755472059 0 -0.328749366107567 0.19265873617630111 0 -0.34820994348718193 0.19201358755472059 0 -0.328749366107567 0.19265873617630111 0 -0.34270615618069861 0.21229331878409849 0 -0.328749366107567 0.19265873617630111 0 -0.3173374760716503 0.21421935371114881 0 -0.30751972892095919 0.19023939940924581 0 -0.328749366107567 0.19265873617630111 0 -0.3173374760716503 0.21421935371114881 0 -0.34270615618069861 0.21229331878409849 0 -0.3173374760716503 0.21421935371114881 0 -0.34270615618069861 0.21229331878409849 0 -0.33056417881878369 0.23050743999396681 0 -0.34858230901893261 0.23379778383600691 0 -0.34270615618069861 0.21229331878409849 0 -0.33056417881878369 0.23050743999396681 0 -0.3173374760716503 0.21421935371114881 0 -0.33056417881878369 0.23050743999396681 0 -0.31624687015960012 0.2324533568873646 0 -0.33056417881878369 0.23050743999396681 0 -0.31624687015960012 0.2324533568873646 0 -0.323131792580863 0.2448818655998303 0 -0.31624687015960012 0.2324533568873646 0 -0.323131792580863 0.2448818655998303 0 -0.31239304073847729 0.2429391580348505 0 -0.323131792580863 0.2448818655998303 0 -0.31239304073847729 0.2429391580348505 0 -0.3167804051098122 0.25334306803717499 0 -0.33056417881878369 0.23050743999396681 0 -0.323131792580863 0.2448818655998303 0 -0.33706608129848598 0.246495309157616 0 -0.34858230901893261 0.23379778383600691 0 -0.33056417881878369 0.23050743999396681 0 -0.33706608129848598 0.246495309157616 0 -0.28816865054944069 0.2483900167434088 0 -0.28601967569143388 0.2372486771153082 0 -0.27476099976599322 0.24482803690347249 0 -0.28601967569143388 0.2372486771153082 0 -0.29570808400242587 0.24414451818815089 0 -0.30009080971264612 0.23078277379395959 0 -0.28816865054944069 0.2483900167434088 0 -0.29570808400242587 0.24414451818815089 0 -0.29854595792914318 0.25106639743215442 0 -0.28816865054944069 0.2483900167434088 0 -0.28601967569143388 0.2372486771153082 0 -0.29570808400242587 0.24414451818815089 0 -0.29570808400242587 0.24414451818815089 0 -0.30009080971264612 0.23078277379395959 0 -0.30571532612946528 0.25323472585592322 0 -0.31239304073847729 0.2429391580348505 0 -0.30009080971264612 0.23078277379395959 0 -0.30571532612946528 0.25323472585592322 0 -0.31624687015960012 0.2324533568873646 0 -0.31239304073847729 0.2429391580348505 0 -0.30009080971264612 0.23078277379395959 0 -0.29570808400242587 0.24414451818815089 0 -0.30571532612946528 0.25323472585592322 0 -0.29854595792914318 0.25106639743215442 0 -0.30009080971264612 0.23078277379395959 0 -0.30571532612946528 0.25323472585592322 0 -0.31239304073847729 0.2429391580348505 0 -0.3167804051098122 0.25334306803717499 0 -0.30571532612946528 0.25323472585592322 0 -0.3173374760716503 0.21421935371114881 0 -0.31624687015960012 0.2324533568873646 0 -0.30009080971264612 0.23078277379395959 0 -0.30009080971264612 0.23078277379395959 0 -0.29446629329582691 0.20833082173199591 0 -0.30009080971264612 0.23078277379395959 0 -0.28559470640747953 0.22348468682119291 0 -0.29446629329582691 0.20833082173199591 0 -0.28601967569143388 0.2372486771153082 0 -0.30009080971264612 0.23078277379395959 0 -0.28559470640747953 0.22348468682119291 0 -0.28559470640747953 0.22348468682119291 0 -0.29446629329582691 0.20833082173199591 0 -0.27700809091679901 0.2134086206193925 0 -0.29446629329582691 0.20833082173199591 0 -0.2737786157422033 0.1974155460991053 0 -0.27700809091679901 0.2134086206193925 0 -0.3173374760716503 0.21421935371114881 0 -0.30009080971264612 0.23078277379395959 0 -0.29446629329582691 0.20833082173199591 0 -0.3173374760716503 0.21421935371114881 0 -0.29446629329582691 0.20833082173199591 0 -0.30751972892095919 0.19023939940924581 0 -0.29446629329582691 0.20833082173199591 0 -0.2737786157422033 0.1974155460991053 0 -0.28620906427867843 0.18313339328272421 0 -0.29446629329582691 0.20833082173199591 0 -0.30751972892095919 0.19023939940924581 0 -0.28620906427867843 0.18313339328272421 0 -0.2737786157422033 0.1974155460991053 0 -0.2530725675176464 0.1936817097878977 0 -0.2616090700646152 0.21114465587711331 0 -0.2737786157422033 0.1974155460991053 0 -0.2530725675176464 0.1936817097878977 0 -0.26798405447481272 0.17783571223517189 0 -0.2616090700646152 0.21114465587711331 0 -0.25132572622624683 0.22825002925503479 0 -0.2442791262350934 0.21308183893824231 0 -0.2530725675176464 0.1936817097878977 0 -0.2616090700646152 0.21114465587711331 0 -0.2442791262350934 0.21308183893824231 0 -0.2616090700646152 0.21114465587711331 0 -0.27700809091679901 0.2134086206193925 0 -0.27118555576751308 0.2286376891230609 0 -0.2737786157422033 0.1974155460991053 0 -0.2616090700646152 0.21114465587711331 0 -0.27700809091679901 0.2134086206193925 0 -0.28559470640747953 0.22348468682119291 0 -0.27700809091679901 0.2134086206193925 0 -0.27118555576751308 0.2286376891230609 0 -0.28601967569143388 0.2372486771153082 0 -0.28559470640747953 0.22348468682119291 0 -0.27118555576751308 0.2286376891230609 0 -0.2616090700646152 0.21114465587711331 0 -0.27118555576751308 0.2286376891230609 0 -0.25132572622624683 0.22825002925503479 0 -0.27118555576751308 0.2286376891230609 0 -0.25132572622624683 0.22825002925503479 0 -0.26219137982950658 0.2418572455729586 0 -0.25132572622624683 0.22825002925503479 0 -0.26219137982950658 0.2418572455729586 0 -0.24857359163213399 0.2512888834568589 0 -0.26219137982950658 0.2418572455729586 0 -0.26696388821823641 0.25532696921026993 0 -0.24857359163213399 0.2512888834568589 0 -0.28601967569143388 0.2372486771153082 0 -0.27118555576751308 0.2286376891230609 0 -0.27476099976599322 0.24482803690347249 0 -0.26219137982950658 0.2418572455729586 0 -0.27476099976599322 0.24482803690347249 0 -0.26696388821823641 0.25532696921026993 0 -0.27118555576751308 0.2286376891230609 0 -0.26219137982950658 0.2418572455729586 0 -0.27476099976599322 0.24482803690347249 0 -0.28816865054944069 0.2483900167434088 0 -0.27476099976599322 0.24482803690347249 0 -0.27922037152813439 0.25582331397549868 0 -0.29806179383365627 0.1358826652557619 0 -0.30366866212454979 0.15693803971263801 0 -0.2834011918532775 0.15937855669506401 0 -0.29806179383365627 0.1358826652557619 0 -0.2834011918532775 0.15937855669506401 0 -0.27620348220324648 0.14202055578604891 0 -0.29806179383365627 0.1358826652557619 0 -0.27491509775956591 0.1247471759590992 0 -0.29806179383365627 0.1358826652557619 0 -0.27620348220324648 0.14202055578604891 0 -0.27491509775956591 0.1247471759590992 0 -0.29806179383365627 0.1358826652557619 0 -0.30218725535865731 0.1170965929258143 0 -0.31783865623809959 0.1249157038081314 0 -0.32120848990774659 0.1470181545524249 0 -0.29806179383365627 0.1358826652557619 0 -0.31783865623809959 0.1249157038081314 0 -0.32120848990774659 0.1470181545524249 0 -0.29806179383365627 0.1358826652557619 0 -0.32120848990774659 0.1470181545524249 0 -0.29806179383365627 0.1358826652557619 0 -0.30366866212454979 0.15693803971263801 0 -0.32007795208073397 0.17143098125305289 0 -0.30366866212454979 0.15693803971263801 0 -0.29999538982287621 0.17293680500077541 0 -0.32007795208073397 0.17143098125305289 0 -0.30751972892095919 0.19023939940924581 0 -0.29999538982287621 0.17293680500077541 0 -0.30751972892095919 0.19023939940924581 0 -0.29999538982287621 0.17293680500077541 0 -0.28620906427867843 0.18313339328272421 0 -0.29999538982287621 0.17293680500077541 0 -0.28620906427867843 0.18313339328272421 0 -0.2834011918532775 0.15937855669506401 0 -0.30366866212454979 0.15693803971263801 0 -0.29999538982287621 0.17293680500077541 0 -0.2834011918532775 0.15937855669506401 0 -0.2834011918532775 0.15937855669506401 0 -0.26798405447481272 0.17783571223517189 0 -0.26398570369759172 0.1577083410004842 0 -0.2737786157422033 0.1974155460991053 0 -0.28620906427867843 0.18313339328272421 0 -0.26798405447481272 0.17783571223517189 0 -0.28620906427867843 0.18313339328272421 0 -0.2834011918532775 0.15937855669506401 0 -0.26798405447481272 0.17783571223517189 0 -0.2530725675176464 0.1936817097878977 0 -0.26798405447481272 0.17783571223517189 0 -0.24978556686281839 0.17388336477005559 0 -0.26798405447481272 0.17783571223517189 0 -0.24978556686281839 0.17388336477005559 0 -0.26398570369759172 0.1577083410004842 0 -0.24602975208707159 0.15486973685632641 0 -0.24978556686281839 0.17388336477005559 0 -0.26798405447481272 0.17783571223517189 0 -0.26398570369759172 0.1577083410004842 0 -0.24978556686281839 0.17388336477005559 0 -0.26398570369759172 0.1577083410004842 0 -0.26047242492331912 0.13980845640771311 0 -0.24602975208707159 0.15486973685632641 0 -0.26047242492331912 0.13980845640771311 0 -0.24602975208707159 0.15486973685632641 0 -0.2834011918532775 0.15937855669506401 0 -0.26398570369759172 0.1577083410004842 0 -0.27620348220324648 0.14202055578604891 0 -0.26398570369759172 0.1577083410004842 0 -0.27620348220324648 0.14202055578604891 0 -0.26047242492331912 0.13980845640771311 0 -0.26047242492331912 0.13980845640771311 0 -0.26242512211390001 0.11873845706147711 0 -0.27491509775956591 0.1247471759590992 0 -0.27620348220324648 0.14202055578604891 0 -0.26047242492331912 0.13980845640771311 0 -0.27491509775956591 0.1247471759590992 0 -0.26047242492331912 0.13980845640771311 0 -0.27491509775956591 0.1247471759590992 0 -0.26047242492331912 0.13980845640771311 0 -0.26242512211390001 0.11873845706147711 0 -0.2458862956057293 0.12683254271406541 0 -0.25169104475159582 0.1142583460824861 0 -0.26242512211390001 0.11873845706147711 0 -0.2458862956057293 0.12683254271406541 0 -0.25169104475159582 0.1142583460824861 0 -0.26242512211390001 0.11873845706147711 0 -0.25766541373719237 0.10471910859472421 0 -0.26242512211390001 0.11873845706147711 0 -0.25766541373719237 0.10471910859472421 0 -0.27272902445409619 0.11330578619925651 0 -0.25766541373719237 0.10471910859472421 0 -0.2520696630874838 0.08689783246079838 0 -0.24078734754956141 0.10674327595967741 0 -0.25169104475159582 0.1142583460824861 0 -0.25766541373719237 0.10471910859472421 0 -0.24078734754956141 0.10674327595967741 0 -0.25766541373719237 0.10471910859472421 0 -0.26173942212959472 0.093813560644243149 0 -0.2520696630874838 0.08689783246079838 0 -0.25766541373719237 0.10471910859472421 0 -0.26173942212959472 0.093813560644243149 0 -0.27198601927559612 0.10168114601393299 0 -0.27198601927559612 0.10168114601393299 0 -0.28561006742395167 0.1135941200579481 0 -0.28539294700349521 0.094612239432855905 0 -0.25766541373719237 0.10471910859472421 0 -0.27198601927559612 0.10168114601393299 0 -0.27272902445409619 0.11330578619925651 0 -0.26242512211390001 0.11873845706147711 0 -0.27491509775956591 0.1247471759590992 0 -0.26242512211390001 0.11873845706147711 0 -0.27272902445409619 0.11330578619925651 0 -0.27491509775956591 0.1247471759590992 0 -0.27198601927559612 0.10168114601393299 0 -0.27272902445409619 0.11330578619925651 0 -0.28561006742395167 0.1135941200579481 0 -0.27491509775956591 0.1247471759590992 0 -0.28561006742395167 0.1135941200579481 0 -0.27272902445409619 0.11330578619925651 0 -0.27491509775956591 0.1247471759590992 0 -0.28561006742395167 0.1135941200579481 0 -0.28561006742395167 0.1135941200579481 0 -0.2952658338963321 0.10294703432785569 0 -0.30218725535865731 0.1170965929258143 0 -0.29806179383365627 0.1358826652557619 0 -0.28561006742395167 0.1135941200579481 0 -0.30218725535865731 0.1170965929258143 0 -0.29806179383365627 0.1358826652557619 0 -0.27491509775956591 0.1247471759590992 0 -0.28561006742395167 0.1135941200579481 0 -0.28561006742395167 0.1135941200579481 0 -0.28539294700349521 0.094612239432855905 0 -0.2952658338963321 0.10294703432785569 0 -0.28539294700349521 0.094612239432855905 0 -0.2952658338963321 0.10294703432785569 0 -0.29606553995138041 0.090079313692030177 0 -0.2952658338963321 0.10294703432785569 0 -0.30443913246684712 0.093281467647182356 0 -0.31429804013120177 0.1046260206256374 0 -0.2952658338963321 0.10294703432785569 0 -0.30218725535865731 0.1170965929258143 0 -0.31429804013120177 0.1046260206256374 0 -0.30443913246684712 0.093281467647182356 0 -0.31429804013120177 0.1046260206256374 0 -0.31707362652986998 0.086055095151049948 0 -0.2952658338963321 0.10294703432785569 0 -0.30443913246684712 0.093281467647182356 0 -0.29606553995138041 0.090079313692030177 0 -0.30218725535865731 0.1170965929258143 0 -0.31783865623809959 0.1249157038081314 0 -0.31429804013120177 0.1046260206256374 0 -0.29740588592885647 0.066428789030291285 0 -0.30316449019975988 0.081000488865938428 0 -0.31457316146920339 0.070005279643081508 0 -0.29740588592885647 0.066428789030291285 0 -0.30802228932494757 0.053717656691054008 0 -0.31457316146920339 0.070005279643081508 0 -0.29740588592885647 0.066428789030291285 0 -0.30316449019975988 0.081000488865938428 0 -0.29206529619046728 0.078555338186318449 0 -0.30316449019975988 0.081000488865938428 0 -0.31707362652986998 0.086055095151049948 0 -0.31457316146920339 0.070005279643081508 0 -0.30443913246684712 0.093281467647182356 0 -0.30316449019975988 0.081000488865938428 0 -0.31707362652986998 0.086055095151049948 0 -0.30443913246684712 0.093281467647182356 0 -0.30316449019975988 0.081000488865938428 0 -0.29606553995138041 0.090079313692030177 0 -0.30316449019975988 0.081000488865938428 0 -0.29206529619046728 0.078555338186318449 0 -0.29606553995138041 0.090079313692030177 0 -0.28539294700349521 0.094612239432855905 0 -0.29206529619046728 0.078555338186318449 0 -0.29606553995138041 0.090079313692030177 0 -0.28539294700349521 0.094612239432855905 0 -0.29206529619046728 0.078555338186318449 0 -0.28242935676406911 0.070684164099161381 0 -0.28539294700349521 0.094612239432855905 0 -0.28242935676406911 0.070684164099161381 0 -0.29206529619046728 0.078555338186318449 0 -0.28242935676406911 0.070684164099161381 0 -0.29014408378482448 0.06921733616586298 0 -0.29740588592885647 0.066428789030291285 0 -0.29206529619046728 0.078555338186318449 0 -0.29014408378482448 0.06921733616586298 0 -0.29740588592885647 0.066428789030291285 0 -0.29014408378482448 0.06921733616586298 0 -0.28867579625590523 0.061201053347680827 0 -0.28242935676406911 0.070684164099161381 0 -0.29014408378482448 0.06921733616586298 0 -0.28867579625590523 0.061201053347680827 0 -0.28242935676406911 0.070684164099161381 0 -0.27572589290011962 0.074218617389699995 0 -0.279465766524643 0.046756088765466983 0 -0.27572589290011962 0.074218617389699995 0 -0.26864654785038788 0.065423866638571054 0 -0.26523659241810671 0.081956155507517031 0 -0.26173942212959472 0.093813560644243149 0 -0.27198601927559612 0.10168114601393299 0 -0.26523659241810671 0.081956155507517031 0 -0.27198601927559612 0.10168114601393299 0 -0.28539294700349521 0.094612239432855905 0 -0.27572589290011962 0.074218617389699995 0 -0.27198601927559612 0.10168114601393299 0 -0.27572589290011962 0.074218617389699995 0 -0.26523659241810671 0.081956155507517031 0 -0.28539294700349521 0.094612239432855905 0 -0.28242935676406911 0.070684164099161381 0 -0.27572589290011962 0.074218617389699995 0 -0.27198601927559612 0.10168114601393299 0 -0.27572589290011962 0.074218617389699995 0 -0.26523659241810671 0.081956155507517031 0 -0.2520696630874838 0.08689783246079838 0 -0.25919432906266793 0.069862607799667881 0 -0.26173942212959472 0.093813560644243149 0 -0.26523659241810671 0.081956155507517031 0 -0.2520696630874838 0.08689783246079838 0 -0.2520696630874838 0.08689783246079838 0 -0.25919432906266793 0.069862607799667881 0 -0.24075342683477199 0.068561134350546449 0 -0.25919432906266793 0.069862607799667881 0 -0.25068417003392651 0.054433302055622801 0 -0.24075342683477199 0.068561134350546449 0 -0.26864654785038788 0.065423866638571054 0 -0.26523659241810671 0.081956155507517031 0 -0.25919432906266793 0.069862607799667881 0 -0.26864654785038788 0.065423866638571054 0 -0.25919432906266793 0.069862607799667881 0 -0.26361015834640239 0.054325863730503389 0 -0.26361015834640239 0.054325863730503389 0 -0.25068417003392651 0.054433302055622801 0 -0.25921315275576817 0.034825476688179681 0 -0.25919432906266793 0.069862607799667881 0 -0.26361015834640239 0.054325863730503389 0 -0.25068417003392651 0.054433302055622801 0 -0.25068417003392651 0.054433302055622801 0 -0.25921315275576817 0.034825476688179681 0 -0.24160491481516 0.041020672313056249 0 -0.25921315275576817 0.034825476688179681 0 -0.279465766524643 0.046756088765466983 0 -0.27594314882922039 0.018314416746667641 0 -0.279465766524643 0.046756088765466983 0 -0.28265596417837258 0.023329924360335159 0 -0.26361015834640239 0.054325863730503389 0 -0.25921315275576817 0.034825476688179681 0 -0.279465766524643 0.046756088765466983 0 -0.279465766524643 0.046756088765466983 0 -0.27594314882922039 0.018314416746667641 0 -0.28242935676406911 0.070684164099161381 0 -0.279465766524643 0.046756088765466983 0 -0.27572589290011962 0.074218617389699995 0 -0.279465766524643 0.046756088765466983 0 -0.27572589290011962 0.074218617389699995 0 -0.26864654785038788 0.065423866638571054 0 -0.279465766524643 0.046756088765466983 0 -0.26864654785038788 0.065423866638571054 0 -0.26361015834640239 0.054325863730503389 0 -0.279465766524643 0.046756088765466983 0 -0.25373215836416307 0.0049476990353386208 0 -0.26152900928789169 0.017128912247030909 0 -0.2390956290600558 0.022668457754148729 0 -0.25373215836416307 0.0049476990353386208 0 -0.26152900928789169 0.017128912247030909 0 -0.26639870705666863 0.0034981426146868042 0 -0.25921315275576817 0.034825476688179681 0 -0.26152900928789169 0.017128912247030909 0 -0.27594314882922039 0.018314416746667641 0 -0.25921315275576817 0.034825476688179681 0 -0.26152900928789169 0.017128912247030909 0 -0.2390956290600558 0.022668457754148729 0 -0.279465766524643 0.046756088765466983 0 -0.27594314882922039 0.018314416746667641 0 -0.28265596417837258 0.023329924360335159 0 -0.27242053113380332 -0.01012725527213235 0 -0.27594314882922039 0.018314416746667641 0 -0.27242053113380332 -0.01012725527213235 0 -0.27594314882922039 0.018314416746667641 0 -0.26639870705666863 0.0034981426146868042 0 -0.27242053113380332 -0.01012725527213235 0 -0.28584616183210199 -9.6240044796684632e-05 0 -0.27594314882922039 0.018314416746667641 0 -0.26152900928789169 0.017128912247030909 0 -0.27594314882922039 0.018314416746667641 0 -0.26639870705666863 0.0034981426146868042 0 -0.28584616183210199 -9.6240044796684632e-05 0 -0.28265596417837258 0.023329924360335159 0 -0.29564270005176341 0.0050365380694357394 0 -0.29122454386971708 0.015977861293749361 0 -0.30030095330630269 0.02277456844949164 0 -0.28584616183210199 -9.6240044796684632e-05 0 -0.29564270005176341 0.0050365380694357394 0 -0.29122454386971708 0.015977861293749361 0 -0.28584616183210199 -9.6240044796684632e-05 0 -0.27594314882922039 0.018314416746667641 0 -0.28265596417837258 0.023329924360335159 0 -0.28584616183210199 -9.6240044796684632e-05 0 -0.29122454386971708 0.015977861293749361 0 -0.28265596417837258 0.023329924360335159 0 -0.29167693998004468 0.028844515634280941 0 -0.30030095330630269 0.02277456844949164 0 -0.29800787053909578 0.039340201141897332 0 -0.29122454386971708 0.015977861293749361 0 -0.29167693998004468 0.028844515634280941 0 -0.30030095330630269 0.02277456844949164 0 -0.29122454386971708 0.015977861293749361 0 -0.28265596417837258 0.023329924360335159 0 -0.29167693998004468 0.028844515634280941 0 -0.29564270005176341 0.0050365380694357394 0 -0.30030095330630269 0.02277456844949164 0 -0.31886486896971872 0.020200331411010779 0 -0.30030095330630269 0.02277456844949164 0 -0.31503366116692738 0.038726060343097751 0 -0.31886486896971872 0.020200331411010779 0 -0.3074804215323973 -0.008614507468707934 0 -0.29564270005176341 0.0050365380694357394 0 -0.31886486896971872 0.020200331411010779 0 -0.29564270005176341 0.0050365380694357394 0 -0.31886486896971872 0.020200331411010779 0 -0.28242935676406911 0.070684164099161381 0 -0.279465766524643 0.046756088765466983 0 -0.28867579625590523 0.061201053347680827 0 -0.29740588592885647 0.066428789030291285 0 -0.29366215843883431 0.051826391397092809 0 -0.28867579625590523 0.061201053347680827 0 -0.279465766524643 0.046756088765466983 0 -0.29366215843883431 0.051826391397092809 0 -0.28867579625590523 0.061201053347680827 0 -0.279465766524643 0.046756088765466983 0 -0.28265596417837258 0.023329924360335159 0 -0.29167693998004468 0.028844515634280941 0 -0.279465766524643 0.046756088765466983 0 -0.29167693998004468 0.028844515634280941 0 -0.29800787053909578 0.039340201141897332 0 -0.279465766524643 0.046756088765466983 0 -0.29366215843883431 0.051826391397092809 0 -0.29800787053909578 0.039340201141897332 0 -0.29800787053909578 0.039340201141897332 0 -0.30802228932494757 0.053717656691054008 0 -0.31503366116692738 0.038726060343097751 0 -0.30030095330630269 0.02277456844949164 0 -0.29800787053909578 0.039340201141897332 0 -0.31503366116692738 0.038726060343097751 0 -0.29366215843883431 0.051826391397092809 0 -0.29800787053909578 0.039340201141897332 0 -0.30802228932494757 0.053717656691054008 0 -0.29740588592885647 0.066428789030291285 0 -0.29366215843883431 0.051826391397092809 0 -0.30802228932494757 0.053717656691054008 0 -0.30802228932494757 0.053717656691054008 0 -0.32660075586351062 0.057472984876412038 0 -0.31503366116692738 0.038726060343097751 0 -0.30802228932494757 0.053717656691054008 0 -0.32660075586351062 0.057472984876412038 0 -0.31457316146920339 0.070005279643081508 0 -0.32660075586351062 0.057472984876412038 0 -0.31503366116692738 0.038726060343097751 0 -0.3384052289979893 0.038850619488720761 0 -0.31503366116692738 0.038726060343097751 0 -0.3384052289979893 0.038850619488720761 0 -0.31886486896971872 0.020200331411010779 0 -0.32660075586351062 0.057472984876412038 0 -0.3384052289979893 0.038850619488720761 0 -0.34873655091589367 0.064801645549608419 0 -0.3074804215323973 -0.008614507468707934 0 -0.32871639322815888 -0.004782724970433137 0 -0.31886486896971872 0.020200331411010779 0 -0.3384052289979893 0.038850619488720761 0 -0.31886486896971872 0.020200331411010779 0 -0.33890757248426318 0.01452593036135944 0 -0.34926271451221519 -0.0020625166386807441 0 -0.32871639322815888 -0.004782724970433137 0 -0.33890757248426318 0.01452593036135944 0 -0.32871639322815888 -0.004782724970433137 0 -0.31886486896971872 0.020200331411010779 0 -0.33890757248426318 0.01452593036135944 0 -0.36811041309982828 -0.00046557786001567852 0 -0.34926271451221519 -0.0020625166386807441 0 -0.35916081686410078 0.021825838101449689 0 -0.34926271451221519 -0.0020625166386807441 0 -0.33890757248426318 0.01452593036135944 0 -0.35916081686410078 0.021825838101449689 0 -0.3384052289979893 0.038850619488720761 0 -0.33890757248426318 0.01452593036135944 0 -0.35916081686410078 0.021825838101449689 0 -0.37849026227995269 0.039599954577708443 0 -0.38068793832475789 0.013662118864099919 0 -0.35916081686410078 0.021825838101449689 0 -0.36811041309982828 -0.00046557786001567852 0 -0.38068793832475789 0.013662118864099919 0 -0.35916081686410078 0.021825838101449689 0 -0.3384052289979893 0.038850619488720761 0 -0.36024334926678869 0.048080274089867821 0 -0.34873655091589367 0.064801645549608419 0 -0.3384052289979893 0.038850619488720761 0 -0.35916081686410078 0.021825838101449689 0 -0.36024334926678869 0.048080274089867821 0 -0.37849026227995269 0.039599954577708443 0 -0.35916081686410078 0.021825838101449689 0 -0.36024334926678869 0.048080274089867821 0 -0.37629258623514761 0.065537790291316955 0 -0.36024334926678869 0.048080274089867821 0 -0.34873655091589367 0.064801645549608419 0 -0.37849026227995269 0.039599954577708443 0 -0.37629258623514761 0.065537790291316955 0 -0.36024334926678869 0.048080274089867821 0 -0.37629258623514761 0.065537790291316955 0 -0.34873655091589367 0.064801645549608419 0 -0.3594615490715598 0.080521239949713386 0 -0.34873655091589367 0.064801645549608419 0 -0.34504637049407672 0.082957404957560141 0 -0.3594615490715598 0.080521239949713386 0 -0.34504637049407672 0.082957404957560141 0 -0.3594615490715598 0.080521239949713386 0 -0.34843894904285788 0.097990020541328576 0 -0.37409491019034241 0.091475626004925439 0 -0.3594615490715598 0.080521239949713386 0 -0.34843894904285788 0.097990020541328576 0 -0.37629258623514761 0.065537790291316955 0 -0.37409491019034241 0.091475626004925439 0 -0.3594615490715598 0.080521239949713386 0 -0.37409491019034241 0.091475626004925439 0 -0.37189723414553733 0.11741346171853401 0 -0.35460069549104511 0.1174876534481418 0 -0.37409491019034241 0.091475626004925439 0 -0.37189723414553733 0.11741346171853401 0 -0.37409491019034241 0.091475626004925439 0 -0.35460069549104511 0.1174876534481418 0 -0.34843894904285788 0.097990020541328576 0 -0.35460069549104511 0.1174876534481418 0 -0.34843894904285788 0.097990020541328576 0 -0.33442407073631408 0.11193044641252919 0 -0.34843894904285788 0.097990020541328576 0 -0.33442407073631408 0.11193044641252919 0 -0.33110038771894812 0.093073543718987906 0 -0.34026769579573268 0.133489736332948 0 -0.33442407073631408 0.11193044641252919 0 -0.31783865623809959 0.1249157038081314 0 -0.34026769579573268 0.133489736332948 0 -0.35460069549104511 0.1174876534481418 0 -0.33442407073631408 0.11193044641252919 0 -0.33442407073631408 0.11193044641252919 0 -0.31783865623809959 0.1249157038081314 0 -0.31429804013120177 0.1046260206256374 0 -0.31429804013120177 0.1046260206256374 0 -0.31707362652986998 0.086055095151049948 0 -0.33110038771894812 0.093073543718987906 0 -0.33442407073631408 0.11193044641252919 0 -0.31429804013120177 0.1046260206256374 0 -0.33110038771894812 0.093073543718987906 0 -0.31707362652986998 0.086055095151049948 0 -0.33187558238292653 0.076654332062280034 0 -0.33110038771894812 0.093073543718987906 0 -0.31707362652986998 0.086055095151049948 0 -0.31457316146920339 0.070005279643081508 0 -0.33187558238292653 0.076654332062280034 0 -0.32660075586351062 0.057472984876412038 0 -0.31457316146920339 0.070005279643081508 0 -0.33187558238292653 0.076654332062280034 0 -0.34873655091589367 0.064801645549608419 0 -0.34504637049407672 0.082957404957560141 0 -0.33187558238292653 0.076654332062280034 0 -0.32660075586351062 0.057472984876412038 0 -0.34873655091589367 0.064801645549608419 0 -0.33187558238292653 0.076654332062280034 0 -0.34504637049407672 0.082957404957560141 0 -0.34843894904285788 0.097990020541328576 0 -0.33110038771894812 0.093073543718987906 0 -0.34504637049407672 0.082957404957560141 0 -0.33187558238292653 0.076654332062280034 0 -0.33110038771894812 0.093073543718987906 0 -0.39122905425755572 0.48231724323233899 0 -0.39905871425079881 0.46352594359518468 0 -0.41082541419900648 0.47954737448570062 0 -0.39122905425755572 0.48231724323233899 0 -0.41082541419900648 0.47954737448570062 0 -0.40691215924967661 0.49999999999999889 0 -0.39122905425755572 0.48231724323233899 0 -0.38045642149953868 0.5 0 -0.40691215924967661 0.49999999999999889 0 -0.39122905425755572 0.48231724323233899 0 -0.38045642149953868 0.5 0 -0.36741806294446527 0.47973891824032089 0 -0.39122905425755572 0.48231724323233899 0 -0.38129672728108538 0.46703246784986641 0 -0.39905871425079881 0.46352594359518468 0 -0.39122905425755572 0.48231724323233899 0 -0.38129672728108538 0.46703246784986641 0 -0.36741806294446527 0.47973891824032089 0 -0.38129672728108538 0.46703246784986641 0 -0.38733954571058948 0.44157413214292579 0 -0.36806779317485289 0.45680867075678733 0 -0.38129672728108538 0.46703246784986641 0 -0.38733954571058948 0.44157413214292579 0 -0.39905871425079881 0.46352594359518468 0 -0.38733954571058948 0.44157413214292579 0 -0.40877481862198378 0.44613799562388828 0 -0.40605625729808081 0.43062061102436311 0 -0.38733954571058948 0.44157413214292579 0 -0.39905871425079881 0.46352594359518468 0 -0.40877481862198378 0.44613799562388828 0 -0.39905871425079881 0.46352594359518468 0 -0.41590478122729829 0.46260992583527299 0 -0.40877481862198378 0.44613799562388828 0 -0.39905871425079881 0.46352594359518468 0 -0.41590478122729829 0.46260992583527299 0 -0.41082541419900648 0.47954737448570062 0 -0.41590478122729829 0.46260992583527299 0 -0.40877481862198378 0.44613799562388828 0 -0.42356557220366953 0.44885117567849131 0 -0.40877481862198378 0.44613799562388828 0 -0.42356557220366953 0.44885117567849131 0 -0.42687188547413057 0.43416375982746419 0 -0.43577983567459849 0.45210119212508748 0 -0.44713552885503483 0.44339355911158362 0 -0.42687188547413057 0.43416375982746419 0 -0.42356557220366953 0.44885117567849131 0 -0.43577983567459849 0.45210119212508748 0 -0.42687188547413057 0.43416375982746419 0 -0.43577983567459849 0.45210119212508748 0 -0.4290803211044249 0.46371047670094789 0 -0.44730675479931731 0.46167980510800088 0 -0.41590478122729829 0.46260992583527299 0 -0.4290803211044249 0.46371047670094789 0 -0.42412384698390709 0.47388658892742541 0 -0.42356557220366953 0.44885117567849131 0 -0.43577983567459849 0.45210119212508748 0 -0.4290803211044249 0.46371047670094789 0 -0.41590478122729829 0.46260992583527299 0 -0.42356557220366953 0.44885117567849131 0 -0.4290803211044249 0.46371047670094789 0 -0.4290803211044249 0.46371047670094789 0 -0.43658144446192249 0.47402401427734953 0 -0.42412384698390709 0.47388658892742541 0 -0.43658144446192249 0.47402401427734953 0 -0.42412384698390709 0.47388658892742541 0 -0.42983150726992753 0.48929577894630782 0 -0.41590478122729829 0.46260992583527299 0 -0.42412384698390709 0.47388658892742541 0 -0.41082541419900648 0.47954737448570062 0 -0.42412384698390709 0.47388658892742541 0 -0.41082541419900648 0.47954737448570062 0 -0.42983150726992753 0.48929577894630782 0 -0.40691215924967661 0.49999999999999889 0 -0.42983150726992753 0.48929577894630782 0 -0.41082541419900648 0.47954737448570062 0 -0.40691215924967661 0.49999999999999889 0 -0.42983150726992753 0.48929577894630782 0 -0.40691215924967661 0.49999999999999889 0 -0.42983150726992753 0.48929577894630782 0 -0.4320501899934609 0.5 0 -0.42983150726992753 0.48929577894630782 0 -0.4320501899934609 0.5 0 -0.4446192053653531 0.49181275241655908 0 -0.4320501899934609 0.5 0 -0.4446192053653531 0.49181275241655908 0 -0.45718822073724519 0.5 0 -0.4446192053653531 0.49181275241655908 0 -0.45275085529017878 0.47859155789261759 0 -0.45718822073724519 0.5 0 -0.42983150726992753 0.48929577894630782 0 -0.4446192053653531 0.49181275241655908 0 -0.45275085529017878 0.47859155789261759 0 -0.43658144446192249 0.47402401427734953 0 -0.45275085529017878 0.47859155789261759 0 -0.44730675479931731 0.46167980510800088 0 -0.42983150726992753 0.48929577894630782 0 -0.45275085529017878 0.47859155789261759 0 -0.43658144446192249 0.47402401427734953 0 -0.42983150726992753 0.48929577894630782 0 -0.45275085529017878 0.47859155789261759 0 -0.45275085529017878 0.47859155789261759 0 -0.47567020331043008 0.46788733683892753 0 -0.46251207191934668 0.46372732371008918 0 -0.45275085529017878 0.47859155789261759 0 -0.47007373951568088 0.48579346271804208 0 -0.47567020331043008 0.46788733683892753 0 -0.45275085529017878 0.47859155789261759 0 -0.47567020331043008 0.46788733683892753 0 -0.45275085529017878 0.47859155789261759 0 -0.45718822073724519 0.5 0 -0.47007373951568088 0.48579346271804208 0 -0.48232625148102942 0.499999999999999 0 -0.47007373951568088 0.48579346271804208 0 -0.48060590518121599 0.47925759937915191 0 -0.45718822073724519 0.5 0 -0.48232625148102942 0.499999999999999 0 -0.47007373951568088 0.48579346271804208 0 -0.47007373951568088 0.48579346271804208 0 -0.48060590518121599 0.47925759937915191 0 -0.47567020331043008 0.46788733683892753 0 -0.48060590518121599 0.47925759937915191 0 -0.4866296847478761 0.4629086236163733 0 -0.47567020331043008 0.46788733683892753 0 -0.49280091988147418 0.47703822116636269 0 -0.50000000000000011 0.46125694015891699 0 -0.48060590518121599 0.47925759937915191 0 -0.49280091988147418 0.47703822116636269 0 -0.4866296847478761 0.4629086236163733 0 -0.5 0.47738905117889929 0 -0.49280091988147418 0.47703822116636269 0 -0.50000000000000011 0.46125694015891699 0 -0.5 0.47738905117889929 0 -0.49280091988147418 0.47703822116636269 0 -0.50000000000000056 0.49352116219888148 0 -0.49280091988147418 0.47703822116636269 0 -0.4866296847478761 0.4629086236163733 0 -0.49280091988147418 0.47703822116636269 0 -0.50000000000000056 0.49352116219888148 0 -0.48232625148102942 0.499999999999999 0 -0.49280091988147418 0.47703822116636269 0 -0.48232625148102942 0.499999999999999 0 -0.5 0.5 0 -0.50000000000000056 0.49352116219888148 0 -0.48232625148102942 0.499999999999999 0 -0.49280091988147418 0.47703822116636269 0 -0.50000000000000056 0.49352116219888148 0 -0.48232625148102942 0.499999999999999 0 -0.48060590518121599 0.47925759937915191 0 -0.49280091988147418 0.47703822116636269 0 -0.49177203359053839 0.45146155151598771 0 -0.50000000000000011 0.46125694015891699 0 -0.5 0.43290161622227669 0 -0.49177203359053839 0.45146155151598771 0 -0.48045844961427769 0.44877902606638392 0 -0.5 0.43290161622227669 0 -0.49280091988147418 0.47703822116636269 0 -0.50000000000000011 0.46125694015891699 0 -0.4866296847478761 0.4629086236163733 0 -0.49177203359053839 0.45146155151598771 0 -0.50000000000000011 0.46125694015891699 0 -0.4866296847478761 0.4629086236163733 0 -0.49177203359053839 0.45146155151598771 0 -0.4866296847478761 0.4629086236163733 0 -0.48045844961427769 0.44877902606638392 0 -0.4866296847478761 0.4629086236163733 0 -0.48045844961427769 0.44877902606638392 0 -0.4866296847478761 0.4629086236163733 0 -0.47379565796100431 0.4586179158509831 0 -0.48045844961427769 0.44877902606638392 0 -0.4866296847478761 0.4629086236163733 0 -0.47567020331043008 0.46788733683892753 0 -0.47379565796100431 0.4586179158509831 0 -0.47567020331043008 0.46788733683892753 0 -0.47379565796100431 0.4586179158509831 0 -0.46251207191934668 0.46372732371008918 0 -0.47379565796100431 0.4586179158509831 0 -0.48045844961427769 0.44877902606638392 0 -0.46303688823580358 0.45186000285991668 0 -0.48045844961427769 0.44877902606638392 0 -0.46303688823580358 0.45186000285991668 0 -0.46553579748443469 0.43543085332167519 0 -0.46303688823580358 0.45186000285991668 0 -0.44713552885503483 0.44339355911158362 0 -0.46553579748443469 0.43543085332167519 0 -0.45275085529017878 0.47859155789261759 0 -0.46251207191934668 0.46372732371008918 0 -0.44730675479931731 0.46167980510800088 0 -0.46303688823580358 0.45186000285991668 0 -0.46251207191934668 0.46372732371008918 0 -0.44730675479931731 0.46167980510800088 0 -0.47379565796100431 0.4586179158509831 0 -0.46303688823580358 0.45186000285991668 0 -0.46251207191934668 0.46372732371008918 0 -0.4290803211044249 0.46371047670094789 0 -0.43658144446192249 0.47402401427734953 0 -0.44730675479931731 0.46167980510800088 0 -0.43577983567459849 0.45210119212508748 0 -0.44730675479931731 0.46167980510800088 0 -0.44713552885503483 0.44339355911158362 0 -0.46303688823580358 0.45186000285991668 0 -0.44730675479931731 0.46167980510800088 0 -0.44713552885503483 0.44339355911158362 0 -0.44713552885503483 0.44339355911158362 0 -0.44834780723634388 0.42426138258676233 0 -0.42687188547413057 0.43416375982746419 0 -0.44834780723634388 0.42426138258676233 0 -0.45285761418385989 0.40597736267304391 0 -0.4300731476086419 0.41001419821001861 0 -0.46720770912738568 0.41673782607354642 0 -0.46777443736927521 0.40084106465391872 0 -0.45285761418385989 0.40597736267304391 0 -0.44834780723634388 0.42426138258676233 0 -0.46720770912738568 0.41673782607354642 0 -0.45285761418385989 0.40597736267304391 0 -0.44713552885503483 0.44339355911158362 0 -0.44834780723634388 0.42426138258676233 0 -0.46553579748443469 0.43543085332167519 0 -0.44834780723634388 0.42426138258676233 0 -0.46720770912738568 0.41673782607354642 0 -0.46553579748443469 0.43543085332167519 0 -0.46720770912738568 0.41673782607354642 0 -0.46553579748443469 0.43543085332167519 0 -0.48259061838117367 0.42417559660243631 0 -0.48045844961427769 0.44877902606638392 0 -0.46553579748443469 0.43543085332167519 0 -0.48259061838117367 0.42417559660243631 0 -0.46720770912738568 0.41673782607354642 0 -0.48259061838117367 0.42417559660243631 0 -0.48234175406094387 0.40665796564509882 0 -0.46720770912738568 0.41673782607354642 0 -0.48234175406094387 0.40665796564509882 0 -0.46777443736927521 0.40084106465391872 0 -0.48259061838117367 0.42417559660243631 0 -0.48234175406094387 0.40665796564509882 0 -0.5 0.4045462922856366 0 -0.48259061838117367 0.42417559660243631 0 -0.5 0.43290161622227669 0 -0.5 0.4045462922856366 0 -0.48045844961427769 0.44877902606638392 0 -0.48259061838117367 0.42417559660243631 0 -0.5 0.43290161622227669 0 -0.5 0.37619096834899629 0 -0.49072703490908021 0.39097485756286121 0 -0.48447742038348979 0.36975917408504239 0 -0.49072703490908021 0.39097485756286121 0 -0.48447742038348979 0.36975917408504239 0 -0.5 0.37619096834899629 0 -0.5 0.4045462922856366 0 -0.49072703490908021 0.39097485756286121 0 -0.48234175406094387 0.40665796564509882 0 -0.5 0.4045462922856366 0 -0.49072703490908021 0.39097485756286121 0 -0.48234175406094387 0.40665796564509882 0 -0.4760060113720137 0.38647769074395039 0 -0.46777443736927521 0.40084106465391872 0 -0.48234175406094387 0.40665796564509882 0 -0.49072703490908021 0.39097485756286121 0 -0.4760060113720137 0.38647769074395039 0 -0.49072703490908021 0.39097485756286121 0 -0.4760060113720137 0.38647769074395039 0 -0.48447742038348979 0.36975917408504239 0 -0.4760060113720137 0.38647769074395039 0 -0.4604590981021725 0.3883544781339543 0 -0.46619987600210799 0.36801643852131671 0 -0.4604590981021725 0.3883544781339543 0 -0.44283617067942099 0.37188885663686472 0 -0.46619987600210799 0.36801643852131671 0 -0.4604590981021725 0.3883544781339543 0 -0.46777443736927521 0.40084106465391872 0 -0.45285761418385989 0.40597736267304391 0 -0.4760060113720137 0.38647769074395039 0 -0.4604590981021725 0.3883544781339543 0 -0.46777443736927521 0.40084106465391872 0 -0.4604590981021725 0.3883544781339543 0 -0.45285761418385989 0.40597736267304391 0 -0.44233598750545028 0.39400992028607251 0 -0.45285761418385989 0.40597736267304391 0 -0.44233598750545028 0.39400992028607251 0 -0.4300731476086419 0.41001419821001861 0 -0.4604590981021725 0.3883544781339543 0 -0.44233598750545028 0.39400992028607251 0 -0.44283617067942099 0.37188885663686472 0 -0.42588032649403251 0.38865439024771442 0 -0.41936596479975752 0.36864240388803599 0 -0.44283617067942099 0.37188885663686472 0 -0.44233598750545028 0.39400992028607251 0 -0.42588032649403251 0.38865439024771442 0 -0.44283617067942099 0.37188885663686472 0 -0.42588032649403251 0.38865439024771442 0 -0.40978734318690579 0.38481671289709701 0 -0.41936596479975752 0.36864240388803599 0 -0.40978734318690579 0.38481671289709701 0 -0.40056058203017908 0.37186631972596679 0 -0.41936596479975752 0.36864240388803599 0 -0.42588032649403251 0.38865439024771442 0 -0.40978734318690579 0.38481671289709701 0 -0.41088334518401859 0.40255424956819791 0 -0.42588032649403251 0.38865439024771442 0 -0.41088334518401859 0.40255424956819791 0 -0.4300731476086419 0.41001419821001861 0 -0.44233598750545028 0.39400992028607251 0 -0.42588032649403251 0.38865439024771442 0 -0.4300731476086419 0.41001419821001861 0 -0.4300731476086419 0.41001419821001861 0 -0.42687188547413057 0.43416375982746419 0 -0.41571986149029921 0.41885400581075521 0 -0.44834780723634388 0.42426138258676233 0 -0.4300731476086419 0.41001419821001861 0 -0.42687188547413057 0.43416375982746419 0 -0.42687188547413057 0.43416375982746419 0 -0.41571986149029921 0.41885400581075521 0 -0.40605625729808081 0.43062061102436311 0 -0.40877481862198378 0.44613799562388828 0 -0.42687188547413057 0.43416375982746419 0 -0.40605625729808081 0.43062061102436311 0 -0.41088334518401859 0.40255424956819791 0 -0.4300731476086419 0.41001419821001861 0 -0.41571986149029921 0.41885400581075521 0 -0.41088334518401859 0.40255424956819791 0 -0.41571986149029921 0.41885400581075521 0 -0.39516982246717991 0.41531890541885957 0 -0.41571986149029921 0.41885400581075521 0 -0.39516982246717991 0.41531890541885957 0 -0.40605625729808081 0.43062061102436311 0 -0.38733954571058948 0.44157413214292579 0 -0.39516982246717991 0.41531890541885957 0 -0.40605625729808081 0.43062061102436311 0 -0.38733954571058948 0.44157413214292579 0 -0.39516982246717991 0.41531890541885957 0 -0.38037333075783403 0.4243344310955442 0 -0.38733954571058948 0.44157413214292579 0 -0.38037333075783403 0.4243344310955442 0 -0.36317059986857619 0.44068228548805921 0 -0.39516982246717991 0.41531890541885957 0 -0.38037333075783403 0.4243344310955442 0 -0.37594982304109459 0.40469205941162067 0 -0.39516982246717991 0.41531890541885957 0 -0.37594982304109459 0.40469205941162067 0 -0.39087952330567849 0.38976799674612278 0 -0.37594982304109459 0.40469205941162067 0 -0.39087952330567849 0.38976799674612278 0 -0.36242496125058837 0.38469227793789762 0 -0.39087952330567849 0.38976799674612278 0 -0.38209731609821151 0.36830436570237629 0 -0.36242496125058837 0.38469227793789762 0 -0.39087952330567849 0.38976799674612278 0 -0.40056058203017908 0.37186631972596679 0 -0.38209731609821151 0.36830436570237629 0 -0.40978734318690579 0.38481671289709701 0 -0.39087952330567849 0.38976799674612278 0 -0.40056058203017908 0.37186631972596679 0 -0.40978734318690579 0.38481671289709701 0 -0.41088334518401859 0.40255424956819791 0 -0.39087952330567849 0.38976799674612278 0 -0.41088334518401859 0.40255424956819791 0 -0.39516982246717991 0.41531890541885957 0 -0.39087952330567849 0.38976799674612278 0 -0.40176967094583449 0.35191645346685502 0 -0.38128331200723659 0.35031905336320679 0 -0.39755924634130912 0.33316582094590252 0 -0.40176967094583449 0.35191645346685502 0 -0.38209731609821151 0.36830436570237629 0 -0.40176967094583449 0.35191645346685502 0 -0.40056058203017908 0.37186631972596679 0 -0.38209731609821151 0.36830436570237629 0 -0.38209731609821151 0.36830436570237629 0 -0.38128331200723659 0.35031905336320679 0 -0.36679453861728428 0.36342729629386211 0 -0.40176967094583449 0.35191645346685502 0 -0.38209731609821151 0.36830436570237629 0 -0.38128331200723659 0.35031905336320679 0 -0.38128331200723659 0.35031905336320679 0 -0.37509674348189148 0.33459142367820882 0 -0.39755924634130912 0.33316582094590252 0 -0.37509674348189148 0.33459142367820882 0 -0.38654616982042372 0.31741697842236022 0 -0.39755924634130912 0.33316582094590252 0 -0.37509674348189148 0.33459142367820882 0 -0.38654616982042372 0.31741697842236022 0 -0.36404656714331268 0.32489206966968559 0 -0.38654616982042372 0.31741697842236022 0 -0.39755924634130912 0.33316582094590252 0 -0.41502351032438389 0.32072058799137632 0 -0.38654616982042372 0.31741697842236022 0 -0.41502351032438389 0.32072058799137632 0 -0.40440575882782509 0.30365727514741919 0 -0.38654616982042372 0.31741697842236022 0 -0.41502351032438389 0.32072058799137632 0 -0.40176967094583449 0.35191645346685502 0 -0.39755924634130912 0.33316582094590252 0 -0.42639437779860517 0.34548801147875541 0 -0.39755924634130912 0.33316582094590252 0 -0.41502351032438389 0.32072058799137632 0 -0.42639437779860517 0.34548801147875541 0 -0.41502351032438389 0.32072058799137632 0 -0.44350085082834412 0.3240241975603923 0 -0.41502351032438389 0.32072058799137632 0 -0.44350085082834412 0.3240241975603923 0 -0.43094124284244861 0.2982602113584944 0 -0.41502351032438389 0.32072058799137632 0 -0.42639437779860517 0.34548801147875541 0 -0.44350085082834412 0.3240241975603923 0 -0.40176967094583449 0.35191645346685502 0 -0.42639437779860517 0.34548801147875541 0 -0.41936596479975752 0.36864240388803599 0 -0.40176967094583449 0.35191645346685502 0 -0.40056058203017908 0.37186631972596679 0 -0.41936596479975752 0.36864240388803599 0 -0.42639437779860517 0.34548801147875541 0 -0.41936596479975752 0.36864240388803599 0 -0.44283617067942099 0.37188885663686472 0 -0.42639437779860517 0.34548801147875541 0 -0.44283617067942099 0.37188885663686472 0 -0.45485621208311372 0.3475481336556599 0 -0.45485621208311372 0.3475481336556599 0 -0.46619987600210799 0.36801643852131671 0 -0.47822780585789948 0.34854349060722378 0 -0.44283617067942099 0.37188885663686472 0 -0.45485621208311372 0.3475481336556599 0 -0.46619987600210799 0.36801643852131671 0 -0.46619987600210799 0.36801643852131671 0 -0.47822780585789948 0.34854349060722378 0 -0.48447742038348979 0.36975917408504239 0 -0.4760060113720137 0.38647769074395039 0 -0.46619987600210799 0.36801643852131671 0 -0.48447742038348979 0.36975917408504239 0 -0.47822780585789948 0.34854349060722378 0 -0.48447742038348979 0.36975917408504239 0 -0.4903097275499414 0.35949672844898978 0 -0.47822780585789948 0.34854349060722378 0 -0.48447742038348979 0.36975917408504239 0 -0.47822780585789948 0.34854349060722378 0 -0.5 0.34783564441235598 0 -0.4903097275499414 0.35949672844898978 0 -0.5 0.37619096834899629 0 -0.48447742038348979 0.36975917408504239 0 -0.4903097275499414 0.35949672844898978 0 -0.5 0.37619096834899629 0 -0.5 0.34783564441235598 0 -0.4903097275499414 0.35949672844898978 0 -0.5 0.3194803204757159 0 -0.49229925908357031 0.3296852208726746 0 -0.48435354094981942 0.31074858743684641 0 -0.5 0.34783564441235598 0 -0.5 0.3194803204757159 0 -0.49229925908357031 0.3296852208726746 0 -0.47822780585789948 0.34854349060722378 0 -0.5 0.34783564441235598 0 -0.49229925908357031 0.3296852208726746 0 -0.47822780585789948 0.34854349060722378 0 -0.49229925908357031 0.3296852208726746 0 -0.47197819133230462 0.32732780712940651 0 -0.47822780585789948 0.34854349060722378 0 -0.47197819133230462 0.32732780712940651 0 -0.49229925908357031 0.3296852208726746 0 -0.47197819133230462 0.32732780712940651 0 -0.47197819133230462 0.32732780712940651 0 -0.46411848904821312 0.30064632858277091 0 -0.48435354094981942 0.31074858743684641 0 -0.49229925908357031 0.3296852208726746 0 -0.47197819133230462 0.32732780712940651 0 -0.48435354094981942 0.31074858743684641 0 -0.47197819133230462 0.32732780712940651 0 -0.46411848904821312 0.30064632858277091 0 -0.47197819133230462 0.32732780712940651 0 -0.44350085082834412 0.3240241975603923 0 -0.46411848904821312 0.30064632858277091 0 -0.47197819133230462 0.32732780712940651 0 -0.44350085082834412 0.3240241975603923 0 -0.45485621208311372 0.3475481336556599 0 -0.47822780585789948 0.34854349060722378 0 -0.47197819133230462 0.32732780712940651 0 -0.45485621208311372 0.3475481336556599 0 -0.47197819133230462 0.32732780712940651 0 -0.44350085082834412 0.3240241975603923 0 -0.42639437779860517 0.34548801147875541 0 -0.45485621208311372 0.3475481336556599 0 -0.44350085082834412 0.3240241975603923 0 -0.44350085082834412 0.3240241975603923 0 -0.46411848904821312 0.30064632858277091 0 -0.43094124284244861 0.2982602113584944 0 -0.46411848904821312 0.30064632858277091 0 -0.45500049523505048 0.27918859437004739 0 -0.43094124284244861 0.2982602113584944 0 -0.45500049523505048 0.27918859437004739 0 -0.4334064825814814 0.27160631766885862 0 -0.43094124284244861 0.2982602113584944 0 -0.46411848904821312 0.30064632858277091 0 -0.47944708530869518 0.28441445921486641 0 -0.45500049523505048 0.27918859437004739 0 -0.46411848904821312 0.30064632858277091 0 -0.48435354094981942 0.31074858743684641 0 -0.47944708530869518 0.28441445921486641 0 -0.48435354094981942 0.31074858743684641 0 -0.47944708530869518 0.28441445921486641 0 -0.5 0.29112499653907581 0 -0.5 0.3194803204757159 0 -0.48435354094981942 0.31074858743684641 0 -0.5 0.29112499653907581 0 -0.48641204065473309 0.2486069782680855 0 -0.5 0.26276967260243578 0 -0.47320998661908892 0.26200857575802239 0 -0.47944708530869518 0.28441445921486641 0 -0.5 0.29112499653907581 0 -0.5 0.26276967260243578 0 -0.47944708530869518 0.28441445921486641 0 -0.5 0.26276967260243578 0 -0.47320998661908892 0.26200857575802239 0 -0.47944708530869518 0.28441445921486641 0 -0.47320998661908892 0.26200857575802239 0 -0.45500049523505048 0.27918859437004739 0 -0.4724381759998435 0.23523531604608811 0 -0.47320998661908892 0.26200857575802239 0 -0.44899714721563527 0.25701115501668681 0 -0.47320998661908892 0.26200857575802239 0 -0.45500049523505048 0.27918859437004739 0 -0.44899714721563527 0.25701115501668681 0 -0.45500049523505048 0.27918859437004739 0 -0.44899714721563527 0.25701115501668681 0 -0.4334064825814814 0.27160631766885862 0 -0.42385404684948991 0.24431613557525439 0 -0.44899714721563527 0.25701115501668681 0 -0.4334064825814814 0.27160631766885862 0 -0.42385404684948991 0.24431613557525439 0 -0.4334064825814814 0.27160631766885862 0 -0.40488816753529733 0.26009341929666191 0 -0.4334064825814814 0.27160631766885862 0 -0.40764145124445028 0.28449830521124131 0 -0.40488816753529733 0.26009341929666191 0 -0.4334064825814814 0.27160631766885862 0 -0.40764145124445028 0.28449830521124131 0 -0.4334064825814814 0.27160631766885862 0 -0.43094124284244861 0.2982602113584944 0 -0.40764145124445028 0.28449830521124131 0 -0.41502351032438389 0.32072058799137632 0 -0.43094124284244861 0.2982602113584944 0 -0.40440575882782509 0.30365727514741919 0 -0.43094124284244861 0.2982602113584944 0 -0.40764145124445028 0.28449830521124131 0 -0.40440575882782509 0.30365727514741919 0 -0.40764145124445028 0.28449830521124131 0 -0.38187641990741927 0.29739029275362389 0 -0.40764145124445028 0.28449830521124131 0 -0.40440575882782509 0.30365727514741919 0 -0.38187641990741927 0.29739029275362389 0 -0.38654616982042372 0.31741697842236022 0 -0.40440575882782509 0.30365727514741919 0 -0.38187641990741927 0.29739029275362389 0 -0.38654616982042372 0.31741697842236022 0 -0.38187641990741927 0.29739029275362389 0 -0.37065070190367372 0.30980073008133369 0 -0.40764145124445028 0.28449830521124131 0 -0.38187641990741927 0.29739029275362389 0 -0.38003930658615948 0.28159590475601681 0 -0.38003930658615948 0.28159590475601681 0 -0.38646684075633558 0.26876329666133408 0 -0.36496862398499658 0.27074292926008348 0 -0.38646684075633558 0.26876329666133408 0 -0.38071846436057588 0.25089366179410699 0 -0.36496862398499658 0.27074292926008348 0 -0.40179847413056241 0.23973301272366651 0 -0.38071846436057588 0.25089366179410699 0 -0.40488816753529733 0.26009341929666191 0 -0.38646684075633558 0.26876329666133408 0 -0.38071846436057588 0.25089366179410699 0 -0.40488816753529733 0.26009341929666191 0 -0.40764145124445028 0.28449830521124131 0 -0.38646684075633558 0.26876329666133408 0 -0.40488816753529733 0.26009341929666191 0 -0.40764145124445028 0.28449830521124131 0 -0.38003930658615948 0.28159590475601681 0 -0.38646684075633558 0.26876329666133408 0 -0.36496862398499658 0.27074292926008348 0 -0.36053824719825911 0.28693739735732388 0 -0.3379292936512287 0.27962878215058568 0 -0.35157908028284229 0.2586700702310234 0 -0.36496862398499658 0.27074292926008348 0 -0.3379292936512287 0.27962878215058568 0 -0.35157908028284229 0.2586700702310234 0 -0.3379292936512287 0.27962878215058568 0 -0.38071846436057588 0.25089366179410699 0 -0.35157908028284229 0.2586700702310234 0 -0.36496862398499658 0.27074292926008348 0 -0.38003930658615948 0.28159590475601681 0 -0.36496862398499658 0.27074292926008348 0 -0.36053824719825911 0.28693739735732388 0 -0.38187641990741927 0.29739029275362389 0 -0.36053824719825911 0.28693739735732388 0 -0.35495350808569398 0.29797054190200323 0 -0.38187641990741927 0.29739029275362389 0 -0.38003930658615948 0.28159590475601681 0 -0.36053824719825911 0.28693739735732388 0 -0.38187641990741927 0.29739029275362389 0 -0.35611138857038821 0.31028228029600652 0 -0.35495350808569398 0.29797054190200323 0 -0.38187641990741927 0.29739029275362389 0 -0.37065070190367372 0.30980073008133369 0 -0.35611138857038821 0.31028228029600652 0 -0.38187641990741927 0.29739029275362389 0 -0.35611138857038821 0.31028228029600652 0 -0.37065070190367372 0.30980073008133369 0 -0.35611138857038821 0.31028228029600652 0 -0.35806882931646339 0.31411336885334412 0 -0.32959148881250322 0.31080975928432708 0 -0.35806882931646339 0.31411336885334412 0 -0.35611138857038821 0.31028228029600652 0 -0.34345320606291502 0.30578533474685932 0 -0.35806882931646339 0.31411336885334412 0 -0.35611138857038821 0.31028228029600652 0 -0.35495350808569398 0.29797054190200323 0 -0.3484988765898972 0.3027981389737604 0 -0.35495350808569398 0.29797054190200323 0 -0.3484988765898972 0.3027981389737604 0 -0.34416914606862081 0.29612096700357032 0 -0.3484988765898972 0.3027981389737604 0 -0.34416914606862081 0.29612096700357032 0 -0.34345320606291502 0.30578533474685932 0 -0.35611138857038821 0.31028228029600652 0 -0.3484988765898972 0.3027981389737604 0 -0.34345320606291502 0.30578533474685932 0 -0.36053824719825911 0.28693739735732388 0 -0.34416914606862081 0.29612096700357032 0 -0.3379292936512287 0.27962878215058568 0 -0.36053824719825911 0.28693739735732388 0 -0.35495350808569398 0.29797054190200323 0 -0.34416914606862081 0.29612096700357032 0 -0.34416914606862081 0.29612096700357032 0 -0.32427950701961528 0.30058749407014829 0 -0.3379292936512287 0.27962878215058568 0 -0.32427950701961528 0.30058749407014829 0 -0.32358499978974092 0.27200095896379428 0 -0.3379292936512287 0.27962878215058568 0 -0.32427950701961528 0.30058749407014829 0 -0.3379292936512287 0.27962878215058568 0 -0.34345320606291502 0.30578533474685932 0 -0.32959148881250322 0.31080975928432708 0 -0.32427950701961528 0.30058749407014829 0 -0.34416914606862081 0.29612096700357032 0 -0.34345320606291502 0.30578533474685932 0 -0.32427950701961528 0.30058749407014829 0 -0.34345320606291502 0.30578533474685932 0 -0.32959148881250322 0.31080975928432708 0 -0.35806882931646339 0.31411336885334412 0 -0.32427950701961528 0.30058749407014829 0 -0.31943954228944982 0.30801907005137452 0 -0.31538969241786702 0.29185287398463072 0 -0.31943954228944982 0.30801907005137452 0 -0.31538969241786702 0.29185287398463072 0 -0.30872937880394918 0.30211174126390261 0 -0.31943954228944982 0.30801907005137452 0 -0.31538969241786702 0.29185287398463072 0 -0.32959148881250322 0.31080975928432708 0 -0.31943954228944982 0.30801907005137452 0 -0.31846284915318968 0.30951874404842378 0 -0.32959148881250322 0.31080975928432708 0 -0.32427950701961528 0.30058749407014829 0 -0.32959148881250322 0.31080975928432708 0 -0.32427950701961528 0.30058749407014829 0 -0.31943954228944982 0.30801907005137452 0 -0.32959148881250322 0.31080975928432708 0 -0.31846284915318968 0.30951874404842378 0 -0.32427950701961528 0.30058749407014829 0 -0.31943954228944982 0.30801907005137452 0 -0.31943954228944982 0.30801907005137452 0 -0.31846284915318968 0.30951874404842378 0 -0.30872937880394918 0.30211174126390261 0 -0.31943954228944982 0.30801907005137452 0 -0.31846284915318968 0.30951874404842378 0 -0.32427950701961528 0.30058749407014829 0 -0.32358499978974092 0.27200095896379428 0 -0.31133984254628461 0.27568667791788681 0 -0.31538969241786702 0.29185287398463072 0 -0.31133984254628461 0.27568667791788681 0 -0.32427950701961528 0.30058749407014829 0 -0.31538969241786702 0.29185287398463072 0 -0.31133984254628461 0.27568667791788681 0 -0.32427950701961528 0.30058749407014829 0 -0.31133984254628461 0.27568667791788681 0 -0.32358499978974092 0.27200095896379428 0 -0.31664511552829561 0.26291074023838262 0 -0.31133984254628461 0.27568667791788681 0 -0.32358499978974092 0.27200095896379428 0 -0.3379292936512287 0.27962878215058568 0 -0.32766824932543009 0.25988762387272868 0 -0.35157908028284229 0.2586700702310234 0 -0.3379292936512287 0.27962878215058568 0 -0.32766824932543009 0.25988762387272868 0 -0.33706608129848598 0.246495309157616 0 -0.35157908028284229 0.2586700702310234 0 -0.32766824932543009 0.25988762387272868 0 -0.323131792580863 0.2448818655998303 0 -0.33706608129848598 0.246495309157616 0 -0.32766824932543009 0.25988762387272868 0 -0.323131792580863 0.2448818655998303 0 -0.32766824932543009 0.25988762387272868 0 -0.3167804051098122 0.25334306803717499 0 -0.32766824932543009 0.25988762387272868 0 -0.31664511552829561 0.26291074023838262 0 -0.3167804051098122 0.25334306803717499 0 -0.32358499978974092 0.27200095896379428 0 -0.32766824932543009 0.25988762387272868 0 -0.31664511552829561 0.26291074023838262 0 -0.31664511552829561 0.26291074023838262 0 -0.3167804051098122 0.25334306803717499 0 -0.30571532612946528 0.25323472585592322 0 -0.31664511552829561 0.26291074023838262 0 -0.30571532612946528 0.25323472585592322 0 -0.31133984254628461 0.27568667791788681 0 -0.29854595792914318 0.25106639743215442 0 -0.31133984254628461 0.27568667791788681 0 -0.29854595792914318 0.25106639743215442 0 -0.31133984254628461 0.27568667791788681 0 -0.2958337758064844 0.26698183753942339 0 -0.30571532612946528 0.25323472585592322 0 -0.31133984254628461 0.27568667791788681 0 -0.30571532612946528 0.25323472585592322 0 -0.29854595792914318 0.25106639743215442 0 -0.31133984254628461 0.27568667791788681 0 -0.31133984254628461 0.27568667791788681 0 -0.29160706993624952 0.27691289770558442 0 -0.29759005455669962 0.28817183054056578 0 -0.31133984254628461 0.27568667791788681 0 -0.29160706993624952 0.27691289770558442 0 -0.2958337758064844 0.26698183753942339 0 -0.29160706993624952 0.27691289770558442 0 -0.2958337758064844 0.26698183753942339 0 -0.28501365842330822 0.2664372378300498 0 -0.29160706993624952 0.27691289770558442 0 -0.28501365842330822 0.2664372378300498 0 -0.28106855833605388 0.27506294094837141 0 -0.29160706993624952 0.27691289770558442 0 -0.28106855833605388 0.27506294094837141 0 -0.28252824281269701 0.28319813258551169 0 -0.29854595792914318 0.25106639743215442 0 -0.2958337758064844 0.26698183753942339 0 -0.28907116569087882 0.25764007499935848 0 -0.28816865054944069 0.2483900167434088 0 -0.29854595792914318 0.25106639743215442 0 -0.28907116569087882 0.25764007499935848 0 -0.2958337758064844 0.26698183753942339 0 -0.28501365842330822 0.2664372378300498 0 -0.28907116569087882 0.25764007499935848 0 -0.28501365842330822 0.2664372378300498 0 -0.28907116569087882 0.25764007499935848 0 -0.27922037152813439 0.25582331397549868 0 -0.28816865054944069 0.2483900167434088 0 -0.28907116569087882 0.25764007499935848 0 -0.27922037152813439 0.25582331397549868 0 -0.27476099976599322 0.24482803690347249 0 -0.27922037152813439 0.25582331397549868 0 -0.26696388821823641 0.25532696921026993 0 -0.26696388821823641 0.25532696921026993 0 -0.2732810092420484 0.26620236181206269 0 -0.25848859976872818 0.26813131768353199 0 -0.27922037152813439 0.25582331397549868 0 -0.26696388821823641 0.25532696921026993 0 -0.2732810092420484 0.26620236181206269 0 -0.28501365842330822 0.2664372378300498 0 -0.27922037152813439 0.25582331397549868 0 -0.2732810092420484 0.26620236181206269 0 -0.28501365842330822 0.2664372378300498 0 -0.28106855833605388 0.27506294094837141 0 -0.2732810092420484 0.26620236181206269 0 -0.28106855833605388 0.27506294094837141 0 -0.27104702363718308 0.2771569172072863 0 -0.2732810092420484 0.26620236181206269 0 -0.28106855833605388 0.27506294094837141 0 -0.27104702363718308 0.2771569172072863 0 -0.28252824281269701 0.28319813258551169 0 -0.27104702363718308 0.2771569172072863 0 -0.2732810092420484 0.26620236181206269 0 -0.25848859976872818 0.26813131768353199 0 -0.25848859976872818 0.26813131768353199 0 -0.25905057679676258 0.28071730320652971 0 -0.24278264960442039 0.27701439110512699 0 -0.27104702363718308 0.2771569172072863 0 -0.25848859976872818 0.26813131768353199 0 -0.25905057679676258 0.28071730320652971 0 -0.26696388821823641 0.25532696921026993 0 -0.25848859976872818 0.26813131768353199 0 -0.24857359163213399 0.2512888834568589 0 -0.25918762049881139 0.30296770641209458 0 -0.27255327136778312 0.30419284922126238 0 -0.26022399735660151 0.31573819381508739 0 -0.25918762049881139 0.30296770641209458 0 -0.25052593196823542 0.31326471468966283 0 -0.26022399735660151 0.31573819381508739 0 -0.25918762049881139 0.30296770641209458 0 -0.25052593196823542 0.31326471468966283 0 -0.24689335740914289 0.30335610236106259 0 -0.25918762049881139 0.30296770641209458 0 -0.25257339432161108 0.29104602362716259 0 -0.24689335740914289 0.30335610236106259 0 -0.25918762049881139 0.30296770641209458 0 -0.25257339432161108 0.29104602362716259 0 -0.26969371328527209 0.28764054446222981 0 -0.25905057679676258 0.28071730320652971 0 -0.25257339432161108 0.29104602362716259 0 -0.24278264960442039 0.27701439110512699 0 -0.25905057679676258 0.28071730320652971 0 -0.25257339432161108 0.29104602362716259 0 -0.26969371328527209 0.28764054446222981 0 -0.26969371328527209 0.28764054446222981 0 -0.27255327136778312 0.30419284922126238 0 -0.28416303712472363 0.2942436646490329 0 -0.27104702363718308 0.2771569172072863 0 -0.25905057679676258 0.28071730320652971 0 -0.26969371328527209 0.28764054446222981 0 -0.27104702363718308 0.2771569172072863 0 -0.26969371328527209 0.28764054446222981 0 -0.28252824281269701 0.28319813258551169 0 -0.26969371328527209 0.28764054446222981 0 -0.28252824281269701 0.28319813258551169 0 -0.28416303712472363 0.2942436646490329 0 -0.25918762049881139 0.30296770641209458 0 -0.26969371328527209 0.28764054446222981 0 -0.27255327136778312 0.30419284922126238 0 -0.27255327136778312 0.30419284922126238 0 -0.28191439522818118 0.31323655309985382 0 -0.27129297307501821 0.31802873368832979 0 -0.27255327136778312 0.30419284922126238 0 -0.29550806026048643 0.30685579663484319 0 -0.27255327136778312 0.30419284922126238 0 -0.29550806026048643 0.30685579663484319 0 -0.28416303712472363 0.2942436646490329 0 -0.27255327136778312 0.30419284922126238 0 -0.29550806026048643 0.30685579663484319 0 -0.28191439522818118 0.31323655309985382 0 -0.29550806026048643 0.30685579663484319 0 -0.28416303712472363 0.2942436646490329 0 -0.29759005455669962 0.28817183054056578 0 -0.28252824281269701 0.28319813258551169 0 -0.28416303712472363 0.2942436646490329 0 -0.29759005455669962 0.28817183054056578 0 -0.29160706993624952 0.27691289770558442 0 -0.28252824281269701 0.28319813258551169 0 -0.29759005455669962 0.28817183054056578 0 -0.31538969241786702 0.29185287398463072 0 -0.31133984254628461 0.27568667791788681 0 -0.29759005455669962 0.28817183054056578 0 -0.31538969241786702 0.29185287398463072 0 -0.29759005455669962 0.28817183054056578 0 -0.30872937880394918 0.30211174126390261 0 -0.31846284915318968 0.30951874404842378 0 -0.29550806026048643 0.30685579663484319 0 -0.29550806026048643 0.30685579663484319 0 -0.29759005455669962 0.28817183054056578 0 -0.30872937880394918 0.30211174126390261 0 -0.31846284915318968 0.30951874404842378 0 -0.29550806026048643 0.30685579663484319 0 -0.30872937880394918 0.30211174126390261 0 -0.31846284915318968 0.30951874404842378 0 -0.29550806026048643 0.30685579663484319 0 -0.30189694124174238 0.31748807638996862 0 -0.30189694124174238 0.31748807638996862 0 -0.30531357934385678 0.3297089320216281 0 -0.2883032762094373 0.32386883285497958 0 -0.31846284915318968 0.30951874404842378 0 -0.30189694124174238 0.31748807638996862 0 -0.30531357934385678 0.3297089320216281 0 -0.31846284915318968 0.30951874404842378 0 -0.30531357934385678 0.3297089320216281 0 -0.30193540130996721 0.33489599187363289 0 -0.29867547360648899 0.34734758862801751 0 -0.32644611332699969 0.33598790957389307 0 -0.30531357934385678 0.3297089320216281 0 -0.30193540130996721 0.33489599187363289 0 -0.32644611332699969 0.33598790957389307 0 -0.30531357934385678 0.3297089320216281 0 -0.30193540130996721 0.33489599187363289 0 -0.2883032762094373 0.32386883285497958 0 -0.30531357934385678 0.3297089320216281 0 -0.30193540130996721 0.33489599187363289 0 -0.30193540130996721 0.33489599187363289 0 -0.2902948684429405 0.33601540992472217 0 -0.29867547360648899 0.34734758862801751 0 -0.2902948684429405 0.33601540992472217 0 -0.27918176718848198 0.34193333958109601 0 -0.29867547360648899 0.34734758862801751 0 -0.30193540130996721 0.33489599187363289 0 -0.2902948684429405 0.33601540992472217 0 -0.2883032762094373 0.32386883285497958 0 -0.2902948684429405 0.33601540992472217 0 -0.2883032762094373 0.32386883285497958 0 -0.27988341263385191 0.33007043494477628 0 -0.2902948684429405 0.33601540992472217 0 -0.27988341263385191 0.33007043494477628 0 -0.27918176718848198 0.34193333958109601 0 -0.29550806026048643 0.30685579663484319 0 -0.2883032762094373 0.32386883285497958 0 -0.28191439522818118 0.31323655309985382 0 -0.29550806026048643 0.30685579663484319 0 -0.30189694124174238 0.31748807638996862 0 -0.2883032762094373 0.32386883285497958 0 -0.30531357934385678 0.3297089320216281 0 -0.2883032762094373 0.32386883285497958 0 -0.2883032762094373 0.32386883285497958 0 -0.27129297307501821 0.31802873368832979 0 -0.27988341263385191 0.33007043494477628 0 -0.2883032762094373 0.32386883285497958 0 -0.28191439522818118 0.31323655309985382 0 -0.27129297307501821 0.31802873368832979 0 -0.2883032762094373 0.32386883285497958 0 -0.27129297307501821 0.31802873368832979 0 -0.27255327136778312 0.30419284922126238 0 -0.27129297307501821 0.31802873368832979 0 -0.26022399735660151 0.31573819381508739 0 -0.27129297307501821 0.31802873368832979 0 -0.27034417825338192 0.33050585867475363 0 -0.26208987826560992 0.32632145491274928 0 -0.27129297307501821 0.31802873368832979 0 -0.27988341263385191 0.33007043494477628 0 -0.27034417825338192 0.33050585867475363 0 -0.27988341263385191 0.33007043494477628 0 -0.27918176718848198 0.34193333958109601 0 -0.27034417825338192 0.33050585867475363 0 -0.27918176718848198 0.34193333958109601 0 -0.26816370376676241 0.34002633597338539 0 -0.2701501221767787 0.3477197786564874 0 -0.27918176718848198 0.34193333958109601 0 -0.26816370376676241 0.34002633597338539 0 -0.27034417825338192 0.33050585867475363 0 -0.26816370376676241 0.34002633597338539 0 -0.27034417825338192 0.33050585867475363 0 -0.26018649791324688 0.33659494087546749 0 -0.26018649791324688 0.33659494087546749 0 -0.25540930154187741 0.33127929385200522 0 -0.26208987826560992 0.32632145491274928 0 -0.27034417825338192 0.33050585867475363 0 -0.26018649791324688 0.33659494087546749 0 -0.26208987826560992 0.32632145491274928 0 -0.26018649791324688 0.33659494087546749 0 -0.25371557884191159 0.34380743166075423 0 -0.26069465563877042 0.34722315473434401 0 -0.26816370376676241 0.34002633597338539 0 -0.26018649791324688 0.33659494087546749 0 -0.26069465563877042 0.34722315473434401 0 -0.26018649791324688 0.33659494087546749 0 -0.25089401013886858 0.33720972681018491 0 -0.25371557884191159 0.34380743166075423 0 -0.26018649791324688 0.33659494087546749 0 -0.25089401013886858 0.33720972681018491 0 -0.25540930154187741 0.33127929385200522 0 -0.25089401013886858 0.33720972681018491 0 -0.25540930154187741 0.33127929385200522 0 -0.2494146023241898 0.33080782046157992 0 -0.25540930154187741 0.33127929385200522 0 -0.25446151906747139 0.32546252620004418 0 -0.2494146023241898 0.33080782046157992 0 -0.25446151906747139 0.32546252620004418 0 -0.25281541477377512 0.3190723322326125 0 -0.24605021070279229 0.32182389422565572 0 -0.25540930154187741 0.33127929385200522 0 -0.25446151906747139 0.32546252620004418 0 -0.26208987826560992 0.32632145491274928 0 -0.25052593196823542 0.31326471468966283 0 -0.25281541477377512 0.3190723322326125 0 -0.26022399735660151 0.31573819381508739 0 -0.25446151906747139 0.32546252620004418 0 -0.25281541477377512 0.3190723322326125 0 -0.26022399735660151 0.31573819381508739 0 -0.27129297307501821 0.31802873368832979 0 -0.26022399735660151 0.31573819381508739 0 -0.26208987826560992 0.32632145491274928 0 -0.25446151906747139 0.32546252620004418 0 -0.26022399735660151 0.31573819381508739 0 -0.26208987826560992 0.32632145491274928 0 -0.26299832421819319 0.37167139567480739 0 -0.25294647496632428 0.38005759325682081 0 -0.24572967651828651 0.36900525543871587 0 -0.26438441444990068 0.35850771741332538 0 -0.2357028497736913 0.36240902550015419 0 -0.26299832421819319 0.37167139567480739 0 -0.27220257506238782 0.35817642203336669 0 -0.24572967651828651 0.36900525543871587 0 -0.26438441444990068 0.35850771741332538 0 -0.27220257506238782 0.35817642203336669 0 -0.24572967651828651 0.36900525543871587 0 -0.27220257506238782 0.35817642203336669 0 -0.24572967651828651 0.36900525543871587 0 -0.25466659207164499 0.35502117180237402 0 -0.26438441444990068 0.35850771741332538 0 -0.2357028497736913 0.36240902550015419 0 -0.25371557884191159 0.34380743166075423 0 -0.26069465563877042 0.34722315473434401 0 -0.24967144206090541 0.35042163208402932 0 -0.25466659207164499 0.35502117180237402 0 -0.26069465563877042 0.34722315473434401 0 -0.24967144206090541 0.35042163208402932 0 -0.25466659207164499 0.35502117180237402 0 -0.26069465563877042 0.34722315473434401 0 -0.26594155720487772 0.35200085152975458 0 -0.26069465563877042 0.34722315473434401 0 -0.26594155720487772 0.35200085152975458 0 -0.2701501221767787 0.3477197786564874 0 -0.25466659207164499 0.35502117180237402 0 -0.26438441444990068 0.35850771741332538 0 -0.26594155720487772 0.35200085152975458 0 -0.26438441444990068 0.35850771741332538 0 -0.26594155720487772 0.35200085152975458 0 -0.27220257506238782 0.35817642203336669 0 -0.26594155720487772 0.35200085152975458 0 -0.27220257506238782 0.35817642203336669 0 -0.2701501221767787 0.3477197786564874 0 -0.27918176718848198 0.34193333958109601 0 -0.27220257506238782 0.35817642203336669 0 -0.2701501221767787 0.3477197786564874 0 -0.26816370376676241 0.34002633597338539 0 -0.26069465563877042 0.34722315473434401 0 -0.2701501221767787 0.3477197786564874 0 -0.27220257506238782 0.35817642203336669 0 -0.27665343402888187 0.37070566301894031 0 -0.2871896940202282 0.36069690428792628 0 -0.26299832421819319 0.37167139567480739 0 -0.27220257506238782 0.35817642203336669 0 -0.27665343402888187 0.37070566301894031 0 -0.28883535335287369 0.36865889673806301 0 -0.30090079873372372 0.36955124881195073 0 -0.284532600864985 0.38337074024290319 0 -0.27665343402888187 0.37070566301894031 0 -0.28883535335287369 0.36865889673806301 0 -0.284532600864985 0.38337074024290319 0 -0.27665343402888187 0.37070566301894031 0 -0.28883535335287369 0.36865889673806301 0 -0.2871896940202282 0.36069690428792628 0 -0.28883535335287369 0.36865889673806301 0 -0.2871896940202282 0.36069690428792628 0 -0.30015580265987157 0.36005784091459792 0 -0.28883535335287369 0.36865889673806301 0 -0.30090079873372372 0.36955124881195073 0 -0.30015580265987157 0.36005784091459792 0 -0.27220257506238782 0.35817642203336669 0 -0.29867547360648899 0.34734758862801751 0 -0.27918176718848198 0.34193333958109601 0 -0.27220257506238782 0.35817642203336669 0 -0.29867547360648899 0.34734758862801751 0 -0.27220257506238782 0.35817642203336669 0 -0.2871896940202282 0.36069690428792628 0 -0.29867547360648899 0.34734758862801751 0 -0.2871896940202282 0.36069690428792628 0 -0.29867547360648899 0.34734758862801751 0 -0.30015580265987157 0.36005784091459792 0 -0.29867547360648899 0.34734758862801751 0 -0.30015580265987157 0.36005784091459792 0 -0.31442068948840052 0.34806627245865929 0 -0.30015580265987157 0.36005784091459792 0 -0.31091280675751509 0.3660261345629704 0 -0.31442068948840052 0.34806627245865929 0 -0.30090079873372372 0.36955124881195073 0 -0.30015580265987157 0.36005784091459792 0 -0.31091280675751509 0.3660261345629704 0 -0.30090079873372372 0.36955124881195073 0 -0.31091280675751509 0.3660261345629704 0 -0.30275127351549191 0.38119597943668843 0 -0.31091280675751509 0.3660261345629704 0 -0.32302621295961148 0.3702919166429145 0 -0.31834376057717989 0.38317200513616367 0 -0.31091280675751509 0.3660261345629704 0 -0.32302621295961148 0.3702919166429145 0 -0.320399234300008 0.35808276187491639 0 -0.32302621295961148 0.3702919166429145 0 -0.33206002267044898 0.35839752030637401 0 -0.320399234300008 0.35808276187491639 0 -0.33206002267044898 0.35839752030637401 0 -0.337406314536704 0.37973885523989442 0 -0.33206002267044898 0.35839752030637401 0 -0.34501843976907259 0.35887084849113099 0 -0.337406314536704 0.37973885523989442 0 -0.32302621295961148 0.3702919166429145 0 -0.33206002267044898 0.35839752030637401 0 -0.337406314536704 0.37973885523989442 0 -0.34008287761616668 0.34884151771868283 0 -0.33206002267044898 0.35839752030637401 0 -0.32644611332699969 0.33598790957389307 0 -0.33206002267044898 0.35839752030637401 0 -0.32644611332699969 0.33598790957389307 0 -0.34008287761616668 0.34884151771868283 0 -0.33206002267044898 0.35839752030637401 0 -0.34501843976907259 0.35887084849113099 0 -0.33206002267044898 0.35839752030637401 0 -0.320399234300008 0.35808276187491639 0 -0.32644611332699969 0.33598790957389307 0 -0.29867547360648899 0.34734758862801751 0 -0.31442068948840052 0.34806627245865929 0 -0.32644611332699969 0.33598790957389307 0 -0.31091280675751509 0.3660261345629704 0 -0.31442068948840052 0.34806627245865929 0 -0.320399234300008 0.35808276187491639 0 -0.31442068948840052 0.34806627245865929 0 -0.320399234300008 0.35808276187491639 0 -0.32644611332699969 0.33598790957389307 0 -0.29867547360648899 0.34734758862801751 0 -0.32644611332699969 0.33598790957389307 0 -0.30531357934385678 0.3297089320216281 0 -0.32644611332699969 0.33598790957389307 0 -0.31846284915318968 0.30951874404842378 0 -0.32644611332699969 0.33598790957389307 0 -0.32893089756765992 0.3217477663844116 0 -0.31846284915318968 0.30951874404842378 0 -0.30531357934385678 0.3297089320216281 0 -0.32644611332699969 0.33598790957389307 0 -0.31846284915318968 0.30951874404842378 0 -0.32644611332699969 0.33598790957389307 0 -0.32959148881250322 0.31080975928432708 0 -0.31846284915318968 0.30951874404842378 0 -0.32893089756765992 0.3217477663844116 0 -0.32959148881250322 0.31080975928432708 0 -0.34245101875760398 0.32115829673794938 0 -0.34729914325495242 0.31854795490585452 0 -0.32959148881250322 0.31080975928432708 0 -0.34245101875760398 0.32115829673794938 0 -0.33983027847095809 0.33051306916787609 0 -0.32959148881250322 0.31080975928432708 0 -0.33983027847095809 0.33051306916787609 0 -0.32959148881250322 0.31080975928432708 0 -0.32893089756765992 0.3217477663844116 0 -0.33983027847095809 0.33051306916787609 0 -0.32644611332699969 0.33598790957389307 0 -0.33983027847095809 0.33051306916787609 0 -0.3468170099712552 0.34395818723506211 0 -0.34008287761616668 0.34884151771868283 0 -0.32644611332699969 0.33598790957389307 0 -0.3468170099712552 0.34395818723506211 0 -0.32644611332699969 0.33598790957389307 0 -0.3468170099712552 0.34395818723506211 0 -0.32644611332699969 0.33598790957389307 0 -0.33983027847095809 0.33051306916787609 0 -0.32644611332699969 0.33598790957389307 0 -0.32893089756765992 0.3217477663844116 0 -0.33983027847095809 0.33051306916787609 0 -0.33983027847095809 0.33051306916787609 0 -0.3468170099712552 0.34395818723506211 0 -0.34887219078005532 0.33428185641332853 0 -0.35818328085290829 0.3365722974105485 0 -0.3468170099712552 0.34395818723506211 0 -0.33983027847095809 0.33051306916787609 0 -0.34887219078005532 0.33428185641332853 0 -0.3468170099712552 0.34395818723506211 0 -0.35818328085290829 0.3365722974105485 0 -0.36357617109729828 0.34971206252773102 0 -0.3468170099712552 0.34395818723506211 0 -0.33983027847095809 0.33051306916787609 0 -0.35065819382508728 0.32608387183983428 0 -0.33983027847095809 0.33051306916787609 0 -0.34887219078005532 0.33428185641332853 0 -0.35065819382508728 0.32608387183983428 0 -0.35818328085290829 0.3365722974105485 0 -0.35065819382508728 0.32608387183983428 0 -0.36404656714331268 0.32489206966968559 0 -0.34887219078005532 0.33428185641332853 0 -0.35818328085290829 0.3365722974105485 0 -0.35065819382508728 0.32608387183983428 0 -0.32959148881250322 0.31080975928432708 0 -0.34729914325495242 0.31854795490585452 0 -0.35806882931646339 0.31411336885334412 0 -0.34245101875760398 0.32115829673794938 0 -0.34729914325495242 0.31854795490585452 0 -0.35065819382508728 0.32608387183983428 0 -0.34245101875760398 0.32115829673794938 0 -0.33983027847095809 0.33051306916787609 0 -0.35065819382508728 0.32608387183983428 0 -0.34729914325495242 0.31854795490585452 0 -0.35065819382508728 0.32608387183983428 0 -0.35572618556310281 0.32057447781381782 0 -0.35065819382508728 0.32608387183983428 0 -0.35572618556310281 0.32057447781381782 0 -0.36404656714331268 0.32489206966968559 0 -0.34729914325495242 0.31854795490585452 0 -0.35572618556310281 0.32057447781381782 0 -0.35806882931646339 0.31411336885334412 0 -0.35572618556310281 0.32057447781381782 0 -0.35806882931646339 0.31411336885334412 0 -0.36404656714331268 0.32489206966968559 0 -0.38654616982042372 0.31741697842236022 0 -0.37065070190367372 0.30980073008133369 0 -0.35806882931646339 0.31411336885334412 0 -0.38654616982042372 0.31741697842236022 0 -0.35806882931646339 0.31411336885334412 0 -0.36404656714331268 0.32489206966968559 0 -0.38654616982042372 0.31741697842236022 0 -0.35806882931646339 0.31411336885334412 0 -0.37509674348189148 0.33459142367820882 0 -0.35818328085290829 0.3365722974105485 0 -0.36357617109729828 0.34971206252773102 0 -0.37509674348189148 0.33459142367820882 0 -0.35818328085290829 0.3365722974105485 0 -0.36404656714331268 0.32489206966968559 0 -0.38128331200723659 0.35031905336320679 0 -0.37509674348189148 0.33459142367820882 0 -0.36357617109729828 0.34971206252773102 0 -0.38128331200723659 0.35031905336320679 0 -0.36357617109729828 0.34971206252773102 0 -0.36679453861728428 0.36342729629386211 0 -0.36357617109729828 0.34971206252773102 0 -0.36679453861728428 0.36342729629386211 0 -0.35567589722336829 0.35757552677403481 0 -0.36679453861728428 0.36342729629386211 0 -0.35377472891918532 0.36804793730359248 0 -0.36242496125058837 0.38469227793789762 0 -0.38209731609821151 0.36830436570237629 0 -0.36679453861728428 0.36342729629386211 0 -0.36242496125058837 0.38469227793789762 0 -0.35377472891918532 0.36804793730359248 0 -0.34501843976907259 0.35887084849113099 0 -0.337406314536704 0.37973885523989442 0 -0.36679453861728428 0.36342729629386211 0 -0.35377472891918532 0.36804793730359248 0 -0.35567589722336829 0.35757552677403481 0 -0.35377472891918532 0.36804793730359248 0 -0.34501843976907259 0.35887084849113099 0 -0.35567589722336829 0.35757552677403481 0 -0.36357617109729828 0.34971206252773102 0 -0.3468170099712552 0.34395818723506211 0 -0.34501843976907259 0.35887084849113099 0 -0.34840942225241073 0.34702259168955191 0 -0.35567589722336829 0.35757552677403481 0 -0.34008287761616668 0.34884151771868283 0 -0.34501843976907259 0.35887084849113099 0 -0.34840942225241073 0.34702259168955191 0 -0.36357617109729828 0.34971206252773102 0 -0.3468170099712552 0.34395818723506211 0 -0.34840942225241073 0.34702259168955191 0 -0.34008287761616668 0.34884151771868283 0 -0.3468170099712552 0.34395818723506211 0 -0.34840942225241073 0.34702259168955191 0 -0.3468170099712552 0.34395818723506211 0 -0.34840942225241073 0.34702259168955191 0 -0.36357617109729828 0.34971206252773102 0 -0.34840942225241073 0.34702259168955191 0 -0.35567589722336829 0.35757552677403481 0 -0.35809618822692069 0.40401231808818799 0 -0.36242496125058837 0.38469227793789762 0 -0.34275260640296162 0.40108019017341401 0 -0.36242496125058837 0.38469227793789762 0 -0.34275260640296162 0.40108019017341401 0 -0.35809618822692069 0.40401231808818799 0 -0.34460039002708659 0.40845617528490558 0 -0.34275260640296162 0.40108019017341401 0 -0.35377472891918532 0.36804793730359248 0 -0.36242496125058837 0.38469227793789762 0 -0.337406314536704 0.37973885523989442 0 -0.36242496125058837 0.38469227793789762 0 -0.34275260640296162 0.40108019017341401 0 -0.337406314536704 0.37973885523989442 0 -0.38209731609821151 0.36830436570237629 0 -0.36242496125058837 0.38469227793789762 0 -0.37594982304109459 0.40469205941162067 0 -0.35809618822692069 0.40401231808818799 0 -0.36242496125058837 0.38469227793789762 0 -0.37594982304109459 0.40469205941162067 0 -0.35809618822692069 0.40401231808818799 0 -0.36668552865350051 0.41677863554703831 0 -0.38037333075783403 0.4243344310955442 0 -0.37594982304109459 0.40469205941162067 0 -0.36668552865350051 0.41677863554703831 0 -0.35809618822692069 0.40401231808818799 0 -0.36668552865350051 0.41677863554703831 0 -0.35540544817415443 0.4127354578582626 0 -0.36668552865350051 0.41677863554703831 0 -0.35223968578911002 0.42169470251291857 0 -0.36317059986857619 0.44068228548805921 0 -0.38037333075783403 0.4243344310955442 0 -0.36668552865350051 0.41677863554703831 0 -0.36317059986857619 0.44068228548805921 0 -0.34023661454501608 0.43148169709647449 0 -0.36317059986857619 0.44068228548805921 0 -0.35223968578911002 0.42169470251291857 0 -0.34023661454501608 0.43148169709647449 0 -0.36317059986857619 0.44068228548805921 0 -0.35809618822692069 0.40401231808818799 0 -0.35540544817415443 0.4127354578582626 0 -0.34460039002708659 0.40845617528490558 0 -0.36668552865350051 0.41677863554703831 0 -0.35540544817415443 0.4127354578582626 0 -0.35223968578911002 0.42169470251291857 0 -0.35223968578911002 0.42169470251291857 0 -0.34460039002708659 0.40845617528490558 0 -0.33688138747897578 0.41911886660766828 0 -0.35540544817415443 0.4127354578582626 0 -0.35223968578911002 0.42169470251291857 0 -0.34460039002708659 0.40845617528490558 0 -0.33002761781221041 0.41168064943915361 0 -0.34275260640296162 0.40108019017341401 0 -0.34460039002708659 0.40845617528490558 0 -0.33688138747897578 0.41911886660766828 0 -0.33002761781221041 0.41168064943915361 0 -0.34460039002708659 0.40845617528490558 0 -0.33002761781221041 0.41168064943915361 0 -0.34275260640296162 0.40108019017341401 0 -0.33688138747897578 0.41911886660766828 0 -0.34023661454501608 0.43148169709647449 0 -0.31730262922145602 0.42228110870488922 0 -0.34023661454501608 0.43148169709647449 0 -0.31730262922145602 0.42228110870488922 0 -0.35223968578911002 0.42169470251291857 0 -0.33688138747897578 0.41911886660766828 0 -0.34023661454501608 0.43148169709647449 0 -0.34023661454501608 0.43148169709647449 0 -0.31730262922145602 0.42228110870488922 0 -0.31958102217871109 0.43550553762729682 0 -0.31958102217871109 0.43550553762729682 0 -0.30620054542442809 0.43152961892678809 0 -0.31225710220618291 0.44539042547610991 0 -0.31730262922145602 0.42228110870488922 0 -0.31958102217871109 0.43550553762729682 0 -0.30620054542442809 0.43152961892678809 0 -0.33688138747897578 0.41911886660766828 0 -0.33002761781221041 0.41168064943915361 0 -0.31730262922145602 0.42228110870488922 0 -0.33002761781221041 0.41168064943915361 0 -0.31730262922145602 0.42228110870488922 0 -0.33002761781221041 0.41168064943915361 0 -0.31730262922145602 0.42228110870488922 0 -0.31715643800928861 0.40918963382776791 0 -0.31715643800928861 0.40918963382776791 0 -0.32671810282872371 0.39718126264794029 0 -0.31038600207856021 0.39747697950604671 0 -0.32671810282872371 0.39718126264794029 0 -0.31834376057717989 0.38317200513616367 0 -0.31038600207856021 0.39747697950604671 0 -0.33002761781221041 0.41168064943915361 0 -0.31715643800928861 0.40918963382776791 0 -0.32671810282872371 0.39718126264794029 0 -0.33002761781221041 0.41168064943915361 0 -0.32671810282872371 0.39718126264794029 0 -0.34275260640296162 0.40108019017341401 0 -0.32671810282872371 0.39718126264794029 0 -0.34275260640296162 0.40108019017341401 0 -0.337406314536704 0.37973885523989442 0 -0.34460039002708659 0.40845617528490558 0 -0.34275260640296162 0.40108019017341401 0 -0.34275260640296162 0.40108019017341401 0 -0.337406314536704 0.37973885523989442 0 -0.32671810282872371 0.39718126264794029 0 -0.337406314536704 0.37973885523989442 0 -0.31834376057717989 0.38317200513616367 0 -0.32302621295961148 0.3702919166429145 0 -0.337406314536704 0.37973885523989442 0 -0.31834376057717989 0.38317200513616367 0 -0.31834376057717989 0.38317200513616367 0 -0.30275127351549191 0.38119597943668843 0 -0.31038600207856021 0.39747697950604671 0 -0.31091280675751509 0.3660261345629704 0 -0.31834376057717989 0.38317200513616367 0 -0.30275127351549191 0.38119597943668843 0 -0.31038600207856021 0.39747697950604671 0 -0.29567081969748837 0.39731729008492039 0 -0.29948161887280528 0.41513172848915958 0 -0.30275127351549191 0.38119597943668843 0 -0.31038600207856021 0.39747697950604671 0 -0.29567081969748837 0.39731729008492039 0 -0.29567081969748837 0.39731729008492039 0 -0.284532600864985 0.38337074024290319 0 -0.28166060852415481 0.4079823482734295 0 -0.30275127351549191 0.38119597943668843 0 -0.29567081969748837 0.39731729008492039 0 -0.284532600864985 0.38337074024290319 0 -0.30090079873372372 0.36955124881195073 0 -0.30275127351549191 0.38119597943668843 0 -0.284532600864985 0.38337074024290319 0 -0.284532600864985 0.38337074024290319 0 -0.26563397615676648 0.38312279316326753 0 -0.2707850682007471 0.39853812849458359 0 -0.27665343402888187 0.37070566301894031 0 -0.284532600864985 0.38337074024290319 0 -0.26563397615676648 0.38312279316326753 0 -0.26299832421819319 0.37167139567480739 0 -0.27665343402888187 0.37070566301894031 0 -0.26563397615676648 0.38312279316326753 0 -0.284532600864985 0.38337074024290319 0 -0.2707850682007471 0.39853812849458359 0 -0.28166060852415481 0.4079823482734295 0 -0.25764559859471758 0.40785097112506757 0 -0.24983189309330309 0.41362842618656659 0 -0.24959154005683579 0.39325419391978811 0 -0.26563397615676648 0.38312279316326753 0 -0.25764559859471758 0.40785097112506757 0 -0.26563397615676648 0.38312279316326753 0 -0.25764559859471758 0.40785097112506757 0 -0.24959154005683579 0.39325419391978811 0 -0.26563397615676648 0.38312279316326753 0 -0.2707850682007471 0.39853812849458359 0 -0.25764559859471758 0.40785097112506757 0 -0.26563397615676648 0.38312279316326753 0 -0.25294647496632428 0.38005759325682081 0 -0.24959154005683579 0.39325419391978811 0 -0.26299832421819319 0.37167139567480739 0 -0.26563397615676648 0.38312279316326753 0 -0.25294647496632428 0.38005759325682081 0 -0.26786558019850709 0.42845613775295238 0 -0.26368243458590163 0.44675118180671752 0 -0.2496572210326661 0.4325791490868669 0 -0.26144049186522039 0.42083429640392411 0 -0.26786558019850709 0.42845613775295238 0 -0.2496572210326661 0.4325791490868669 0 -0.25764559859471758 0.40785097112506757 0 -0.24983189309330309 0.41362842618656659 0 -0.2496572210326661 0.4325791490868669 0 -0.25764559859471758 0.40785097112506757 0 -0.26144049186522039 0.42083429640392411 0 -0.2496572210326661 0.4325791490868669 0 -0.25764559859471758 0.40785097112506757 0 -0.2496572210326661 0.4325791490868669 0 -0.25764559859471758 0.40785097112506757 0 -0.26144049186522039 0.42083429640392411 0 -0.27059356763499148 0.41445092765080832 0 -0.2707850682007471 0.39853812849458359 0 -0.27059356763499148 0.41445092765080832 0 -0.28166060852415481 0.4079823482734295 0 -0.26144049186522039 0.42083429640392411 0 -0.27059356763499148 0.41445092765080832 0 -0.26786558019850709 0.42845613775295238 0 -0.27059356763499148 0.41445092765080832 0 -0.2853438738591676 0.4250018751802046 0 -0.28166060852415481 0.4079823482734295 0 -0.2707850682007471 0.39853812849458359 0 -0.25764559859471758 0.40785097112506757 0 -0.27059356763499148 0.41445092765080832 0 -0.27059356763499148 0.41445092765080832 0 -0.26786558019850709 0.42845613775295238 0 -0.2853438738591676 0.4250018751802046 0 -0.26786558019850709 0.42845613775295238 0 -0.27748129025007678 0.4365028337086666 0 -0.2853438738591676 0.4250018751802046 0 -0.26786558019850709 0.42845613775295238 0 -0.27748129025007678 0.4365028337086666 0 -0.26368243458590163 0.44675118180671752 0 -0.27748129025007678 0.4365028337086666 0 -0.2853438738591676 0.4250018751802046 0 -0.28876381453234778 0.44142177784101078 0 -0.2853438738591676 0.4250018751802046 0 -0.29620133490059392 0.43122873698498881 0 -0.28876381453234778 0.44142177784101078 0 -0.2853438738591676 0.4250018751802046 0 -0.29620133490059392 0.43122873698498881 0 -0.29948161887280528 0.41513172848915958 0 -0.29567081969748837 0.39731729008492039 0 -0.28166060852415481 0.4079823482734295 0 -0.29948161887280528 0.41513172848915958 0 -0.28166060852415481 0.4079823482734295 0 -0.29948161887280528 0.41513172848915958 0 -0.2853438738591676 0.4250018751802046 0 -0.28166060852415481 0.4079823482734295 0 -0.29948161887280528 0.41513172848915958 0 -0.31730262922145602 0.42228110870488922 0 -0.31715643800928861 0.40918963382776791 0 -0.29948161887280528 0.41513172848915958 0 -0.31715643800928861 0.40918963382776791 0 -0.31038600207856021 0.39747697950604671 0 -0.29948161887280528 0.41513172848915958 0 -0.31730262922145602 0.42228110870488922 0 -0.29948161887280528 0.41513172848915958 0 -0.31730262922145602 0.42228110870488922 0 -0.29948161887280528 0.41513172848915958 0 -0.30620054542442809 0.43152961892678809 0 -0.29620133490059392 0.43122873698498881 0 -0.29948161887280528 0.41513172848915958 0 -0.30620054542442809 0.43152961892678809 0 -0.29620133490059392 0.43122873698498881 0 -0.30620054542442809 0.43152961892678809 0 -0.30121682181422038 0.44305868448778091 0 -0.31730262922145602 0.42228110870488922 0 -0.30620054542442809 0.43152961892678809 0 -0.30620054542442809 0.43152961892678809 0 -0.31225710220618291 0.44539042547610991 0 -0.30121682181422038 0.44305868448778091 0 -0.31225710220618291 0.44539042547610991 0 -0.30121682181422038 0.44305868448778091 0 -0.30382855058862829 0.45585847980452759 0 -0.30121682181422038 0.44305868448778091 0 -0.30382855058862829 0.45585847980452759 0 -0.29568441136988199 0.44979083823748239 0 -0.30382855058862829 0.45585847980452759 0 -0.30507639226636812 0.469310496599537 0 -0.31756396898197231 0.46026587921001522 0 -0.31225710220618291 0.44539042547610991 0 -0.30382855058862829 0.45585847980452759 0 -0.31756396898197231 0.46026587921001522 0 -0.30382855058862829 0.45585847980452759 0 -0.29497129839304448 0.45754560872512301 0 -0.29568441136988199 0.44979083823748239 0 -0.30382855058862829 0.45585847980452759 0 -0.29841594296822233 0.46371642775128669 0 -0.29497129839304448 0.45754560872512301 0 -0.30382855058862829 0.45585847980452759 0 -0.29841594296822233 0.46371642775128669 0 -0.30507639226636812 0.469310496599537 0 -0.29841594296822233 0.46371642775128669 0 -0.29751394553031663 0.46909203055493581 0 -0.30507639226636812 0.469310496599537 0 -0.29176778956134758 0.46515109293925389 0 -0.27770764813913851 0.46092321452656682 0 -0.29479565732532859 0.47819010492966563 0 -0.29841594296822233 0.46371642775128669 0 -0.29176778956134758 0.46515109293925389 0 -0.29751394553031663 0.46909203055493581 0 -0.29841594296822233 0.46371642775128669 0 -0.29176778956134758 0.46515109293925389 0 -0.29497129839304448 0.45754560872512301 0 -0.29176778956134758 0.46515109293925389 0 -0.29497129839304448 0.45754560872512301 0 -0.2864151946434319 0.45984391953917092 0 -0.29497129839304448 0.45754560872512301 0 -0.2864151946434319 0.45984391953917092 0 -0.28827694551495409 0.45173527707790229 0 -0.28165149223674107 0.45859981343644179 0 -0.2864151946434319 0.45984391953917092 0 -0.27770764813913851 0.46092321452656682 0 -0.28333256463569129 0.45461830503610862 0 -0.2864151946434319 0.45984391953917092 0 -0.28827694551495409 0.45173527707790229 0 -0.28333256463569129 0.45461830503610862 0 -0.28165149223674107 0.45859981343644179 0 -0.27915056152870288 0.45901381464392121 0 -0.28333256463569129 0.45461830503610862 0 -0.28165149223674107 0.45859981343644179 0 -0.2864151946434319 0.45984391953917092 0 -0.29176778956134758 0.46515109293925389 0 -0.2864151946434319 0.45984391953917092 0 -0.27770764813913851 0.46092321452656682 0 -0.30121682181422038 0.44305868448778091 0 -0.29568441136988199 0.44979083823748239 0 -0.28876381453234778 0.44142177784101078 0 -0.29620133490059392 0.43122873698498881 0 -0.30121682181422038 0.44305868448778091 0 -0.28876381453234778 0.44142177784101078 0 -0.29568441136988199 0.44979083823748239 0 -0.28827694551495409 0.45173527707790229 0 -0.28876381453234778 0.44142177784101078 0 -0.29497129839304448 0.45754560872512301 0 -0.29568441136988199 0.44979083823748239 0 -0.28827694551495409 0.45173527707790229 0 -0.28333256463569129 0.45461830503610862 0 -0.28827694551495409 0.45173527707790229 0 -0.28016950607729191 0.44809028552051061 0 -0.28827694551495409 0.45173527707790229 0 -0.28876381453234778 0.44142177784101078 0 -0.28016950607729191 0.44809028552051061 0 -0.27748129025007678 0.4365028337086666 0 -0.28876381453234778 0.44142177784101078 0 -0.28016950607729191 0.44809028552051061 0 -0.27748129025007678 0.4365028337086666 0 -0.28016950607729191 0.44809028552051061 0 -0.26368243458590163 0.44675118180671752 0 -0.28016950607729191 0.44809028552051061 0 -0.27915056152870288 0.45901381464392121 0 -0.26368243458590163 0.44675118180671752 0 -0.28333256463569129 0.45461830503610862 0 -0.28016950607729191 0.44809028552051061 0 -0.27915056152870288 0.45901381464392121 0 -0.27915056152870288 0.45901381464392121 0 -0.27770764813913851 0.46092321452656682 0 -0.26368243458590163 0.44675118180671752 0 -0.28165149223674107 0.45859981343644179 0 -0.27915056152870288 0.45901381464392121 0 -0.27770764813913851 0.46092321452656682 0 -0.27915056152870288 0.45901381464392121 0 -0.27770764813913851 0.46092321452656682 0 -0.27770764813913851 0.46092321452656682 0 -0.26932895398715773 0.47201069749417218 0 -0.27770764813913851 0.46092321452656682 0 -0.26677117065785799 0.46136822059543148 0 -0.26932895398715773 0.47201069749417218 0 -0.27770764813913851 0.46092321452656682 0 -0.26677117065785799 0.46136822059543148 0 -0.26368243458590163 0.44675118180671752 0 -0.27770764813913851 0.46092321452656682 0 -0.26368243458590163 0.44675118180671752 0 -0.26677117065785799 0.46136822059543148 0 -0.25597665304275091 0.46318011450983188 0 -0.26368243458590163 0.44675118180671752 0 -0.25597665304275091 0.46318011450983188 0 -0.26368243458590163 0.44675118180671752 0 -0.24262435209834449 0.45434953152549101 0 -0.25597665304275091 0.46318011450983188 0 -0.26932895398715773 0.47201069749417218 0 -0.26677117065785799 0.46136822059543148 0 -0.25597665304275091 0.46318011450983188 0 -0.26932895398715773 0.47201069749417218 0 -0.26368243458590163 0.44675118180671752 0 -0.24262435209834449 0.45434953152549101 0 -0.2496572210326661 0.4325791490868669 0 -0.26368243458590163 0.44675118180671752 0 -0.2496572210326661 0.4325791490868669 0 -0.25875334336800238 0.48600534874708617 0 -0.24989183486634051 0.47554602727567552 0 -0.24817773274884899 0.50000000000000167 0 -0.25875334336800238 0.48600534874708617 0 -0.27463347049898701 0.5 0 -0.24817773274884899 0.50000000000000167 0 -0.25875334336800238 0.48600534874708617 0 -0.24817773274884899 0.50000000000000167 0 -0.25875334336800238 0.48600534874708617 0 -0.26932895398715773 0.47201069749417218 0 -0.24989183486634051 0.47554602727567552 0 -0.25597665304275091 0.46318011450983188 0 -0.26932895398715773 0.47201069749417218 0 -0.24989183486634051 0.47554602727567552 0 -0.25875334336800238 0.48600534874708617 0 -0.26932895398715773 0.47201069749417218 0 -0.26932895398715773 0.47201069749417218 0 -0.29258734859625052 0.48739270427587011 0 -0.26932895398715773 0.47201069749417218 0 -0.27382577911259859 0.48635218762928162 0 -0.29258734859625052 0.48739270427587011 0 -0.25875334336800238 0.48600534874708617 0 -0.26932895398715773 0.47201069749417218 0 -0.27382577911259859 0.48635218762928162 0 -0.27770764813913851 0.46092321452656682 0 -0.26932895398715773 0.47201069749417218 0 -0.28360490201196809 0.4746291803065682 0 -0.25875334336800238 0.48600534874708617 0 -0.27463347049898701 0.5 0 -0.27382577911259859 0.48635218762928162 0 -0.27463347049898701 0.5 0 -0.27382577911259859 0.48635218762928162 0 -0.29258734859625052 0.48739270427587011 0 -0.27463347049898701 0.5 0 -0.29258734859625052 0.48739270427587011 0 -0.301089208249125 0.5 0 -0.27770764813913851 0.46092321452656682 0 -0.29479565732532859 0.47819010492966563 0 -0.27770764813913851 0.46092321452656682 0 -0.28360490201196809 0.4746291803065682 0 -0.29479565732532859 0.47819010492966563 0 -0.26932895398715773 0.47201069749417218 0 -0.29258734859625052 0.48739270427587011 0 -0.28360490201196809 0.4746291803065682 0 -0.29258734859625052 0.48739270427587011 0 -0.28360490201196809 0.4746291803065682 0 -0.29479565732532859 0.47819010492966563 0 -0.29176778956134758 0.46515109293925389 0 -0.29479565732532859 0.47819010492966563 0 -0.29751394553031663 0.46909203055493581 0 -0.29479565732532859 0.47819010492966563 0 -0.31000887275755978 0.48035390399218941 0 -0.30507639226636812 0.469310496599537 0 -0.29479565732532859 0.47819010492966563 0 -0.29751394553031663 0.46909203055493581 0 -0.30507639226636812 0.469310496599537 0 -0.31000887275755978 0.48035390399218941 0 -0.30507639226636812 0.469310496599537 0 -0.31733358499946329 0.4731762564972809 0 -0.29258734859625052 0.48739270427587011 0 -0.29479565732532859 0.47819010492966563 0 -0.31188366651151922 0.49545699533276399 0 -0.29479565732532859 0.47819010492966563 0 -0.31000887275755978 0.48035390399218941 0 -0.31188366651151922 0.49545699533276399 0 -0.29258734859625052 0.48739270427587011 0 -0.301089208249125 0.5 0 -0.31188366651151922 0.49545699533276399 0 -0.29479565732532859 0.47819010492966563 0 -0.31188366651151922 0.49545699533276399 0 -0.301089208249125 0.5 0 -0.31188366651151922 0.49545699533276399 0 -0.32754494599926298 0.5 0 -0.31188366651151922 0.49545699533276399 0 -0.32754494599926298 0.5 0 -0.32236863312872599 0.48497924935930542 0 -0.31000887275755978 0.48035390399218941 0 -0.31188366651151922 0.49545699533276399 0 -0.32236863312872599 0.48497924935930542 0 -0.32754494599926298 0.5 0 -0.34229805099410943 0.48424591124332772 0 -0.35400068374940091 0.5 0 -0.32754494599926298 0.5 0 -0.32236863312872599 0.48497924935930542 0 -0.34229805099410943 0.48424591124332772 0 -0.34229805099410943 0.48424591124332772 0 -0.33165005786269031 0.47097175332535751 0 -0.35399153210439682 0.46607698659035868 0 -0.32236863312872599 0.48497924935930542 0 -0.34229805099410943 0.48424591124332772 0 -0.33165005786269031 0.47097175332535751 0 -0.32236863312872599 0.48497924935930542 0 -0.33165005786269031 0.47097175332535751 0 -0.31733358499946329 0.4731762564972809 0 -0.31000887275755978 0.48035390399218941 0 -0.32236863312872599 0.48497924935930542 0 -0.31733358499946329 0.4731762564972809 0 -0.31756396898197231 0.46026587921001522 0 -0.32515170424913742 0.44612435280025081 0 -0.33856889747003888 0.45366022564359942 0 -0.30507639226636812 0.469310496599537 0 -0.31733358499946329 0.4731762564972809 0 -0.31756396898197231 0.46026587921001522 0 -0.33165005786269031 0.47097175332535751 0 -0.31733358499946329 0.4731762564972809 0 -0.31756396898197231 0.46026587921001522 0 -0.31958102217871109 0.43550553762729682 0 -0.31225710220618291 0.44539042547610991 0 -0.32515170424913742 0.44612435280025081 0 -0.31225710220618291 0.44539042547610991 0 -0.31756396898197231 0.46026587921001522 0 -0.32515170424913742 0.44612435280025081 0 -0.34023661454501608 0.43148169709647449 0 -0.31958102217871109 0.43550553762729682 0 -0.32515170424913742 0.44612435280025081 0 -0.34023661454501608 0.43148169709647449 0 -0.32515170424913742 0.44612435280025081 0 -0.33856889747003888 0.45366022564359942 0 -0.33165005786269031 0.47097175332535751 0 -0.33856889747003888 0.45366022564359942 0 -0.35399153210439682 0.46607698659035868 0 -0.33165005786269031 0.47097175332535751 0 -0.31756396898197231 0.46026587921001522 0 -0.33856889747003888 0.45366022564359942 0 -0.33856889747003888 0.45366022564359942 0 -0.35399153210439682 0.46607698659035868 0 -0.36317059986857619 0.44068228548805921 0 -0.34023661454501608 0.43148169709647449 0 -0.33856889747003888 0.45366022564359942 0 -0.36317059986857619 0.44068228548805921 0 -0.38733954571058948 0.44157413214292579 0 -0.36317059986857619 0.44068228548805921 0 -0.36806779317485289 0.45680867075678733 0 -0.38129672728108538 0.46703246784986641 0 -0.36806779317485289 0.45680867075678733 0 -0.36741806294446527 0.47973891824032089 0 -0.35399153210439682 0.46607698659035868 0 -0.36317059986857619 0.44068228548805921 0 -0.36806779317485289 0.45680867075678733 0 -0.35399153210439682 0.46607698659035868 0 -0.36806779317485289 0.45680867075678733 0 -0.36741806294446527 0.47973891824032089 0 -0.38045642149953868 0.5 0 -0.36741806294446527 0.47973891824032089 0 -0.35400068374940091 0.5 0 -0.34229805099410943 0.48424591124332772 0 -0.36741806294446527 0.47973891824032089 0 -0.35400068374940091 0.5 0 -0.34229805099410943 0.48424591124332772 0 -0.35399153210439682 0.46607698659035868 0 -0.36741806294446527 0.47973891824032089 0 -0.15494644630158499 0.48141898926569032 0 -0.14842648531315411 0.49227889548421011 0 -0.1456158841028965 0.46706700089828562 0 -0.14842648531315411 0.49227889548421011 0 -0.1456158841028965 0.46706700089828562 0 -0.14842648531315411 0.49227889548421011 0 -0.13534313414283131 0.48464098420003537 0 -0.1456158841028965 0.46706700089828562 0 -0.15494644630158499 0.48141898926569032 0 -0.1456158841028965 0.46706700089828562 0 -0.16697486653472809 0.47744852820170303 0 -0.15494644630158499 0.48141898926569032 0 -0.14842648531315411 0.49227889548421011 0 -0.15849129243716409 0.49022928259032073 0 -0.14842648531315411 0.49227889548421011 0 -0.1476897824958959 0.5 0 -0.15849129243716409 0.49022928259032073 0 -0.14842648531315411 0.49227889548421011 0 -0.1476897824958959 0.5 0 -0.13534313414283131 0.48464098420003537 0 -0.13534313414283131 0.48464098420003537 0 -0.1187186719160495 0.4790925732486514 0 -0.1209606834513344 0.5 0 -0.1476897824958959 0.5 0 -0.13534313414283131 0.48464098420003537 0 -0.1209606834513344 0.5 0 -0.13534313414283131 0.48464098420003537 0 -0.13012082388154891 0.46793012444718901 0 -0.1187186719160495 0.4790925732486514 0 -0.13534313414283131 0.48464098420003537 0 -0.13012082388154891 0.46793012444718901 0 -0.1456158841028965 0.46706700089828562 0 -0.13012082388154891 0.46793012444718901 0 -0.12692277084980971 0.45722049930380559 0 -0.1180886292381612 0.46571395422137501 0 -0.13012082388154891 0.46793012444718901 0 -0.12692277084980971 0.45722049930380559 0 -0.1360358530395453 0.45384573481098089 0 -0.13012082388154891 0.46793012444718901 0 -0.1360358530395453 0.45384573481098089 0 -0.1456158841028965 0.46706700089828562 0 -0.12692277084980971 0.45722049930380559 0 -0.1360358530395453 0.45384573481098089 0 -0.13410196648747019 0.43978300878784271 0 -0.12692277084980971 0.45722049930380559 0 -0.13410196648747019 0.43978300878784271 0 -0.11808602505663179 0.4545843040578697 0 -0.1360358530395453 0.45384573481098089 0 -0.13410196648747019 0.43978300878784271 0 -0.14280528289263891 0.44185510631236119 0 -0.14280528289263891 0.44185510631236119 0 -0.15133331385936319 0.44117914496175459 0 -0.1456158841028965 0.46706700089828562 0 -0.1360358530395453 0.45384573481098089 0 -0.14280528289263891 0.44185510631236119 0 -0.1456158841028965 0.46706700089828562 0 -0.15133331385936319 0.44117914496175459 0 -0.1456158841028965 0.46706700089828562 0 -0.16392560659007169 0.4576900801579209 0 -0.14280528289263891 0.44185510631236119 0 -0.1456158841028965 0.46706700089828562 0 -0.1456158841028965 0.46706700089828562 0 -0.16392560659007169 0.4576900801579209 0 -0.16697486653472809 0.47744852820170303 0 -0.15133331385936319 0.44117914496175459 0 -0.17733865608834781 0.44264278467621421 0 -0.15133331385936319 0.44117914496175459 0 -0.16392560659007169 0.4576900801579209 0 -0.17733865608834781 0.44264278467621421 0 -0.17733865608834781 0.44264278467621421 0 -0.18494712438669261 0.46376303763213977 0 -0.19149073887182011 0.45203982459842468 0 -0.16392560659007169 0.4576900801579209 0 -0.18494712438669261 0.46376303763213977 0 -0.16697486653472809 0.47744852820170303 0 -0.16392560659007169 0.4576900801579209 0 -0.17733865608834781 0.44264278467621421 0 -0.18494712438669261 0.46376303763213977 0 -0.18494712438669261 0.46376303763213977 0 -0.16697486653472809 0.47744852820170303 0 -0.18778343106273801 0.48565725634002072 0 -0.15494644630158499 0.48141898926569032 0 -0.16697486653472809 0.47744852820170303 0 -0.15849129243716409 0.49022928259032073 0 -0.1476897824958959 0.5 0 -0.15849129243716409 0.49022928259032073 0 -0.17441888154045729 0.5 0 -0.16697486653472809 0.47744852820170303 0 -0.15849129243716409 0.49022928259032073 0 -0.17441888154045729 0.5 0 -0.16697486653472809 0.47744852820170303 0 -0.17441888154045729 0.5 0 -0.18778343106273801 0.48565725634002072 0 -0.17441888154045729 0.5 0 -0.2011479805850187 0.5 0 -0.18778343106273801 0.48565725634002072 0 -0.2011479805850187 0.5 0 -0.18778343106273801 0.48565725634002072 0 -0.20163954072358961 0.47601877432827322 0 -0.18494712438669261 0.46376303763213977 0 -0.18778343106273801 0.48565725634002072 0 -0.20163954072358961 0.47601877432827322 0 -0.20163954072358961 0.47601877432827322 0 -0.21673420457222581 0.48326191002832503 0 -0.21672251153011321 0.46489643393339208 0 -0.2011479805850187 0.5 0 -0.21673420457222581 0.48326191002832503 0 -0.22787707962958001 0.50000000000000244 0 -0.2011479805850187 0.5 0 -0.20163954072358961 0.47601877432827322 0 -0.21673420457222581 0.48326191002832503 0 -0.21673420457222581 0.48326191002832503 0 -0.22787707962958001 0.50000000000000244 0 -0.23525071586396379 0.47717476576274731 0 -0.22787707962958001 0.50000000000000244 0 -0.23525071586396379 0.47717476576274731 0 -0.21673420457222581 0.48326191002832503 0 -0.23525071586396379 0.47717476576274731 0 -0.21672251153011321 0.46489643393339208 0 -0.24989183486634051 0.47554602727567552 0 -0.23525071586396379 0.47717476576274731 0 -0.24817773274884899 0.50000000000000167 0 -0.24989183486634051 0.47554602727567552 0 -0.23525071586396379 0.47717476576274731 0 -0.24262435209834449 0.45434953152549101 0 -0.22787707962958001 0.50000000000000244 0 -0.23525071586396379 0.47717476576274731 0 -0.24817773274884899 0.50000000000000167 0 -0.23477831548260611 0.4458756191428479 0 -0.24262435209834449 0.45434953152549101 0 -0.23892802274745481 0.4369555882836671 0 -0.24262435209834449 0.45434953152549101 0 -0.2496572210326661 0.4325791490868669 0 -0.23892802274745481 0.4369555882836671 0 -0.24262435209834449 0.45434953152549101 0 -0.2496572210326661 0.4325791490868669 0 -0.24262435209834449 0.45434953152549101 0 -0.23174039388316539 0.45359969863975108 0 -0.2293493405463172 0.44557006410513272 0 -0.24262435209834449 0.45434953152549101 0 -0.2293493405463172 0.44557006410513272 0 -0.23477831548260611 0.4458756191428479 0 -0.24262435209834449 0.45434953152549101 0 -0.2293493405463172 0.44557006410513272 0 -0.23477831548260611 0.4458756191428479 0 -0.23147046416818479 0.43807274823539538 0 -0.23892802274745481 0.4369555882836671 0 -0.23525071586396379 0.47717476576274731 0 -0.24262435209834449 0.45434953152549101 0 -0.23029386539861571 0.46043608951306209 0 -0.25597665304275091 0.46318011450983188 0 -0.24262435209834449 0.45434953152549101 0 -0.23525071586396379 0.47717476576274731 0 -0.24262435209834449 0.45434953152549101 0 -0.25597665304275091 0.46318011450983188 0 -0.24989183486634051 0.47554602727567552 0 -0.24262435209834449 0.45434953152549101 0 -0.24262435209834449 0.45434953152549101 0 -0.23174039388316539 0.45359969863975108 0 -0.23029386539861571 0.46043608951306209 0 -0.23525071586396379 0.47717476576274731 0 -0.23029386539861571 0.46043608951306209 0 -0.21672251153011321 0.46489643393339208 0 -0.23174039388316539 0.45359969863975108 0 -0.23029386539861571 0.46043608951306209 0 -0.22469401748938181 0.45404310941531811 0 -0.23029386539861571 0.46043608951306209 0 -0.22469401748938181 0.45404310941531811 0 -0.21672251153011321 0.46489643393339208 0 -0.22469401748938181 0.45404310941531811 0 -0.2158348448700855 0.45215997721446161 0 -0.21672251153011321 0.46489643393339208 0 -0.2293493405463172 0.44557006410513272 0 -0.20920171672992521 0.43224537461613027 0 -0.22469401748938181 0.45404310941531811 0 -0.2293493405463172 0.44557006410513272 0 -0.2158348448700855 0.45215997721446161 0 -0.23174039388316539 0.45359969863975108 0 -0.22469401748938181 0.45404310941531811 0 -0.2293493405463172 0.44557006410513272 0 -0.23477831548260611 0.4458756191428479 0 -0.2293493405463172 0.44557006410513272 0 -0.2293493405463172 0.44557006410513272 0 -0.23147046416818479 0.43807274823539538 0 -0.2234343296846574 0.43298908254934182 0 -0.23477831548260611 0.4458756191428479 0 -0.2293493405463172 0.44557006410513272 0 -0.23147046416818479 0.43807274823539538 0 -0.2293493405463172 0.44557006410513272 0 -0.2158348448700855 0.45215997721446161 0 -0.20334399831733241 0.44410642439067372 0 -0.2293493405463172 0.44557006410513272 0 -0.20334399831733241 0.44410642439067372 0 -0.20920171672992521 0.43224537461613027 0 -0.2293493405463172 0.44557006410513272 0 -0.20334399831733241 0.44410642439067372 0 -0.2158348448700855 0.45215997721446161 0 -0.20334399831733241 0.44410642439067372 0 -0.20250199220474929 0.4585340080357625 0 -0.20163954072358961 0.47601877432827322 0 -0.21672251153011321 0.46489643393339208 0 -0.20250199220474929 0.4585340080357625 0 -0.2158348448700855 0.45215997721446161 0 -0.21672251153011321 0.46489643393339208 0 -0.20250199220474929 0.4585340080357625 0 -0.18494712438669261 0.46376303763213977 0 -0.20163954072358961 0.47601877432827322 0 -0.20250199220474929 0.4585340080357625 0 -0.18494712438669261 0.46376303763213977 0 -0.20250199220474929 0.4585340080357625 0 -0.19149073887182011 0.45203982459842468 0 -0.17733865608834781 0.44264278467621421 0 -0.20334399831733241 0.44410642439067372 0 -0.190589521206698 0.43283195625648518 0 -0.17733865608834781 0.44264278467621421 0 -0.20334399831733241 0.44410642439067372 0 -0.17733865608834781 0.44264278467621421 0 -0.20334399831733241 0.44410642439067372 0 -0.19149073887182011 0.45203982459842468 0 -0.20334399831733241 0.44410642439067372 0 -0.20250199220474929 0.4585340080357625 0 -0.19149073887182011 0.45203982459842468 0 -0.1890540929135329 0.41892068512712838 0 -0.2086279772507055 0.41948384342148798 0 -0.20920171672992521 0.43224537461613027 0 -0.190589521206698 0.43283195625648518 0 -0.1890540929135329 0.41892068512712838 0 -0.20920171672992521 0.43224537461613027 0 -0.20334399831733241 0.44410642439067372 0 -0.190589521206698 0.43283195625648518 0 -0.20920171672992521 0.43224537461613027 0 -0.1890540929135329 0.41892068512712838 0 -0.20920171672992521 0.43224537461613027 0 -0.1890540929135329 0.41892068512712838 0 -0.20656351066939649 0.40671217904975299 0 -0.2086279772507055 0.41948384342148798 0 -0.1890540929135329 0.41892068512712838 0 -0.20656351066939649 0.40671217904975299 0 -0.18478454707370129 0.39393507763115282 0 -0.20656351066939649 0.40671217904975299 0 -0.2086279772507055 0.41948384342148798 0 -0.22110201961253709 0.42081740756568919 0 -0.2086279772507055 0.41948384342148798 0 -0.20920171672992521 0.43224537461613027 0 -0.22110201961253709 0.42081740756568919 0 -0.20920171672992521 0.43224537461613027 0 -0.2234343296846574 0.43298908254934182 0 -0.22110201961253709 0.42081740756568919 0 -0.2309022178906143 0.43001211896695318 0 -0.22110201961253709 0.42081740756568919 0 -0.23840640640890251 0.42121055834365351 0 -0.2293493405463172 0.44557006410513272 0 -0.20920171672992521 0.43224537461613027 0 -0.2234343296846574 0.43298908254934182 0 -0.23147046416818479 0.43807274823539538 0 -0.2309022178906143 0.43001211896695318 0 -0.23892802274745481 0.4369555882836671 0 -0.23147046416818479 0.43807274823539538 0 -0.2234343296846574 0.43298908254934182 0 -0.2309022178906143 0.43001211896695318 0 -0.2234343296846574 0.43298908254934182 0 -0.2309022178906143 0.43001211896695318 0 -0.22110201961253709 0.42081740756568919 0 -0.20656351066939649 0.40671217904975299 0 -0.22987073595133509 0.40972780582361967 0 -0.22110201961253709 0.42081740756568919 0 -0.22987073595133509 0.40972780582361967 0 -0.22110201961253709 0.42081740756568919 0 -0.23840640640890251 0.42121055834365351 0 -0.22987073595133509 0.40972780582361967 0 -0.23840640640890251 0.42121055834365351 0 -0.24983189309330309 0.41362842618656659 0 -0.22987073595133509 0.40972780582361967 0 -0.24983189309330309 0.41362842618656659 0 -0.23454433553374779 0.39673125751531002 0 -0.23840640640890251 0.42121055834365351 0 -0.24983189309330309 0.41362842618656659 0 -0.2496572210326661 0.4325791490868669 0 -0.23840640640890251 0.42121055834365351 0 -0.2496572210326661 0.4325791490868669 0 -0.23892802274745481 0.4369555882836671 0 -0.23840640640890251 0.42121055834365351 0 -0.2496572210326661 0.4325791490868669 0 -0.2309022178906143 0.43001211896695318 0 -0.23840640640890251 0.42121055834365351 0 -0.23892802274745481 0.4369555882836671 0 -0.24077885788153969 0.38323432808752511 0 -0.21925677797418369 0.37983408884406128 0 -0.24572967651828651 0.36900525543871587 0 -0.25294647496632428 0.38005759325682081 0 -0.24077885788153969 0.38323432808752511 0 -0.24572967651828651 0.36900525543871587 0 -0.25294647496632428 0.38005759325682081 0 -0.24077885788153969 0.38323432808752511 0 -0.24959154005683579 0.39325419391978811 0 -0.24983189309330309 0.41362842618656659 0 -0.23454433553374779 0.39673125751531002 0 -0.24983189309330309 0.41362842618656659 0 -0.24959154005683579 0.39325419391978811 0 -0.23454433553374779 0.39673125751531002 0 -0.24077885788153969 0.38323432808752511 0 -0.24959154005683579 0.39325419391978811 0 -0.23454433553374779 0.39673125751531002 0 -0.22987073595133509 0.40972780582361967 0 -0.23454433553374779 0.39673125751531002 0 -0.21857091798311881 0.39601611738283249 0 -0.23454433553374779 0.39673125751531002 0 -0.21925677797418369 0.37983408884406128 0 -0.21857091798311881 0.39601611738283249 0 -0.23454433553374779 0.39673125751531002 0 -0.21925677797418369 0.37983408884406128 0 -0.24077885788153969 0.38323432808752511 0 -0.23454433553374779 0.39673125751531002 0 -0.21925677797418369 0.37983408884406128 0 -0.21925677797418369 0.37983408884406128 0 -0.20202066252394321 0.38688458323760871 0 -0.21925677797418369 0.37983408884406128 0 -0.21378110410619261 0.37923403533860328 0 -0.20702128509748199 0.36631033358698412 0 -0.21925677797418369 0.37983408884406128 0 -0.21857091798311881 0.39601611738283249 0 -0.20202066252394321 0.38688458323760871 0 -0.21925677797418369 0.37983408884406128 0 -0.21378110410619261 0.37923403533860328 0 -0.20202066252394321 0.38688458323760871 0 -0.21378110410619261 0.37923403533860328 0 -0.19928282558994709 0.38658455648487827 0 -0.21378110410619261 0.37923403533860328 0 -0.20202066252394321 0.38688458323760871 0 -0.19928282558994709 0.38658455648487827 0 -0.21378110410619261 0.37923403533860328 0 -0.20444538081826441 0.37982618871215029 0 -0.205608282923845 0.37509123244674808 0 -0.21378110410619261 0.37923403533860328 0 -0.20444538081826441 0.37982618871215029 0 -0.19928282558994709 0.38658455648487827 0 -0.20444538081826441 0.37982618871215029 0 -0.205608282923845 0.37509123244674808 0 -0.20238930791921719 0.37768392740222279 0 -0.20656351066939649 0.40671217904975299 0 -0.22987073595133509 0.40972780582361967 0 -0.21857091798311881 0.39601611738283249 0 -0.20656351066939649 0.40671217904975299 0 -0.21857091798311881 0.39601611738283249 0 -0.20202066252394321 0.38688458323760871 0 -0.20656351066939649 0.40671217904975299 0 -0.20202066252394321 0.38688458323760871 0 -0.18478454707370129 0.39393507763115282 0 -0.20202066252394321 0.38688458323760871 0 -0.19928282558994709 0.38658455648487827 0 -0.18478454707370129 0.39393507763115282 0 -0.20202066252394321 0.38688458323760871 0 -0.18478454707370129 0.39393507763115282 0 -0.1960097373117696 0.37932015788436457 0 -0.2001119327160773 0.38077077838640788 0 -0.1937564164592589 0.38243100731741908 0 -0.1960097373117696 0.37932015788436457 0 -0.19939163521868211 0.37504751006358478 0 -0.1925239818813958 0.37554312700641329 0 -0.1960097373117696 0.37932015788436457 0 -0.19939163521868211 0.37504751006358478 0 -0.2001119327160773 0.38077077838640788 0 -0.205608282923845 0.37509123244674808 0 -0.20238930791921719 0.37768392740222279 0 -0.19939163521868211 0.37504751006358478 0 -0.20238930791921719 0.37768392740222279 0 -0.19939163521868211 0.37504751006358478 0 -0.2001119327160773 0.38077077838640788 0 -0.20444538081826441 0.37982618871215029 0 -0.2001119327160773 0.38077077838640788 0 -0.19928282558994709 0.38658455648487827 0 -0.20444538081826441 0.37982618871215029 0 -0.20238930791921719 0.37768392740222279 0 -0.2001119327160773 0.38077077838640788 0 -0.2001119327160773 0.38077077838640788 0 -0.19928282558994709 0.38658455648487827 0 -0.1937564164592589 0.38243100731741908 0 -0.19928282558994709 0.38658455648487827 0 -0.1937564164592589 0.38243100731741908 0 -0.18424483559210081 0.38517862773730321 0 -0.19928282558994709 0.38658455648487827 0 -0.18478454707370129 0.39393507763115282 0 -0.19928282558994709 0.38658455648487827 0 -0.18424483559210081 0.38517862773730321 0 -0.18478454707370129 0.39393507763115282 0 -0.18913275108640001 0.38030091609414179 0 -0.1937564164592589 0.38243100731741908 0 -0.18424483559210081 0.38517862773730321 0 -0.1960097373117696 0.37932015788436457 0 -0.18913275108640001 0.38030091609414179 0 -0.1937564164592589 0.38243100731741908 0 -0.1960097373117696 0.37932015788436457 0 -0.18913275108640001 0.38030091609414179 0 -0.1925239818813958 0.37554312700641329 0 -0.18913275108640001 0.38030091609414179 0 -0.1925239818813958 0.37554312700641329 0 -0.18715651618064291 0.37454785808288771 0 -0.18424483559210081 0.38517862773730321 0 -0.16818783429843839 0.39005760392182159 0 -0.17098455822307679 0.38295490691091272 0 -0.18913275108640001 0.38030091609414179 0 -0.17932931741606059 0.37893562250087831 0 -0.18715651618064291 0.37454785808288771 0 -0.18424483559210081 0.38517862773730321 0 -0.16818783429843839 0.39005760392182159 0 -0.18478454707370129 0.39393507763115282 0 -0.18913275108640001 0.38030091609414179 0 -0.18424483559210081 0.38517862773730321 0 -0.17932931741606059 0.37893562250087831 0 -0.17932931741606059 0.37893562250087831 0 -0.16817918778124291 0.37560478516395518 0 -0.17098455822307679 0.38295490691091272 0 -0.18424483559210081 0.38517862773730321 0 -0.17932931741606059 0.37893562250087831 0 -0.17098455822307679 0.38295490691091272 0 -0.16817918778124291 0.37560478516395518 0 -0.14640390736759329 0.38379975607232031 0 -0.16817918778124291 0.37560478516395518 0 -0.17098455822307679 0.38295490691091272 0 -0.1530453368133006 0.38678056799814198 0 -0.16818783429843839 0.39005760392182159 0 -0.17098455822307679 0.38295490691091272 0 -0.1530453368133006 0.38678056799814198 0 -0.16817918778124291 0.37560478516395518 0 -0.1530453368133006 0.38678056799814198 0 -0.16818783429843839 0.39005760392182159 0 -0.1621557663279965 0.40319146096421238 0 -0.1530453368133006 0.38678056799814198 0 -0.16818783429843839 0.39005760392182159 0 -0.1621557663279965 0.40319146096421238 0 -0.18478454707370129 0.39393507763115282 0 -0.1623896143780422 0.40528914467879601 0 -0.1621557663279965 0.40319146096421238 0 -0.18478454707370129 0.39393507763115282 0 -0.1623896143780422 0.40528914467879601 0 -0.18478454707370129 0.39393507763115282 0 -0.1621557663279965 0.40319146096421238 0 -0.18478454707370129 0.39393507763115282 0 -0.1890540929135329 0.41892068512712838 0 -0.1623896143780422 0.40528914467879601 0 -0.18478454707370129 0.39393507763115282 0 -0.1890540929135329 0.41892068512712838 0 -0.1623896143780422 0.40528914467879601 0 -0.1708019342342233 0.42785098995511728 0 -0.17733865608834781 0.44264278467621421 0 -0.190589521206698 0.43283195625648518 0 -0.1708019342342233 0.42785098995511728 0 -0.190589521206698 0.43283195625648518 0 -0.1890540929135329 0.41892068512712838 0 -0.1708019342342233 0.42785098995511728 0 -0.15133331385936319 0.44117914496175459 0 -0.1708019342342233 0.42785098995511728 0 -0.15410640695935579 0.42624222403032602 0 -0.15133331385936319 0.44117914496175459 0 -0.17733865608834781 0.44264278467621421 0 -0.1708019342342233 0.42785098995511728 0 -0.1623896143780422 0.40528914467879601 0 -0.1708019342342233 0.42785098995511728 0 -0.15410640695935579 0.42624222403032602 0 -0.1621557663279965 0.40319146096421238 0 -0.1395269855822911 0.41244784429727083 0 -0.1623896143780422 0.40528914467879601 0 -0.15410640695935579 0.42624222403032602 0 -0.13999468168238199 0.41664321172643698 0 -0.1623896143780422 0.40528914467879601 0 -0.1621557663279965 0.40319146096421238 0 -0.1395269855822911 0.41244784429727083 0 -0.1623896143780422 0.40528914467879601 0 -0.1395269855822911 0.41244784429727083 0 -0.13999468168238199 0.41664321172643698 0 -0.1623896143780422 0.40528914467879601 0 -0.13999468168238199 0.41664321172643698 0 -0.14280528289263891 0.44185510631236119 0 -0.13999468168238199 0.41664321172643698 0 -0.14280528289263891 0.44185510631236119 0 -0.15410640695935579 0.42624222403032602 0 -0.13999468168238199 0.41664321172643698 0 -0.14280528289263891 0.44185510631236119 0 -0.15133331385936319 0.44117914496175459 0 -0.15410640695935579 0.42624222403032602 0 -0.13410196648747019 0.43978300878784271 0 -0.14280528289263891 0.44185510631236119 0 -0.13999468168238199 0.41664321172643698 0 -0.13410196648747019 0.43978300878784271 0 -0.13999468168238199 0.41664321172643698 0 -0.1220567580713096 0.42573760777323272 0 -0.1395269855822911 0.41244784429727083 0 -0.1121991491614108 0.42362639308509659 0 -0.1395269855822911 0.41244784429727083 0 -0.13999468168238199 0.41664321172643698 0 -0.1220567580713096 0.42573760777323272 0 -0.1395269855822911 0.41244784429727083 0 -0.1379114858453579 0.39795635083232828 0 -0.1204320164773152 0.41086428511342249 0 -0.13999468168238199 0.41664321172643698 0 -0.1220567580713096 0.42573760777323272 0 -0.1395269855822911 0.41244784429727083 0 -0.13999468168238199 0.41664321172643698 0 -0.1379114858453579 0.39795635083232828 0 -0.1204320164773152 0.41086428511342249 0 -0.1379114858453579 0.39795635083232828 0 -0.12462862695394369 0.39199472698068538 0 -0.1204320164773152 0.41086428511342249 0 -0.1395269855822911 0.41244784429727083 0 -0.1379114858453579 0.39795635083232828 0 -0.1379114858453579 0.39795635083232828 0 -0.13701210588008589 0.38988865599381889 0 -0.12462862695394369 0.39199472698068538 0 -0.1379114858453579 0.39795635083232828 0 -0.13701210588008589 0.38988865599381889 0 -0.13146215695735411 0.37862947135151481 0 -0.14640390736759329 0.38379975607232031 0 -0.12462862695394369 0.39199472698068538 0 -0.14640390736759329 0.38379975607232031 0 -0.12462862695394369 0.39199472698068538 0 -0.13146215695735411 0.37862947135151481 0 -0.1216267648948768 0.37886937585342623 0 -0.12462862695394369 0.39199472698068538 0 -0.13701210588008589 0.38988865599381889 0 -0.14640390736759329 0.38379975607232031 0 -0.12462862695394369 0.39199472698068538 0 -0.13146215695735411 0.37862947135151481 0 -0.14640390736759329 0.38379975607232031 0 -0.13888687198854821 0.37044541086061222 0 -0.1379114858453579 0.39795635083232828 0 -0.13701210588008589 0.38988865599381889 0 -0.14640390736759329 0.38379975607232031 0 -0.16817918778124291 0.37560478516395518 0 -0.14640390736759329 0.38379975607232031 0 -0.1530453368133006 0.38678056799814198 0 -0.16817918778124291 0.37560478516395518 0 -0.14640390736759329 0.38379975607232031 0 -0.15308047782041179 0.37332810631962021 0 -0.1379114858453579 0.39795635083232828 0 -0.14640390736759329 0.38379975607232031 0 -0.1530453368133006 0.38678056799814198 0 -0.14640390736759329 0.38379975607232031 0 -0.15308047782041179 0.37332810631962021 0 -0.13888687198854821 0.37044541086061222 0 -0.1621557663279965 0.40319146096421238 0 -0.1395269855822911 0.41244784429727083 0 -0.14815989364223681 0.40009405602298892 0 -0.1621557663279965 0.40319146096421238 0 -0.1530453368133006 0.38678056799814198 0 -0.14815989364223681 0.40009405602298892 0 -0.1395269855822911 0.41244784429727083 0 -0.1379114858453579 0.39795635083232828 0 -0.14815989364223681 0.40009405602298892 0 -0.1379114858453579 0.39795635083232828 0 -0.1530453368133006 0.38678056799814198 0 -0.14815989364223681 0.40009405602298892 0 -0.1379114858453579 0.39795635083232828 0 -0.1530453368133006 0.38678056799814198 0 -0.15079978054862681 0.34941387539738961 0 -0.14456274572421229 0.36065030133865711 0 -0.13681121494502829 0.35115692631583162 0 -0.15079978054862681 0.34941387539738961 0 -0.15501709268860031 0.3621733970099883 0 -0.1608916875803266 0.35584361107299728 0 -0.15079978054862681 0.34941387539738961 0 -0.15501709268860031 0.3621733970099883 0 -0.14456274572421229 0.36065030133865711 0 -0.15501709268860031 0.3621733970099883 0 -0.15308047782041179 0.37332810631962021 0 -0.14456274572421229 0.36065030133865711 0 -0.15501709268860031 0.3621733970099883 0 -0.15308047782041179 0.37332810631962021 0 -0.159019688772739 0.37053328383060391 0 -0.15308047782041179 0.37332810631962021 0 -0.14456274572421229 0.36065030133865711 0 -0.13888687198854821 0.37044541086061222 0 -0.14456274572421229 0.36065030133865711 0 -0.13888687198854821 0.37044541086061222 0 -0.1325110499623785 0.35965132679492801 0 -0.13146215695735411 0.37862947135151481 0 -0.12474236549148859 0.3667718151423931 0 -0.1216267648948768 0.37886937585342623 0 -0.13146215695735411 0.37862947135151481 0 -0.13888687198854821 0.37044541086061222 0 -0.12474236549148859 0.3667718151423931 0 -0.13888687198854821 0.37044541086061222 0 -0.1325110499623785 0.35965132679492801 0 -0.12474236549148859 0.3667718151423931 0 -0.15079978054862681 0.34941387539738961 0 -0.13681121494502829 0.35115692631583162 0 -0.13321243103561581 0.33844716254396212 0 -0.13681121494502829 0.35115692631583162 0 -0.13321243103561581 0.33844716254396212 0 -0.1209435113518134 0.3511700331842541 0 -0.1325110499623785 0.35965132679492801 0 -0.13681121494502829 0.35115692631583162 0 -0.1209435113518134 0.3511700331842541 0 -0.1325110499623785 0.35965132679492801 0 -0.1209435113518134 0.3511700331842541 0 -0.12474236549148859 0.3667718151423931 0 -0.14456274572421229 0.36065030133865711 0 -0.1325110499623785 0.35965132679492801 0 -0.13681121494502829 0.35115692631583162 0 -0.13321243103561581 0.33844716254396212 0 -0.14253606340471181 0.32399959168472431 0 -0.12292664493747101 0.3132249330219678 0 -0.14253606340471181 0.32399959168472431 0 -0.14547610541237141 0.30477447839142369 0 -0.12292664493747101 0.3132249330219678 0 -0.14253606340471181 0.32399959168472431 0 -0.1672626353532311 0.32236553676428481 0 -0.14547610541237141 0.30477447839142369 0 -0.14253606340471181 0.32399959168472431 0 -0.15524657237749051 0.33443845075159517 0 -0.1672626353532311 0.32236553676428481 0 -0.15079978054862681 0.34941387539738961 0 -0.13321243103561581 0.33844716254396212 0 -0.15524657237749051 0.33443845075159517 0 -0.13321243103561581 0.33844716254396212 0 -0.14253606340471181 0.32399959168472431 0 -0.15524657237749051 0.33443845075159517 0 -0.15524657237749051 0.33443845075159517 0 -0.1672626353532311 0.32236553676428481 0 -0.16711319066767069 0.34546805397532021 0 -0.15079978054862681 0.34941387539738961 0 -0.15524657237749051 0.33443845075159517 0 -0.16711319066767069 0.34546805397532021 0 -0.1672626353532311 0.32236553676428481 0 -0.185723820974382 0.32374315278946397 0 -0.1852142689597335 0.30408400066591901 0 -0.1672626353532311 0.32236553676428481 0 -0.1871419602253557 0.34433793517563499 0 -0.16711319066767069 0.34546805397532021 0 -0.1672626353532311 0.32236553676428481 0 -0.185723820974382 0.32374315278946397 0 -0.1871419602253557 0.34433793517563499 0 -0.1672626353532311 0.32236553676428481 0 -0.1871419602253557 0.34433793517563499 0 -0.1871419602253557 0.34433793517563499 0 -0.17801903500581889 0.35350818591169608 0 -0.18536566776888261 0.36291321258055809 0 -0.1871419602253557 0.34433793517563499 0 -0.17801903500581889 0.35350818591169608 0 -0.16711319066767069 0.34546805397532021 0 -0.17801903500581889 0.35350818591169608 0 -0.16895429946901219 0.35792015062402721 0 -0.17677089694109091 0.3622905000914472 0 -0.15079978054862681 0.34941387539738961 0 -0.16711319066767069 0.34546805397532021 0 -0.1608916875803266 0.35584361107299728 0 -0.16895429946901219 0.35792015062402721 0 -0.1608916875803266 0.35584361107299728 0 -0.16257407452772279 0.36424257835826118 0 -0.17801903500581889 0.35350818591169608 0 -0.16711319066767069 0.34546805397532021 0 -0.16895429946901219 0.35792015062402721 0 -0.16711319066767069 0.34546805397532021 0 -0.16895429946901219 0.35792015062402721 0 -0.1608916875803266 0.35584361107299728 0 -0.16817918778124291 0.37560478516395518 0 -0.15308047782041179 0.37332810631962021 0 -0.159019688772739 0.37053328383060391 0 -0.159019688772739 0.37053328383060391 0 -0.16257407452772279 0.36424257835826118 0 -0.16542483226613849 0.37196834351936692 0 -0.15501709268860031 0.3621733970099883 0 -0.1608916875803266 0.35584361107299728 0 -0.16257407452772279 0.36424257835826118 0 -0.15501709268860031 0.3621733970099883 0 -0.159019688772739 0.37053328383060391 0 -0.16257407452772279 0.36424257835826118 0 -0.16895429946901219 0.35792015062402721 0 -0.16971227146509019 0.36542192496405862 0 -0.17677089694109091 0.3622905000914472 0 -0.16895429946901219 0.35792015062402721 0 -0.16257407452772279 0.36424257835826118 0 -0.16971227146509019 0.36542192496405862 0 -0.16971227146509019 0.36542192496405862 0 -0.16542483226613849 0.37196834351936692 0 -0.1748372541214869 0.37068805222719098 0 -0.16817918778124291 0.37560478516395518 0 -0.16542483226613849 0.37196834351936692 0 -0.1748372541214869 0.37068805222719098 0 -0.16817918778124291 0.37560478516395518 0 -0.159019688772739 0.37053328383060391 0 -0.16542483226613849 0.37196834351936692 0 -0.16542483226613849 0.37196834351936692 0 -0.1748372541214869 0.37068805222719098 0 -0.16257407452772279 0.36424257835826118 0 -0.16971227146509019 0.36542192496405862 0 -0.16542483226613849 0.37196834351936692 0 -0.16817918778124291 0.37560478516395518 0 -0.1748372541214869 0.37068805222719098 0 -0.1748372541214869 0.37068805222719098 0 -0.1830948130324028 0.36956484707013992 0 -0.16817918778124291 0.37560478516395518 0 -0.1830948130324028 0.36956484707013992 0 -0.17932931741606059 0.37893562250087831 0 -0.16817918778124291 0.37560478516395518 0 -0.1830948130324028 0.36956484707013992 0 -0.16817918778124291 0.37560478516395518 0 -0.1748372541214869 0.37068805222719098 0 -0.1830948130324028 0.36956484707013992 0 -0.1748372541214869 0.37068805222719098 0 -0.17677089694109091 0.3622905000914472 0 -0.18536566776888261 0.36291321258055809 0 -0.16971227146509019 0.36542192496405862 0 -0.1748372541214869 0.37068805222719098 0 -0.17677089694109091 0.3622905000914472 0 -0.1748372541214869 0.37068805222719098 0 -0.18536566776888261 0.36291321258055809 0 -0.18536566776888261 0.36291321258055809 0 -0.1830948130324028 0.36956484707013992 0 -0.19092926960948439 0.36849919290708721 0 -0.17801903500581889 0.35350818591169608 0 -0.17677089694109091 0.3622905000914472 0 -0.18536566776888261 0.36291321258055809 0 -0.1830948130324028 0.36956484707013992 0 -0.19092926960948439 0.36849919290708721 0 -0.1748372541214869 0.37068805222719098 0 -0.18536566776888261 0.36291321258055809 0 -0.1830948130324028 0.36956484707013992 0 -0.1830948130324028 0.36956484707013992 0 -0.18715651618064291 0.37454785808288771 0 -0.19092926960948439 0.36849919290708721 0 -0.17932931741606059 0.37893562250087831 0 -0.1830948130324028 0.36956484707013992 0 -0.18715651618064291 0.37454785808288771 0 -0.18536566776888261 0.36291321258055809 0 -0.19092926960948439 0.36849919290708721 0 -0.20702128509748199 0.36631033358698412 0 -0.19092926960948439 0.36849919290708721 0 -0.20702128509748199 0.36631033358698412 0 -0.19939163521868211 0.37504751006358478 0 -0.1925239818813958 0.37554312700641329 0 -0.19092926960948439 0.36849919290708721 0 -0.19939163521868211 0.37504751006358478 0 -0.19092926960948439 0.36849919290708721 0 -0.20702128509748199 0.36631033358698412 0 -0.1925239818813958 0.37554312700641329 0 -0.18715651618064291 0.37454785808288771 0 -0.19092926960948439 0.36849919290708721 0 -0.1871419602253557 0.34433793517563499 0 -0.207943753996127 0.35118730285050148 0 -0.20702128509748199 0.36631033358698412 0 -0.1871419602253557 0.34433793517563499 0 -0.20702128509748199 0.36631033358698412 0 -0.1871419602253557 0.34433793517563499 0 -0.18536566776888261 0.36291321258055809 0 -0.20702128509748199 0.36631033358698412 0 -0.1871419602253557 0.34433793517563499 0 -0.207943753996127 0.35118730285050148 0 -0.20088360148301651 0.34021602490019409 0 -0.207943753996127 0.35118730285050148 0 -0.2124116483776072 0.34042994008413419 0 -0.20088360148301651 0.34021602490019409 0 -0.207943753996127 0.35118730285050148 0 -0.20702128509748199 0.36631033358698412 0 -0.22055375090320781 0.35584756286662161 0 -0.207943753996127 0.35118730285050148 0 -0.22135280803361931 0.34738313558852341 0 -0.2124116483776072 0.34042994008413419 0 -0.207943753996127 0.35118730285050148 0 -0.22055375090320781 0.35584756286662161 0 -0.22135280803361931 0.34738313558852341 0 -0.205608282923845 0.37509123244674808 0 -0.19939163521868211 0.37504751006358478 0 -0.20702128509748199 0.36631033358698412 0 -0.21378110410619261 0.37923403533860328 0 -0.205608282923845 0.37509123244674808 0 -0.20702128509748199 0.36631033358698412 0 -0.21925677797418369 0.37983408884406128 0 -0.20702128509748199 0.36631033358698412 0 -0.20702128509748199 0.36631033358698412 0 -0.22055375090320781 0.35584756286662161 0 -0.2357028497736913 0.36240902550015419 0 -0.21925677797418369 0.37983408884406128 0 -0.20702128509748199 0.36631033358698412 0 -0.2357028497736913 0.36240902550015419 0 -0.21925677797418369 0.37983408884406128 0 -0.24572967651828651 0.36900525543871587 0 -0.21925677797418369 0.37983408884406128 0 -0.24572967651828651 0.36900525543871587 0 -0.2357028497736913 0.36240902550015419 0 -0.20702128509748199 0.36631033358698412 0 -0.2357028497736913 0.36240902550015419 0 -0.22055375090320781 0.35584756286662161 0 -0.22135280803361931 0.34738313558852341 0 -0.23161858693813631 0.35302413474894562 0 -0.23136254294350839 0.34499691046290959 0 -0.23161858693813631 0.35302413474894562 0 -0.23773709819201791 0.35003222878790818 0 -0.22135280803361931 0.34738313558852341 0 -0.23136254294350839 0.34499691046290959 0 -0.23161858693813631 0.35302413474894562 0 -0.22055375090320781 0.35584756286662161 0 -0.23161858693813631 0.35302413474894562 0 -0.2357028497736913 0.36240902550015419 0 -0.23161858693813631 0.35302413474894562 0 -0.24175304794094141 0.35465391090601772 0 -0.23773709819201791 0.35003222878790818 0 -0.25466659207164499 0.35502117180237402 0 -0.24175304794094141 0.35465391090601772 0 -0.2357028497736913 0.36240902550015419 0 -0.23161858693813631 0.35302413474894562 0 -0.24175304794094141 0.35465391090601772 0 -0.2357028497736913 0.36240902550015419 0 -0.24175304794094141 0.35465391090601772 0 -0.23773709819201791 0.35003222878790818 0 -0.2429598695684653 0.35056650829301572 0 -0.23136254294350839 0.34499691046290959 0 -0.23741133781312049 0.34472387299209389 0 -0.23773709819201791 0.35003222878790818 0 -0.23773709819201791 0.35003222878790818 0 -0.24344378631300179 0.34447127630257429 0 -0.2429598695684653 0.35056650829301572 0 -0.23741133781312049 0.34472387299209389 0 -0.23773709819201791 0.35003222878790818 0 -0.24344378631300179 0.34447127630257429 0 -0.25371557884191159 0.34380743166075423 0 -0.24344378631300179 0.34447127630257429 0 -0.24967144206090541 0.35042163208402932 0 -0.24344378631300179 0.34447127630257429 0 -0.2429598695684653 0.35056650829301572 0 -0.24967144206090541 0.35042163208402932 0 -0.24175304794094141 0.35465391090601772 0 -0.2429598695684653 0.35056650829301572 0 -0.24967144206090541 0.35042163208402932 0 -0.25466659207164499 0.35502117180237402 0 -0.24175304794094141 0.35465391090601772 0 -0.24967144206090541 0.35042163208402932 0 -0.26438441444990068 0.35850771741332538 0 -0.24572967651828651 0.36900525543871587 0 -0.2357028497736913 0.36240902550015419 0 -0.23922165832303841 0.32436079899203718 0 -0.23970186742794211 0.31907667489232638 0 -0.24605021070279229 0.32182389422565572 0 -0.23922165832303841 0.32436079899203718 0 -0.23684093116140301 0.32793747658158179 0 -0.2425488149286496 0.32919115772644719 0 -0.23922165832303841 0.32436079899203718 0 -0.23684093116140301 0.32793747658158179 0 -0.23409163980643621 0.32486099241224031 0 -0.23922165832303841 0.32436079899203718 0 -0.23541376982380829 0.32090894653446012 0 -0.23409163980643621 0.32486099241224031 0 -0.23922165832303841 0.32436079899203718 0 -0.23541376982380829 0.32090894653446012 0 -0.23970186742794211 0.31907667489232638 0 -0.23541376982380829 0.32090894653446012 0 -0.23547562199773439 0.31466321164845118 0 -0.23970186742794211 0.31907667489232638 0 -0.23541376982380829 0.32090894653446012 0 -0.23547562199773439 0.31466321164845118 0 -0.23248890988097509 0.31881834973573919 0 -0.23547562199773439 0.31466321164845118 0 -0.23970186742794211 0.31907667489232638 0 -0.2425530272624023 0.31271452219643597 0 -0.25052593196823542 0.31326471468966283 0 -0.25281541477377512 0.3190723322326125 0 -0.24605021070279229 0.32182389422565572 0 -0.25052593196823542 0.31326471468966283 0 -0.2425530272624023 0.31271452219643597 0 -0.24605021070279229 0.32182389422565572 0 -0.23970186742794211 0.31907667489232638 0 -0.2425530272624023 0.31271452219643597 0 -0.24605021070279229 0.32182389422565572 0 -0.24605021070279229 0.32182389422565572 0 -0.2494146023241898 0.33080782046157992 0 -0.2425488149286496 0.32919115772644719 0 -0.25446151906747139 0.32546252620004418 0 -0.24605021070279229 0.32182389422565572 0 -0.2494146023241898 0.33080782046157992 0 -0.23922165832303841 0.32436079899203718 0 -0.24605021070279229 0.32182389422565572 0 -0.2425488149286496 0.32919115772644719 0 -0.25089401013886858 0.33720972681018491 0 -0.2494146023241898 0.33080782046157992 0 -0.24340393179610539 0.33568096817973819 0 -0.2494146023241898 0.33080782046157992 0 -0.24340393179610539 0.33568096817973819 0 -0.2425488149286496 0.32919115772644719 0 -0.25089401013886858 0.33720972681018491 0 -0.24344378631300179 0.34447127630257429 0 -0.24340393179610539 0.33568096817973819 0 -0.25089401013886858 0.33720972681018491 0 -0.25371557884191159 0.34380743166075423 0 -0.24344378631300179 0.34447127630257429 0 -0.24344378631300179 0.34447127630257429 0 -0.24340393179610539 0.33568096817973819 0 -0.23710192380395401 0.33939507641498368 0 -0.23741133781312049 0.34472387299209389 0 -0.24344378631300179 0.34447127630257429 0 -0.23710192380395401 0.33939507641498368 0 -0.23710192380395401 0.33939507641498368 0 -0.23672429277644441 0.33263993968408612 0 -0.23136383848511041 0.33588498376476478 0 -0.23136254294350839 0.34499691046290959 0 -0.23741133781312049 0.34472387299209389 0 -0.23710192380395401 0.33939507641498368 0 -0.23684093116140301 0.32793747658158179 0 -0.2425488149286496 0.32919115772644719 0 -0.23672429277644441 0.33263993968408612 0 -0.24340393179610539 0.33568096817973819 0 -0.2425488149286496 0.32919115772644719 0 -0.23672429277644441 0.33263993968408612 0 -0.24340393179610539 0.33568096817973819 0 -0.23710192380395401 0.33939507641498368 0 -0.23672429277644441 0.33263993968408612 0 -0.23684093116140301 0.32793747658158179 0 -0.23672429277644441 0.33263993968408612 0 -0.23161824997244651 0.32863449409309842 0 -0.23672429277644441 0.33263993968408612 0 -0.23161824997244651 0.32863449409309842 0 -0.23136383848511041 0.33588498376476478 0 -0.23161824997244651 0.32863449409309842 0 -0.23136383848511041 0.33588498376476478 0 -0.22726003422889671 0.33287176390195178 0 -0.23136383848511041 0.33588498376476478 0 -0.22726003422889671 0.33287176390195178 0 -0.2242265650431296 0.33881296251802823 0 -0.23161824997244651 0.32863449409309842 0 -0.22726003422889671 0.33287176390195178 0 -0.2265733881863623 0.32776757508390131 0 -0.23136254294350839 0.34499691046290959 0 -0.23136383848511041 0.33588498376476478 0 -0.2242265650431296 0.33881296251802823 0 -0.23136254294350839 0.34499691046290959 0 -0.23710192380395401 0.33939507641498368 0 -0.23136383848511041 0.33588498376476478 0 -0.22135280803361931 0.34738313558852341 0 -0.2242265650431296 0.33881296251802823 0 -0.2124116483776072 0.34042994008413419 0 -0.22135280803361931 0.34738313558852341 0 -0.23136254294350839 0.34499691046290959 0 -0.2242265650431296 0.33881296251802823 0 -0.2225181294574346 0.33325880404996627 0 -0.22230554301471789 0.3288326356915226 0 -0.2265733881863623 0.32776757508390131 0 -0.22726003422889671 0.33287176390195178 0 -0.2225181294574346 0.33325880404996627 0 -0.2265733881863623 0.32776757508390131 0 -0.22726003422889671 0.33287176390195178 0 -0.2242265650431296 0.33881296251802823 0 -0.2225181294574346 0.33325880404996627 0 -0.2242265650431296 0.33881296251802823 0 -0.2225181294574346 0.33325880404996627 0 -0.21720338863837799 0.3343247275510246 0 -0.2225181294574346 0.33325880404996627 0 -0.21720338863837799 0.3343247275510246 0 -0.21796369039375521 0.32866895924495249 0 -0.2225181294574346 0.33325880404996627 0 -0.22230554301471789 0.3288326356915226 0 -0.21796369039375521 0.32866895924495249 0 -0.22230554301471789 0.3288326356915226 0 -0.22229249076517171 0.32509064783705682 0 -0.21796369039375521 0.32866895924495249 0 -0.22229249076517171 0.32509064783705682 0 -0.217622461036032 0.32221682006755759 0 -0.21796369039375521 0.32866895924495249 0 -0.22229249076517171 0.32509064783705682 0 -0.2217206272694085 0.32080053602495312 0 -0.217622461036032 0.32221682006755759 0 -0.22229249076517171 0.32509064783705682 0 -0.2217206272694085 0.32080053602495312 0 -0.22437161681984499 0.3221196616661311 0 -0.2217206272694085 0.32080053602495312 0 -0.22437161681984499 0.3221196616661311 0 -0.22485002617994579 0.31896063393831509 0 -0.22229249076517171 0.32509064783705682 0 -0.22437161681984499 0.3221196616661311 0 -0.2257814487614602 0.32454247177352108 0 -0.22437161681984499 0.3221196616661311 0 -0.2257814487614602 0.32454247177352108 0 -0.22720156242307021 0.32102556213889077 0 -0.22437161681984499 0.3221196616661311 0 -0.22720156242307021 0.32102556213889077 0 -0.22485002617994579 0.31896063393831509 0 -0.22229249076517171 0.32509064783705682 0 -0.2257814487614602 0.32454247177352108 0 -0.2265733881863623 0.32776757508390131 0 -0.22230554301471789 0.3288326356915226 0 -0.22229249076517171 0.32509064783705682 0 -0.2265733881863623 0.32776757508390131 0 -0.2265733881863623 0.32776757508390131 0 -0.22829870264085361 0.32417340051423632 0 -0.2308718159298751 0.32553008931203348 0 -0.23161824997244651 0.32863449409309842 0 -0.2265733881863623 0.32776757508390131 0 -0.2308718159298751 0.32553008931203348 0 -0.2257814487614602 0.32454247177352108 0 -0.2265733881863623 0.32776757508390131 0 -0.22829870264085361 0.32417340051423632 0 -0.22829870264085361 0.32417340051423632 0 -0.22720156242307021 0.32102556213889077 0 -0.2311510579932857 0.32204527859331539 0 -0.2257814487614602 0.32454247177352108 0 -0.22829870264085361 0.32417340051423632 0 -0.22720156242307021 0.32102556213889077 0 -0.22720156242307021 0.32102556213889077 0 -0.2311510579932857 0.32204527859331539 0 -0.22950617710831411 0.31898773550058418 0 -0.22829870264085361 0.32417340051423632 0 -0.2311510579932857 0.32204527859331539 0 -0.2308718159298751 0.32553008931203348 0 -0.2311510579932857 0.32204527859331539 0 -0.23409163980643621 0.32486099241224031 0 -0.2308718159298751 0.32553008931203348 0 -0.23541376982380829 0.32090894653446012 0 -0.2311510579932857 0.32204527859331539 0 -0.23409163980643621 0.32486099241224031 0 -0.23541376982380829 0.32090894653446012 0 -0.2311510579932857 0.32204527859331539 0 -0.23248890988097509 0.31881834973573919 0 -0.23684093116140301 0.32793747658158179 0 -0.23161824997244651 0.32863449409309842 0 -0.23409163980643621 0.32486099241224031 0 -0.23161824997244651 0.32863449409309842 0 -0.23409163980643621 0.32486099241224031 0 -0.2308718159298751 0.32553008931203348 0 -0.23547562199773439 0.31466321164845118 0 -0.23102782916230971 0.31621356021093489 0 -0.23050926486663439 0.30884660699582639 0 -0.23547562199773439 0.31466321164845118 0 -0.23102782916230971 0.31621356021093489 0 -0.23248890988097509 0.31881834973573919 0 -0.2311510579932857 0.32204527859331539 0 -0.23248890988097509 0.31881834973573919 0 -0.22950617710831411 0.31898773550058418 0 -0.23102782916230971 0.31621356021093489 0 -0.23248890988097509 0.31881834973573919 0 -0.22950617710831411 0.31898773550058418 0 -0.23102782916230971 0.31621356021093489 0 -0.2289159559316063 0.3170695300254322 0 -0.22950617710831411 0.31898773550058418 0 -0.22720156242307021 0.32102556213889077 0 -0.22950617710831411 0.31898773550058418 0 -0.2267274140379533 0.31788869735848863 0 -0.2289159559316063 0.3170695300254322 0 -0.2267274140379533 0.31788869735848863 0 -0.2284024034178479 0.31518812703172128 0 -0.2289159559316063 0.3170695300254322 0 -0.22950617710831411 0.31898773550058418 0 -0.2267274140379533 0.31788869735848863 0 -0.2284024034178479 0.31518812703172128 0 -0.22500591232386641 0.31613327576485212 0 -0.23050926486663439 0.30884660699582639 0 -0.2267274140379533 0.31788869735848863 0 -0.2284024034178479 0.31518812703172128 0 -0.22500591232386641 0.31613327576485212 0 -0.23102782916230971 0.31621356021093489 0 -0.2284024034178479 0.31518812703172128 0 -0.23050926486663439 0.30884660699582639 0 -0.23102782916230971 0.31621356021093489 0 -0.2289159559316063 0.3170695300254322 0 -0.2284024034178479 0.31518812703172128 0 -0.22500591232386641 0.31613327576485212 0 -0.22031409095329871 0.31729256907788261 0 -0.2126963465613978 0.31062784641924979 0 -0.22500591232386641 0.31613327576485212 0 -0.22297266418162981 0.31829675370150068 0 -0.22031409095329871 0.31729256907788261 0 -0.22720156242307021 0.32102556213889077 0 -0.2267274140379533 0.31788869735848863 0 -0.22485002617994579 0.31896063393831509 0 -0.2267274140379533 0.31788869735848863 0 -0.22500591232386641 0.31613327576485212 0 -0.22485002617994579 0.31896063393831509 0 -0.22500591232386641 0.31613327576485212 0 -0.22485002617994579 0.31896063393831509 0 -0.2267274140379533 0.31788869735848863 0 -0.22500591232386641 0.31613327576485212 0 -0.22500591232386641 0.31613327576485212 0 -0.22485002617994579 0.31896063393831509 0 -0.22297266418162981 0.31829675370150068 0 -0.2217206272694085 0.32080053602495312 0 -0.22485002617994579 0.31896063393831509 0 -0.22297266418162981 0.31829675370150068 0 -0.2217206272694085 0.32080053602495312 0 -0.22031409095329871 0.31729256907788261 0 -0.217622461036032 0.32221682006755759 0 -0.2217206272694085 0.32080053602495312 0 -0.22297266418162981 0.31829675370150068 0 -0.22031409095329871 0.31729256907788261 0 -0.22031409095329871 0.31729256907788261 0 -0.21449907917415109 0.31657483686423049 0 -0.2126963465613978 0.31062784641924979 0 -0.21449907917415109 0.31657483686423049 0 -0.20980305181026099 0.31480250149225197 0 -0.2126963465613978 0.31062784641924979 0 -0.21449907917415109 0.31657483686423049 0 -0.217622461036032 0.32221682006755759 0 -0.21052685450874681 0.32010311156260529 0 -0.21449907917415109 0.31657483686423049 0 -0.20980305181026099 0.31480250149225197 0 -0.21052685450874681 0.32010311156260529 0 -0.22031409095329871 0.31729256907788261 0 -0.21449907917415109 0.31657483686423049 0 -0.217622461036032 0.32221682006755759 0 -0.217622461036032 0.32221682006755759 0 -0.21052685450874681 0.32010311156260529 0 -0.21146875894931461 0.32883813010170082 0 -0.217622461036032 0.32221682006755759 0 -0.21796369039375521 0.32866895924495249 0 -0.21146875894931461 0.32883813010170082 0 -0.2040370919772721 0.32430658444704458 0 -0.21052685450874681 0.32010311156260529 0 -0.21146875894931461 0.32883813010170082 0 -0.2040370919772721 0.32430658444704458 0 -0.20536547655596021 0.31683231707481679 0 -0.21052685450874681 0.32010311156260529 0 -0.20536547655596021 0.31683231707481679 0 -0.20980305181026099 0.31480250149225197 0 -0.20515669584535809 0.31074600120880252 0 -0.20536547655596021 0.31683231707481679 0 -0.20980305181026099 0.31480250149225197 0 -0.21052685450874681 0.32010311156260529 0 -0.2242265650431296 0.33881296251802823 0 -0.2124116483776072 0.34042994008413419 0 -0.21720338863837799 0.3343247275510246 0 -0.2124116483776072 0.34042994008413419 0 -0.21720338863837799 0.3343247275510246 0 -0.21146875894931461 0.32883813010170082 0 -0.21720338863837799 0.3343247275510246 0 -0.21796369039375521 0.32866895924495249 0 -0.21146875894931461 0.32883813010170082 0 -0.2040370919772721 0.32430658444704458 0 -0.21146875894931461 0.32883813010170082 0 -0.2039552999335095 0.33317750373333832 0 -0.2124116483776072 0.34042994008413419 0 -0.21146875894931461 0.32883813010170082 0 -0.2039552999335095 0.33317750373333832 0 -0.2124116483776072 0.34042994008413419 0 -0.2039552999335095 0.33317750373333832 0 -0.20088360148301651 0.34021602490019409 0 -0.185723820974382 0.32374315278946397 0 -0.1871419602253557 0.34433793517563499 0 -0.19630587210843689 0.33019625673389119 0 -0.2040370919772721 0.32430658444704458 0 -0.2039552999335095 0.33317750373333832 0 -0.19630587210843689 0.33019625673389119 0 -0.2039552999335095 0.33317750373333832 0 -0.20088360148301651 0.34021602490019409 0 -0.19630587210843689 0.33019625673389119 0 -0.1871419602253557 0.34433793517563499 0 -0.20088360148301651 0.34021602490019409 0 -0.19630587210843689 0.33019625673389119 0 -0.185723820974382 0.32374315278946397 0 -0.19660028980766481 0.31669218747591521 0 -0.1852142689597335 0.30408400066591901 0 -0.2040370919772721 0.32430658444704458 0 -0.20536547655596021 0.31683231707481679 0 -0.19660028980766481 0.31669218747591521 0 -0.20536547655596021 0.31683231707481679 0 -0.19660028980766481 0.31669218747591521 0 -0.20515669584535809 0.31074600120880252 0 -0.2040370919772721 0.32430658444704458 0 -0.19630587210843689 0.33019625673389119 0 -0.19660028980766481 0.31669218747591521 0 -0.185723820974382 0.32374315278946397 0 -0.19630587210843689 0.33019625673389119 0 -0.19660028980766481 0.31669218747591521 0 -0.19660028980766481 0.31669218747591521 0 -0.19824616120904329 0.30648166160624141 0 -0.1852142689597335 0.30408400066591901 0 -0.19821941935762741 0.29942360954802039 0 -0.1927668856466225 0.29280810064296559 0 -0.1852142689597335 0.30408400066591901 0 -0.19821941935762741 0.29942360954802039 0 -0.19824616120904329 0.30648166160624141 0 -0.1852142689597335 0.30408400066591901 0 -0.19821941935762741 0.29942360954802039 0 -0.20435439858760099 0.30477128062638109 0 -0.2066825635588877 0.29744889001803693 0 -0.19821941935762741 0.29942360954802039 0 -0.19824616120904329 0.30648166160624141 0 -0.20435439858760099 0.30477128062638109 0 -0.19660028980766481 0.31669218747591521 0 -0.19824616120904329 0.30648166160624141 0 -0.20515669584535809 0.31074600120880252 0 -0.19824616120904329 0.30648166160624141 0 -0.20515669584535809 0.31074600120880252 0 -0.20435439858760099 0.30477128062638109 0 -0.1927668856466225 0.29280810064296559 0 -0.2066825635588877 0.29744889001803693 0 -0.18835921479390849 0.27876450427122262 0 -0.2066825635588877 0.29744889001803693 0 -0.18835921479390849 0.27876450427122262 0 -0.20276105003442771 0.29185199586355909 0 -0.2066825635588877 0.29744889001803693 0 -0.18835921479390849 0.27876450427122262 0 -0.19821941935762741 0.29942360954802039 0 -0.1927668856466225 0.29280810064296559 0 -0.2066825635588877 0.29744889001803693 0 -0.2094478331347753 0.29058567149685882 0 -0.214542494520396 0.28634216437342969 0 -0.2054738064511169 0.28081333362661459 0 -0.20276105003442771 0.29185199586355909 0 -0.2094478331347753 0.29058567149685882 0 -0.2054738064511169 0.28081333362661459 0 -0.20276105003442771 0.29185199586355909 0 -0.2094478331347753 0.29058567149685882 0 -0.2066825635588877 0.29744889001803693 0 -0.2094478331347753 0.29058567149685882 0 -0.217779251109048 0.29647197360265382 0 -0.214542494520396 0.28634216437342969 0 -0.2094478331347753 0.29058567149685882 0 -0.217779251109048 0.29647197360265382 0 -0.2066825635588877 0.29744889001803693 0 -0.214542494520396 0.28634216437342969 0 -0.226594338080429 0.28732347629936839 0 -0.21300678426245831 0.27455961231332621 0 -0.22500591232386641 0.31613327576485212 0 -0.217779251109048 0.29647197360265382 0 -0.2066825635588877 0.29744889001803693 0 -0.22500591232386641 0.31613327576485212 0 -0.2066825635588877 0.29744889001803693 0 -0.22500591232386641 0.31613327576485212 0 -0.2066825635588877 0.29744889001803693 0 -0.2126963465613978 0.31062784641924979 0 -0.20515669584535809 0.31074600120880252 0 -0.20435439858760099 0.30477128062638109 0 -0.2126963465613978 0.31062784641924979 0 -0.20980305181026099 0.31480250149225197 0 -0.20515669584535809 0.31074600120880252 0 -0.2126963465613978 0.31062784641924979 0 -0.20435439858760099 0.30477128062638109 0 -0.2066825635588877 0.29744889001803693 0 -0.2126963465613978 0.31062784641924979 0 -0.22500591232386641 0.31613327576485212 0 -0.217779251109048 0.29647197360265382 0 -0.226594338080429 0.28732347629936839 0 -0.22500591232386641 0.31613327576485212 0 -0.226594338080429 0.28732347629936839 0 -0.23050926486663439 0.30884660699582639 0 -0.226594338080429 0.28732347629936839 0 -0.2366711740685665 0.30410253536145782 0 -0.22500591232386641 0.31613327576485212 0 -0.23050926486663439 0.30884660699582639 0 -0.226594338080429 0.28732347629936839 0 -0.23547562199773439 0.31466321164845118 0 -0.23050926486663439 0.30884660699582639 0 -0.2366711740685665 0.30410253536145782 0 -0.217779251109048 0.29647197360265382 0 -0.214542494520396 0.28634216437342969 0 -0.226594338080429 0.28732347629936839 0 -0.226594338080429 0.28732347629936839 0 -0.241102982696834 0.29256850575083582 0 -0.2366711740685665 0.30410253536145782 0 -0.226594338080429 0.28732347629936839 0 -0.241102982696834 0.29256850575083582 0 -0.24278264960442039 0.27701439110512699 0 -0.25257339432161108 0.29104602362716259 0 -0.241102982696834 0.29256850575083582 0 -0.24278264960442039 0.27701439110512699 0 -0.25257339432161108 0.29104602362716259 0 -0.241102982696834 0.29256850575083582 0 -0.24689335740914289 0.30335610236106259 0 -0.25052593196823542 0.31326471468966283 0 -0.2425530272624023 0.31271452219643597 0 -0.24689335740914289 0.30335610236106259 0 -0.23547562199773439 0.31466321164845118 0 -0.2425530272624023 0.31271452219643597 0 -0.2366711740685665 0.30410253536145782 0 -0.2425530272624023 0.31271452219643597 0 -0.24689335740914289 0.30335610236106259 0 -0.2366711740685665 0.30410253536145782 0 -0.241102982696834 0.29256850575083582 0 -0.24689335740914289 0.30335610236106259 0 -0.2366711740685665 0.30410253536145782 0 -0.25848859976872818 0.26813131768353199 0 -0.24857359163213399 0.2512888834568589 0 -0.24278264960442039 0.27701439110512699 0 -0.24857359163213399 0.2512888834568589 0 -0.24278264960442039 0.27701439110512699 0 -0.22818276383699301 0.25851367683388488 0 -0.226594338080429 0.28732347629936839 0 -0.22818276383699301 0.25851367683388488 0 -0.226594338080429 0.28732347629936839 0 -0.22818276383699301 0.25851367683388488 0 -0.21300678426245831 0.27455961231332621 0 -0.226594338080429 0.28732347629936839 0 -0.24278264960442039 0.27701439110512699 0 -0.22818276383699301 0.25851367683388488 0 -0.22818276383699301 0.25851367683388488 0 -0.20577329430460611 0.26258048947380691 0 -0.21300678426245831 0.27455961231332621 0 -0.22818276383699301 0.25851367683388488 0 -0.20577329430460611 0.26258048947380691 0 -0.20551020031236289 0.24823120401263299 0 -0.214542494520396 0.28634216437342969 0 -0.21300678426245831 0.27455961231332621 0 -0.2054738064511169 0.28081333362661459 0 -0.20577329430460611 0.26258048947380691 0 -0.21300678426245831 0.27455961231332621 0 -0.20399707201368761 0.27173028100628382 0 -0.21300678426245831 0.27455961231332621 0 -0.20399707201368761 0.27173028100628382 0 -0.2054738064511169 0.28081333362661459 0 -0.20276105003442771 0.29185199586355909 0 -0.2054738064511169 0.28081333362661459 0 -0.191734403036569 0.26896768861138781 0 -0.20276105003442771 0.29185199586355909 0 -0.191734403036569 0.26896768861138781 0 -0.18835921479390849 0.27876450427122262 0 -0.20276105003442771 0.29185199586355909 0 -0.191734403036569 0.26896768861138781 0 -0.20399707201368761 0.27173028100628382 0 -0.2054738064511169 0.28081333362661459 0 -0.191734403036569 0.26896768861138781 0 -0.20577329430460611 0.26258048947380691 0 -0.20399707201368761 0.27173028100628382 0 -0.191734403036569 0.26896768861138781 0 -0.20577329430460611 0.26258048947380691 0 -0.191734403036569 0.26896768861138781 0 -0.19500832208057131 0.25328413736045252 0 -0.191734403036569 0.26896768861138781 0 -0.19500832208057131 0.25328413736045252 0 -0.18070775603871039 0.2460833813592164 0 -0.20577329430460611 0.26258048947380691 0 -0.19500832208057131 0.25328413736045252 0 -0.20551020031236289 0.24823120401263299 0 -0.191734403036569 0.26896768861138781 0 -0.18116240796997379 0.26133494788058981 0 -0.18070775603871039 0.2460833813592164 0 -0.191734403036569 0.26896768861138781 0 -0.18070775603871039 0.2460833813592164 0 -0.18116240796997379 0.26133494788058981 0 -0.17497479995175169 0.25277904663671408 0 -0.17003586602892931 0.26008011852440821 0 -0.18116240796997379 0.26133494788058981 0 -0.17497479995175169 0.25277904663671408 0 -0.18070775603871039 0.2460833813592164 0 -0.17497479995175169 0.25277904663671408 0 -0.17003586602892931 0.26008011852440821 0 -0.16327790141139409 0.23804628007485959 0 -0.17003586602892931 0.26008011852440821 0 -0.15171251726394991 0.24139573277759371 0 -0.17003586602892931 0.26008011852440821 0 -0.15560327814825611 0.26323492728911191 0 -0.15171251726394991 0.24139573277759371 0 -0.17003586602892931 0.26008011852440821 0 -0.17077833489555719 0.27767883323811571 0 -0.15560327814825611 0.26323492728911191 0 -0.15768191989536939 0.27818850559049529 0 -0.17077833489555719 0.27767883323811571 0 -0.15560327814825611 0.26323492728911191 0 -0.191734403036569 0.26896768861138781 0 -0.18835921479390849 0.27876450427122262 0 -0.18116240796997379 0.26133494788058981 0 -0.18835921479390849 0.27876450427122262 0 -0.17003586602892931 0.26008011852440821 0 -0.17077833489555719 0.27767883323811571 0 -0.18835921479390849 0.27876450427122262 0 -0.18116240796997379 0.26133494788058981 0 -0.17003586602892931 0.26008011852440821 0 -0.18835921479390849 0.27876450427122262 0 -0.17003586602892931 0.26008011852440821 0 -0.18012933084070001 0.28935611948881812 0 -0.1852142689597335 0.30408400066591901 0 -0.16352794990767819 0.29344515862586751 0 -0.18835921479390849 0.27876450427122262 0 -0.17077833489555719 0.27767883323811571 0 -0.18012933084070001 0.28935611948881812 0 -0.1927668856466225 0.29280810064296559 0 -0.18835921479390849 0.27876450427122262 0 -0.18012933084070001 0.28935611948881812 0 -0.1927668856466225 0.29280810064296559 0 -0.18012933084070001 0.28935611948881812 0 -0.1852142689597335 0.30408400066591901 0 -0.1672626353532311 0.32236553676428481 0 -0.1852142689597335 0.30408400066591901 0 -0.16352794990767819 0.29344515862586751 0 -0.1672626353532311 0.32236553676428481 0 -0.16352794990767819 0.29344515862586751 0 -0.14547610541237141 0.30477447839142369 0 -0.15768191989536939 0.27818850559049529 0 -0.17077833489555719 0.27767883323811571 0 -0.16352794990767819 0.29344515862586751 0 -0.17077833489555719 0.27767883323811571 0 -0.18012933084070001 0.28935611948881812 0 -0.16352794990767819 0.29344515862586751 0 -0.15768191989536939 0.27818850559049529 0 -0.16352794990767819 0.29344515862586751 0 -0.14443667589966361 0.28205786680994099 0 -0.14443667589966361 0.28205786680994099 0 -0.14547610541237141 0.30477447839142369 0 -0.1321666629714725 0.29355378344175692 0 -0.16352794990767819 0.29344515862586751 0 -0.14443667589966361 0.28205786680994099 0 -0.14547610541237141 0.30477447839142369 0 -0.14547610541237141 0.30477447839142369 0 -0.1321666629714725 0.29355378344175692 0 -0.12292664493747101 0.3132249330219678 0 -0.1321666629714725 0.29355378344175692 0 -0.13127427432977001 0.27509800394389311 0 -0.118550067733606 0.29160319829844988 0 -0.14443667589966361 0.28205786680994099 0 -0.1321666629714725 0.29355378344175692 0 -0.13127427432977001 0.27509800394389311 0 -0.13127427432977001 0.27509800394389311 0 -0.1320028362737912 0.25996576633894292 0 -0.15560327814825611 0.26323492728911191 0 -0.13127427432977001 0.27509800394389311 0 -0.1320028362737912 0.25996576633894292 0 -0.1179911912681629 0.26591767511471381 0 -0.1320028362737912 0.25996576633894292 0 -0.144281141668364 0.25235088839424302 0 -0.1355354318333922 0.23893339269171299 0 -0.144281141668364 0.25235088839424302 0 -0.15560327814825611 0.26323492728911191 0 -0.15171251726394991 0.24139573277759371 0 -0.1320028362737912 0.25996576633894292 0 -0.144281141668364 0.25235088839424302 0 -0.15560327814825611 0.26323492728911191 0 -0.1320028362737912 0.25996576633894292 0 -0.15560327814825611 0.26323492728911191 0 -0.14443667589966361 0.28205786680994099 0 -0.13127427432977001 0.27509800394389311 0 -0.15560327814825611 0.26323492728911191 0 -0.15768191989536939 0.27818850559049529 0 -0.14443667589966361 0.28205786680994099 0 -0.15560327814825611 0.26323492728911191 0 -0.109145448458174 0.27366023454803051 0 -0.096986610281352234 0.27802348529084792 0 -0.105062953840471 0.26209685130078791 0 -0.096986610281352234 0.27802348529084792 0 -0.094963493886911429 0.26354316296618191 0 -0.105062953840471 0.26209685130078791 0 -0.096986610281352234 0.27802348529084792 0 -0.105062953840471 0.26209685130078791 0 -0.109145448458174 0.27366023454803051 0 -0.096986610281352234 0.27802348529084792 0 -0.10938583869400841 0.28368036607338448 0 -0.094963493886911429 0.26354316296618191 0 -0.1078408459320485 0.25661881903500061 0 -0.084453242413801644 0.25337914070412121 0 -0.1078408459320485 0.25661881903500061 0 -0.084453242413801644 0.25337914070412121 0 -0.1078408459320485 0.25661881903500061 0 -0.084453242413801644 0.25337914070412121 0 -0.1027641879707092 0.24488175430230921 0 -0.094963493886911429 0.26354316296618191 0 -0.1078408459320485 0.25661881903500061 0 -0.105062953840471 0.26209685130078791 0 -0.1078408459320485 0.25661881903500061 0 -0.105062953840471 0.26209685130078791 0 -0.1320028362737912 0.25996576633894292 0 -0.1078408459320485 0.25661881903500061 0 -0.11919423465850799 0.23808105084852149 0 -0.1320028362737912 0.25996576633894292 0 -0.1078408459320485 0.25661881903500061 0 -0.1320028362737912 0.25996576633894292 0 -0.1078408459320485 0.25661881903500061 0 -0.1179911912681629 0.26591767511471381 0 -0.1078408459320485 0.25661881903500061 0 -0.105062953840471 0.26209685130078791 0 -0.1179911912681629 0.26591767511471381 0 -0.13127427432977001 0.27509800394389311 0 -0.1179911912681629 0.26591767511471381 0 -0.1170813525046939 0.2777585032816734 0 -0.109145448458174 0.27366023454803051 0 -0.1179911912681629 0.26591767511471381 0 -0.1170813525046939 0.2777585032816734 0 -0.109145448458174 0.27366023454803051 0 -0.105062953840471 0.26209685130078791 0 -0.1179911912681629 0.26591767511471381 0 -0.109145448458174 0.27366023454803051 0 -0.1170813525046939 0.2777585032816734 0 -0.10938583869400841 0.28368036607338448 0 -0.13127427432977001 0.27509800394389311 0 -0.1170813525046939 0.2777585032816734 0 -0.118550067733606 0.29160319829844988 0 -0.118550067733606 0.29160319829844988 0 -0.10938583869400841 0.28368036607338448 0 -0.105165714492216 0.29735640894792081 0 -0.1170813525046939 0.2777585032816734 0 -0.118550067733606 0.29160319829844988 0 -0.10938583869400841 0.28368036607338448 0 -0.118550067733606 0.29160319829844988 0 -0.105165714492216 0.29735640894792081 0 -0.12292664493747101 0.3132249330219678 0 -0.105165714492216 0.29735640894792081 0 -0.1006319108314354 0.31592588568403251 0 -0.12292664493747101 0.3132249330219678 0 -0.1321666629714725 0.29355378344175692 0 -0.118550067733606 0.29160319829844988 0 -0.12292664493747101 0.3132249330219678 0 -0.105165714492216 0.29735640894792081 0 -0.086132374630656386 0.29942815154669528 0 -0.1006319108314354 0.31592588568403251 0 -0.096986610281352234 0.27802348529084792 0 -0.105165714492216 0.29735640894792081 0 -0.086132374630656386 0.29942815154669528 0 -0.096986610281352234 0.27802348529084792 0 -0.10938583869400841 0.28368036607338448 0 -0.105165714492216 0.29735640894792081 0 -0.086132374630656386 0.29942815154669528 0 -0.07028995203266461 0.28832421275380649 0 -0.08192991538020819 0.27627511769350338 0 -0.096986610281352234 0.27802348529084792 0 -0.086132374630656386 0.29942815154669528 0 -0.096986610281352234 0.27802348529084792 0 -0.086132374630656386 0.29942815154669528 0 -0.08192991538020819 0.27627511769350338 0 -0.086132374630656386 0.29942815154669528 0 -0.087895022951511179 0.31657642895814098 0 -0.1006319108314354 0.31592588568403251 0 -0.086132374630656386 0.29942815154669528 0 -0.075278138979960552 0.32083281780254269 0 -0.087895022951511179 0.31657642895814098 0 -0.086132374630656386 0.29942815154669528 0 -0.075278138979960552 0.32083281780254269 0 -0.086132374630656386 0.29942815154669528 0 -0.066785091290881976 0.30322296719753539 0 -0.07028995203266461 0.28832421275380649 0 -0.086132374630656386 0.29942815154669528 0 -0.066785091290881976 0.30322296719753539 0 -0.075278138979960552 0.32083281780254269 0 -0.066785091290881976 0.30322296719753539 0 -0.07028995203266461 0.28832421275380649 0 -0.059645804960414883 0.2917120517532853 0 -0.07028995203266461 0.28832421275380649 0 -0.06746164268847496 0.27797405625788552 0 -0.060649700786863457 0.28300644690647481 0 -0.07028995203266461 0.28832421275380649 0 -0.059645804960414883 0.2917120517532853 0 -0.060649700786863457 0.28300644690647481 0 -0.06746164268847496 0.27797405625788552 0 -0.070891088552512124 0.26773640104241891 0 -0.055836462153411467 0.27559294023601733 0 -0.070891088552512124 0.26773640104241891 0 -0.055836462153411467 0.27559294023601733 0 -0.06746164268847496 0.27797405625788552 0 -0.070891088552512124 0.26773640104241891 0 -0.08192991538020819 0.27627511769350338 0 -0.07028995203266461 0.28832421275380649 0 -0.06746164268847496 0.27797405625788552 0 -0.08192991538020819 0.27627511769350338 0 -0.070891088552512124 0.26773640104241891 0 -0.08192991538020819 0.27627511769350338 0 -0.084453242413801644 0.25337914070412121 0 -0.096986610281352234 0.27802348529084792 0 -0.094963493886911429 0.26354316296618191 0 -0.08192991538020819 0.27627511769350338 0 -0.094963493886911429 0.26354316296618191 0 -0.08192991538020819 0.27627511769350338 0 -0.084453242413801644 0.25337914070412121 0 -0.070891088552512124 0.26773640104241891 0 -0.061065638895554768 0.25013946237324142 0 -0.055836462153411467 0.27559294023601733 0 -0.070891088552512124 0.26773640104241891 0 -0.084453242413801644 0.25337914070412121 0 -0.061065638895554768 0.25013946237324142 0 -0.084453242413801644 0.25337914070412121 0 -0.061065638895554768 0.25013946237324142 0 -0.061065638895554768 0.25013946237324142 0 -0.051938321903969423 0.25895700895738522 0 -0.052373248318230869 0.27740028334175793 0 -0.061065638895554768 0.25013946237324142 0 -0.052373248318230869 0.27740028334175793 0 -0.051938321903969423 0.25895700895738522 0 -0.048393013709758223 0.26698340510342111 0 -0.045121015582092992 0.26344276669215372 0 -0.061065638895554768 0.25013946237324142 0 -0.051938321903969423 0.25895700895738522 0 -0.048694361554094991 0.24842577849378139 0 -0.051938321903969423 0.25895700895738522 0 -0.043342199105482732 0.25525471080365197 0 -0.048694361554094991 0.24842577849378139 0 -0.061065638895554768 0.25013946237324142 0 -0.055836462153411467 0.27559294023601733 0 -0.052373248318230869 0.27740028334175793 0 -0.051938321903969423 0.25895700895738522 0 -0.048393013709758223 0.26698340510342111 0 -0.052373248318230869 0.27740028334175793 0 -0.06746164268847496 0.27797405625788552 0 -0.055836462153411467 0.27559294023601733 0 -0.060649700786863457 0.28300644690647481 0 -0.048393013709758223 0.26698340510342111 0 -0.052373248318230869 0.27740028334175793 0 -0.042479691829251411 0.26979171367035371 0 -0.055836462153411467 0.27559294023601733 0 -0.052373248318230869 0.27740028334175793 0 -0.052531927227638393 0.2858734242125805 0 -0.055836462153411467 0.27559294023601733 0 -0.052373248318230869 0.27740028334175793 0 -0.029686523806315111 0.26320782072151122 0 -0.02852828096372206 0.28108592081469091 0 -0.040781835754311567 0.28344947942961718 0 -0.042479691829251411 0.26979171367035371 0 -0.029686523806315111 0.26320782072151122 0 -0.040781835754311567 0.28344947942961718 0 -0.029686523806315111 0.26320782072151122 0 -0.040781835754311567 0.28344947942961718 0 -0.052373248318230869 0.27740028334175793 0 -0.042479691829251411 0.26979171367035371 0 -0.040781835754311567 0.28344947942961718 0 -0.052373248318230869 0.27740028334175793 0 -0.040781835754311567 0.28344947942961718 0 -0.048393013709758223 0.26698340510342111 0 -0.042479691829251411 0.26979171367035371 0 -0.045121015582092992 0.26344276669215372 0 -0.043342199105482732 0.25525471080365197 0 -0.035811458562190243 0.25245624111265941 0 -0.041806888091651957 0.24601663838827351 0 -0.043342199105482732 0.25525471080365197 0 -0.039288177777066502 0.26083065060006599 0 -0.035811458562190243 0.25245624111265941 0 -0.042479691829251411 0.26979171367035371 0 -0.039288177777066502 0.26083065060006599 0 -0.045121015582092992 0.26344276669215372 0 -0.051938321903969423 0.25895700895738522 0 -0.043342199105482732 0.25525471080365197 0 -0.045121015582092992 0.26344276669215372 0 -0.043342199105482732 0.25525471080365197 0 -0.039288177777066502 0.26083065060006599 0 -0.045121015582092992 0.26344276669215372 0 -0.042479691829251411 0.26979171367035371 0 -0.039288177777066502 0.26083065060006599 0 -0.029686523806315111 0.26320782072151122 0 -0.039288177777066502 0.26083065060006599 0 -0.035811458562190243 0.25245624111265941 0 -0.029686523806315111 0.26320782072151122 0 -0.035811458562190243 0.25245624111265941 0 -0.029686523806315111 0.26320782072151122 0 -0.02897616192434729 0.24763077062481109 0 -0.018934685398372921 0.25391538416849452 0 -0.020624182380926451 0.27350140872586542 0 -0.018934685398372921 0.25391538416849452 0 -0.029686523806315111 0.26320782072151122 0 -0.020624182380926451 0.27350140872586542 0 -0.029686523806315111 0.26320782072151122 0 -0.018591211858318722 0.24296616201340529 0 -0.018934685398372921 0.25391538416849452 0 -0.029686523806315111 0.26320782072151122 0 -0.018591211858318722 0.24296616201340529 0 -0.029686523806315111 0.26320782072151122 0 -0.018591211858318722 0.24296616201340529 0 -0.02897616192434729 0.24763077062481109 0 -0.029686523806315111 0.26320782072151122 0 -0.020624182380926451 0.27350140872586542 0 -0.02852828096372206 0.28108592081469091 0 -0.0054404186780465059 0.26478821024882238 0 -0.0093522862622621144 0.28420943672610149 0 0.0052481500658994066 0.2792492100760936 0 -0.020624182380926451 0.27350140872586542 0 -0.0054404186780465059 0.26478821024882238 0 -0.0093522862622621144 0.28420943672610149 0 -0.0054404186780465059 0.26478821024882238 0 -0.0078416916123964023 0.2487833693736789 0 0.0044984839953912826 0.2499188924550132 0 -0.018934685398372921 0.25391538416849452 0 -0.0054404186780465059 0.26478821024882238 0 -0.0078416916123964023 0.2487833693736789 0 -0.018934685398372921 0.25391538416849452 0 -0.020624182380926451 0.27350140872586542 0 -0.0054404186780465059 0.26478821024882238 0 -0.0063616811426247836 0.30141228279566817 0 -0.022313679363482841 0.29308743328323611 0 -0.0063616811426247836 0.30141228279566817 0 -0.02403217019274009 0.31300957811751351 0 -0.004032943588530782 0.31888470654317191 0 -0.0063616811426247836 0.30141228279566817 0 -0.004032943588530782 0.31888470654317191 0 0.0095903170782337538 0.30973713230809952 0 -0.0063616811426247836 0.30141228279566817 0 -0.0093522862622621144 0.28420943672610149 0 -0.022313679363482841 0.29308743328323611 0 -0.0063616811426247836 0.30141228279566817 0 -0.0093522862622621144 0.28420943672610149 0 0.0030968340097195768 0.29276702124610893 0 -0.0093522862622621144 0.28420943672610149 0 0.0030968340097195768 0.29276702124610893 0 0.0052481500658994066 0.2792492100760936 0 -0.020624182380926451 0.27350140872586542 0 -0.0093522862622621144 0.28420943672610149 0 -0.022313679363482841 0.29308743328323611 0 -0.020624182380926451 0.27350140872586542 0 -0.02852828096372206 0.28108592081469091 0 -0.022313679363482841 0.29308743328323611 0 -0.020624182380926451 0.27350140872586542 0 -0.022313679363482841 0.29308743328323611 0 -0.02852828096372206 0.28108592081469091 0 -0.022313679363482841 0.29308743328323611 0 -0.040781835754311567 0.28344947942961718 0 -0.0063616811426247836 0.30141228279566817 0 -0.022313679363482841 0.29308743328323611 0 -0.02403217019274009 0.31300957811751351 0 -0.022313679363482841 0.29308743328323611 0 -0.02403217019274009 0.31300957811751351 0 -0.022313679363482841 0.29308743328323611 0 -0.036049576673644078 0.30079636807577842 0 -0.02403217019274009 0.31300957811751351 0 -0.036049576673644078 0.30079636807577842 0 -0.050723308846587899 0.30158613987980082 0 -0.041632679591714551 0.31918797506640539 0 -0.036049576673644078 0.30079636807577842 0 -0.041632679591714551 0.31918797506640539 0 -0.02403217019274009 0.31300957811751351 0 -0.022313679363482841 0.29308743328323611 0 -0.040781835754311567 0.28344947942961718 0 -0.022313679363482841 0.29308743328323611 0 -0.036049576673644078 0.30079636807577842 0 -0.040781835754311567 0.28344947942961718 0 -0.036049576673644078 0.30079636807577842 0 -0.040781835754311567 0.28344947942961718 0 -0.050723308846587899 0.30158613987980082 0 -0.040781835754311567 0.28344947942961718 0 -0.050723308846587899 0.30158613987980082 0 -0.040781835754311567 0.28344947942961718 0 -0.052531927227638393 0.2858734242125805 0 -0.050723308846587899 0.30158613987980082 0 -0.052531927227638393 0.2858734242125805 0 -0.059645804960414883 0.2917120517532853 0 -0.050723308846587899 0.30158613987980082 0 -0.052373248318230869 0.27740028334175793 0 -0.040781835754311567 0.28344947942961718 0 -0.052531927227638393 0.2858734242125805 0 -0.055836462153411467 0.27559294023601733 0 -0.052531927227638393 0.2858734242125805 0 -0.060649700786863457 0.28300644690647481 0 -0.052531927227638393 0.2858734242125805 0 -0.059645804960414883 0.2917120517532853 0 -0.060649700786863457 0.28300644690647481 0 -0.066785091290881976 0.30322296719753539 0 -0.059645804960414883 0.2917120517532853 0 -0.050723308846587899 0.30158613987980082 0 -0.050723308846587899 0.30158613987980082 0 -0.060664781938864237 0.31972280032998451 0 -0.066785091290881976 0.30322296719753539 0 -0.050723308846587899 0.30158613987980082 0 -0.060664781938864237 0.31972280032998451 0 -0.060664781938864237 0.31972280032998451 0 -0.05387769887216861 0.33445768251155389 0 -0.041632679591714551 0.31918797506640539 0 -0.050723308846587899 0.30158613987980082 0 -0.060664781938864237 0.31972280032998451 0 -0.041632679591714551 0.31918797506640539 0 -0.05387769887216861 0.33445768251155389 0 -0.040246770424792022 0.33553931434311729 0 -0.050713971006182523 0.351177011903753 0 -0.05387769887216861 0.33445768251155389 0 -0.050713971006182523 0.351177011903753 0 -0.070606255031140555 0.33785946078016799 0 -0.060664781938864237 0.31972280032998451 0 -0.05387769887216861 0.33445768251155389 0 -0.070606255031140555 0.33785946078016799 0 -0.05387769887216861 0.33445768251155389 0 -0.040246770424792022 0.33553931434311729 0 -0.041632679591714551 0.31918797506640539 0 -0.040246770424792022 0.33553931434311729 0 -0.041632679591714551 0.31918797506640539 0 -0.025750661022000219 0.33293172295179069 0 -0.040246770424792022 0.33553931434311729 0 -0.025750661022000219 0.33293172295179069 0 -0.03349731022351822 0.34787589871765789 0 -0.02403217019274009 0.31300957811751351 0 -0.025750661022000219 0.33293172295179069 0 -0.01332512658297386 0.32960253398769862 0 -0.02403217019274009 0.31300957811751351 0 -0.025750661022000219 0.33293172295179069 0 -0.041632679591714551 0.31918797506640539 0 -0.02403217019274009 0.31300957811751351 0 -0.025750661022000219 0.33293172295179069 0 -0.025750661022000219 0.33293172295179069 0 -0.016819304515610749 0.34559925891753079 0 -0.03349731022351822 0.34787589871765789 0 -0.025750661022000219 0.33293172295179069 0 -0.01332512658297386 0.32960253398769862 0 -0.016819304515610749 0.34559925891753079 0 -0.01332512658297386 0.32960253398769862 0 -0.00091397169615309889 0.33551013776220778 0 -0.016819304515610749 0.34559925891753079 0 -0.00091397169615309889 0.33551013776220778 0 -0.001729759820654255 0.348274071856288 0 -0.016819304515610749 0.34559925891753079 0 -0.02403217019274009 0.31300957811751351 0 -0.01332512658297386 0.32960253398769862 0 -0.004032943588530782 0.31888470654317191 0 -0.01332512658297386 0.32960253398769862 0 -0.00091397169615309889 0.33551013776220778 0 -0.004032943588530782 0.31888470654317191 0 -0.00057715577063301854 0.37459337764846962 0 -0.0096468366801115077 0.359339393619792 0 -0.012384922530234479 0.37683766816405939 0 -0.00057715577063301854 0.37459337764846962 0 -0.0096468366801115077 0.359339393619792 0 0.0031281328263341982 0.3657471439459844 0 -0.001729759820654255 0.348274071856288 0 -0.0096468366801115077 0.359339393619792 0 -0.016819304515610749 0.34559925891753079 0 -0.016819304515610749 0.34559925891753079 0 -0.030821686981223732 0.36449456302733702 0 -0.03349731022351822 0.34787589871765789 0 -0.0096468366801115077 0.359339393619792 0 -0.016819304515610749 0.34559925891753079 0 -0.030821686981223732 0.36449456302733702 0 -0.030821686981223732 0.36449456302733702 0 -0.012384922530234479 0.37683766816405939 0 -0.0096468366801115077 0.359339393619792 0 -0.030821686981223732 0.36449456302733702 0 -0.012384922530234479 0.37683766816405939 0 -0.0096468366801115077 0.359339393619792 0 -0.030821686981223732 0.36449456302733702 0 -0.030821686981223732 0.36449456302733702 0 -0.050713971006182523 0.351177011903753 0 -0.0584090508422705 0.37121090492297498 0 -0.030821686981223732 0.36449456302733702 0 -0.0584090508422705 0.37121090492297498 0 -0.045477652104280689 0.38449891994064439 0 -0.030821686981223732 0.36449456302733702 0 -0.0584090508422705 0.37121090492297498 0 -0.030821686981223732 0.36449456302733702 0 -0.03349731022351822 0.34787589871765789 0 -0.050713971006182523 0.351177011903753 0 -0.040246770424792022 0.33553931434311729 0 -0.03349731022351822 0.34787589871765789 0 -0.050713971006182523 0.351177011903753 0 -0.030821686981223732 0.36449456302733702 0 -0.050713971006182523 0.351177011903753 0 -0.050713971006182523 0.351177011903753 0 -0.070606255031140555 0.33785946078016799 0 -0.050713971006182523 0.351177011903753 0 -0.0584090508422705 0.37121090492297498 0 -0.066269997538590947 0.35559276419727132 0 -0.0584090508422705 0.37121090492297498 0 -0.076565672180089445 0.37563126480906889 0 -0.0584090508422705 0.37121090492297498 0 -0.074021341902148721 0.36709914170840219 0 -0.076565672180089445 0.37563126480906889 0 -0.0584090508422705 0.37121090492297498 0 -0.074021341902148721 0.36709914170840219 0 -0.066269997538590947 0.35559276419727132 0 -0.092647749217380171 0.36987966587260501 0 -0.1020240030936395 0.37326198192599741 0 -0.085996414703317023 0.37792724681861412 0 -0.074021341902148721 0.36709914170840219 0 -0.085996414703317023 0.37792724681861412 0 -0.076565672180089445 0.37563126480906889 0 -0.074021341902148721 0.36709914170840219 0 -0.08742385495792461 0.36107744635738298 0 -0.077599368911212413 0.35061730167105831 0 -0.074021341902148721 0.36709914170840219 0 -0.085022340195192628 0.36899587518925098 0 -0.085996414703317023 0.37792724681861412 0 -0.074021341902148721 0.36709914170840219 0 -0.085022340195192628 0.36899587518925098 0 -0.08742385495792461 0.36107744635738298 0 -0.085022340195192628 0.36899587518925098 0 -0.08742385495792461 0.36107744635738298 0 -0.092647749217380171 0.36987966587260501 0 -0.085022340195192628 0.36899587518925098 0 -0.092647749217380171 0.36987966587260501 0 -0.085996414703317023 0.37792724681861412 0 -0.08742385495792461 0.36107744635738298 0 -0.092028200686131614 0.34878652592089088 0 -0.077599368911212413 0.35061730167105831 0 -0.092028200686131614 0.34878652592089088 0 -0.077599368911212413 0.35061730167105831 0 -0.082355598706118166 0.33998141023054329 0 -0.077599368911212413 0.35061730167105831 0 -0.066269997538590947 0.35559276419727132 0 -0.070606255031140555 0.33785946078016799 0 -0.050713971006182523 0.351177011903753 0 -0.066269997538590947 0.35559276419727132 0 -0.070606255031140555 0.33785946078016799 0 -0.077599368911212413 0.35061730167105831 0 -0.070606255031140555 0.33785946078016799 0 -0.074021341902148721 0.36709914170840219 0 -0.077599368911212413 0.35061730167105831 0 -0.066269997538590947 0.35559276419727132 0 -0.060664781938864237 0.31972280032998451 0 -0.073587575831974616 0.33586351641645817 0 -0.070606255031140555 0.33785946078016799 0 -0.060664781938864237 0.31972280032998451 0 -0.070606255031140555 0.33785946078016799 0 -0.073587575831974616 0.33586351641645817 0 -0.073557668183015831 0.32648052707210728 0 -0.084700175981263878 0.32950297373944371 0 -0.073587575831974616 0.33586351641645817 0 -0.070606255031140555 0.33785946078016799 0 -0.082355598706118166 0.33998141023054329 0 -0.077599368911212413 0.35061730167105831 0 -0.070606255031140555 0.33785946078016799 0 -0.082355598706118166 0.33998141023054329 0 -0.073587575831974616 0.33586351641645817 0 -0.070606255031140555 0.33785946078016799 0 -0.060664781938864237 0.31972280032998451 0 -0.073587575831974616 0.33586351641645817 0 -0.073557668183015831 0.32648052707210728 0 -0.066785091290881976 0.30322296719753539 0 -0.060664781938864237 0.31972280032998451 0 -0.075278138979960552 0.32083281780254269 0 -0.060664781938864237 0.31972280032998451 0 -0.073557668183015831 0.32648052707210728 0 -0.075278138979960552 0.32083281780254269 0 -0.073557668183015831 0.32648052707210728 0 -0.075278138979960552 0.32083281780254269 0 -0.084700175981263878 0.32950297373944371 0 -0.087895022951511179 0.31657642895814098 0 -0.084700175981263878 0.32950297373944371 0 -0.1006319108314354 0.31592588568403251 0 -0.075278138979960552 0.32083281780254269 0 -0.087895022951511179 0.31657642895814098 0 -0.084700175981263878 0.32950297373944371 0 -0.073587575831974616 0.33586351641645817 0 -0.082355598706118166 0.33998141023054329 0 -0.084700175981263878 0.32950297373944371 0 -0.082355598706118166 0.33998141023054329 0 -0.084700175981263878 0.32950297373944371 0 -0.096088926338317587 0.33599139770082442 0 -0.092028200686131614 0.34878652592089088 0 -0.082355598706118166 0.33998141023054329 0 -0.096088926338317587 0.33599139770082442 0 -0.092028200686131614 0.34878652592089088 0 -0.096088926338317587 0.33599139770082442 0 -0.10534642245872509 0.34565076975966691 0 -0.096088926338317587 0.33599139770082442 0 -0.11237141248648271 0.33365264603603401 0 -0.10534642245872509 0.34565076975966691 0 -0.096088926338317587 0.33599139770082442 0 -0.1006319108314354 0.31592588568403251 0 -0.11237141248648271 0.33365264603603401 0 -0.084700175981263878 0.32950297373944371 0 -0.096088926338317587 0.33599139770082442 0 -0.1006319108314354 0.31592588568403251 0 -0.1006319108314354 0.31592588568403251 0 -0.12292664493747101 0.3132249330219678 0 -0.11237141248648271 0.33365264603603401 0 -0.13321243103561581 0.33844716254396212 0 -0.12292664493747101 0.3132249330219678 0 -0.11237141248648271 0.33365264603603401 0 -0.13321243103561581 0.33844716254396212 0 -0.11237141248648271 0.33365264603603401 0 -0.1209435113518134 0.3511700331842541 0 -0.11237141248648271 0.33365264603603401 0 -0.1209435113518134 0.3511700331842541 0 -0.10534642245872509 0.34565076975966691 0 -0.1209435113518134 0.3511700331842541 0 -0.10534642245872509 0.34565076975966691 0 -0.1053000614308801 0.35865324595633102 0 -0.1209435113518134 0.3511700331842541 0 -0.115783898652794 0.36204822010464599 0 -0.1053000614308801 0.35865324595633102 0 -0.1209435113518134 0.3511700331842541 0 -0.12474236549148859 0.3667718151423931 0 -0.115783898652794 0.36204822010464599 0 -0.12474236549148859 0.3667718151423931 0 -0.113716896507234 0.37230727707828443 0 -0.115783898652794 0.36204822010464599 0 -0.12474236549148859 0.3667718151423931 0 -0.113716896507234 0.37230727707828443 0 -0.1216267648948768 0.37886937585342623 0 -0.113716896507234 0.37230727707828443 0 -0.115783898652794 0.36204822010464599 0 -0.1053000614308801 0.35865324595633102 0 -0.08742385495792461 0.36107744635738298 0 -0.092647749217380171 0.36987966587260501 0 -0.1053000614308801 0.35865324595633102 0 -0.113716896507234 0.37230727707828443 0 -0.1020240030936395 0.37326198192599741 0 -0.1053000614308801 0.35865324595633102 0 -0.092647749217380171 0.36987966587260501 0 -0.1020240030936395 0.37326198192599741 0 -0.1053000614308801 0.35865324595633102 0 -0.08742385495792461 0.36107744635738298 0 -0.092028200686131614 0.34878652592089088 0 -0.1053000614308801 0.35865324595633102 0 -0.092028200686131614 0.34878652592089088 0 -0.10534642245872509 0.34565076975966691 0 -0.1053000614308801 0.35865324595633102 0 -0.102853346540294 0.40018969788905051 0 -0.10455593039059 0.38988857502432189 0 -0.091984552334419017 0.39500712261815191 0 -0.096454411302287962 0.38330242952764509 0 -0.10455593039059 0.38988857502432189 0 -0.091984552334419017 0.39500712261815191 0 -0.096454411302287962 0.38330242952764509 0 -0.1135837785643635 0.38464358871425319 0 -0.085996414703317023 0.37792724681861412 0 -0.1020240030936395 0.37326198192599741 0 -0.1135837785643635 0.38464358871425319 0 -0.085996414703317023 0.37792724681861412 0 -0.096454411302287962 0.38330242952764509 0 -0.10455593039059 0.38988857502432189 0 -0.1135837785643635 0.38464358871425319 0 -0.1135837785643635 0.38464358871425319 0 -0.085996414703317023 0.37792724681861412 0 -0.10455593039059 0.38988857502432189 0 -0.1135837785643635 0.38464358871425319 0 -0.12462862695394369 0.39199472698068538 0 -0.113716896507234 0.37230727707828443 0 -0.1135837785643635 0.38464358871425319 0 -0.1216267648948768 0.37886937585342623 0 -0.113716896507234 0.37230727707828443 0 -0.1020240030936395 0.37326198192599741 0 -0.1135837785643635 0.38464358871425319 0 -0.1135837785643635 0.38464358871425319 0 -0.1216267648948768 0.37886937585342623 0 -0.12462862695394369 0.39199472698068538 0 -0.102853346540294 0.40018969788905051 0 -0.10455593039059 0.38988857502432189 0 -0.12462862695394369 0.39199472698068538 0 -0.102853346540294 0.40018969788905051 0 -0.12462862695394369 0.39199472698068538 0 -0.1204320164773152 0.41086428511342249 0 -0.102853346540294 0.40018969788905051 0 -0.12462862695394369 0.39199472698068538 0 -0.102853346540294 0.40018969788905051 0 -0.1204320164773152 0.41086428511342249 0 -0.1050573828120802 0.4120237942492162 0 -0.1395269855822911 0.41244784429727083 0 -0.1204320164773152 0.41086428511342249 0 -0.1121991491614108 0.42362639308509659 0 -0.1204320164773152 0.41086428511342249 0 -0.1029525471092721 0.42377221939451631 0 -0.1204320164773152 0.41086428511342249 0 -0.1121991491614108 0.42362639308509659 0 -0.1029525471092721 0.42377221939451631 0 -0.1204320164773152 0.41086428511342249 0 -0.1029525471092721 0.42377221939451631 0 -0.1050573828120802 0.4120237942492162 0 -0.1395269855822911 0.41244784429727083 0 -0.1121991491614108 0.42362639308509659 0 -0.1220567580713096 0.42573760777323272 0 -0.1121991491614108 0.42362639308509659 0 -0.1220567580713096 0.42573760777323272 0 -0.1041188344602363 0.43483200382002651 0 -0.13410196648747019 0.43978300878784271 0 -0.1220567580713096 0.42573760777323272 0 -0.1177984319895828 0.4369008461109592 0 -0.1220567580713096 0.42573760777323272 0 -0.1041188344602363 0.43483200382002651 0 -0.1220567580713096 0.42573760777323272 0 -0.1177984319895828 0.4369008461109592 0 -0.1041188344602363 0.43483200382002651 0 -0.1029525471092721 0.42377221939451631 0 -0.094491223870829047 0.41420413853600829 0 -0.084871312740530142 0.43480494187292162 0 -0.1121991491614108 0.42362639308509659 0 -0.1041188344602363 0.43483200382002651 0 -0.084871312740530142 0.43480494187292162 0 -0.1121991491614108 0.42362639308509659 0 -0.084871312740530142 0.43480494187292162 0 -0.1121991491614108 0.42362639308509659 0 -0.1029525471092721 0.42377221939451631 0 -0.084871312740530142 0.43480494187292162 0 -0.1029525471092721 0.42377221939451631 0 -0.1050573828120802 0.4120237942492162 0 -0.094491223870829047 0.41420413853600829 0 -0.102853346540294 0.40018969788905051 0 -0.1050573828120802 0.4120237942492162 0 -0.094491223870829047 0.41420413853600829 0 -0.102853346540294 0.40018969788905051 0 -0.094491223870829047 0.41420413853600829 0 -0.081078066126644088 0.40838466879741492 0 -0.081078066126644088 0.40838466879741492 0 -0.083658092874096174 0.42635476622273438 0 -0.073630366552074611 0.41870295798939872 0 -0.081078066126644088 0.40838466879741492 0 -0.083658092874096174 0.42635476622273438 0 -0.094491223870829047 0.41420413853600829 0 -0.081078066126644088 0.40838466879741492 0 -0.083658092874096174 0.42635476622273438 0 -0.094491223870829047 0.41420413853600829 0 -0.083658092874096174 0.42635476622273438 0 -0.084871312740530142 0.43480494187292162 0 -0.083658092874096174 0.42635476622273438 0 -0.084871312740530142 0.43480494187292162 0 -0.083658092874096174 0.42635476622273438 0 -0.084871312740530142 0.43480494187292162 0 -0.072686990343715188 0.43294345444038479 0 -0.083658092874096174 0.42635476622273438 0 -0.073630366552074611 0.41870295798939872 0 -0.062225515321404939 0.42642575637368202 0 -0.083658092874096174 0.42635476622273438 0 -0.062225515321404939 0.42642575637368202 0 -0.083658092874096174 0.42635476622273438 0 -0.072686990343715188 0.43294345444038479 0 -0.062225515321404939 0.42642575637368202 0 -0.072686990343715188 0.43294345444038479 0 -0.062225515321404939 0.42642575637368202 0 -0.062267285999537549 0.43533487958281569 0 -0.081078066126644088 0.40838466879741492 0 -0.064974348594178014 0.41444518761454041 0 -0.081078066126644088 0.40838466879741492 0 -0.064974348594178014 0.41444518761454041 0 -0.064131416157464816 0.40857409421381252 0 -0.081078066126644088 0.40838466879741492 0 -0.073630366552074611 0.41870295798939872 0 -0.064974348594178014 0.41444518761454041 0 -0.073630366552074611 0.41870295798939872 0 -0.064974348594178014 0.41444518761454041 0 -0.062225515321404939 0.42642575637368202 0 -0.064131416157464816 0.40857409421381252 0 -0.079392201253218483 0.39664248199596069 0 -0.063397232407196066 0.38846744750703882 0 -0.081078066126644088 0.40838466879741492 0 -0.064131416157464816 0.40857409421381252 0 -0.079392201253218483 0.39664248199596069 0 -0.064131416157464816 0.40857409421381252 0 -0.079392201253218483 0.39664248199596069 0 -0.096454411302287962 0.38330242952764509 0 -0.079392201253218483 0.39664248199596069 0 -0.091984552334419017 0.39500712261815191 0 -0.081078066126644088 0.40838466879741492 0 -0.079392201253218483 0.39664248199596069 0 -0.102853346540294 0.40018969788905051 0 -0.081078066126644088 0.40838466879741492 0 -0.102853346540294 0.40018969788905051 0 -0.081078066126644088 0.40838466879741492 0 -0.091984552334419017 0.39500712261815191 0 -0.081078066126644088 0.40838466879741492 0 -0.079392201253218483 0.39664248199596069 0 -0.091984552334419017 0.39500712261815191 0 -0.096454411302287962 0.38330242952764509 0 -0.079392201253218483 0.39664248199596069 0 -0.096454411302287962 0.38330242952764509 0 -0.079392201253218483 0.39664248199596069 0 -0.085996414703317023 0.37792724681861412 0 -0.079392201253218483 0.39664248199596069 0 -0.085996414703317023 0.37792724681861412 0 -0.076565672180089445 0.37563126480906889 0 -0.085996414703317023 0.37792724681861412 0 -0.076565672180089445 0.37563126480906889 0 -0.0584090508422705 0.37121090492297498 0 -0.063397232407196066 0.38846744750703882 0 -0.076565672180089445 0.37563126480906889 0 -0.079392201253218483 0.39664248199596069 0 -0.076565672180089445 0.37563126480906889 0 -0.079392201253218483 0.39664248199596069 0 -0.063397232407196066 0.38846744750703882 0 -0.076565672180089445 0.37563126480906889 0 -0.063397232407196066 0.38846744750703882 0 -0.052860843727781603 0.39716589596919533 0 -0.045477652104280689 0.38449891994064439 0 -0.0584090508422705 0.37121090492297498 0 -0.063397232407196066 0.38846744750703882 0 -0.045477652104280689 0.38449891994064439 0 -0.064131416157464816 0.40857409421381252 0 -0.063397232407196066 0.38846744750703882 0 -0.052860843727781603 0.39716589596919533 0 -0.064131416157464816 0.40857409421381252 0 -0.052860843727781603 0.39716589596919533 0 -0.048054402471952078 0.40812663619067729 0 -0.052860843727781603 0.39716589596919533 0 -0.040080668649795793 0.39703955507658067 0 -0.048054402471952078 0.40812663619067729 0 -0.040080668649795793 0.39703955507658067 0 -0.036837447395561912 0.40965866704968379 0 -0.048054402471952078 0.40812663619067729 0 -0.052860843727781603 0.39716589596919533 0 -0.040080668649795793 0.39703955507658067 0 -0.045477652104280689 0.38449891994064439 0 -0.040080668649795793 0.39703955507658067 0 -0.02571500659330719 0.38905373968212931 0 -0.02985842700605686 0.40216068436538283 0 -0.040080668649795793 0.39703955507658067 0 -0.02985842700605686 0.40216068436538283 0 -0.036837447395561912 0.40965866704968379 0 -0.030821686981223732 0.36449456302733702 0 -0.045477652104280689 0.38449891994064439 0 -0.02571500659330719 0.38905373968212931 0 -0.040080668649795793 0.39703955507658067 0 -0.045477652104280689 0.38449891994064439 0 -0.02571500659330719 0.38905373968212931 0 -0.030821686981223732 0.36449456302733702 0 -0.02571500659330719 0.38905373968212931 0 -0.012384922530234479 0.37683766816405939 0 -0.02571500659330719 0.38905373968212931 0 -0.012384922530234479 0.37683766816405939 0 -0.01245520391231816 0.39016045010841321 0 -0.02571500659330719 0.38905373968212931 0 -0.02985842700605686 0.40216068436538283 0 -0.01850497164449371 0.40378211608378017 0 -0.02571500659330719 0.38905373968212931 0 -0.01850497164449371 0.40378211608378017 0 -0.01245520391231816 0.39016045010841321 0 -0.01850497164449371 0.40378211608378017 0 -0.005427833910731596 0.39890639725960519 0 -0.01245520391231816 0.39016045010841321 0 -0.005427833910731596 0.39890639725960519 0 -0.01245520391231816 0.39016045010841321 0 0.0060518419207558072 0.38918077330078032 0 -0.01850497164449371 0.40378211608378017 0 -0.005427833910731596 0.39890639725960519 0 -0.0075119778494896067 0.41303139552345192 0 -0.012384922530234479 0.37683766816405939 0 0.0060518419207558072 0.38918077330078032 0 -0.012384922530234479 0.37683766816405939 0 -0.01245520391231816 0.39016045010841321 0 0.0060518419207558072 0.38918077330078032 0 -0.00057715577063301854 0.37459337764846962 0 -0.012384922530234479 0.37683766816405939 0 0.0060518419207558072 0.38918077330078032 0 -0.0050430068879795736 0.42642029092100753 0 -0.017152549580098011 0.44603821364495949 0 -0.0037307996613493029 0.43334658286874261 0 -0.0050430068879795736 0.42642029092100753 0 -0.017152549580098011 0.44603821364495949 0 -0.0154186178039792 0.43309513215963508 0 -0.0050430068879795736 0.42642029092100753 0 -0.017152549580098011 0.44603821364495949 0 -0.0050430068879795736 0.42642029092100753 0 -0.01191939251798896 0.41859810597797409 0 -0.018749609467882559 0.42095612604171628 0 -0.0037307996613493029 0.43334658286874261 0 -0.0050430068879795736 0.42642029092100753 0 0.0032072944985491619 0.43356084649817778 0 -0.0050430068879795736 0.42642029092100753 0 -0.0075119778494896067 0.41303139552345192 0 0.0055633800221229022 0.40923753810589819 0 -0.005427833910731596 0.39890639725960519 0 -0.0075119778494896067 0.41303139552345192 0 0.0055633800221229022 0.40923753810589819 0 -0.01850497164449371 0.40378211608378017 0 -0.0075119778494896067 0.41303139552345192 0 -0.016372975866604099 0.41398461142572113 0 -0.0050430068879795736 0.42642029092100753 0 -0.0075119778494896067 0.41303139552345192 0 -0.01191939251798896 0.41859810597797409 0 -0.0075119778494896067 0.41303139552345192 0 -0.01191939251798896 0.41859810597797409 0 -0.016372975866604099 0.41398461142572113 0 -0.018749609467882559 0.42095612604171628 0 -0.016372975866604099 0.41398461142572113 0 -0.027788441732977301 0.41465109333167588 0 -0.01191939251798896 0.41859810597797409 0 -0.018749609467882559 0.42095612604171628 0 -0.016372975866604099 0.41398461142572113 0 -0.01850497164449371 0.40378211608378017 0 -0.016372975866604099 0.41398461142572113 0 -0.027788441732977301 0.41465109333167588 0 -0.02985842700605686 0.40216068436538283 0 -0.01850497164449371 0.40378211608378017 0 -0.027788441732977301 0.41465109333167588 0 -0.018749609467882559 0.42095612604171628 0 -0.027788441732977301 0.41465109333167588 0 -0.03314754551007662 0.42642297712750521 0 -0.0154186178039792 0.43309513215963508 0 -0.0050430068879795736 0.42642029092100753 0 -0.03314754551007662 0.42642297712750521 0 -0.0050430068879795736 0.42642029092100753 0 -0.03314754551007662 0.42642297712750521 0 -0.0154186178039792 0.43309513215963508 0 -0.03314754551007662 0.42642297712750521 0 -0.024821563733303319 0.43758554270206512 0 -0.0154186178039792 0.43309513215963508 0 -0.03314754551007662 0.42642297712750521 0 -0.0050430068879795736 0.42642029092100753 0 -0.018749609467882559 0.42095612604171628 0 -0.03314754551007662 0.42642297712750521 0 -0.032638197874164637 0.43319699963386621 0 -0.035820632043482903 0.44042369247510321 0 -0.024821563733303319 0.43758554270206512 0 -0.032638197874164637 0.43319699963386621 0 -0.03314754551007662 0.42642297712750521 0 -0.024821563733303319 0.43758554270206512 0 -0.03314754551007662 0.42642297712750521 0 -0.048870631061711543 0.42050570643166468 0 -0.032638197874164637 0.43319699963386621 0 -0.041301319556506927 0.42642375645789171 0 -0.040082851068721642 0.433676670419195 0 -0.03314754551007662 0.42642297712750521 0 -0.041301319556506927 0.42642375645789171 0 -0.048870631061711543 0.42050570643166468 0 -0.032638197874164637 0.43319699963386621 0 -0.041301319556506927 0.42642375645789171 0 -0.032638197874164637 0.43319699963386621 0 -0.040082851068721642 0.433676670419195 0 -0.035820632043482903 0.44042369247510321 0 -0.032638197874164637 0.43319699963386621 0 -0.03314754551007662 0.42642297712750521 0 -0.041301319556506927 0.42642375645789171 0 -0.03314754551007662 0.42642297712750521 0 -0.041301319556506927 0.42642375645789171 0 -0.041301319556506927 0.42642375645789171 0 -0.048870631061711543 0.42050570643166468 0 -0.041301319556506927 0.42642375645789171 0 -0.040082851068721642 0.433676670419195 0 -0.048290773286431617 0.43210519952487192 0 -0.040082851068721642 0.433676670419195 0 -0.048290773286431617 0.43210519952487192 0 -0.044059389173170101 0.43817215880583688 0 -0.040082851068721642 0.433676670419195 0 -0.044059389173170101 0.43817215880583688 0 -0.035820632043482903 0.44042369247510321 0 -0.03314754551007662 0.42642297712750521 0 -0.039123782376398637 0.41696006211656211 0 -0.048870631061711543 0.42050570643166468 0 -0.02985842700605686 0.40216068436538283 0 -0.027788441732977301 0.41465109333167588 0 -0.036837447395561912 0.40965866704968379 0 -0.027788441732977301 0.41465109333167588 0 -0.036837447395561912 0.40965866704968379 0 -0.039123782376398637 0.41696006211656211 0 -0.027788441732977301 0.41465109333167588 0 -0.03314754551007662 0.42642297712750521 0 -0.039123782376398637 0.41696006211656211 0 -0.039123782376398637 0.41696006211656211 0 -0.048054402471952078 0.40812663619067729 0 -0.048870631061711543 0.42050570643166468 0 -0.036837447395561912 0.40965866704968379 0 -0.039123782376398637 0.41696006211656211 0 -0.048054402471952078 0.40812663619067729 0 -0.064974348594178014 0.41444518761454041 0 -0.064131416157464816 0.40857409421381252 0 -0.048870631061711543 0.42050570643166468 0 -0.064974348594178014 0.41444518761454041 0 -0.048870631061711543 0.42050570643166468 0 -0.062225515321404939 0.42642575637368202 0 -0.064131416157464816 0.40857409421381252 0 -0.048054402471952078 0.40812663619067729 0 -0.048870631061711543 0.42050570643166468 0 -0.064974348594178014 0.41444518761454041 0 -0.048870631061711543 0.42050570643166468 0 -0.064131416157464816 0.40857409421381252 0 -0.048870631061711543 0.42050570643166468 0 -0.041301319556506927 0.42642375645789171 0 -0.062225515321404939 0.42642575637368202 0 -0.041301319556506927 0.42642375645789171 0 -0.048870631061711543 0.42050570643166468 0 -0.062225515321404939 0.42642575637368202 0 -0.041301319556506927 0.42642375645789171 0 -0.048290773286431617 0.43210519952487192 0 -0.062225515321404939 0.42642575637368202 0 -0.048290773286431617 0.43210519952487192 0 -0.054632819607427691 0.43679688296855063 0 -0.044059389173170101 0.43817215880583688 0 -0.054632819607427691 0.43679688296855063 0 -0.062225515321404939 0.42642575637368202 0 -0.062267285999537549 0.43533487958281569 0 -0.048290773286431617 0.43210519952487192 0 -0.054632819607427691 0.43679688296855063 0 -0.062225515321404939 0.42642575637368202 0 -0.054632819607427691 0.43679688296855063 0 -0.062267285999537549 0.43533487958281569 0 -0.059523818725602362 0.4451734245486455 0 -0.054632819607427691 0.43679688296855063 0 -0.059523818725602362 0.4451734245486455 0 -0.050708902644163847 0.44312736609521353 0 -0.059523818725602362 0.4451734245486455 0 -0.05156769306307555 0.45027266687004108 0 -0.062633671341657968 0.45586467803842368 0 -0.05156769306307555 0.45027266687004108 0 -0.050708902644163847 0.44312736609521353 0 -0.041060087254590732 0.44809544226435039 0 -0.059523818725602362 0.4451734245486455 0 -0.05156769306307555 0.45027266687004108 0 -0.050708902644163847 0.44312736609521353 0 -0.054632819607427691 0.43679688296855063 0 -0.050708902644163847 0.44312736609521353 0 -0.044059389173170101 0.43817215880583688 0 -0.05156769306307555 0.45027266687004108 0 -0.045288734265863037 0.45591566459491822 0 -0.062633671341657968 0.45586467803842368 0 -0.039086431834152731 0.46780295621002671 0 -0.063908014793422327 0.46474058446231059 0 -0.039086431834152731 0.46780295621002671 0 -0.062633671341657968 0.45586467803842368 0 -0.059510330079189551 0.46380771982458308 0 -0.039086431834152731 0.46780295621002671 0 -0.062633671341657968 0.45586467803842368 0 -0.059510330079189551 0.46380771982458308 0 -0.039086431834152731 0.46780295621002671 0 -0.063908014793422327 0.46474058446231059 0 -0.039086431834152731 0.46780295621002671 0 -0.045288734265863037 0.45591566459491822 0 -0.062633671341657968 0.45586467803842368 0 -0.045288734265863037 0.45591566459491822 0 -0.032095787835838267 0.45754257959174971 0 -0.041060087254590732 0.44809544226435039 0 -0.039086431834152731 0.46780295621002671 0 -0.045288734265863037 0.45591566459491822 0 -0.032095787835838267 0.45754257959174971 0 -0.050708902644163847 0.44312736609521353 0 -0.044059389173170101 0.43817215880583688 0 -0.041060087254590732 0.44809544226435039 0 -0.044059389173170101 0.43817215880583688 0 -0.041060087254590732 0.44809544226435039 0 -0.035820632043482903 0.44042369247510321 0 -0.05156769306307555 0.45027266687004108 0 -0.045288734265863037 0.45591566459491822 0 -0.041060087254590732 0.44809544226435039 0 -0.032095787835838267 0.45754257959174971 0 -0.041060087254590732 0.44809544226435039 0 -0.02871752279237675 0.44719523467367489 0 -0.041060087254590732 0.44809544226435039 0 -0.035820632043482903 0.44042369247510321 0 -0.02871752279237675 0.44719523467367489 0 -0.035820632043482903 0.44042369247510321 0 -0.024821563733303319 0.43758554270206512 0 -0.02871752279237675 0.44719523467367489 0 -0.024821563733303319 0.43758554270206512 0 -0.017152549580098011 0.44603821364495949 0 -0.02871752279237675 0.44719523467367489 0 -0.0154186178039792 0.43309513215963508 0 -0.024821563733303319 0.43758554270206512 0 -0.017152549580098011 0.44603821364495949 0 -0.017152549580098011 0.44603821364495949 0 -0.02871752279237675 0.44719523467367489 0 -0.019903255176906429 0.45792248038600453 0 -0.032095787835838267 0.45754257959174971 0 -0.02871752279237675 0.44719523467367489 0 -0.019903255176906429 0.45792248038600453 0 -0.039086431834152731 0.46780295621002671 0 -0.032095787835838267 0.45754257959174971 0 -0.02037123803964928 0.47011194999270978 0 -0.032095787835838267 0.45754257959174971 0 -0.019903255176906429 0.45792248038600453 0 -0.02037123803964928 0.47011194999270978 0 -0.019903255176906429 0.45792248038600453 0 -0.0080284061150216138 0.45825371315562652 0 -0.02037123803964928 0.47011194999270978 0 -0.0080284061150216138 0.45825371315562652 0 -0.0040184959864603426 0.47404905711895429 0 -0.02037123803964928 0.47011194999270978 0 -0.017152549580098011 0.44603821364495949 0 -0.019903255176906429 0.45792248038600453 0 -0.0080284061150216138 0.45825371315562652 0 -0.017152549580098011 0.44603821364495949 0 -0.0080284061150216138 0.45825371315562652 0 0.00062826185133309231 0.44396229266221959 0 -0.0037307996613493029 0.43334658286874261 0 -0.017152549580098011 0.44603821364495949 0 0.00062826185133309231 0.44396229266221959 0 -0.01483273412094854 0.5 0 -0.0020579450925737059 0.48747626695549862 0 -0.01448884847124674 0.48356705001181233 0 -0.01483273412094854 0.5 0 -0.0020579450925737059 0.48747626695549862 0 0.01163354930765959 0.49999999999999922 0 -0.0040184959864603426 0.47404905711895429 0 -0.01448884847124674 0.48356705001181233 0 -0.02037123803964928 0.47011194999270978 0 -0.0020579450925737059 0.48747626695549862 0 -0.0040184959864603426 0.47404905711895429 0 -0.01448884847124674 0.48356705001181233 0 -0.01448884847124674 0.48356705001181233 0 -0.02037123803964928 0.47011194999270978 0 -0.02971704718354598 0.4841058058273574 0 -0.039086431834152731 0.46780295621002671 0 -0.02037123803964928 0.47011194999270978 0 -0.039086431834152731 0.46780295621002671 0 -0.02037123803964928 0.47011194999270978 0 -0.02971704718354598 0.4841058058273574 0 -0.01483273412094854 0.5 0 -0.02971704718354598 0.4841058058273574 0 -0.04129901754955656 0.5 0 -0.01483273412094854 0.5 0 -0.01448884847124674 0.48356705001181233 0 -0.02971704718354598 0.4841058058273574 0 -0.02971704718354598 0.4841058058273574 0 -0.04129901754955656 0.5 0 -0.048424928075943452 0.48163817730896902 0 -0.039086431834152731 0.46780295621002671 0 -0.02971704718354598 0.4841058058273574 0 -0.048424928075943452 0.48163817730896902 0 -0.039086431834152731 0.46780295621002671 0 -0.048424928075943452 0.48163817730896902 0 -0.063908014793422327 0.46474058446231059 0 -0.048424928075943452 0.48163817730896902 0 -0.06523976449500711 0.48241422636311038 0 -0.063908014793422327 0.46474058446231059 0 -0.048424928075943452 0.48163817730896902 0 -0.067765300978164689 0.5 0 -0.06523976449500711 0.48241422636311038 0 -0.04129901754955656 0.5 0 -0.048424928075943452 0.48163817730896902 0 -0.067765300978164689 0.5 0 -0.067765300978164689 0.5 0 -0.091480591079732276 0.48083910635729937 0 -0.06523976449500711 0.48241422636311038 0 -0.067765300978164689 0.5 0 -0.091480591079732276 0.48083910635729937 0 -0.094231584406772956 0.50000000000000311 0 -0.091480591079732276 0.48083910635729937 0 -0.094231584406772956 0.50000000000000311 0 -0.091480591079732276 0.48083910635729937 0 -0.07694663851516223 0.47263305583877502 0 -0.088729597752692013 0.46167821271459558 0 -0.091480591079732276 0.48083910635729937 0 -0.088729597752692013 0.46167821271459558 0 -0.091480591079732276 0.48083910635729937 0 -0.06523976449500711 0.48241422636311038 0 -0.07694663851516223 0.47263305583877502 0 -0.06523976449500711 0.48241422636311038 0 -0.07694663851516223 0.47263305583877502 0 -0.063908014793422327 0.46474058446231059 0 -0.059510330079189551 0.46380771982458308 0 -0.087730371391160675 0.45471851933763008 0 -0.063908014793422327 0.46474058446231059 0 -0.088729597752692013 0.46167821271459558 0 -0.059510330079189551 0.46380771982458308 0 -0.062633671341657968 0.45586467803842368 0 -0.087730371391160675 0.45471851933763008 0 -0.059510330079189551 0.46380771982458308 0 -0.063908014793422327 0.46474058446231059 0 -0.087730371391160675 0.45471851933763008 0 -0.07694663851516223 0.47263305583877502 0 -0.063908014793422327 0.46474058446231059 0 -0.088729597752692013 0.46167821271459558 0 -0.062633671341657968 0.45586467803842368 0 -0.086180910849162073 0.44392639986681831 0 -0.084871312740530142 0.43480494187292162 0 -0.059523818725602362 0.4451734245486455 0 -0.084871312740530142 0.43480494187292162 0 -0.072686990343715188 0.43294345444038479 0 -0.059523818725602362 0.4451734245486455 0 -0.084871312740530142 0.43480494187292162 0 -0.059523818725602362 0.4451734245486455 0 -0.086180910849162073 0.44392639986681831 0 -0.059523818725602362 0.4451734245486455 0 -0.062633671341657968 0.45586467803842368 0 -0.086180910849162073 0.44392639986681831 0 -0.072686990343715188 0.43294345444038479 0 -0.062267285999537549 0.43533487958281569 0 -0.059523818725602362 0.4451734245486455 0 -0.1041188344602363 0.43483200382002651 0 -0.084871312740530142 0.43480494187292162 0 -0.086180910849162073 0.44392639986681831 0 -0.062633671341657968 0.45586467803842368 0 -0.086180910849162073 0.44392639986681831 0 -0.087730371391160675 0.45471851933763008 0 -0.084871312740530142 0.43480494187292162 0 -0.086180910849162073 0.44392639986681831 0 -0.086180910849162073 0.44392639986681831 0 -0.087730371391160675 0.45471851933763008 0 -0.086180910849162073 0.44392639986681831 0 -0.087730371391160675 0.45471851933763008 0 -0.097236571409968456 0.44518192177180249 0 -0.063908014793422327 0.46474058446231059 0 -0.087730371391160675 0.45471851933763008 0 -0.088729597752692013 0.46167821271459558 0 -0.087730371391160675 0.45471851933763008 0 -0.088729597752692013 0.46167821271459558 0 -0.087730371391160675 0.45471851933763008 0 -0.088729597752692013 0.46167821271459558 0 -0.108177893203528 0.459278772250721 0 -0.088729597752692013 0.46167821271459558 0 -0.108177893203528 0.459278772250721 0 -0.10169915598681011 0.47085924044137129 0 -0.087730371391160675 0.45471851933763008 0 -0.108177893203528 0.459278772250721 0 -0.110916168939315 0.44725076406273512 0 -0.108177893203528 0.459278772250721 0 -0.1180886292381612 0.46571395422137501 0 -0.10169915598681011 0.47085924044137129 0 -0.088729597752692013 0.46167821271459558 0 -0.108177893203528 0.459278772250721 0 -0.087730371391160675 0.45471851933763008 0 -0.110916168939315 0.44725076406273512 0 -0.087730371391160675 0.45471851933763008 0 -0.097236571409968456 0.44518192177180249 0 -0.110916168939315 0.44725076406273512 0 -0.1041188344602363 0.43483200382002651 0 -0.086180910849162073 0.44392639986681831 0 -0.097236571409968456 0.44518192177180249 0 -0.1041188344602363 0.43483200382002651 0 -0.086180910849162073 0.44392639986681831 0 -0.1041188344602363 0.43483200382002651 0 -0.097236571409968456 0.44518192177180249 0 -0.110916168939315 0.44725076406273512 0 -0.13410196648747019 0.43978300878784271 0 -0.110916168939315 0.44725076406273512 0 -0.11808602505663179 0.4545843040578697 0 -0.13410196648747019 0.43978300878784271 0 -0.110916168939315 0.44725076406273512 0 -0.13410196648747019 0.43978300878784271 0 -0.1177984319895828 0.4369008461109592 0 -0.110916168939315 0.44725076406273512 0 -0.1177984319895828 0.4369008461109592 0 -0.1041188344602363 0.43483200382002651 0 -0.110916168939315 0.44725076406273512 0 -0.108177893203528 0.459278772250721 0 -0.11808602505663179 0.4545843040578697 0 -0.1180886292381612 0.46571395422137501 0 -0.108177893203528 0.459278772250721 0 -0.110916168939315 0.44725076406273512 0 -0.11808602505663179 0.4545843040578697 0 -0.12692277084980971 0.45722049930380559 0 -0.11808602505663179 0.4545843040578697 0 -0.1180886292381612 0.46571395422137501 0 -0.1180886292381612 0.46571395422137501 0 -0.1187186719160495 0.4790925732486514 0 -0.10169915598681011 0.47085924044137129 0 -0.13012082388154891 0.46793012444718901 0 -0.1180886292381612 0.46571395422137501 0 -0.1187186719160495 0.4790925732486514 0 -0.1187186719160495 0.4790925732486514 0 -0.1209606834513344 0.5 0 -0.10541813736813981 0.48615818400946442 0 -0.1209606834513344 0.5 0 -0.10541813736813981 0.48615818400946442 0 -0.094231584406772956 0.50000000000000311 0 -0.091480591079732276 0.48083910635729937 0 -0.10541813736813981 0.48615818400946442 0 -0.094231584406772956 0.50000000000000311 0 -0.091480591079732276 0.48083910635729937 0 -0.10541813736813981 0.48615818400946442 0 -0.10169915598681011 0.47085924044137129 0 -0.1187186719160495 0.4790925732486514 0 -0.10541813736813981 0.48615818400946442 0 -0.10169915598681011 0.47085924044137129 0 -0.091480591079732276 0.48083910635729937 0 -0.088729597752692013 0.46167821271459558 0 -0.10169915598681011 0.47085924044137129 0 -0.16866321307001519 0.089690200872255363 0 -0.15736415910431059 0.1021493755844179 0 -0.15180420785183141 0.086568630775230526 0 -0.16866321307001519 0.089690200872255363 0 -0.16514041427851631 0.069068550153392805 0 -0.15180420785183141 0.086568630775230526 0 -0.16514041427851631 0.069068550153392805 0 -0.190089332817895 0.060327971693083161 0 -0.18769392036815999 0.085417160617456675 0 -0.16866321307001519 0.089690200872255363 0 -0.16514041427851631 0.069068550153392805 0 -0.18769392036815999 0.085417160617456675 0 -0.17452652547239009 0.1073312397017688 0 -0.18769392036815999 0.085417160617456675 0 -0.1981526381016078 0.10188051132923021 0 -0.16866321307001519 0.089690200872255363 0 -0.17452652547239009 0.1073312397017688 0 -0.18769392036815999 0.085417160617456675 0 -0.17452652547239009 0.1073312397017688 0 -0.18628476343254541 0.122352188343805 0 -0.1981526381016078 0.10188051132923021 0 -0.17452652547239009 0.1073312397017688 0 -0.18628476343254541 0.122352188343805 0 -0.17018326020151681 0.1263816946947485 0 -0.17452652547239009 0.1073312397017688 0 -0.1566927354816478 0.1183811808832852 0 -0.17018326020151681 0.1263816946947485 0 -0.17452652547239009 0.1073312397017688 0 -0.1566927354816478 0.1183811808832852 0 -0.15736415910431059 0.1021493755844179 0 -0.16866321307001519 0.089690200872255363 0 -0.17452652547239009 0.1073312397017688 0 -0.15736415910431059 0.1021493755844179 0 -0.1566927354816478 0.1183811808832852 0 -0.15736415910431059 0.1021493755844179 0 -0.1407945310601818 0.1054990403110206 0 -0.15736415910431059 0.1021493755844179 0 -0.1407945310601818 0.1054990403110206 0 -0.15180420785183141 0.086568630775230526 0 -0.1566927354816478 0.1183811808832852 0 -0.1407945310601818 0.1054990403110206 0 -0.14254164419027121 0.1294037244113358 0 -0.1407945310601818 0.1054990403110206 0 -0.14254164419027121 0.1294037244113358 0 -0.1215960196973324 0.1234050062458989 0 -0.1407945310601818 0.1054990403110206 0 -0.1244857968702516 0.096147348211482492 0 -0.1215960196973324 0.1234050062458989 0 -0.1407945310601818 0.1054990403110206 0 -0.13497278122396891 0.083825634953707276 0 -0.1244857968702516 0.096147348211482492 0 -0.13497278122396891 0.083825634953707276 0 -0.1246427225964957 0.080559346571517115 0 -0.1244857968702516 0.096147348211482492 0 -0.13497278122396891 0.083825634953707276 0 -0.13119696411603779 0.071114993409296168 0 -0.1246427225964957 0.080559346571517115 0 -0.1407945310601818 0.1054990403110206 0 -0.13497278122396891 0.083825634953707276 0 -0.15180420785183141 0.086568630775230526 0 -0.13497278122396891 0.083825634953707276 0 -0.15180420785183141 0.086568630775230526 0 -0.14453927881143991 0.068803227572629466 0 -0.16514041427851631 0.069068550153392805 0 -0.15180420785183141 0.086568630775230526 0 -0.14453927881143991 0.068803227572629466 0 -0.16514041427851631 0.069068550153392805 0 -0.14453927881143991 0.068803227572629466 0 -0.14552483518914591 0.051287874945862191 0 -0.14453927881143991 0.068803227572629466 0 -0.13119696411603779 0.071114993409296168 0 -0.12831212073064391 0.047899459389334827 0 -0.13119696411603779 0.071114993409296168 0 -0.12831212073064391 0.047899459389334827 0 -0.1200407853451974 0.069757236001248765 0 -0.13497278122396891 0.083825634953707276 0 -0.14453927881143991 0.068803227572629466 0 -0.13119696411603779 0.071114993409296168 0 -0.13119696411603779 0.071114993409296168 0 -0.1200407853451974 0.069757236001248765 0 -0.1246427225964957 0.080559346571517115 0 -0.14453927881143991 0.068803227572629466 0 -0.12831212073064391 0.047899459389334827 0 -0.14453927881143991 0.068803227572629466 0 -0.12831212073064391 0.047899459389334827 0 -0.14552483518914591 0.051287874945862191 0 -0.12831212073064391 0.047899459389334827 0 -0.1332663299184968 0.038738454738413933 0 -0.1151236506318269 0.030910118417540908 0 -0.12831212073064391 0.047899459389334827 0 -0.1332663299184968 0.038738454738413933 0 -0.12831212073064391 0.047899459389334827 0 -0.1332663299184968 0.038738454738413933 0 -0.14552483518914591 0.051287874945862191 0 -0.14829243157867919 0.038446331739306387 0 -0.14552483518914591 0.051287874945862191 0 -0.16876094707714789 0.041904044065943329 0 -0.1332663299184968 0.038738454738413933 0 -0.14829243157867919 0.038446331739306387 0 -0.14552483518914591 0.051287874945862191 0 -0.14829243157867919 0.038446331739306387 0 -0.14743256133640081 0.023480116438803499 0 -0.16876094707714789 0.041904044065943329 0 -0.1332663299184968 0.038738454738413933 0 -0.14829243157867919 0.038446331739306387 0 -0.14743256133640081 0.023480116438803499 0 -0.12610417559565379 0.0050561888116637567 0 -0.14743256133640081 0.023480116438803499 0 -0.14387643640170231 -0.001228344769483762 0 -0.12610417559565379 0.0050561888116637567 0 -0.14743256133640081 0.023480116438803499 0 -0.12610417559565379 0.0050561888116637567 0 -0.1276431364208839 0.022915350138765729 0 -0.14743256133640081 0.023480116438803499 0 -0.1332663299184968 0.038738454738413933 0 -0.1276431364208839 0.022915350138765729 0 -0.14743256133640081 0.023480116438803499 0 -0.1332663299184968 0.038738454738413933 0 -0.1276431364208839 0.022915350138765729 0 -0.1151236506318269 0.030910118417540908 0 -0.14387643640170231 -0.001228344769483762 0 -0.14743256133640081 0.023480116438803499 0 -0.15747356140527541 0.0095665998708197551 0 -0.14387643640170231 -0.001228344769483762 0 -0.16075095242782511 -0.0052219580539949271 0 -0.15747356140527541 0.0095665998708197551 0 -0.1694884300125131 0.0041657033155674842 0 -0.15747356140527541 0.0095665998708197551 0 -0.16758813500315409 0.02211471811935091 0 -0.16075095242782511 -0.0052219580539949271 0 -0.1694884300125131 0.0041657033155674842 0 -0.15747356140527541 0.0095665998708197551 0 -0.14743256133640081 0.023480116438803499 0 -0.16758813500315409 0.02211471811935091 0 -0.16876094707714789 0.041904044065943329 0 -0.14743256133640081 0.023480116438803499 0 -0.15747356140527541 0.0095665998708197551 0 -0.16758813500315409 0.02211471811935091 0 -0.16758813500315409 0.02211471811935091 0 -0.19042855381431351 0.033606864127859522 0 -0.18752405922247109 0.0049853948854486161 0 -0.1694884300125131 0.0041657033155674842 0 -0.16758813500315409 0.02211471811935091 0 -0.18752405922247109 0.0049853948854486161 0 -0.16514041427851631 0.069068550153392805 0 -0.14552483518914591 0.051287874945862191 0 -0.16876094707714789 0.041904044065943329 0 -0.14743256133640081 0.023480116438803499 0 -0.16876094707714789 0.041904044065943329 0 -0.16758813500315409 0.02211471811935091 0 -0.16876094707714789 0.041904044065943329 0 -0.19042855381431351 0.033606864127859522 0 -0.16876094707714789 0.041904044065943329 0 -0.190089332817895 0.060327971693083161 0 -0.19042855381431351 0.033606864127859522 0 -0.16876094707714789 0.041904044065943329 0 -0.190089332817895 0.060327971693083161 0 -0.16514041427851631 0.069068550153392805 0 -0.16876094707714789 0.041904044065943329 0 -0.190089332817895 0.060327971693083161 0 -0.190089332817895 0.060327971693083161 0 -0.19042855381431351 0.033606864127859522 0 -0.20557447143367319 0.053415154791291108 0 -0.19042855381431351 0.033606864127859522 0 -0.21176516544917129 0.037627442383407338 0 -0.20557447143367319 0.053415154791291108 0 -0.21176516544917129 0.037627442383407338 0 -0.20557447143367319 0.053415154791291108 0 -0.22042823141232659 0.061596986491107522 0 -0.21176516544917129 0.037627442383407338 0 -0.22042823141232659 0.061596986491107522 0 -0.20965295676699849 -0.0097934788175554031 0 -0.18752405922247109 0.0049853948854486161 0 -0.20310209948601601 0.01365789827570711 0 -0.19042855381431351 0.033606864127859522 0 -0.21176516544917129 0.037627442383407338 0 -0.20310209948601601 0.01365789827570711 0 -0.19042855381431351 0.033606864127859522 0 -0.18752405922247109 0.0049853948854486161 0 -0.20310209948601601 0.01365789827570711 0 -0.21176516544917129 0.037627442383407338 0 -0.20310209948601601 0.01365789827570711 0 -0.21176516544917129 0.037627442383407338 0 -0.20310209948601601 0.01365789827570711 0 -0.2214010684431551 0.022242146408897399 0 -0.20965295676699849 -0.0097934788175554031 0 -0.20310209948601601 0.01365789827570711 0 -0.21561162034499581 0.004511641205623469 0 -0.20310209948601601 0.01365789827570711 0 -0.21561162034499581 0.004511641205623469 0 -0.2214010684431551 0.022242146408897399 0 -0.23143938292562269 -3.810352685244356e-05 0 -0.2214010684431551 0.022242146408897399 0 -0.2390956290600558 0.022668457754148729 0 -0.23143938292562269 -3.810352685244356e-05 0 -0.21561162034499581 0.004511641205623469 0 -0.2214010684431551 0.022242146408897399 0 -0.2214010684431551 0.022242146408897399 0 -0.2390956290600558 0.022668457754148729 0 -0.22445909975594849 0.040389216472958858 0 -0.25373215836416307 0.0049476990353386208 0 -0.2390956290600558 0.022668457754148729 0 -0.23143938292562269 -3.810352685244356e-05 0 -0.25373215836416307 0.0049476990353386208 0 -0.2390956290600558 0.022668457754148729 0 -0.22042823141232659 0.061596986491107522 0 -0.23486222613223201 0.053145772153977228 0 -0.24075342683477199 0.068561134350546449 0 -0.22042823141232659 0.061596986491107522 0 -0.22445909975594849 0.040389216472958858 0 -0.23486222613223201 0.053145772153977228 0 -0.22445909975594849 0.040389216472958858 0 -0.24160491481516 0.041020672313056249 0 -0.23486222613223201 0.053145772153977228 0 -0.21176516544917129 0.037627442383407338 0 -0.22042823141232659 0.061596986491107522 0 -0.22445909975594849 0.040389216472958858 0 -0.2390956290600558 0.022668457754148729 0 -0.22445909975594849 0.040389216472958858 0 -0.21176516544917129 0.037627442383407338 0 -0.2214010684431551 0.022242146408897399 0 -0.22445909975594849 0.040389216472958858 0 -0.25921315275576817 0.034825476688179681 0 -0.2390956290600558 0.022668457754148729 0 -0.24160491481516 0.041020672313056249 0 -0.2390956290600558 0.022668457754148729 0 -0.22445909975594849 0.040389216472958858 0 -0.24160491481516 0.041020672313056249 0 -0.25068417003392651 0.054433302055622801 0 -0.23486222613223201 0.053145772153977228 0 -0.24075342683477199 0.068561134350546449 0 -0.25068417003392651 0.054433302055622801 0 -0.24160491481516 0.041020672313056249 0 -0.23486222613223201 0.053145772153977228 0 -0.2520696630874838 0.08689783246079838 0 -0.24075342683477199 0.068561134350546449 0 -0.22909129737548189 0.08556653059880788 0 -0.2520696630874838 0.08689783246079838 0 -0.22909129737548189 0.08556653059880788 0 -0.24078734754956141 0.10674327595967741 0 -0.22042823141232659 0.061596986491107522 0 -0.24075342683477199 0.068561134350546449 0 -0.22909129737548189 0.08556653059880788 0 -0.22042823141232659 0.061596986491107522 0 -0.22909129737548189 0.08556653059880788 0 -0.2075634109205709 0.078964040760593407 0 -0.22042823141232659 0.061596986491107522 0 -0.22909129737548189 0.08556653059880788 0 -0.20557447143367319 0.053415154791291108 0 -0.22042823141232659 0.061596986491107522 0 -0.2075634109205709 0.078964040760593407 0 -0.22909129737548189 0.08556653059880788 0 -0.2075634109205709 0.078964040760593407 0 -0.21899739724582329 0.1028002160354074 0 -0.2075634109205709 0.078964040760593407 0 -0.18769392036815999 0.085417160617456675 0 -0.1981526381016078 0.10188051132923021 0 -0.190089332817895 0.060327971693083161 0 -0.2075634109205709 0.078964040760593407 0 -0.18769392036815999 0.085417160617456675 0 -0.190089332817895 0.060327971693083161 0 -0.20557447143367319 0.053415154791291108 0 -0.2075634109205709 0.078964040760593407 0 -0.18628476343254541 0.122352188343805 0 -0.1981526381016078 0.10188051132923021 0 -0.20926123574318861 0.1208903140016228 0 -0.18628476343254541 0.122352188343805 0 -0.1981526381016078 0.10188051132923021 0 -0.1981526381016078 0.10188051132923021 0 -0.20926123574318861 0.1208903140016228 0 -0.21899739724582329 0.1028002160354074 0 -0.2075634109205709 0.078964040760593407 0 -0.1981526381016078 0.10188051132923021 0 -0.21899739724582329 0.1028002160354074 0 -0.22912845378452931 0.12275662356251291 0 -0.21899739724582329 0.1028002160354074 0 -0.24078734754956141 0.10674327595967741 0 -0.20926123574318861 0.1208903140016228 0 -0.22912845378452931 0.12275662356251291 0 -0.21899739724582329 0.1028002160354074 0 -0.22909129737548189 0.08556653059880788 0 -0.21899739724582329 0.1028002160354074 0 -0.24078734754956141 0.10674327595967741 0 -0.25169104475159582 0.1142583460824861 0 -0.24078734754956141 0.10674327595967741 0 -0.2458862956057293 0.12683254271406541 0 -0.22912845378452931 0.12275662356251291 0 -0.24078734754956141 0.10674327595967741 0 -0.2458862956057293 0.12683254271406541 0 -0.26047242492331912 0.13980845640771311 0 -0.2458862956057293 0.12683254271406541 0 -0.23820537220842231 0.14074104345566019 0 -0.22912845378452931 0.12275662356251291 0 -0.2458862956057293 0.12683254271406541 0 -0.23820537220842231 0.14074104345566019 0 -0.22912845378452931 0.12275662356251291 0 -0.22075075917231801 0.13542330720148821 0 -0.23820537220842231 0.14074104345566019 0 -0.20926123574318861 0.1208903140016228 0 -0.22912845378452931 0.12275662356251291 0 -0.22075075917231801 0.13542330720148821 0 -0.22075075917231801 0.13542330720148821 0 -0.2231938517498 0.15105653786918391 0 -0.23820537220842231 0.14074104345566019 0 -0.26047242492331912 0.13980845640771311 0 -0.23820537220842231 0.14074104345566019 0 -0.24602975208707159 0.15486973685632641 0 -0.2231938517498 0.15105653786918391 0 -0.23820537220842231 0.14074104345566019 0 -0.24602975208707159 0.15486973685632641 0 -0.24602975208707159 0.15486973685632641 0 -0.24978556686281839 0.17388336477005559 0 -0.231587079250824 0.16993101730493959 0 -0.24602975208707159 0.15486973685632641 0 -0.231587079250824 0.16993101730493959 0 -0.2530725675176464 0.1936817097878977 0 -0.24978556686281839 0.17388336477005559 0 -0.2356776691977637 0.1842375233300762 0 -0.24978556686281839 0.17388336477005559 0 -0.2356776691977637 0.1842375233300762 0 -0.231587079250824 0.16993101730493959 0 -0.24978556686281839 0.17388336477005559 0 -0.231587079250824 0.16993101730493959 0 -0.2217193152440009 0.18022143673024801 0 -0.231587079250824 0.16993101730493959 0 -0.21128337229470279 0.16552145831127901 0 -0.2356776691977637 0.1842375233300762 0 -0.2217193152440009 0.18022143673024801 0 -0.22145638845737989 0.19620584245887829 0 -0.2356776691977637 0.1842375233300762 0 -0.2217193152440009 0.18022143673024801 0 -0.231587079250824 0.16993101730493959 0 -0.2217193152440009 0.18022143673024801 0 -0.231587079250824 0.16993101730493959 0 -0.2231938517498 0.15105653786918391 0 -0.231587079250824 0.16993101730493959 0 -0.21128337229470279 0.16552145831127901 0 -0.2231938517498 0.15105653786918391 0 -0.24602975208707159 0.15486973685632641 0 -0.231587079250824 0.16993101730493959 0 -0.231587079250824 0.16993101730493959 0 -0.21128337229470279 0.16552145831127901 0 -0.2231938517498 0.15105653786918391 0 -0.21128337229470279 0.16552145831127901 0 -0.20316506637597631 0.15395325862086159 0 -0.2217193152440009 0.18022143673024801 0 -0.20742790761485719 0.18522653682776169 0 -0.22145638845737989 0.19620584245887829 0 -0.21128337229470279 0.16552145831127901 0 -0.20742790761485719 0.18522653682776169 0 -0.19518641067968709 0.17591111060143871 0 -0.2217193152440009 0.18022143673024801 0 -0.21128337229470279 0.16552145831127901 0 -0.20742790761485719 0.18522653682776169 0 -0.19518641067968709 0.17591111060143871 0 -0.19380347586269861 0.19142236820165809 0 -0.1769204363613413 0.1881129387281576 0 -0.20742790761485719 0.18522653682776169 0 -0.19518641067968709 0.17591111060143871 0 -0.19380347586269861 0.19142236820165809 0 -0.21128337229470279 0.16552145831127901 0 -0.19097966533858171 0.16111189931761849 0 -0.20316506637597631 0.15395325862086159 0 -0.21128337229470279 0.16552145831127901 0 -0.19097966533858171 0.16111189931761849 0 -0.19518641067968709 0.17591111060143871 0 -0.19097966533858171 0.16111189931761849 0 -0.1765971775440438 0.1704206885995446 0 -0.21128337229470279 0.16552145831127901 0 -0.19518641067968709 0.17591111060143871 0 -0.19097966533858171 0.16111189931761849 0 -0.19097966533858171 0.16111189931761849 0 -0.19036238816500081 0.14528741857899441 0 -0.1816087251623815 0.1514813808947377 0 -0.19097966533858171 0.16111189931761849 0 -0.19036238816500081 0.14528741857899441 0 -0.20316506637597631 0.15395325862086159 0 -0.19036238816500081 0.14528741857899441 0 -0.20587035252024799 0.13931819944747581 0 -0.20316506637597631 0.15395325862086159 0 -0.18628476343254541 0.122352188343805 0 -0.20926123574318861 0.1208903140016228 0 -0.20587035252024799 0.13931819944747581 0 -0.18628476343254541 0.122352188343805 0 -0.19036238816500081 0.14528741857899441 0 -0.20587035252024799 0.13931819944747581 0 -0.20926123574318861 0.1208903140016228 0 -0.22075075917231801 0.13542330720148821 0 -0.20587035252024799 0.13931819944747581 0 -0.22075075917231801 0.13542330720148821 0 -0.2231938517498 0.15105653786918391 0 -0.20587035252024799 0.13931819944747581 0 -0.2231938517498 0.15105653786918391 0 -0.20587035252024799 0.13931819944747581 0 -0.20316506637597631 0.15395325862086159 0 -0.22818276383699301 0.25851367683388488 0 -0.229771189593557 0.22970387736840139 0 -0.21281931739750601 0.23382576558849941 0 -0.22818276383699301 0.25851367683388488 0 -0.229771189593557 0.22970387736840139 0 -0.25132572622624683 0.22825002925503479 0 -0.24857359163213399 0.2512888834568589 0 -0.229771189593557 0.22970387736840139 0 -0.24857359163213399 0.2512888834568589 0 -0.22818276383699301 0.25851367683388488 0 -0.229771189593557 0.22970387736840139 0 -0.25132572622624683 0.22825002925503479 0 -0.229771189593557 0.22970387736840139 0 -0.2442791262350934 0.21308183893824231 0 -0.229771189593557 0.22970387736840139 0 -0.2155817155997867 0.21562149586097151 0 -0.21281931739750601 0.23382576558849941 0 -0.229771189593557 0.22970387736840139 0 -0.22940400256597671 0.21116607330746359 0 -0.2155817155997867 0.21562149586097151 0 -0.22940400256597671 0.21116607330746359 0 -0.22145638845737989 0.19620584245887829 0 -0.2155817155997867 0.21562149586097151 0 -0.229771189593557 0.22970387736840139 0 -0.22940400256597671 0.21116607330746359 0 -0.2442791262350934 0.21308183893824231 0 -0.22940400256597671 0.21116607330746359 0 -0.2442791262350934 0.21308183893824231 0 -0.2385997842677213 0.19887826791821189 0 -0.2530725675176464 0.1936817097878977 0 -0.2356776691977637 0.1842375233300762 0 -0.2385997842677213 0.19887826791821189 0 -0.2530725675176464 0.1936817097878977 0 -0.2442791262350934 0.21308183893824231 0 -0.2385997842677213 0.19887826791821189 0 -0.2356776691977637 0.1842375233300762 0 -0.2385997842677213 0.19887826791821189 0 -0.22145638845737989 0.19620584245887829 0 -0.22940400256597671 0.21116607330746359 0 -0.2385997842677213 0.19887826791821189 0 -0.22145638845737989 0.19620584245887829 0 -0.20742790761485719 0.18522653682776169 0 -0.22145638845737989 0.19620584245887829 0 -0.20298480987088391 0.20267948924706819 0 -0.20298480987088391 0.20267948924706819 0 -0.19380347586269861 0.19142236820165809 0 -0.18649781478672339 0.2051817656038645 0 -0.20742790761485719 0.18522653682776169 0 -0.20298480987088391 0.20267948924706819 0 -0.19380347586269861 0.19142236820165809 0 -0.20298480987088391 0.20267948924706819 0 -0.19660911962909999 0.22073627945268751 0 -0.18649781478672339 0.2051817656038645 0 -0.19660911962909999 0.22073627945268751 0 -0.1816416694372181 0.2179145068995855 0 -0.18649781478672339 0.2051817656038645 0 -0.22145638845737989 0.19620584245887829 0 -0.20298480987088391 0.20267948924706819 0 -0.2155817155997867 0.21562149586097151 0 -0.20298480987088391 0.20267948924706819 0 -0.2155817155997867 0.21562149586097151 0 -0.19660911962909999 0.22073627945268751 0 -0.2155817155997867 0.21562149586097151 0 -0.21281931739750601 0.23382576558849941 0 -0.19660911962909999 0.22073627945268751 0 -0.21281931739750601 0.23382576558849941 0 -0.19660911962909999 0.22073627945268751 0 -0.19366589686206481 0.24017923064625499 0 -0.19660911962909999 0.22073627945268751 0 -0.19366589686206481 0.24017923064625499 0 -0.18498915105116701 0.2286481164459046 0 -0.19660911962909999 0.22073627945268751 0 -0.18498915105116701 0.2286481164459046 0 -0.1816416694372181 0.2179145068995855 0 -0.19500832208057131 0.25328413736045252 0 -0.19366589686206481 0.24017923064625499 0 -0.18070775603871039 0.2460833813592164 0 -0.19500832208057131 0.25328413736045252 0 -0.19366589686206481 0.24017923064625499 0 -0.20551020031236289 0.24823120401263299 0 -0.21281931739750601 0.23382576558849941 0 -0.19366589686206481 0.24017923064625499 0 -0.20551020031236289 0.24823120401263299 0 -0.22818276383699301 0.25851367683388488 0 -0.21281931739750601 0.23382576558849941 0 -0.20551020031236289 0.24823120401263299 0 -0.173711917224908 0.2440552947935262 0 -0.1596044385291179 0.22657969320960869 0 -0.17003586602892931 0.26008011852440821 0 -0.16327790141139409 0.23804628007485959 0 -0.15171251726394991 0.24139573277759371 0 -0.16327790141139409 0.23804628007485959 0 -0.173711917224908 0.2440552947935262 0 -0.1596044385291179 0.22657969320960869 0 -0.16327790141139409 0.23804628007485959 0 -0.1596044385291179 0.22657969320960869 0 -0.15171251726394991 0.24139573277759371 0 -0.17497479995175169 0.25277904663671408 0 -0.16327790141139409 0.23804628007485959 0 -0.173711917224908 0.2440552947935262 0 -0.18070775603871039 0.2460833813592164 0 -0.18226097824819851 0.2345274506396052 0 -0.16968110904085179 0.22319907410704501 0 -0.173711917224908 0.2440552947935262 0 -0.18070775603871039 0.2460833813592164 0 -0.16968110904085179 0.22319907410704501 0 -0.17497479995175169 0.25277904663671408 0 -0.173711917224908 0.2440552947935262 0 -0.18070775603871039 0.2460833813592164 0 -0.18070775603871039 0.2460833813592164 0 -0.16968110904085179 0.22319907410704501 0 -0.19366589686206481 0.24017923064625499 0 -0.18070775603871039 0.2460833813592164 0 -0.18226097824819851 0.2345274506396052 0 -0.19366589686206481 0.24017923064625499 0 -0.18226097824819851 0.2345274506396052 0 -0.18498915105116701 0.2286481164459046 0 -0.18226097824819851 0.2345274506396052 0 -0.18498915105116701 0.2286481164459046 0 -0.16968110904085179 0.22319907410704501 0 -0.18498915105116701 0.2286481164459046 0 -0.16968110904085179 0.22319907410704501 0 -0.1816416694372181 0.2179145068995855 0 -0.173711917224908 0.2440552947935262 0 -0.16968110904085179 0.22319907410704501 0 -0.1596044385291179 0.22657969320960869 0 -0.16968110904085179 0.22319907410704501 0 -0.1596044385291179 0.22657969320960869 0 -0.15835924236157259 0.21479940644930451 0 -0.16968110904085179 0.22319907410704501 0 -0.15835924236157259 0.21479940644930451 0 -0.1586544620429936 0.2003147668548734 0 -0.16968110904085179 0.22319907410704501 0 -0.1586544620429936 0.2003147668548734 0 -0.16968110904085179 0.22319907410704501 0 -0.17322574213671091 0.20776529140082661 0 -0.1586544620429936 0.2003147668548734 0 -0.16968110904085179 0.22319907410704501 0 -0.1816416694372181 0.2179145068995855 0 -0.17322574213671091 0.20776529140082661 0 -0.1816416694372181 0.2179145068995855 0 -0.18649781478672339 0.2051817656038645 0 -0.17322574213671091 0.20776529140082661 0 -0.18649781478672339 0.2051817656038645 0 -0.17322574213671091 0.20776529140082661 0 -0.1769204363613413 0.1881129387281576 0 -0.19380347586269861 0.19142236820165809 0 -0.18649781478672339 0.2051817656038645 0 -0.1769204363613413 0.1881129387281576 0 -0.1769204363613413 0.1881129387281576 0 -0.1586544620429936 0.2003147668548734 0 -0.17322574213671091 0.20776529140082661 0 -0.1769204363613413 0.1881129387281576 0 -0.1586544620429936 0.2003147668548734 0 -0.1586544620429936 0.2003147668548734 0 -0.16296090277714409 0.18777346411240831 0 -0.15068113942535721 0.1837672193875286 0 -0.1769204363613413 0.1881129387281576 0 -0.1586544620429936 0.2003147668548734 0 -0.16296090277714409 0.18777346411240831 0 -0.1586544620429936 0.2003147668548734 0 -0.15068113942535721 0.1837672193875286 0 -0.14922224690916491 0.20043783156404599 0 -0.13996527041692641 0.20225172612427139 0 -0.15068113942535721 0.1837672193875286 0 -0.1586544620429936 0.2003147668548734 0 -0.14922224690916491 0.20043783156404599 0 -0.15068113942535721 0.1837672193875286 0 -0.13996527041692641 0.20225172612427139 0 -0.15068113942535721 0.1837672193875286 0 -0.13954423661562909 0.18493501843138041 0 -0.13996527041692641 0.20225172612427139 0 -0.15068113942535721 0.1837672193875286 0 -0.13996527041692641 0.20225172612427139 0 -0.1208570824525477 0.20297886008037999 0 -0.1243639814332262 0.19434348177551911 0 -0.13996527041692641 0.20225172612427139 0 -0.13954423661562909 0.18493501843138041 0 -0.1302854982203181 0.18253813532197569 0 -0.13996527041692641 0.20225172612427139 0 -0.1302854982203181 0.18253813532197569 0 -0.1219789370736377 0.17997120369777961 0 -0.13996527041692641 0.20225172612427139 0 -0.1219789370736377 0.17997120369777961 0 -0.13996527041692641 0.20225172612427139 0 -0.1219789370736377 0.17997120369777961 0 -0.1243639814332262 0.19434348177551911 0 -0.13996527041692641 0.20225172612427139 0 -0.12998607491768849 0.2194654963082677 0 -0.1208570824525477 0.20297886008037999 0 -0.13996527041692641 0.20225172612427139 0 -0.14549695983332811 0.20910409162569121 0 -0.12998607491768849 0.2194654963082677 0 -0.13996527041692641 0.20225172612427139 0 -0.12998607491768849 0.2194654963082677 0 -0.14549695983332811 0.20910409162569121 0 -0.14291628608840101 0.21899820635450271 0 -0.12998607491768849 0.2194654963082677 0 -0.14549695983332811 0.20910409162569121 0 -0.12998607491768849 0.2194654963082677 0 -0.1596044385291179 0.22657969320960869 0 -0.14549695983332811 0.20910409162569121 0 -0.14291628608840101 0.21899820635450271 0 -0.1596044385291179 0.22657969320960869 0 -0.14549695983332811 0.20910409162569121 0 -0.1596044385291179 0.22657969320960869 0 -0.15835924236157259 0.21479940644930451 0 -0.14549695983332811 0.20910409162569121 0 -0.14922224690916491 0.20043783156404599 0 -0.13996527041692641 0.20225172612427139 0 -0.14549695983332811 0.20910409162569121 0 -0.13996527041692641 0.20225172612427139 0 -0.14549695983332811 0.20910409162569121 0 -0.15835924236157259 0.21479940644930451 0 -0.1586544620429936 0.2003147668548734 0 -0.14549695983332811 0.20910409162569121 0 -0.1586544620429936 0.2003147668548734 0 -0.14922224690916491 0.20043783156404599 0 -0.14549695983332811 0.20910409162569121 0 -0.1586544620429936 0.2003147668548734 0 -0.14549695983332811 0.20910409162569121 0 -0.1469056025951099 0.2274212448431211 0 -0.13338916849897059 0.22271134703077919 0 -0.15171251726394991 0.24139573277759371 0 -0.13338916849897059 0.22271134703077919 0 -0.15171251726394991 0.24139573277759371 0 -0.1596044385291179 0.22657969320960869 0 -0.1469056025951099 0.2274212448431211 0 -0.14291628608840101 0.21899820635450271 0 -0.1596044385291179 0.22657969320960869 0 -0.1469056025951099 0.2274212448431211 0 -0.15171251726394991 0.24139573277759371 0 -0.1469056025951099 0.2274212448431211 0 -0.14291628608840101 0.21899820635450271 0 -0.13338916849897059 0.22271134703077919 0 -0.14291628608840101 0.21899820635450271 0 -0.13338916849897059 0.22271134703077919 0 -0.12998607491768849 0.2194654963082677 0 -0.13338916849897059 0.22271134703077919 0 -0.1355354318333922 0.23893339269171299 0 -0.15171251726394991 0.24139573277759371 0 -0.13338916849897059 0.22271134703077919 0 -0.1355354318333922 0.23893339269171299 0 -0.11919423465850799 0.23808105084852149 0 -0.13338916849897059 0.22271134703077919 0 -0.12998607491768849 0.2194654963082677 0 -0.11919423465850799 0.23808105084852149 0 -0.1320028362737912 0.25996576633894292 0 -0.1355354318333922 0.23893339269171299 0 -0.11919423465850799 0.23808105084852149 0 -0.144281141668364 0.25235088839424302 0 -0.1355354318333922 0.23893339269171299 0 -0.15171251726394991 0.24139573277759371 0 -0.17441688876348299 0.14282386535837979 0 -0.1625490140944206 0.16329554237295449 0 -0.17441688876348299 0.14282386535837979 0 -0.17067595838246061 0.15670234032395811 0 -0.1625490140944206 0.16329554237295449 0 -0.15956351612248959 0.15042080777765179 0 -0.17441688876348299 0.14282386535837979 0 -0.1625490140944206 0.16329554237295449 0 -0.15956351612248959 0.15042080777765179 0 -0.15893216929040629 0.13615495298212499 0 -0.17441688876348299 0.14282386535837979 0 -0.17018326020151681 0.1263816946947485 0 -0.15893216929040629 0.13615495298212499 0 -0.17441688876348299 0.14282386535837979 0 -0.1566927354816478 0.1183811808832852 0 -0.17018326020151681 0.1263816946947485 0 -0.15893216929040629 0.13615495298212499 0 -0.18628476343254541 0.122352188343805 0 -0.19036238816500081 0.14528741857899441 0 -0.17441688876348299 0.14282386535837979 0 -0.18628476343254541 0.122352188343805 0 -0.17441688876348299 0.14282386535837979 0 -0.18628476343254541 0.122352188343805 0 -0.17018326020151681 0.1263816946947485 0 -0.17441688876348299 0.14282386535837979 0 -0.19036238816500081 0.14528741857899441 0 -0.17441688876348299 0.14282386535837979 0 -0.1816087251623815 0.1514813808947377 0 -0.17441688876348299 0.14282386535837979 0 -0.1816087251623815 0.1514813808947377 0 -0.17067595838246061 0.15670234032395811 0 -0.19097966533858171 0.16111189931761849 0 -0.17067595838246061 0.15670234032395811 0 -0.19097966533858171 0.16111189931761849 0 -0.1816087251623815 0.1514813808947377 0 -0.17067595838246061 0.15670234032395811 0 -0.19097966533858171 0.16111189931761849 0 -0.1765971775440438 0.1704206885995446 0 -0.17067595838246061 0.15670234032395811 0 -0.19518641067968709 0.17591111060143871 0 -0.1769204363613413 0.1881129387281576 0 -0.19518641067968709 0.17591111060143871 0 -0.1769204363613413 0.1881129387281576 0 -0.1765971775440438 0.1704206885995446 0 -0.1769204363613413 0.1881129387281576 0 -0.1765971775440438 0.1704206885995446 0 -0.1655875732788869 0.17889893147907229 0 -0.1655875732788869 0.17889893147907229 0 -0.1625490140944206 0.16329554237295449 0 -0.15068113942535721 0.1837672193875286 0 -0.1625490140944206 0.16329554237295449 0 -0.15068113942535721 0.1837672193875286 0 -0.1769204363613413 0.1881129387281576 0 -0.16296090277714409 0.18777346411240831 0 -0.1655875732788869 0.17889893147907229 0 -0.16296090277714409 0.18777346411240831 0 -0.1655875732788869 0.17889893147907229 0 -0.15068113942535721 0.1837672193875286 0 -0.1765971775440438 0.1704206885995446 0 -0.17067595838246061 0.15670234032395811 0 -0.1625490140944206 0.16329554237295449 0 -0.1765971775440438 0.1704206885995446 0 -0.1655875732788869 0.17889893147907229 0 -0.1625490140944206 0.16329554237295449 0 -0.15956351612248959 0.15042080777765179 0 -0.1625490140944206 0.16329554237295449 0 -0.15269736358385241 0.16049683163574829 0 -0.14434821216104149 0.1706240895357837 0 -0.13297211592918681 0.14701454789084151 0 -0.12271883561871449 0.17837537768714321 0 -0.15269736358385241 0.16049683163574829 0 -0.14434821216104149 0.1706240895357837 0 -0.14871275812706161 0.14894059794788109 0 -0.15269736358385241 0.16049683163574829 0 -0.14831331741424891 0.16920312054447059 0 -0.14434821216104149 0.1706240895357837 0 -0.1625490140944206 0.16329554237295449 0 -0.15269736358385241 0.16049683163574829 0 -0.14831331741424891 0.16920312054447059 0 -0.14831331741424891 0.16920312054447059 0 -0.14434821216104149 0.1706240895357837 0 -0.1625490140944206 0.16329554237295449 0 -0.14831331741424891 0.16920312054447059 0 -0.15068113942535721 0.1837672193875286 0 -0.14831331741424891 0.16920312054447059 0 -0.14434821216104149 0.1706240895357837 0 -0.15068113942535721 0.1837672193875286 0 -0.14434821216104149 0.1706240895357837 0 -0.15068113942535721 0.1837672193875286 0 -0.14434821216104149 0.1706240895357837 0 -0.15068113942535721 0.1837672193875286 0 -0.13954423661562909 0.18493501843138041 0 -0.14434821216104149 0.1706240895357837 0 -0.1302854982203181 0.18253813532197569 0 -0.12271883561871449 0.17837537768714321 0 -0.14434821216104149 0.1706240895357837 0 -0.12271883561871449 0.17837537768714321 0 -0.14434821216104149 0.1706240895357837 0 -0.13954423661562909 0.18493501843138041 0 -0.1302854982203181 0.18253813532197569 0 -0.14434821216104149 0.1706240895357837 0 -0.13297211592918681 0.14701454789084151 0 -0.13297211592918681 0.14701454789084151 0 -0.14871275812706161 0.14894059794788109 0 -0.14254164419027121 0.1294037244113358 0 -0.14434821216104149 0.1706240895357837 0 -0.13297211592918681 0.14701454789084151 0 -0.14871275812706161 0.14894059794788109 0 -0.15956351612248959 0.15042080777765179 0 -0.15893216929040629 0.13615495298212499 0 -0.14871275812706161 0.14894059794788109 0 -0.15956351612248959 0.15042080777765179 0 -0.15269736358385241 0.16049683163574829 0 -0.14871275812706161 0.14894059794788109 0 -0.1566927354816478 0.1183811808832852 0 -0.15893216929040629 0.13615495298212499 0 -0.14254164419027121 0.1294037244113358 0 -0.15893216929040629 0.13615495298212499 0 -0.14871275812706161 0.14894059794788109 0 -0.14254164419027121 0.1294037244113358 0 -0.13297211592918681 0.14701454789084151 0 -0.1215960196973324 0.1234050062458989 0 -0.13297211592918681 0.14701454789084151 0 -0.14254164419027121 0.1294037244113358 0 -0.1215960196973324 0.1234050062458989 0 -0.13297211592918681 0.14701454789084151 0 -0.1120795711597591 0.1403856838486392 0 -0.1215960196973324 0.1234050062458989 0 -0.1120795711597591 0.1403856838486392 0 -0.1215960196973324 0.1234050062458989 0 -0.10252996323262301 0.12331608694818259 0 -0.094840002999768247 0.14683670929540871 0 -0.10252996323262301 0.12331608694818259 0 -0.094458939530428943 0.1261341343356443 0 -0.094840002999768247 0.14683670929540871 0 -0.10252996323262301 0.12331608694818259 0 -0.1120795711597591 0.1403856838486392 0 -0.094840002999768247 0.14683670929540871 0 -0.10252996323262301 0.12331608694818259 0 -0.1120795711597591 0.1403856838486392 0 -0.094840002999768247 0.14683670929540871 0 -0.10845975393988511 0.1613560688628646 0 -0.13297211592918681 0.14701454789084151 0 -0.1120795711597591 0.1403856838486392 0 -0.10845975393988511 0.1613560688628646 0 -0.13297211592918681 0.14701454789084151 0 -0.12271883561871449 0.17837537768714321 0 -0.10845975393988511 0.1613560688628646 0 -0.12271883561871449 0.17837537768714321 0 -0.1010894590763876 0.18612666583850279 0 -0.10845975393988511 0.1613560688628646 0 -0.12271883561871449 0.17837537768714321 0 -0.1010894590763876 0.18612666583850279 0 -0.1219789370736377 0.17997120369777961 0 -0.12271883561871449 0.17837537768714321 0 -0.1010894590763876 0.18612666583850279 0 -0.1219789370736377 0.17997120369777961 0 -0.1010894590763876 0.18612666583850279 0 -0.1146546357897925 0.19217213719964521 0 -0.1302854982203181 0.18253813532197569 0 -0.1219789370736377 0.17997120369777961 0 -0.12271883561871449 0.17837537768714321 0 -0.1010894590763876 0.18612666583850279 0 -0.10845975393988511 0.1613560688628646 0 -0.087150042766913474 0.17035733164263481 0 -0.094840002999768247 0.14683670929540871 0 -0.10845975393988511 0.1613560688628646 0 -0.087150042766913474 0.17035733164263481 0 -0.094840002999768247 0.14683670929540871 0 -0.087150042766913474 0.17035733164263481 0 -0.087150042766913474 0.17035733164263481 0 -0.079460082534060339 0.19387795398986141 0 -0.1010894590763876 0.18612666583850279 0 -0.087150042766913474 0.17035733164263481 0 -0.079460082534060339 0.19387795398986141 0 -0.087150042766913474 0.17035733164263481 0 -0.068406929404450825 0.18222801359994409 0 -0.079460082534060339 0.19387795398986141 0 -0.087150042766913474 0.17035733164263481 0 -0.068406929404450825 0.18222801359994409 0 -0.064022898650879151 0.16677894956528791 0 -0.087150042766913474 0.17035733164263481 0 -0.064022898650879151 0.16677894956528791 0 -0.074967333275904602 0.14654120571962759 0 -0.064022898650879151 0.16677894956528791 0 -0.074967333275904602 0.14654120571962759 0 -0.064022898650879151 0.16677894956528791 0 -0.074967333275904602 0.14654120571962759 0 -0.051234334489912908 0.14734020055025229 0 -0.074967333275904602 0.14654120571962759 0 -0.071542164649009393 0.13089293871939761 0 -0.085911767900929359 0.1263034618739669 0 -0.074967333275904602 0.14654120571962759 0 -0.071542164649009393 0.13089293871939761 0 -0.058298723040308489 0.13255283424109279 0 -0.071542164649009393 0.13089293871939761 0 -0.058298723040308489 0.13255283424109279 0 -0.065663921553070187 0.1185758253046655 0 -0.071542164649009393 0.13089293871939761 0 -0.085911767900929359 0.1263034618739669 0 -0.075496211377407446 0.1219526975758333 0 -0.094458939530428943 0.1261341343356443 0 -0.094840002999768247 0.14683670929540871 0 -0.086285049446535506 0.12863819814788799 0 -0.074967333275904602 0.14654120571962759 0 -0.085911767900929359 0.1263034618739669 0 -0.086285049446535506 0.12863819814788799 0 -0.074967333275904602 0.14654120571962759 0 -0.085911767900929359 0.1263034618739669 0 -0.094458939530428943 0.1261341343356443 0 -0.085911767900929359 0.1263034618739669 0 -0.086285049446535506 0.12863819814788799 0 -0.085911767900929359 0.1263034618739669 0 -0.086285049446535506 0.12863819814788799 0 -0.094840002999768247 0.14683670929540871 0 -0.074967333275904602 0.14654120571962759 0 -0.086285049446535506 0.12863819814788799 0 -0.094840002999768247 0.14683670929540871 0 -0.087150042766913474 0.17035733164263481 0 -0.074967333275904602 0.14654120571962759 0 -0.084453242413801644 0.25337914070412121 0 -0.094841973153774878 0.23675359430126891 0 -0.1027641879707092 0.24488175430230921 0 -0.094841973153774878 0.23675359430126891 0 -0.106671220481922 0.2354712510403649 0 -0.1027641879707092 0.24488175430230921 0 -0.106671220481922 0.2354712510403649 0 -0.1027641879707092 0.24488175430230921 0 -0.1157058757837111 0.2411088978867221 0 -0.1078408459320485 0.25661881903500061 0 -0.1027641879707092 0.24488175430230921 0 -0.1157058757837111 0.2411088978867221 0 -0.1078408459320485 0.25661881903500061 0 -0.1157058757837111 0.2411088978867221 0 -0.1078408459320485 0.25661881903500061 0 -0.11919423465850799 0.23808105084852149 0 -0.1078408459320485 0.25661881903500061 0 -0.11919423465850799 0.23808105084852149 0 -0.1157058757837111 0.2411088978867221 0 -0.11919423465850799 0.23808105084852149 0 -0.1157058757837111 0.2411088978867221 0 -0.1148172279790337 0.22959841667704739 0 -0.106671220481922 0.2354712510403649 0 -0.1157058757837111 0.2411088978867221 0 -0.1148172279790337 0.22959841667704739 0 -0.12998607491768849 0.2194654963082677 0 -0.11919423465850799 0.23808105084852149 0 -0.12998607491768849 0.2194654963082677 0 -0.11919423465850799 0.23808105084852149 0 -0.1148172279790337 0.22959841667704739 0 -0.12998607491768849 0.2194654963082677 0 -0.1148172279790337 0.22959841667704739 0 -0.1124149406914649 0.2148944227359037 0 -0.12998607491768849 0.2194654963082677 0 -0.1148172279790337 0.22959841667704739 0 -0.1148172279790337 0.22959841667704739 0 -0.102413000015093 0.22525510585225109 0 -0.1124149406914649 0.2148944227359037 0 -0.106671220481922 0.2354712510403649 0 -0.1148172279790337 0.22959841667704739 0 -0.102413000015093 0.22525510585225109 0 -0.094841973153774878 0.23675359430126891 0 -0.106671220481922 0.2354712510403649 0 -0.102413000015093 0.22525510585225109 0 -0.094841973153774878 0.23675359430126891 0 -0.102413000015093 0.22525510585225109 0 -0.088025358331161305 0.22696116299950961 0 -0.102413000015093 0.22525510585225109 0 -0.093258902075285616 0.21326741962898821 0 -0.088025358331161305 0.22696116299950961 0 -0.102413000015093 0.22525510585225109 0 -0.1124149406914649 0.2148944227359037 0 -0.093258902075285616 0.21326741962898821 0 -0.1124149406914649 0.2148944227359037 0 -0.1036225171032565 0.20055290991221369 0 -0.093258902075285616 0.21326741962898821 0 -0.1124149406914649 0.2148944227359037 0 -0.1208570824525477 0.20297886008037999 0 -0.1036225171032565 0.20055290991221369 0 -0.12998607491768849 0.2194654963082677 0 -0.1124149406914649 0.2148944227359037 0 -0.1208570824525477 0.20297886008037999 0 -0.1208570824525477 0.20297886008037999 0 -0.1146546357897925 0.19217213719964521 0 -0.1036225171032565 0.20055290991221369 0 -0.1208570824525477 0.20297886008037999 0 -0.1243639814332262 0.19434348177551911 0 -0.1146546357897925 0.19217213719964521 0 -0.1219789370736377 0.17997120369777961 0 -0.1243639814332262 0.19434348177551911 0 -0.1146546357897925 0.19217213719964521 0 -0.1010894590763876 0.18612666583850279 0 -0.1146546357897925 0.19217213719964521 0 -0.1036225171032565 0.20055290991221369 0 -0.1010894590763876 0.18612666583850279 0 -0.1036225171032565 0.20055290991221369 0 -0.079460082534060339 0.19387795398986141 0 -0.1036225171032565 0.20055290991221369 0 -0.079460082534060339 0.19387795398986141 0 -0.093258902075285616 0.21326741962898821 0 -0.1010894590763876 0.18612666583850279 0 -0.079460082534060339 0.19387795398986141 0 -0.079460082534060339 0.19387795398986141 0 -0.060797055967445189 0.20056619562323641 0 -0.068406929404450825 0.18222801359994409 0 -0.079460082534060339 0.19387795398986141 0 -0.060797055967445189 0.20056619562323641 0 -0.079460082534060339 0.19387795398986141 0 -0.070262860714806058 0.22200870818155091 0 -0.079460082534060339 0.19387795398986141 0 -0.070262860714806058 0.22200870818155091 0 -0.060797055967445189 0.20056619562323641 0 -0.079460082534060339 0.19387795398986141 0 -0.093258902075285616 0.21326741962898821 0 -0.070262860714806058 0.22200870818155091 0 -0.093258902075285616 0.21326741962898821 0 -0.088025358331161305 0.22696116299950961 0 -0.070262860714806058 0.22200870818155091 0 -0.088025358331161305 0.22696116299950961 0 -0.070262860714806058 0.22200870818155091 0 -0.079729814701819723 0.23784841371193849 0 -0.094841973153774878 0.23675359430126891 0 -0.088025358331161305 0.22696116299950961 0 -0.079729814701819723 0.23784841371193849 0 -0.061065638895554768 0.25013946237324142 0 -0.070262860714806058 0.22200870818155091 0 -0.079729814701819723 0.23784841371193849 0 -0.061065638895554768 0.25013946237324142 0 -0.070262860714806058 0.22200870818155091 0 -0.084453242413801644 0.25337914070412121 0 -0.061065638895554768 0.25013946237324142 0 -0.079729814701819723 0.23784841371193849 0 -0.061065638895554768 0.25013946237324142 0 -0.070262860714806058 0.22200870818155091 0 -0.058067988649131527 0.23338627838413059 0 -0.084453242413801644 0.25337914070412121 0 -0.094841973153774878 0.23675359430126891 0 -0.079729814701819723 0.23784841371193849 0 -0.035811458562190243 0.25245624111265941 0 -0.034496733101153247 0.24259260712475969 0 -0.02897616192434729 0.24763077062481109 0 -0.035811458562190243 0.25245624111265941 0 -0.034496733101153247 0.24259260712475969 0 -0.041806888091651957 0.24601663838827351 0 -0.034496733101153247 0.24259260712475969 0 -0.039725949129437763 0.24032806558726699 0 -0.041806888091651957 0.24601663838827351 0 -0.034496733101153247 0.24259260712475969 0 -0.034576787810970663 0.23513874796885911 0 -0.026294882293759089 0.2369310221517201 0 -0.034496733101153247 0.24259260712475969 0 -0.034576787810970663 0.23513874796885911 0 -0.039725949129437763 0.24032806558726699 0 -0.034576787810970663 0.23513874796885911 0 -0.039725949129437763 0.24032806558726699 0 -0.048770627097552872 0.23704242720752169 0 -0.039725949129437763 0.24032806558726699 0 -0.041806888091651957 0.24601663838827351 0 -0.048770627097552872 0.23704242720752169 0 -0.043342199105482732 0.25525471080365197 0 -0.041806888091651957 0.24601663838827351 0 -0.048694361554094991 0.24842577849378139 0 -0.041806888091651957 0.24601663838827351 0 -0.048694361554094991 0.24842577849378139 0 -0.048770627097552872 0.23704242720752169 0 -0.061065638895554768 0.25013946237324142 0 -0.054149654049083527 0.24224848661466891 0 -0.058067988649131527 0.23338627838413059 0 -0.048694361554094991 0.24842577849378139 0 -0.054149654049083527 0.24224848661466891 0 -0.048770627097552872 0.23704242720752169 0 -0.061065638895554768 0.25013946237324142 0 -0.048694361554094991 0.24842577849378139 0 -0.054149654049083527 0.24224848661466891 0 -0.061065638895554768 0.25013946237324142 0 -0.048694361554094991 0.24842577849378139 0 -0.054149654049083527 0.24224848661466891 0 -0.048770627097552872 0.23704242720752169 0 -0.058067988649131527 0.23338627838413059 0 -0.048770627097552872 0.23704242720752169 0 -0.058067988649131527 0.23338627838413059 0 -0.051232483108196752 0.2222087587186026 0 -0.070262860714806058 0.22200870818155091 0 -0.058067988649131527 0.23338627838413059 0 -0.051232483108196752 0.2222087587186026 0 -0.070262860714806058 0.22200870818155091 0 -0.051232483108196752 0.2222087587186026 0 -0.056106607297819321 0.21300952494499981 0 -0.048770627097552872 0.23704242720752169 0 -0.051232483108196752 0.2222087587186026 0 -0.041084021074257369 0.2260331647730201 0 -0.051232483108196752 0.2222087587186026 0 -0.041084021074257369 0.2260331647730201 0 -0.042092475974336123 0.21948520417078171 0 -0.048770627097552872 0.23704242720752169 0 -0.041084021074257369 0.2260331647730201 0 -0.029750803347267089 0.22777536482961031 0 -0.034576787810970663 0.23513874796885911 0 -0.048770627097552872 0.23704242720752169 0 -0.029750803347267089 0.22777536482961031 0 -0.048770627097552872 0.23704242720752169 0 -0.029750803347267089 0.22777536482961031 0 -0.041084021074257369 0.2260331647730201 0 -0.033919370314061052 0.2224444559348949 0 -0.029750803347267089 0.22777536482961031 0 -0.041084021074257369 0.2260331647730201 0 -0.042092475974336123 0.21948520417078171 0 -0.033919370314061052 0.2224444559348949 0 -0.042134029400829283 0.207254437256609 0 -0.030510935376667471 0.2020404505654981 0 -0.026432504498905489 0.21288136985415401 0 -0.042134029400829283 0.207254437256609 0 -0.026432504498905489 0.21288136985415401 0 -0.033919370314061052 0.2224444559348949 0 -0.042134029400829283 0.207254437256609 0 -0.026432504498905489 0.21288136985415401 0 -0.033919370314061052 0.2224444559348949 0 -0.042134029400829283 0.207254437256609 0 -0.042092475974336123 0.21948520417078171 0 -0.033919370314061052 0.2224444559348949 0 -0.042134029400829283 0.207254437256609 0 -0.051232483108196752 0.2222087587186026 0 -0.042092475974336123 0.21948520417078171 0 -0.042134029400829283 0.207254437256609 0 -0.051232483108196752 0.2222087587186026 0 -0.042134029400829283 0.207254437256609 0 -0.056106607297819321 0.21300952494499981 0 -0.042134029400829283 0.207254437256609 0 -0.056106607297819321 0.21300952494499981 0 -0.060797055967445189 0.20056619562323641 0 -0.042134029400829283 0.207254437256609 0 -0.060797055967445189 0.20056619562323641 0 -0.070262860714806058 0.22200870818155091 0 -0.056106607297819321 0.21300952494499981 0 -0.060797055967445189 0.20056619562323641 0 -0.068406929404450825 0.18222801359994409 0 -0.060797055967445189 0.20056619562323641 0 -0.053078464025853721 0.1870166934109482 0 -0.042134029400829283 0.207254437256609 0 -0.053078464025853721 0.1870166934109482 0 -0.042134029400829283 0.207254437256609 0 -0.060797055967445189 0.20056619562323641 0 -0.053078464025853721 0.1870166934109482 0 -0.042134029400829283 0.207254437256609 0 -0.036503625727790583 0.19113134319965769 0 -0.053078464025853721 0.1870166934109482 0 -0.042134029400829283 0.207254437256609 0 -0.036503625727790583 0.19113134319965769 0 -0.030510935376667471 0.2020404505654981 0 -0.036503625727790583 0.19113134319965769 0 -0.0192073119393068 0.19169089449536961 0 -0.030510935376667471 0.2020404505654981 0 -0.0192073119393068 0.19169089449536961 0 -0.030510935376667471 0.2020404505654981 0 -0.016619929547970941 0.20758681445476471 0 -0.0192073119393068 0.19169089449536961 0 -0.0059420080781297686 0.20252729609075731 0 -0.016619929547970941 0.20758681445476471 0 -0.0192073119393068 0.19169089449536961 0 -0.0059420080781297686 0.20252729609075731 0 0.006788821681535686 0.18541447260166879 0 -0.0192073119393068 0.19169089449536961 0 0.006788821681535686 0.18541447260166879 0 -0.0059420080781297686 0.20252729609075731 0 -0.010730979596981551 0.21850830245169839 0 0.0093749494012825025 0.20871205509215279 0 -0.0059420080781297686 0.20252729609075731 0 -0.010730979596981551 0.21850830245169839 0 -0.016619929547970941 0.20758681445476471 0 -0.010730979596981551 0.21850830245169839 0 0.0093749494012825025 0.20871205509215279 0 -0.010730979596981551 0.21850830245169839 0 -0.026432504498905489 0.21288136985415401 0 -0.02520841443930379 0.22040237326758941 0 -0.010730979596981551 0.21850830245169839 0 -0.016619929547970941 0.20758681445476471 0 -0.026432504498905489 0.21288136985415401 0 -0.010730979596981551 0.21850830245169839 0 -0.026432504498905489 0.21288136985415401 0 -0.030510935376667471 0.2020404505654981 0 -0.016619929547970941 0.20758681445476471 0 -0.026432504498905489 0.21288136985415401 0 -0.033919370314061052 0.2224444559348949 0 -0.026432504498905489 0.21288136985415401 0 -0.02520841443930379 0.22040237326758941 0 -0.010730979596981551 0.21850830245169839 0 -0.02520841443930379 0.22040237326758941 0 -0.029750803347267089 0.22777536482961031 0 -0.010730979596981551 0.21850830245169839 0 -0.029750803347267089 0.22777536482961031 0 -0.02084792863162822 0.2289994489584106 0 -0.010730979596981551 0.21850830245169839 0 -0.029750803347267089 0.22777536482961031 0 -0.033919370314061052 0.2224444559348949 0 -0.02520841443930379 0.22040237326758941 0 -0.029750803347267089 0.22777536482961031 0 -0.034576787810970663 0.23513874796885911 0 -0.029750803347267089 0.22777536482961031 0 -0.026294882293759089 0.2369310221517201 0 -0.029750803347267089 0.22777536482961031 0 -0.02084792863162822 0.2289994489584106 0 -0.026294882293759089 0.2369310221517201 0 -0.010730979596981551 0.21850830245169839 0 -0.016615049288505171 0.2327831064006135 0 -0.02084792863162822 0.2289994489584106 0 -0.016615049288505171 0.2327831064006135 0 -0.02084792863162822 0.2289994489584106 0 -0.026294882293759089 0.2369310221517201 0 -0.010730979596981551 0.21850830245169839 0 -0.003824252769780562 0.23481350750289789 0 0.011396414145313409 0.22643806430125771 0 -0.010730979596981551 0.21850830245169839 0 -0.016615049288505171 0.2327831064006135 0 -0.003824252769780562 0.23481350750289789 0 -0.016615049288505171 0.2327831064006135 0 -0.003824252769780562 0.23481350750289789 0 -0.018591211858318722 0.24296616201340529 0 -0.003824252769780562 0.23481350750289789 0 -0.0078416916123964023 0.2487833693736789 0 0.0044984839953912826 0.2499188924550132 0 -0.003824252769780562 0.23481350750289789 0 -0.0078416916123964023 0.2487833693736789 0 -0.018591211858318722 0.24296616201340529 0 -0.018934685398372921 0.25391538416849452 0 -0.0078416916123964023 0.2487833693736789 0 -0.018591211858318722 0.24296616201340529 0 -0.016615049288505171 0.2327831064006135 0 -0.018591211858318722 0.24296616201340529 0 -0.026294882293759089 0.2369310221517201 0 -0.034496733101153247 0.24259260712475969 0 -0.026294882293759089 0.2369310221517201 0 -0.02897616192434729 0.24763077062481109 0 -0.018591211858318722 0.24296616201340529 0 -0.026294882293759089 0.2369310221517201 0 -0.02897616192434729 0.24763077062481109 0 -0.037324495746607997 0.1325143016317244 0 -0.051234334489912908 0.14734020055025229 0 -0.029201273496206409 0.151901879492193 0 -0.051234334489912908 0.14734020055025229 0 -0.046605170532073269 0.16312482753896609 0 -0.029201273496206409 0.151901879492193 0 -0.037324495746607997 0.1325143016317244 0 -0.058298723040308489 0.13255283424109279 0 -0.051234334489912908 0.14734020055025229 0 -0.037324495746607997 0.1325143016317244 0 -0.058298723040308489 0.13255283424109279 0 -0.049060088527345953 0.1194525335208898 0 -0.074967333275904602 0.14654120571962759 0 -0.058298723040308489 0.13255283424109279 0 -0.051234334489912908 0.14734020055025229 0 -0.064022898650879151 0.16677894956528791 0 -0.051234334489912908 0.14734020055025229 0 -0.046605170532073269 0.16312482753896609 0 -0.064022898650879151 0.16677894956528791 0 -0.053078464025853721 0.1870166934109482 0 -0.064022898650879151 0.16677894956528791 0 -0.053078464025853721 0.1870166934109482 0 -0.046605170532073269 0.16312482753896609 0 -0.068406929404450825 0.18222801359994409 0 -0.064022898650879151 0.16677894956528791 0 -0.053078464025853721 0.1870166934109482 0 -0.053078464025853721 0.1870166934109482 0 -0.033317542525287562 0.1748745242662515 0 -0.046605170532073269 0.16312482753896609 0 -0.036503625727790583 0.19113134319965769 0 -0.053078464025853721 0.1870166934109482 0 -0.033317542525287562 0.1748745242662515 0 -0.033317542525287562 0.1748745242662515 0 -0.046605170532073269 0.16312482753896609 0 -0.029201273496206409 0.151901879492193 0 -0.011226428212833621 0.1705431459329711 0 -0.0084531600164914223 0.15089908427112941 0 -0.029201273496206409 0.151901879492193 0 -0.033317542525287562 0.1748745242662515 0 -0.011226428212833621 0.1705431459329711 0 -0.029201273496206409 0.151901879492193 0 -0.036503625727790583 0.19113134319965769 0 -0.0192073119393068 0.19169089449536961 0 -0.033317542525287562 0.1748745242662515 0 -0.0192073119393068 0.19169089449536961 0 -0.033317542525287562 0.1748745242662515 0 -0.011226428212833621 0.1705431459329711 0 -0.0192073119393068 0.19169089449536961 0 -0.011226428212833621 0.1705431459329711 0 0.006788821681535686 0.18541447260166879 0 -0.011226428212833621 0.1705431459329711 0 -0.0084531600164914223 0.15089908427112941 0 0.010183357979277221 0.16443734465154811 0 -0.0084531600164914223 0.15089908427112941 0 -0.01340787055255222 0.13179804439315751 0 0.0097425114820798922 0.14549764380561969 0 -0.0084531600164914223 0.15089908427112941 0 -0.029201273496206409 0.151901879492193 0 -0.01340787055255222 0.13179804439315751 0 -0.037324495746607997 0.1325143016317244 0 -0.01340787055255222 0.13179804439315751 0 -0.027838863289509321 0.1120146643844484 0 -0.037324495746607997 0.1325143016317244 0 -0.029201273496206409 0.151901879492193 0 -0.01340787055255222 0.13179804439315751 0 -0.01340787055255222 0.13179804439315751 0 -0.01049533991771952 0.1072061554659474 0 0.0056013962895942191 0.120346171938359 0 -0.01049533991771952 0.1072061554659474 0 -0.01107342438097119 0.084341690381218817 0 0.0014602810971085171 0.095194700071098079 0 -0.01049533991771952 0.1072061554659474 0 0.0014602810971085171 0.095194700071098079 0 0.0056013962895942191 0.120346171938359 0 -0.01049533991771952 0.1072061554659474 0 -0.025140095961859212 0.09386766082972553 0 -0.01107342438097119 0.084341690381218817 0 -0.01049533991771952 0.1072061554659474 0 -0.025140095961859212 0.09386766082972553 0 -0.027838863289509321 0.1120146643844484 0 -0.01340787055255222 0.13179804439315751 0 -0.01049533991771952 0.1072061554659474 0 -0.027838863289509321 0.1120146643844484 0 -0.01261965295623284 0.054924100745148037 0 0.0092019994672754013 0.073664329152995547 0 -0.0026808340953771788 0.07004322820383721 0 -0.01107342438097119 0.084341690381218817 0 -0.022497404690706269 0.072713222261210145 0 -0.0026808340953771788 0.07004322820383721 0 -0.01261965295623284 0.054924100745148037 0 0.0092019994672754013 0.073664329152995547 0 -0.0026808340953771788 0.07004322820383721 0 -0.022497404690706269 0.072713222261210145 0 -0.01261965295623284 0.054924100745148037 0 -0.0026808340953771788 0.07004322820383721 0 0.0014602810971085171 0.095194700071098079 0 -0.0026808340953771788 0.07004322820383721 0 -0.01107342438097119 0.084341690381218817 0 0.0014602810971085171 0.095194700071098079 0 -0.025140095961859212 0.09386766082972553 0 -0.01107342438097119 0.084341690381218817 0 -0.022497404690706269 0.072713222261210145 0 -0.025140095961859212 0.09386766082972553 0 -0.022497404690706269 0.072713222261210145 0 -0.039354243572060063 0.083398009077617463 0 -0.022497404690706269 0.072713222261210145 0 -0.037385659149066511 0.069025232622169197 0 -0.030427926014744491 0.057804981250634671 0 -0.022497404690706269 0.072713222261210145 0 -0.037385659149066511 0.069025232622169197 0 -0.039354243572060063 0.083398009077617463 0 -0.037385659149066511 0.069025232622169197 0 -0.055176885645088707 0.074846368488214451 0 -0.046701863707250192 0.056129766775286541 0 -0.037385659149066511 0.069025232622169197 0 -0.039354243572060063 0.083398009077617463 0 -0.055176885645088707 0.074846368488214451 0 -0.025140095961859212 0.09386766082972553 0 -0.039354243572060063 0.083398009077617463 0 -0.042675690458468953 0.1011680564088788 0 -0.039354243572060063 0.083398009077617463 0 -0.057031672164165152 0.091642958353987253 0 -0.042675690458468953 0.1011680564088788 0 -0.039354243572060063 0.083398009077617463 0 -0.057031672164165152 0.091642958353987253 0 -0.055176885645088707 0.074846368488214451 0 -0.055176885645088707 0.074846368488214451 0 -0.063155840061174973 0.062328978951045381 0 -0.046701863707250192 0.056129766775286541 0 -0.037324495746607997 0.1325143016317244 0 -0.027838863289509321 0.1120146643844484 0 -0.049060088527345953 0.1194525335208898 0 -0.027838863289509321 0.1120146643844484 0 -0.042675690458468953 0.1011680564088788 0 -0.049060088527345953 0.1194525335208898 0 -0.025140095961859212 0.09386766082972553 0 -0.027838863289509321 0.1120146643844484 0 -0.042675690458468953 0.1011680564088788 0 -0.042675690458468953 0.1011680564088788 0 -0.056776360264965631 0.10654624060778529 0 -0.049060088527345953 0.1194525335208898 0 -0.057031672164165152 0.091642958353987253 0 -0.042675690458468953 0.1011680564088788 0 -0.056776360264965631 0.10654624060778529 0 -0.057031672164165152 0.091642958353987253 0 -0.056776360264965631 0.10654624060778529 0 -0.069450428621777943 0.1018918294505049 0 -0.056776360264965631 0.10654624060778529 0 -0.049060088527345953 0.1194525335208898 0 -0.065663921553070187 0.1185758253046655 0 -0.058298723040308489 0.13255283424109279 0 -0.049060088527345953 0.1194525335208898 0 -0.065663921553070187 0.1185758253046655 0 -0.065663921553070187 0.1185758253046655 0 -0.076579037055871296 0.113698388062075 0 -0.069450428621777943 0.1018918294505049 0 -0.071542164649009393 0.13089293871939761 0 -0.065663921553070187 0.1185758253046655 0 -0.075496211377407446 0.1219526975758333 0 -0.065663921553070187 0.1185758253046655 0 -0.076579037055871296 0.113698388062075 0 -0.075496211377407446 0.1219526975758333 0 -0.094458939530428943 0.1261341343356443 0 -0.085911767900929359 0.1263034618739669 0 -0.1000452188441683 0.10016879437909 0 -0.085911767900929359 0.1263034618739669 0 -0.081938637550753368 0.1014530194700109 0 -0.085911767900929359 0.1263034618739669 0 -0.076579037055871296 0.113698388062075 0 -0.075496211377407446 0.1219526975758333 0 -0.085911767900929359 0.1263034618739669 0 -0.076579037055871296 0.113698388062075 0 -0.081938637550753368 0.1014530194700109 0 -0.085911767900929359 0.1263034618739669 0 -0.1000452188441683 0.10016879437909 0 -0.081938637550753368 0.1014530194700109 0 -0.090445499296813198 0.089742661264307605 0 -0.1000452188441683 0.10016879437909 0 -0.085911767900929359 0.1263034618739669 0 -0.081938637550753368 0.1014530194700109 0 -0.1000452188441683 0.10016879437909 0 -0.056776360264965631 0.10654624060778529 0 -0.065663921553070187 0.1185758253046655 0 -0.069450428621777943 0.1018918294505049 0 -0.076579037055871296 0.113698388062075 0 -0.081938637550753368 0.1014530194700109 0 -0.069450428621777943 0.1018918294505049 0 -0.081938637550753368 0.1014530194700109 0 -0.069450428621777943 0.1018918294505049 0 -0.077965507200578363 0.076602577066054833 0 -0.057031672164165152 0.091642958353987253 0 -0.069450428621777943 0.1018918294505049 0 -0.077965507200578363 0.076602577066054833 0 -0.057031672164165152 0.091642958353987253 0 -0.055176885645088707 0.074846368488214451 0 -0.077965507200578363 0.076602577066054833 0 -0.055176885645088707 0.074846368488214451 0 -0.077965507200578363 0.076602577066054833 0 -0.063155840061174973 0.062328978951045381 0 -0.077965507200578363 0.076602577066054833 0 -0.073992376850403357 0.051752134662098763 0 -0.077965507200578363 0.076602577066054833 0 -0.063155840061174973 0.062328978951045381 0 -0.073992376850403357 0.051752134662098763 0 -0.077965507200578363 0.076602577066054833 0 -0.089628731732004252 0.065252023716445465 0 -0.073992376850403357 0.051752134662098763 0 -0.077965507200578363 0.076602577066054833 0 -0.089628731732004252 0.065252023716445465 0 -0.092344881768191361 0.080035913878943959 0 -0.081938637550753368 0.1014530194700109 0 -0.077965507200578363 0.076602577066054833 0 -0.081938637550753368 0.1014530194700109 0 -0.077965507200578363 0.076602577066054833 0 -0.090445499296813198 0.089742661264307605 0 -0.077965507200578363 0.076602577066054833 0 -0.092344881768191361 0.080035913878943959 0 -0.090445499296813198 0.089742661264307605 0 -0.11417866978740659 0.074034126884212639 0 -0.1000452188441683 0.10016879437909 0 -0.11417866978740659 0.074034126884212639 0 -0.1000452188441683 0.10016879437909 0 -0.1075363700417644 0.094226114182120471 0 -0.090445499296813198 0.089742661264307605 0 -0.099792627296833344 0.083426310597131015 0 -0.1000452188441683 0.10016879437909 0 -0.099792627296833344 0.083426310597131015 0 -0.11417866978740659 0.074034126884212639 0 -0.1000452188441683 0.10016879437909 0 -0.092344881768191361 0.080035913878943959 0 -0.099792627296833344 0.083426310597131015 0 -0.10194886678758711 0.073150056579100897 0 -0.092344881768191361 0.080035913878943959 0 -0.090445499296813198 0.089742661264307605 0 -0.099792627296833344 0.083426310597131015 0 -0.089628731732004252 0.065252023716445465 0 -0.10194886678758711 0.073150056579100897 0 -0.1025091701818876 0.063371214819137503 0 -0.089628731732004252 0.065252023716445465 0 -0.092344881768191361 0.080035913878943959 0 -0.10194886678758711 0.073150056579100897 0 -0.099792627296833344 0.083426310597131015 0 -0.10194886678758711 0.073150056579100897 0 -0.11417866978740659 0.074034126884212639 0 -0.10194886678758711 0.073150056579100897 0 -0.1025091701818876 0.063371214819137503 0 -0.1122843885598616 0.063649723115770829 0 -0.12831212073064391 0.047899459389334827 0 -0.11417866978740659 0.074034126884212639 0 -0.1200407853451974 0.069757236001248765 0 -0.10194886678758711 0.073150056579100897 0 -0.1122843885598616 0.063649723115770829 0 -0.11417866978740659 0.074034126884212639 0 -0.11417866978740659 0.074034126884212639 0 -0.1200407853451974 0.069757236001248765 0 -0.1151303544053376 0.084776350301102588 0 -0.1200407853451974 0.069757236001248765 0 -0.1151303544053376 0.084776350301102588 0 -0.11417866978740659 0.074034126884212639 0 -0.1151303544053376 0.084776350301102588 0 -0.1075363700417644 0.094226114182120471 0 -0.1151303544053376 0.084776350301102588 0 -0.110219923465478 0.099795464600956466 0 -0.1075363700417644 0.094226114182120471 0 -0.1151303544053376 0.084776350301102588 0 -0.110219923465478 0.099795464600956466 0 -0.1151303544053376 0.084776350301102588 0 -0.1244857968702516 0.096147348211482492 0 -0.110219923465478 0.099795464600956466 0 -0.1200407853451974 0.069757236001248765 0 -0.1151303544053376 0.084776350301102588 0 -0.1246427225964957 0.080559346571517115 0 -0.1151303544053376 0.084776350301102588 0 -0.1246427225964957 0.080559346571517115 0 -0.1244857968702516 0.096147348211482492 0 -0.1244857968702516 0.096147348211482492 0 -0.110219923465478 0.099795464600956466 0 -0.1215960196973324 0.1234050062458989 0 -0.110219923465478 0.099795464600956466 0 -0.1215960196973324 0.1234050062458989 0 -0.10252996323262301 0.12331608694818259 0 -0.110219923465478 0.099795464600956466 0 -0.1215960196973324 0.1234050062458989 0 -0.094458939530428943 0.1261341343356443 0 -0.10252996323262301 0.12331608694818259 0 -0.1000452188441683 0.10016879437909 0 -0.110219923465478 0.099795464600956466 0 -0.10252996323262301 0.12331608694818259 0 -0.110219923465478 0.099795464600956466 0 -0.10252996323262301 0.12331608694818259 0 -0.1000452188441683 0.10016879437909 0 -0.110219923465478 0.099795464600956466 0 -0.1000452188441683 0.10016879437909 0 -0.1075363700417644 0.094226114182120471 0 -0.110219923465478 0.099795464600956466 0 -0.1075363700417644 0.094226114182120471 0 -0.1019351805330122 0.01392077744574525 0 -0.097919677484510317 0.035839880078394087 0 -0.088529666744236263 0.025502509393768389 0 -0.1019351805330122 0.01392077744574525 0 -0.1151236506318269 0.030910118417540908 0 -0.097919677484510317 0.035839880078394087 0 -0.1019351805330122 0.01392077744574525 0 -0.1151236506318269 0.030910118417540908 0 -0.088746710434197518 -0.0030685635260504431 0 -0.1005232794502669 0.0001712020878064599 0 -0.1019351805330122 0.01392077744574525 0 -0.088746710434197518 -0.0030685635260504431 0 -0.1019351805330122 0.01392077744574525 0 -0.1005232794502669 0.0001712020878064599 0 -0.1087758492199227 0.001705343145855055 0 -0.1019351805330122 0.01392077744574525 0 -0.1087758492199227 0.001705343145855055 0 -0.1019351805330122 0.01392077744574525 0 -0.11679903771550181 0.01531860042901902 0 -0.12610417559565379 0.0050561888116637567 0 -0.1087758492199227 0.001705343145855055 0 -0.11679903771550181 0.01531860042901902 0 -0.12610417559565379 0.0050561888116637567 0 -0.1276431364208839 0.022915350138765729 0 -0.11679903771550181 0.01531860042901902 0 -0.1019351805330122 0.01392077744574525 0 -0.11679903771550181 0.01531860042901902 0 -0.1151236506318269 0.030910118417540908 0 -0.1276431364208839 0.022915350138765729 0 -0.11679903771550181 0.01531860042901902 0 -0.1151236506318269 0.030910118417540908 0 -0.12831212073064391 0.047899459389334827 0 -0.1151236506318269 0.030910118417540908 0 -0.12831212073064391 0.047899459389334827 0 -0.1151236506318269 0.030910118417540908 0 -0.1173916543755515 0.045961060954921688 0 -0.1151236506318269 0.030910118417540908 0 -0.1173916543755515 0.045961060954921688 0 -0.10883136765656561 0.0466254609246975 0 -0.12831212073064391 0.047899459389334827 0 -0.1122843885598616 0.063649723115770829 0 -0.11417866978740659 0.074034126884212639 0 -0.12831212073064391 0.047899459389334827 0 -0.11417866978740659 0.074034126884212639 0 -0.12831212073064391 0.047899459389334827 0 -0.1122843885598616 0.063649723115770829 0 -0.1152917895938836 0.054147495462500791 0 -0.12831212073064391 0.047899459389334827 0 -0.1173916543755515 0.045961060954921688 0 -0.1152917895938836 0.054147495462500791 0 -0.1152917895938836 0.054147495462500791 0 -0.107629377929769 0.05616990470973815 0 -0.10883136765656561 0.0466254609246975 0 -0.1173916543755515 0.045961060954921688 0 -0.1152917895938836 0.054147495462500791 0 -0.10883136765656561 0.0466254609246975 0 -0.1122843885598616 0.063649723115770829 0 -0.1152917895938836 0.054147495462500791 0 -0.107629377929769 0.05616990470973815 0 -0.1025091701818876 0.063371214819137503 0 -0.1122843885598616 0.063649723115770829 0 -0.107629377929769 0.05616990470973815 0 -0.1025091701818876 0.063371214819137503 0 -0.107629377929769 0.05616990470973815 0 -0.099230173656646645 0.05305562922658412 0 -0.107629377929769 0.05616990470973815 0 -0.099230173656646645 0.05305562922658412 0 -0.10883136765656561 0.0466254609246975 0 -0.089628731732004252 0.065252023716445465 0 -0.1025091701818876 0.063371214819137503 0 -0.099230173656646645 0.05305562922658412 0 -0.099230173656646645 0.05305562922658412 0 -0.097919677484510317 0.035839880078394087 0 -0.087808824812600619 0.048601619066147482 0 -0.099230173656646645 0.05305562922658412 0 -0.097919677484510317 0.035839880078394087 0 -0.10883136765656561 0.0466254609246975 0 -0.1151236506318269 0.030910118417540908 0 -0.097919677484510317 0.035839880078394087 0 -0.10883136765656561 0.0466254609246975 0 -0.097919677484510317 0.035839880078394087 0 -0.080072343629029097 0.037163479843202757 0 -0.087808824812600619 0.048601619066147482 0 -0.097919677484510317 0.035839880078394087 0 -0.080072343629029097 0.037163479843202757 0 -0.088529666744236263 0.025502509393768389 0 -0.080072343629029097 0.037163479843202757 0 -0.087808824812600619 0.048601619066147482 0 -0.073992376850403357 0.051752134662098763 0 -0.089628731732004252 0.065252023716445465 0 -0.099230173656646645 0.05305562922658412 0 -0.087808824812600619 0.048601619066147482 0 -0.089628731732004252 0.065252023716445465 0 -0.087808824812600619 0.048601619066147482 0 -0.073992376850403357 0.051752134662098763 0 -0.063155840061174973 0.062328978951045381 0 -0.073992376850403357 0.051752134662098763 0 -0.060428723270974483 0.040154751407828017 0 -0.080072343629029097 0.037163479843202757 0 -0.073992376850403357 0.051752134662098763 0 -0.060428723270974483 0.040154751407828017 0 -0.080072343629029097 0.037163479843202757 0 -0.068960625407786552 0.028173830715721972 0 -0.060428723270974483 0.040154751407828017 0 -0.068960625407786552 0.028173830715721972 0 -0.079078476927893285 0.017933447682404079 0 -0.056262957803249317 0.017443643929453009 0 -0.080072343629029097 0.037163479843202757 0 -0.068960625407786552 0.028173830715721972 0 -0.079078476927893285 0.017933447682404079 0 -0.1019351805330122 0.01392077744574525 0 -0.088529666744236263 0.025502509393768389 0 -0.085657697777448819 0.0087455664645060809 0 -0.080072343629029097 0.037163479843202757 0 -0.088529666744236263 0.025502509393768389 0 -0.079078476927893285 0.017933447682404079 0 -0.080072343629029097 0.037163479843202757 0 -0.079078476927893285 0.017933447682404079 0 -0.088529666744236263 0.025502509393768389 0 -0.079078476927893285 0.017933447682404079 0 -0.085657697777448819 0.0087455664645060809 0 -0.088746710434197518 -0.0030685635260504431 0 -0.1019351805330122 0.01392077744574525 0 -0.085657697777448819 0.0087455664645060809 0 -0.078084610226757528 -0.001296584478394562 0 -0.079078476927893285 0.017933447682404079 0 -0.078084610226757528 -0.001296584478394562 0 -0.079078476927893285 0.017933447682404079 0 -0.085657697777448819 0.0087455664645060809 0 -0.088746710434197518 -0.0030685635260504431 0 -0.078084610226757528 -0.001296584478394562 0 -0.085657697777448819 0.0087455664645060809 0 -0.078084610226757528 -0.001296584478394562 0 -0.079078476927893285 0.017933447682404079 0 -0.056262957803249317 0.017443643929453009 0 -0.078084610226757528 -0.001296584478394562 0 -0.056262957803249317 0.017443643929453009 0 -0.078084610226757528 -0.001296584478394562 0 -0.055398028680376188 0.001238288086679795 0 -0.056262957803249317 0.017443643929453009 0 -0.055398028680376188 0.001238288086679795 0 -0.056262957803249317 0.017443643929453009 0 -0.039076314255564543 0.011455411005704359 0 -0.068960625407786552 0.028173830715721972 0 -0.056262957803249317 0.017443643929453009 0 -0.060428723270974483 0.040154751407828017 0 -0.039076314255564543 0.011455411005704359 0 -0.034441305379741029 0.036183872337300561 0 -0.02087737458560707 0.01125984804016378 0 -0.056262957803249317 0.017443643929453009 0 -0.039076314255564543 0.011455411005704359 0 -0.034441305379741029 0.036183872337300561 0 -0.056262957803249317 0.017443643929453009 0 -0.034441305379741029 0.036183872337300561 0 -0.040083006432681353 -0.0067167165759734263 0 -0.039076314255564543 0.011455411005704359 0 -0.02087737458560707 0.01125984804016378 0 -0.040083006432681353 -0.0067167165759734263 0 -0.055398028680376188 0.001238288086679795 0 -0.039076314255564543 0.011455411005704359 0 -0.063155840061174973 0.062328978951045381 0 -0.060428723270974483 0.040154751407828017 0 -0.046701863707250192 0.056129766775286541 0 -0.056262957803249317 0.017443643929453009 0 -0.060428723270974483 0.040154751407828017 0 -0.034441305379741029 0.036183872337300561 0 -0.060428723270974483 0.040154751407828017 0 -0.034441305379741029 0.036183872337300561 0 -0.046701863707250192 0.056129766775286541 0 -0.034441305379741029 0.036183872337300561 0 -0.046701863707250192 0.056129766775286541 0 -0.030427926014744491 0.057804981250634671 0 -0.037385659149066511 0.069025232622169197 0 -0.046701863707250192 0.056129766775286541 0 -0.030427926014744491 0.057804981250634671 0 -0.034441305379741029 0.036183872337300561 0 -0.030427926014744491 0.057804981250634671 0 -0.01261965295623284 0.054924100745148037 0 -0.022497404690706269 0.072713222261210145 0 -0.030427926014744491 0.057804981250634671 0 -0.01261965295623284 0.054924100745148037 0 -0.034441305379741029 0.036183872337300561 0 -0.017184030922284189 0.035349024132065338 0 -0.01261965295623284 0.054924100745148037 0 -0.034441305379741029 0.036183872337300561 0 -0.01261965295623284 0.054924100745148037 0 -0.017184030922284189 0.035349024132065338 0 -0.01261965295623284 0.054924100745148037 0 -0.001671742738532692 0.029236412656301079 0 -0.01261965295623284 0.054924100745148037 0 -0.001671742738532692 0.029236412656301079 0 0.0046326480104421797 0.056448393332601723 0 -0.040083006432681353 -0.0067167165759734263 0 -0.02087737458560707 0.01125984804016378 0 -0.034441305379741029 0.036183872337300561 0 -0.017184030922284189 0.035349024132065338 0 -0.02087737458560707 0.01125984804016378 0 -0.017184030922284189 0.035349024132065338 0 -0.02087737458560707 0.01125984804016378 0 -0.001671742738532692 0.029236412656301079 0 -0.02087737458560707 0.01125984804016378 0 -0.001671742738532692 0.029236412656301079 0 -0.015828118557597009 -0.013356126892409481 0 -0.02087737458560707 0.01125984804016378 0 -0.0028544830176488989 0.002455641577057118 0 -0.02087737458560707 0.01125984804016378 0 -0.001671742738532692 0.029236412656301079 0 -0.0028544830176488989 0.002455641577057118 0 -0.0028544830176488989 0.002455641577057118 0 0.012083202062676639 0.01151000202332883 0 0.01001885416573191 -0.004476854249576773 0 0.012083202062676639 0.01151000202332883 0 0.0205997372461885 0.0023781323293908811 0 0.01001885416573191 -0.004476854249576773 0 -0.001671742738532692 0.029236412656301079 0 -0.0028544830176488989 0.002455641577057118 0 0.012083202062676639 0.01151000202332883 0 -0.001671742738532692 0.029236412656301079 0 0.012083202062676639 0.01151000202332883 0 0.019062412280594899 0.025812693249410039 0 0.019062412280594899 0.025812693249410039 0 0.033051171090582018 0.036488878038963397 0 0.034697903719160678 0.023203020150740071 0 0.012083202062676639 0.01151000202332883 0 0.019062412280594899 0.025812693249410039 0 0.027277616214852581 0.013989599892173341 0 0.019062412280594899 0.025812693249410039 0 0.027277616214852581 0.013989599892173341 0 0.034697903719160678 0.023203020150740071 0 0.027277616214852581 0.013989599892173341 0 0.0205997372461885 0.0023781323293908811 0 0.034309101083134827 0.0030038984494899922 0 0.012083202062676639 0.01151000202332883 0 0.027277616214852581 0.013989599892173341 0 0.0205997372461885 0.0023781323293908811 0 -0.01261965295623284 0.054924100745148037 0 0.0046326480104421797 0.056448393332601723 0 0.0092019994672754013 0.073664329152995547 0 0.0046326480104421797 0.056448393332601723 0 0.01753388910854169 0.047212977272438367 0 0.019296975750355209 0.059639021380020987 0 -0.001671742738532692 0.029236412656301079 0 0.0046326480104421797 0.056448393332601723 0 0.01753388910854169 0.047212977272438367 0 -0.001671742738532692 0.029236412656301079 0 0.019062412280594899 0.025812693249410039 0 0.01753388910854169 0.047212977272438367 0 -0.001671742738532692 0.029236412656301079 0 0.01753388910854169 0.047212977272438367 0 0.019062412280594899 0.025812693249410039 0 0.01753388910854169 0.047212977272438367 0 0.033051171090582018 0.036488878038963397 0 0.01753388910854169 0.047212977272438367 0 0.03273002116905771 0.052425995870189063 0 0.033051171090582018 0.036488878038963397 0 0.019296975750355209 0.059639021380020987 0 0.03273002116905771 0.052425995870189063 0 0.03238632099645905 0.068443411271880222 0 0.01753388910854169 0.047212977272438367 0 0.019296975750355209 0.059639021380020987 0 0.03273002116905771 0.052425995870189063 0 0.03273002116905771 0.052425995870189063 0 0.046326352333983287 0.041476100897429258 0 0.048900480154850781 0.058979606366156331 0 0.03273002116905771 0.052425995870189063 0 0.048900480154850781 0.058979606366156331 0 0.03238632099645905 0.068443411271880222 0 0.03273002116905771 0.052425995870189063 0 0.046326352333983287 0.041476100897429258 0 0.033051171090582018 0.036488878038963397 0 0.046326352333983287 0.041476100897429258 0 0.033051171090582018 0.036488878038963397 0 0.043551377889252903 0.031187676367697679 0 0.046326352333983287 0.041476100897429258 0 0.06343885737727456 0.042139138477194048 0 0.06279611753513796 0.055721240981177027 0 0.046326352333983287 0.041476100897429258 0 0.054885915748729523 0.034051607869816321 0 0.06343885737727456 0.042139138477194048 0 0.046326352333983287 0.041476100897429258 0 0.054885915748729523 0.034051607869816321 0 0.043551377889252903 0.031187676367697679 0 0.048900480154850781 0.058979606366156331 0 0.06279611753513796 0.055721240981177027 0 0.066099048852406958 0.068545971840149558 0 0.046326352333983287 0.041476100897429258 0 0.06279611753513796 0.055721240981177027 0 0.046326352333983287 0.041476100897429258 0 0.048900480154850781 0.058979606366156331 0 0.06279611753513796 0.055721240981177027 0 0.034309101083134827 0.0030038984494899922 0 0.053348980587158722 0.010225603144003221 0 0.04845766104737128 -0.0055885135069849642 0 0.034309101083134827 0.0030038984494899922 0 0.053348980587158722 0.010225603144003221 0 0.039333466539921112 0.01448335680072565 0 0.034309101083134827 0.0030038984494899922 0 0.053348980587158722 0.010225603144003221 0 0.039333466539921112 0.01448335680072565 0 0.047033731095298743 0.02199466236722163 0 0.053348980587158722 0.010225603144003221 0 0.027277616214852581 0.013989599892173341 0 0.039333466539921112 0.01448335680072565 0 0.034309101083134827 0.0030038984494899922 0 0.027277616214852581 0.013989599892173341 0 0.039333466539921112 0.01448335680072565 0 0.034697903719160678 0.023203020150740071 0 0.033051171090582018 0.036488878038963397 0 0.034697903719160678 0.023203020150740071 0 0.043551377889252903 0.031187676367697679 0 0.034697903719160678 0.023203020150740071 0 0.043551377889252903 0.031187676367697679 0 0.047033731095298743 0.02199466236722163 0 0.039333466539921112 0.01448335680072565 0 0.034697903719160678 0.023203020150740071 0 0.047033731095298743 0.02199466236722163 0 0.057354825745219933 0.020610823433469701 0 0.053348980587158722 0.010225603144003221 0 0.072388860091181673 0.01744730783851909 0 0.054885915748729523 0.034051607869816321 0 0.057354825745219933 0.020610823433469701 0 0.072388860091181673 0.01744730783851909 0 0.047033731095298743 0.02199466236722163 0 0.057354825745219933 0.020610823433469701 0 0.053348980587158722 0.010225603144003221 0 0.054885915748729523 0.034051607869816321 0 0.043551377889252903 0.031187676367697679 0 0.047033731095298743 0.02199466236722163 0 0.054885915748729523 0.034051607869816321 0 0.047033731095298743 0.02199466236722163 0 0.057354825745219933 0.020610823433469701 0 0.053348980587158722 0.010225603144003221 0 0.04845766104737128 -0.0055885135069849642 0 0.066363036836788125 -0.00035733683639111032 0 0.053348980587158722 0.010225603144003221 0 0.072388860091181673 0.01744730783851909 0 0.086611589262698324 0.0039548086448320478 0 0.072388860091181673 0.01744730783851909 0 0.066363036836788125 -0.00035733683639111032 0 0.053348980587158722 0.010225603144003221 0 0.072388860091181673 0.01744730783851909 0 0.066363036836788125 -0.00035733683639111032 0 0.086611589262698324 0.0039548086448320478 0 0.08459496789311291 0.022077006571448531 0 0.072388860091181673 0.01744730783851909 0 0.086611589262698324 0.0039548086448320478 0 0.08459496789311291 0.022077006571448531 0 0.086611589262698324 0.0039548086448320478 0 0.08459496789311291 0.022077006571448531 0 0.101443927830576 0.017938648598051141 0 0.086611589262698324 0.0039548086448320478 0 0.072388860091181673 0.01744730783851909 0 0.08459496789311291 0.022077006571448531 0 0.072388860091181673 0.01744730783851909 0 0.054885915748729523 0.034051607869816321 0 0.072388860091181673 0.01744730783851909 0 0.07125547595381837 0.033425048819361307 0 0.08459496789311291 0.022077006571448531 0 0.072388860091181673 0.01744730783851909 0 0.07125547595381837 0.033425048819361307 0 0.054885915748729523 0.034051607869816321 0 0.072388860091181673 0.01744730783851909 0 0.054885915748729523 0.034051607869816321 0 0.06343885737727456 0.042139138477194048 0 0.07125547595381837 0.033425048819361307 0 0.06343885737727456 0.042139138477194048 0 0.07125547595381837 0.033425048819361307 0 0.081930425314703695 0.046021693818186347 0 0.06343885737727456 0.042139138477194048 0 0.06279611753513796 0.055721240981177027 0 0.081930425314703695 0.046021693818186347 0 0.06279611753513796 0.055721240981177027 0 0.081930425314703695 0.046021693818186347 0 0.079265882736293203 0.069966381064924088 0 0.08987581421065248 0.059208924609746173 0 0.081930425314703695 0.046021693818186347 0 0.079265882736293203 0.069966381064924088 0 0.081930425314703695 0.046021693818186347 0 0.079265882736293203 0.069966381064924088 0 0.08987581421065248 0.059208924609746173 0 0.081930425314703695 0.046021693818186347 0 0.096201006100118044 0.049602128729144289 0 0.08459496789311291 0.022077006571448531 0 0.07125547595381837 0.033425048819361307 0 0.081930425314703695 0.046021693818186347 0 0.08459496789311291 0.022077006571448531 0 0.081930425314703695 0.046021693818186347 0 0.08459496789311291 0.022077006571448531 0 0.081930425314703695 0.046021693818186347 0 0.096530972932925924 0.03952741435793037 0 0.081930425314703695 0.046021693818186347 0 0.096530972932925924 0.03952741435793037 0 0.096201006100118044 0.049602128729144289 0 0.1091464110598583 0.031389212162711032 0 0.096530972932925924 0.03952741435793037 0 0.11078205429683689 0.04854703050816167 0 0.096530972932925924 0.03952741435793037 0 0.096201006100118044 0.049602128729144289 0 0.11078205429683689 0.04854703050816167 0 0.08987581421065248 0.059208924609746173 0 0.096201006100118044 0.049602128729144289 0 0.1010682524528628 0.063387269704580584 0 0.096201006100118044 0.049602128729144289 0 0.11078205429683689 0.04854703050816167 0 0.1010682524528628 0.063387269704580584 0 0.11078205429683689 0.04854703050816167 0 0.1195426292045346 0.058923208281537548 0 0.13369785422660321 0.040701417753974643 0 0.11078205429683689 0.04854703050816167 0 0.1195426292045346 0.058923208281537548 0 0.1108891065510435 0.078156882781881265 0 0.1091464110598583 0.031389212162711032 0 0.13369785422660321 0.040701417753974643 0 0.1091464110598583 0.031389212162711032 0 0.11078205429683689 0.04854703050816167 0 0.13369785422660321 0.040701417753974643 0 0.1091464110598583 0.031389212162711032 0 0.12151084091868281 0.020182889865416841 0 0.101443927830576 0.017938648598051141 0 0.1091464110598583 0.031389212162711032 0 0.12151084091868281 0.020182889865416841 0 0.13369785422660321 0.040701417753974643 0 0.12151084091868281 0.020182889865416841 0 0.1096290522820639 0.0073486417560512541 0 0.101443927830576 0.017938648598051141 0 0.1096290522820639 0.0073486417560512541 0 0.13114408026797619 0.0065571243895308053 0 0.1201905565698881 -0.0082580585653695675 0 0.12151084091868281 0.020182889865416841 0 0.1096290522820639 0.0073486417560512541 0 0.13114408026797619 0.0065571243895308053 0 0.086611589262698324 0.0039548086448320478 0 0.1096290522820639 0.0073486417560512541 0 0.101443927830576 0.017938648598051141 0 0.08459496789311291 0.022077006571448531 0 0.1091464110598583 0.031389212162711032 0 0.101443927830576 0.017938648598051141 0 0.08459496789311291 0.022077006571448531 0 0.1091464110598583 0.031389212162711032 0 0.08459496789311291 0.022077006571448531 0 0.1091464110598583 0.031389212162711032 0 0.096530972932925924 0.03952741435793037 0 0.10452918531521389 0.1006158805154472 0 0.1110300465480074 0.11713983106798311 0 0.1109595765495268 0.097648356924932164 0 0.09565497578580133 0.1006091162925013 0 0.1110300465480074 0.11713983106798311 0 0.10452918531521389 0.1006158805154472 0 0.09565497578580133 0.1006091162925013 0 0.1110300465480074 0.11713983106798311 0 0.10452918531521389 0.1006158805154472 0 0.1109595765495268 0.097648356924932164 0 0.1052889362131512 0.092474415493898898 0 0.10452918531521389 0.1006158805154472 0 0.10024218977411389 0.096086932997115543 0 0.1052889362131512 0.092474415493898898 0 0.10024218977411389 0.096086932997115543 0 0.09565497578580133 0.1006091162925013 0 0.095495661782289132 0.090648319686614715 0 0.10452918531521389 0.1006158805154472 0 0.10024218977411389 0.096086932997115543 0 0.09565497578580133 0.1006091162925013 0 0.09565497578580133 0.1006091162925013 0 0.1110300465480074 0.11713983106798311 0 0.091787062910271056 0.11282064564728531 0 0.095865459265923547 0.12370090028950891 0 0.1110300465480074 0.11713983106798311 0 0.091787062910271056 0.11282064564728531 0 0.1110300465480074 0.11713983106798311 0 0.1223454418747295 0.1099207935353823 0 0.13128557190442261 0.1189383057880036 0 0.1110300465480074 0.11713983106798311 0 0.13185278769073649 0.12955638831883251 0 0.13128557190442261 0.1189383057880036 0 0.1110300465480074 0.11713983106798311 0 0.1223454418747295 0.1099207935353823 0 0.1109595765495268 0.097648356924932164 0 0.1110300465480074 0.11713983106798311 0 0.1109595765495268 0.097648356924932164 0 0.1223454418747295 0.1099207935353823 0 0.1109595765495268 0.097648356924932164 0 0.1231085069715858 0.10011431383498511 0 0.1231085069715858 0.10011431383498511 0 0.1186381682145604 0.09272011208647768 0 0.12907367728947119 0.092544197373043272 0 0.1109595765495268 0.097648356924932164 0 0.1231085069715858 0.10011431383498511 0 0.1186381682145604 0.09272011208647768 0 0.1109595765495268 0.097648356924932164 0 0.1186381682145604 0.09272011208647768 0 0.1108891065510435 0.078156882781881265 0 0.12274117199636631 0.085853921000333983 0 0.1108891065510435 0.078156882781881265 0 0.13133146228446321 0.077970254280066154 0 0.1109595765495268 0.097648356924932164 0 0.1108891065510435 0.078156882781881265 0 0.1186381682145604 0.09272011208647768 0 0.12274117199636631 0.085853921000333983 0 0.12907367728947119 0.092544197373043272 0 0.1186381682145604 0.09272011208647768 0 0.12274117199636631 0.085853921000333983 0 0.1108891065510435 0.078156882781881265 0 0.1108891065510435 0.078156882781881265 0 0.1198219654696957 0.072500200185086988 0 0.13133146228446321 0.077970254280066154 0 0.1108891065510435 0.078156882781881265 0 0.13133146228446321 0.077970254280066154 0 0.11078205429683689 0.04854703050816167 0 0.1108891065510435 0.078156882781881265 0 0.1195426292045346 0.058923208281537548 0 0.1108891065510435 0.078156882781881265 0 0.1198219654696957 0.072500200185086988 0 0.1195426292045346 0.058923208281537548 0 0.1198219654696957 0.072500200185086988 0 0.1301352312568618 0.066624359842492403 0 0.1108891065510435 0.078156882781881265 0 0.098152722165411738 0.07510459921297627 0 0.091518691222940318 0.078333725002974391 0 0.11078205429683689 0.04854703050816167 0 0.1108891065510435 0.078156882781881265 0 0.1010682524528628 0.063387269704580584 0 0.1108891065510435 0.078156882781881265 0 0.098081510025840882 0.071391339755863856 0 0.1010682524528628 0.063387269704580584 0 0.1108891065510435 0.078156882781881265 0 0.098152722165411738 0.07510459921297627 0 0.098081510025840882 0.071391339755863856 0 0.098152722165411738 0.07510459921297627 0 0.091518691222940318 0.078333725002974391 0 0.092121580861822289 0.072536449311185608 0 0.098152722165411738 0.07510459921297627 0 0.098081510025840882 0.071391339755863856 0 0.092121580861822289 0.072536449311185608 0 0.08987581421065248 0.059208924609746173 0 0.1010682524528628 0.063387269704580584 0 0.09091350444928456 0.067067149731895565 0 0.098081510025840882 0.071391339755863856 0 0.1010682524528628 0.063387269704580584 0 0.09091350444928456 0.067067149731895565 0 0.1108891065510435 0.078156882781881265 0 0.091518691222940318 0.078333725002974391 0 0.1109595765495268 0.097648356924932164 0 0.1108891065510435 0.078156882781881265 0 0.1052889362131512 0.092474415493898898 0 0.1108891065510435 0.078156882781881265 0 0.099993535865464223 0.082546355389541581 0 0.091518691222940318 0.078333725002974391 0 0.1108891065510435 0.078156882781881265 0 0.1052889362131512 0.092474415493898898 0 0.099993535865464223 0.082546355389541581 0 0.099993535865464223 0.082546355389541581 0 0.092277409474721891 0.081220398279411826 0 0.091518691222940318 0.078333725002974391 0 0.1052889362131512 0.092474415493898898 0 0.099993535865464223 0.082546355389541581 0 0.092277409474721891 0.081220398279411826 0 0.1052889362131512 0.092474415493898898 0 0.092277409474721891 0.081220398279411826 0 0.1052889362131512 0.092474415493898898 0 0.095495661782289132 0.090648319686614715 0 0.092277409474721891 0.081220398279411826 0 0.10024218977411389 0.096086932997115543 0 0.1052889362131512 0.092474415493898898 0 0.095495661782289132 0.090648319686614715 0 0.09565497578580133 0.1006091162925013 0 0.095495661782289132 0.090648319686614715 0 0.080279905023598205 0.084078401517016954 0 0.080279905023598205 0.084078401517016954 0 0.079265882736293203 0.069966381064924088 0 0.076628928422844619 0.093663148694437426 0 0.080279905023598205 0.084078401517016954 0 0.076628928422844619 0.093663148694437426 0 0.083551780728609082 0.10087806425623511 0 0.09565497578580133 0.1006091162925013 0 0.080279905023598205 0.084078401517016954 0 0.095495661782289132 0.090648319686614715 0 0.092277409474721891 0.081220398279411826 0 0.080279905023598205 0.084078401517016954 0 0.092277409474721891 0.081220398279411826 0 0.080279905023598205 0.084078401517016954 0 0.079265882736293203 0.069966381064924088 0 0.09091350444928456 0.067067149731895565 0 0.092121580861822289 0.072536449311185608 0 0.079265882736293203 0.069966381064924088 0 0.08987581421065248 0.059208924609746173 0 0.09091350444928456 0.067067149731895565 0 0.079265882736293203 0.069966381064924088 0 0.092277409474721891 0.081220398279411826 0 0.091518691222940318 0.078333725002974391 0 0.079265882736293203 0.069966381064924088 0 0.091518691222940318 0.078333725002974391 0 0.092121580861822289 0.072536449311185608 0 0.079265882736293203 0.069966381064924088 0 0.098081510025840882 0.071391339755863856 0 0.09091350444928456 0.067067149731895565 0 0.092121580861822289 0.072536449311185608 0 0.092277409474721891 0.081220398279411826 0 0.079265882736293203 0.069966381064924088 0 0.06279611753513796 0.055721240981177027 0 0.079265882736293203 0.069966381064924088 0 0.06279611753513796 0.055721240981177027 0 0.079265882736293203 0.069966381064924088 0 0.066099048852406958 0.068545971840149558 0 0.079265882736293203 0.069966381064924088 0 0.066099048852406958 0.068545971840149558 0 0.066737358663912713 0.080466629035572418 0 0.076628928422844619 0.093663148694437426 0 0.066737358663912713 0.080466629035572418 0 0.059675406180457233 0.093795775246317312 0 0.079265882736293203 0.069966381064924088 0 0.076628928422844619 0.093663148694437426 0 0.079265882736293203 0.069966381064924088 0 0.076628928422844619 0.093663148694437426 0 0.066737358663912713 0.080466629035572418 0 0.076628928422844619 0.093663148694437426 0 0.073290223510537544 0.1043813559356972 0 0.059675406180457233 0.093795775246317312 0 0.076628928422844619 0.093663148694437426 0 0.073290223510537544 0.1043813559356972 0 0.083551780728609082 0.10087806425623511 0 0.09565497578580133 0.1006091162925013 0 0.080279905023598205 0.084078401517016954 0 0.083551780728609082 0.10087806425623511 0 0.073290223510537544 0.1043813559356972 0 0.083551780728609082 0.10087806425623511 0 0.081178330001537929 0.1116823311202761 0 0.083551780728609082 0.10087806425623511 0 0.091787062910271056 0.11282064564728531 0 0.081178330001537929 0.1116823311202761 0 0.09565497578580133 0.1006091162925013 0 0.083551780728609082 0.10087806425623511 0 0.091787062910271056 0.11282064564728531 0 0.095865459265923547 0.12370090028950891 0 0.091787062910271056 0.11282064564728531 0 0.084087265043811907 0.12272373250169739 0 0.091787062910271056 0.11282064564728531 0 0.081178330001537929 0.1116823311202761 0 0.084087265043811907 0.12272373250169739 0 0.081178330001537929 0.1116823311202761 0 0.084087265043811907 0.12272373250169739 0 0.073213615921595948 0.11596344398057989 0 0.052845304314292033 0.11114478596869071 0 0.074666956737800327 0.12988501437653821 0 0.084087265043811907 0.12272373250169739 0 0.073213615921595948 0.11596344398057989 0 0.074666956737800327 0.12988501437653821 0 0.073290223510537544 0.1043813559356972 0 0.073213615921595948 0.11596344398057989 0 0.052845304314292033 0.11114478596869071 0 0.073213615921595948 0.11596344398057989 0 0.052845304314292033 0.11114478596869071 0 0.074666956737800327 0.12988501437653821 0 0.073290223510537544 0.1043813559356972 0 0.081178330001537929 0.1116823311202761 0 0.073213615921595948 0.11596344398057989 0 0.052845304314292033 0.11114478596869071 0 0.054408563830211087 0.12711143601424779 0 0.074666956737800327 0.12988501437653821 0 0.052845304314292033 0.11114478596869071 0 0.059675406180457233 0.093795775246317312 0 0.0310236518907837 0.092404557560843092 0 0.073290223510537544 0.1043813559356972 0 0.052845304314292033 0.11114478596869071 0 0.059675406180457233 0.093795775246317312 0 0.052845304314292033 0.11114478596869071 0 0.0310236518907837 0.092404557560843092 0 0.052845304314292033 0.11114478596869071 0 0.033259460937840768 0.1188872075660108 0 0.0310236518907837 0.092404557560843092 0 0.052845304314292033 0.11114478596869071 0 0.033259460937840768 0.1188872075660108 0 0.054408563830211087 0.12711143601424779 0 0.048900480154850781 0.058979606366156331 0 0.066099048852406958 0.068545971840149558 0 0.052017527127561518 0.076361868332033705 0 0.066099048852406958 0.068545971840149558 0 0.066737358663912713 0.080466629035572418 0 0.052017527127561518 0.076361868332033705 0 0.059675406180457233 0.093795775246317312 0 0.052017527127561518 0.076361868332033705 0 0.0310236518907837 0.092404557560843092 0 0.066737358663912713 0.080466629035572418 0 0.059675406180457233 0.093795775246317312 0 0.052017527127561518 0.076361868332033705 0 0.052017527127561518 0.076361868332033705 0 0.03238632099645905 0.068443411271880222 0 0.0310236518907837 0.092404557560843092 0 0.048900480154850781 0.058979606366156331 0 0.052017527127561518 0.076361868332033705 0 0.03238632099645905 0.068443411271880222 0 0.019296975750355209 0.059639021380020987 0 0.03238632099645905 0.068443411271880222 0 0.0092019994672754013 0.073664329152995547 0 0.0310236518907837 0.092404557560843092 0 0.0092019994672754013 0.073664329152995547 0 0.03238632099645905 0.068443411271880222 0 0.0310236518907837 0.092404557560843092 0 0.0092019994672754013 0.073664329152995547 0 -0.0026808340953771788 0.07004322820383721 0 0.0092019994672754013 0.073664329152995547 0 0.0014602810971085171 0.095194700071098079 0 0.0310236518907837 0.092404557560843092 0 0.0092019994672754013 0.073664329152995547 0 0.0014602810971085171 0.095194700071098079 0 0.0046326480104421797 0.056448393332601723 0 0.019296975750355209 0.059639021380020987 0 0.0092019994672754013 0.073664329152995547 0 0.033259460937840768 0.1188872075660108 0 0.017836197553831801 0.1067081592840777 0 0.0056013962895942191 0.120346171938359 0 0.0310236518907837 0.092404557560843092 0 0.017836197553831801 0.1067081592840777 0 0.0014602810971085171 0.095194700071098079 0 0.033259460937840768 0.1188872075660108 0 0.0310236518907837 0.092404557560843092 0 0.017836197553831801 0.1067081592840777 0 0.017836197553831801 0.1067081592840777 0 0.0014602810971085171 0.095194700071098079 0 0.0056013962895942191 0.120346171938359 0 0.0014602810971085171 0.095194700071098079 0 0.0056013962895942191 0.120346171938359 0 0.0056013962895942191 0.120346171938359 0 0.025433535264434301 0.13642678052258361 0 0.0097425114820798922 0.14549764380561969 0 0.0056013962895942191 0.120346171938359 0 0.0097425114820798922 0.14549764380561969 0 -0.01340787055255222 0.13179804439315751 0 0.0056013962895942191 0.120346171938359 0 0.0097425114820798922 0.14549764380561969 0 0.033259460937840768 0.1188872075660108 0 0.0056013962895942191 0.120346171938359 0 0.025433535264434301 0.13642678052258361 0 0.025433535264434301 0.13642678052258361 0 0.0097425114820798922 0.14549764380561969 0 0.032051573855367207 0.15581316249025839 0 0.0097425114820798922 0.14549764380561969 0 0.010183357979277221 0.16443734465154811 0 0.032051573855367207 0.15581316249025839 0 -0.0084531600164914223 0.15089908427112941 0 0.0097425114820798922 0.14549764380561969 0 0.010183357979277221 0.16443734465154811 0 -0.011226428212833621 0.1705431459329711 0 0.010183357979277221 0.16443734465154811 0 0.006788821681535686 0.18541447260166879 0 0.006788821681535686 0.18541447260166879 0 0.032784955302378183 0.17913805070796801 0 0.010183357979277221 0.16443734465154811 0 0.006788821681535686 0.18541447260166879 0 0.032784955302378183 0.17913805070796801 0 0.010183357979277221 0.16443734465154811 0 0.032784955302378183 0.17913805070796801 0 0.032051573855367207 0.15581316249025839 0 0.043457842511966639 0.1663692443965242 0 0.05371456641513165 0.15357741384099849 0 0.032051573855367207 0.15581316249025839 0 0.043457842511966639 0.1663692443965242 0 0.032784955302378183 0.17913805070796801 0 0.032051573855367207 0.15581316249025839 0 0.032784955302378183 0.17913805070796801 0 0.058781088923220759 0.17286162881426709 0 0.043457842511966639 0.1663692443965242 0 0.032784955302378183 0.17913805070796801 0 0.058781088923220759 0.17286162881426709 0 0.032784955302378183 0.17913805070796801 0 0.058781088923220759 0.17286162881426709 0 0.051450428176126869 0.19782686099097371 0 0.043457842511966639 0.1663692443965242 0 0.058781088923220759 0.17286162881426709 0 0.05371456641513165 0.15357741384099849 0 0.058781088923220759 0.17286162881426709 0 0.05371456641513165 0.15357741384099849 0 0.066873892497898296 0.15158852353932781 0 0.05371456641513165 0.15357741384099849 0 0.044541246329236187 0.1376958772075435 0 0.066729850831886151 0.13794429495245561 0 0.05371456641513165 0.15357741384099849 0 0.066729850831886151 0.13794429495245561 0 0.066873892497898296 0.15158852353932781 0 0.054408563830211087 0.12711143601424779 0 0.044541246329236187 0.1376958772075435 0 0.066729850831886151 0.13794429495245561 0 0.044541246329236187 0.1376958772075435 0 0.066729850831886151 0.13794429495245561 0 0.033259460937840768 0.1188872075660108 0 0.025433535264434301 0.13642678052258361 0 0.044541246329236187 0.1376958772075435 0 0.033259460937840768 0.1188872075660108 0 0.054408563830211087 0.12711143601424779 0 0.044541246329236187 0.1376958772075435 0 0.05371456641513165 0.15357741384099849 0 0.044541246329236187 0.1376958772075435 0 0.032051573855367207 0.15581316249025839 0 0.025433535264434301 0.13642678052258361 0 0.044541246329236187 0.1376958772075435 0 0.032051573855367207 0.15581316249025839 0 0.012954646994591699 0.23936829074531421 0 0.033523807887608129 0.234367826150818 0 0.020913797705668521 0.25050317984115877 0 0.033523807887608129 0.234367826150818 0 0.020913797705668521 0.25050317984115877 0 0.037167960439743061 0.25011599192568418 0 0.012954646994591699 0.23936829074531421 0 0.0044984839953912826 0.2499188924550132 0 0.020913797705668521 0.25050317984115877 0 -0.003824252769780562 0.23481350750289789 0 0.012954646994591699 0.23936829074531421 0 0.0044984839953912826 0.2499188924550132 0 -0.010730979596981551 0.21850830245169839 0 0.011396414145313409 0.22643806430125771 0 -0.003824252769780562 0.23481350750289789 0 0.012954646994591699 0.23936829074531421 0 0.011396414145313409 0.22643806430125771 0 0.011396414145313409 0.22643806430125771 0 0.033523807887608129 0.234367826150818 0 0.012954646994591699 0.23936829074531421 0 0.011396414145313409 0.22643806430125771 0 0.033523807887608129 0.234367826150818 0 0.011396414145313409 0.22643806430125771 0 0.024630583211091919 0.21575610439332971 0 0.033523807887608129 0.234367826150818 0 0.024630583211091919 0.21575610439332971 0 0.0093749494012825025 0.20871205509215279 0 0.02948087839954627 0.19891580773260681 0 0.0093749494012825025 0.20871205509215279 0 0.02948087839954627 0.19891580773260681 0 0.024630583211091919 0.21575610439332971 0 0.02948087839954627 0.19891580773260681 0 0.039376866221709259 0.21034676868981331 0 -0.010730979596981551 0.21850830245169839 0 0.011396414145313409 0.22643806430125771 0 0.0093749494012825025 0.20871205509215279 0 0.011396414145313409 0.22643806430125771 0 0.024630583211091919 0.21575610439332971 0 0.0093749494012825025 0.20871205509215279 0 0.006788821681535686 0.18541447260166879 0 0.0093749494012825025 0.20871205509215279 0 0.02948087839954627 0.19891580773260681 0 -0.0059420080781297686 0.20252729609075731 0 0.006788821681535686 0.18541447260166879 0 0.0093749494012825025 0.20871205509215279 0 0.006788821681535686 0.18541447260166879 0 0.032784955302378183 0.17913805070796801 0 0.02948087839954627 0.19891580773260681 0 0.032784955302378183 0.17913805070796801 0 0.02948087839954627 0.19891580773260681 0 0.051450428176126869 0.19782686099097371 0 0.02948087839954627 0.19891580773260681 0 0.051450428176126869 0.19782686099097371 0 0.039376866221709259 0.21034676868981331 0 0.058781088923220759 0.17286162881426709 0 0.051450428176126869 0.19782686099097371 0 0.07544556764483823 0.19438600735485509 0 0.051450428176126869 0.19782686099097371 0 0.039376866221709259 0.21034676868981331 0 0.054056775675091727 0.2191129354063186 0 0.051450428176126869 0.19782686099097371 0 0.054056775675091727 0.2191129354063186 0 0.070226865066103733 0.21002682823098739 0 0.039376866221709259 0.21034676868981331 0 0.033523807887608129 0.234367826150818 0 0.054056775675091727 0.2191129354063186 0 0.024630583211091919 0.21575610439332971 0 0.039376866221709259 0.21034676868981331 0 0.033523807887608129 0.234367826150818 0 0.033523807887608129 0.234367826150818 0 0.054056775675091727 0.2191129354063186 0 0.055651201629902773 0.24229758800037821 0 0.033523807887608129 0.234367826150818 0 0.055651201629902773 0.24229758800037821 0 0.033523807887608129 0.234367826150818 0 0.055651201629902773 0.24229758800037821 0 0.037167960439743061 0.25011599192568418 0 0.07798915810133944 0.22851944239663599 0 0.0950277132042463 0.24398024313979591 0 0.077778595372197307 0.25022734984993827 0 0.055651201629902773 0.24229758800037821 0 0.07798915810133944 0.22851944239663599 0 0.077778595372197307 0.25022734984993827 0 0.055651201629902773 0.24229758800037821 0 0.077778595372197307 0.25022734984993827 0 0.054056775675091727 0.2191129354063186 0 0.055651201629902773 0.24229758800037821 0 0.07798915810133944 0.22851944239663599 0 0.054056775675091727 0.2191129354063186 0 0.07798915810133944 0.22851944239663599 0 0.070226865066103733 0.21002682823098739 0 0.07798915810133944 0.22851944239663599 0 0.1006336043773249 0.22688646736088711 0 0.0950277132042463 0.24398024313979591 0 0.07798915810133944 0.22851944239663599 0 0.091450573255864087 0.20717894066567519 0 0.1006336043773249 0.22688646736088711 0 0.091450573255864087 0.20717894066567519 0 0.070226865066103733 0.21002682823098739 0 0.07544556764483823 0.19438600735485509 0 0.07798915810133944 0.22851944239663599 0 0.091450573255864087 0.20717894066567519 0 0.070226865066103733 0.21002682823098739 0 0.051450428176126869 0.19782686099097371 0 0.070226865066103733 0.21002682823098739 0 0.07544556764483823 0.19438600735485509 0 0.07544556764483823 0.19438600735485509 0 0.093327996104949365 0.18070852394395681 0 0.091450573255864087 0.20717894066567519 0 0.07544556764483823 0.19438600735485509 0 0.093327996104949365 0.18070852394395681 0 0.091450573255864087 0.20717894066567519 0 0.1113166202220308 0.1964039644221196 0 0.093327996104949365 0.18070852394395681 0 0.1113166202220308 0.1964039644221196 0 0.12730803485297121 0.2081062788192958 0 0.12763153325331611 0.1967511737091106 0 0.1113166202220308 0.1964039644221196 0 0.1298701282694488 0.18515594795967369 0 0.12763153325331611 0.1967511737091106 0 0.1113166202220308 0.1964039644221196 0 0.1112142012744622 0.21332135095028459 0 0.12730803485297121 0.2081062788192958 0 0.12263805442827071 0.21702281967883749 0 0.1112142012744622 0.21332135095028459 0 0.12730803485297121 0.2081062788192958 0 0.091450573255864087 0.20717894066567519 0 0.1112142012744622 0.21332135095028459 0 0.1006336043773249 0.22688646736088711 0 0.091450573255864087 0.20717894066567519 0 0.1113166202220308 0.1964039644221196 0 0.1112142012744622 0.21332135095028459 0 0.1006336043773249 0.22688646736088711 0 0.1204237563538363 0.22751263531161489 0 0.1143491954972289 0.24297069234231419 0 0.1112142012744622 0.21332135095028459 0 0.1006336043773249 0.22688646736088711 0 0.1204237563538363 0.22751263531161489 0 0.1006336043773249 0.22688646736088711 0 0.1204237563538363 0.22751263531161489 0 0.12263805442827071 0.21702281967883749 0 0.1204237563538363 0.22751263531161489 0 0.13160622523181301 0.2191510136341549 0 0.12263805442827071 0.21702281967883749 0 0.1112142012744622 0.21332135095028459 0 0.1204237563538363 0.22751263531161489 0 0.1204237563538363 0.22751263531161489 0 0.1143491954972289 0.24297069234231419 0 0.12863682527440121 0.2400675038208642 0 0.1143491954972289 0.24297069234231419 0 0.1260522703917622 0.24917289410199869 0 0.12863682527440121 0.2400675038208642 0 0.1143491954972289 0.24297069234231419 0 0.0950277132042463 0.24398024313979591 0 0.1073509458567966 0.25475794498723559 0 0.1006336043773249 0.22688646736088711 0 0.1143491954972289 0.24297069234231419 0 0.0950277132042463 0.24398024313979591 0 0.078974380264407881 0.14835787086644961 0 0.088918455334536045 0.1381927126973678 0 0.094742522164191184 0.1553232640561093 0 0.078974380264407881 0.14835787086644961 0 0.088918455334536045 0.1381927126973678 0 0.066729850831886151 0.13794429495245561 0 0.078974380264407881 0.14835787086644961 0 0.077793398685066906 0.16049433497617391 0 0.094742522164191184 0.1553232640561093 0 0.095865459265923547 0.12370090028950891 0 0.084087265043811907 0.12272373250169739 0 0.088918455334536045 0.1381927126973678 0 0.084087265043811907 0.12272373250169739 0 0.088918455334536045 0.1381927126973678 0 0.074666956737800327 0.12988501437653821 0 0.054408563830211087 0.12711143601424779 0 0.074666956737800327 0.12988501437653821 0 0.066729850831886151 0.13794429495245561 0 0.088918455334536045 0.1381927126973678 0 0.066729850831886151 0.13794429495245561 0 0.088918455334536045 0.1381927126973678 0 0.074666956737800327 0.12988501437653821 0 0.066729850831886151 0.13794429495245561 0 0.078974380264407881 0.14835787086644961 0 0.066729850831886151 0.13794429495245561 0 0.066873892497898296 0.15158852353932781 0 0.078974380264407881 0.14835787086644961 0 0.066873892497898296 0.15158852353932781 0 0.077793398685066906 0.16049433497617391 0 0.058781088923220759 0.17286162881426709 0 0.077793398685066906 0.16049433497617391 0 0.076237344785675121 0.17678187805603729 0 0.058781088923220759 0.17286162881426709 0 0.066873892497898296 0.15158852353932781 0 0.077793398685066906 0.16049433497617391 0 0.058781088923220759 0.17286162881426709 0 0.07544556764483823 0.19438600735485509 0 0.076237344785675121 0.17678187805603729 0 0.07544556764483823 0.19438600735485509 0 0.076237344785675121 0.17678187805603729 0 0.093327996104949365 0.18070852394395681 0 0.077793398685066906 0.16049433497617391 0 0.076237344785675121 0.17678187805603729 0 0.093327996104949365 0.18070852394395681 0 0.077793398685066906 0.16049433497617391 0 0.093327996104949365 0.18070852394395681 0 0.094742522164191184 0.1553232640561093 0 0.093327996104949365 0.18070852394395681 0 0.1112104245650609 0.16703104053305881 0 0.094742522164191184 0.1553232640561093 0 0.093327996104949365 0.18070852394395681 0 0.1112104245650609 0.16703104053305881 0 0.1113166202220308 0.1964039644221196 0 0.093327996104949365 0.18070852394395681 0 0.1112104245650609 0.16703104053305881 0 0.1113166202220308 0.1964039644221196 0 0.12423620773218449 0.1733931682154338 0 0.1298701282694488 0.18515594795967369 0 0.1113166202220308 0.1964039644221196 0 0.12423620773218449 0.1733931682154338 0 0.1112104245650609 0.16703104053305881 0 0.1113166202220308 0.1964039644221196 0 0.1112104245650609 0.16703104053305881 0 0.12423620773218449 0.1733931682154338 0 0.1112104245650609 0.16703104053305881 0 0.1247149751264158 0.15670200347376931 0 0.1112104245650609 0.16703104053305881 0 0.1247149751264158 0.15670200347376931 0 0.1215908241760339 0.14635403169339509 0 0.1112104245650609 0.16703104053305881 0 0.1247149751264158 0.15670200347376931 0 0.1215908241760339 0.14635403169339509 0 0.11110705983718611 0.1384411304422799 0 0.13104986107263439 0.1386644047680512 0 0.1112104245650609 0.16703104053305881 0 0.1215908241760339 0.14635403169339509 0 0.11110705983718611 0.1384411304422799 0 0.1112104245650609 0.16703104053305881 0 0.11110705983718611 0.1384411304422799 0 0.088918455334536045 0.1381927126973678 0 0.094742522164191184 0.1553232640561093 0 0.11110705983718611 0.1384411304422799 0 0.1112104245650609 0.16703104053305881 0 0.094742522164191184 0.1553232640561093 0 0.11110705983718611 0.1384411304422799 0 0.095865459265923547 0.12370090028950891 0 0.088918455334536045 0.1381927126973678 0 0.11110705983718611 0.1384411304422799 0 0.095865459265923547 0.12370090028950891 0 0.1110300465480074 0.11713983106798311 0 0.11110705983718611 0.1384411304422799 0 0.088918455334536045 0.1381927126973678 0 0.11110705983718611 0.1384411304422799 0 0.11110705983718611 0.1384411304422799 0 0.13104986107263439 0.1386644047680512 0 0.1110300465480074 0.11713983106798311 0 0.11110705983718611 0.1384411304422799 0 0.1110300465480074 0.11713983106798311 0 0.13185278769073649 0.12955638831883251 0 0.13104986107263439 0.1386644047680512 0 0.1110300465480074 0.11713983106798311 0 0.13104986107263439 0.1386644047680512 0 0.1110300465480074 0.11713983106798311 0 0.11110705983718611 0.1384411304422799 0 0.13104986107263439 0.1386644047680512 0 0.13104986107263439 0.1386644047680512 0 0.1400210335317946 0.1295081915614085 0 0.13821952568777129 0.1463729664144803 0 0.13185278769073649 0.12955638831883251 0 0.1400210335317946 0.1295081915614085 0 0.13128557190442261 0.1189383057880036 0 0.13185278769073649 0.12955638831883251 0 0.13104986107263439 0.1386644047680512 0 0.1400210335317946 0.1295081915614085 0 0.1400210335317946 0.1295081915614085 0 0.1520191981964911 0.1358182035513229 0 0.13821952568777129 0.1463729664144803 0 0.1400210335317946 0.1295081915614085 0 0.1520191981964911 0.1358182035513229 0 0.1512978865621584 0.1238247725554675 0 0.1520191981964911 0.1358182035513229 0 0.1643662361587499 0.1265060756072803 0 0.1512978865621584 0.1238247725554675 0 0.15358924641547031 0.14819191489623679 0 0.145027623134904 0.15369278424185401 0 0.15208719083514211 0.1581198695076482 0 0.15358924641547031 0.14819191489623679 0 0.15208719083514211 0.1581198695076482 0 0.1627582222322258 0.15630647558264851 0 0.1520191981964911 0.1358182035513229 0 0.13821952568777129 0.1463729664144803 0 0.1520191981964911 0.1358182035513229 0 0.15358924641547031 0.14819191489623679 0 0.13821952568777129 0.1463729664144803 0 0.145027623134904 0.15369278424185401 0 0.13821952568777129 0.1463729664144803 0 0.15358924641547031 0.14819191489623679 0 0.145027623134904 0.15369278424185401 0 0.13821952568777129 0.1463729664144803 0 0.145027623134904 0.15369278424185401 0 0.13821952568777129 0.1463729664144803 0 0.13639679779390579 0.15667551274824459 0 0.1247149751264158 0.15670200347376931 0 0.1215908241760339 0.14635403169339509 0 0.13821952568777129 0.1463729664144803 0 0.1215908241760339 0.14635403169339509 0 0.13104986107263439 0.1386644047680512 0 0.13821952568777129 0.1463729664144803 0 0.1247149751264158 0.15670200347376931 0 0.13821952568777129 0.1463729664144803 0 0.13639679779390579 0.15667551274824459 0 0.13104986107263439 0.1386644047680512 0 0.13821952568777129 0.1463729664144803 0 0.1247149751264158 0.15670200347376931 0 0.13821952568777129 0.1463729664144803 0 0.1247149751264158 0.15670200347376931 0 0.1352870069972206 0.1667349661399937 0 0.13639679779390579 0.15667551274824459 0 0.12423620773218449 0.1733931682154338 0 0.1247149751264158 0.15670200347376931 0 0.1352870069972206 0.1667349661399937 0 0.1352870069972206 0.1667349661399937 0 0.14149531388609821 0.1608698859958923 0 0.1437457003620618 0.16976775841169711 0 0.1352870069972206 0.1667349661399937 0 0.13639679779390579 0.15667551274824459 0 0.14149531388609821 0.1608698859958923 0 0.12423620773218449 0.1733931682154338 0 0.1298701282694488 0.18515594795967369 0 0.13962577824669001 0.1803624092797261 0 0.1352870069972206 0.1667349661399937 0 0.13962577824669001 0.1803624092797261 0 0.1437457003620618 0.16976775841169711 0 0.12423620773218449 0.1733931682154338 0 0.1352870069972206 0.1667349661399937 0 0.13962577824669001 0.1803624092797261 0 0.1298701282694488 0.18515594795967369 0 0.13962577824669001 0.1803624092797261 0 0.13528442520731221 0.1928823372774526 0 0.13962577824669001 0.1803624092797261 0 0.14990398110605879 0.1768255652718192 0 0.14195954264641911 0.18978020605148241 0 0.13962577824669001 0.1803624092797261 0 0.14990398110605879 0.1768255652718192 0 0.1437457003620618 0.16976775841169711 0 0.14990398110605879 0.1768255652718192 0 0.15190100867147099 0.16713144870659799 0 0.15626835753731949 0.17885271284373319 0 0.14990398110605879 0.1768255652718192 0 0.15626835753731949 0.17885271284373319 0 0.15035931071424549 0.1893239466884058 0 0.145027623134904 0.15369278424185401 0 0.146642599956018 0.1629163106220419 0 0.15208719083514211 0.1581198695076482 0 0.145027623134904 0.15369278424185401 0 0.13639679779390579 0.15667551274824459 0 0.14149531388609821 0.1608698859958923 0 0.145027623134904 0.15369278424185401 0 0.14149531388609821 0.1608698859958923 0 0.146642599956018 0.1629163106220419 0 0.146642599956018 0.1629163106220419 0 0.1437457003620618 0.16976775841169711 0 0.15190100867147099 0.16713144870659799 0 0.14149531388609821 0.1608698859958923 0 0.146642599956018 0.1629163106220419 0 0.1437457003620618 0.16976775841169711 0 0.14990398110605879 0.1768255652718192 0 0.1437457003620618 0.16976775841169711 0 0.15190100867147099 0.16713144870659799 0 0.15190100867147099 0.16713144870659799 0 0.15208719083514211 0.1581198695076482 0 0.1627582222322258 0.15630647558264851 0 0.146642599956018 0.1629163106220419 0 0.15190100867147099 0.16713144870659799 0 0.15208719083514211 0.1581198695076482 0 0.1627582222322258 0.15630647558264851 0 0.15626835753731949 0.17885271284373319 0 0.1724314388302024 0.17186534071129361 0 0.1627582222322258 0.15630647558264851 0 0.15626835753731949 0.17885271284373319 0 0.15190100867147099 0.16713144870659799 0 0.1627582222322258 0.15630647558264851 0 0.15626835753731949 0.17885271284373319 0 0.16380487473196681 0.18363409771076661 0 0.15626835753731949 0.17885271284373319 0 0.1724314388302024 0.17186534071129361 0 0.16380487473196681 0.18363409771076661 0 0.1724314388302024 0.17186534071129361 0 0.1706965180473495 0.18872768259423781 0 0.16380487473196681 0.18363409771076661 0 0.15626835753731949 0.17885271284373319 0 0.1608002764011878 0.1900161972505523 0 0.15626835753731949 0.17885271284373319 0 0.15657986228140419 0.19254284365240501 0 0.1608002764011878 0.1900161972505523 0 0.16380487473196681 0.18363409771076661 0 0.1608002764011878 0.1900161972505523 0 0.1706965180473495 0.18872768259423781 0 0.1724314388302024 0.17186534071129361 0 0.18750326422696109 0.16849827843190199 0 0.18805246422966629 0.1859536245229588 0 0.1724314388302024 0.17186534071129361 0 0.1706965180473495 0.18872768259423781 0 0.18805246422966629 0.1859536245229588 0 0.1724314388302024 0.17186534071129361 0 0.1809739466965285 0.1531880939127738 0 0.18750326422696109 0.16849827843190199 0 0.1627582222322258 0.15630647558264851 0 0.1724314388302024 0.17186534071129361 0 0.1809739466965285 0.1531880939127738 0 0.1809739466965285 0.1531880939127738 0 0.18398281531026589 0.13099267893837671 0 0.16652139897410639 0.14168520958018349 0 0.18398281531026589 0.13099267893837671 0 0.1643662361587499 0.1265060756072803 0 0.16652139897410639 0.14168520958018349 0 0.1520191981964911 0.1358182035513229 0 0.1643662361587499 0.1265060756072803 0 0.16652139897410639 0.14168520958018349 0 0.1520191981964911 0.1358182035513229 0 0.15358924641547031 0.14819191489623679 0 0.16652139897410639 0.14168520958018349 0 0.1627582222322258 0.15630647558264851 0 0.1809739466965285 0.1531880939127738 0 0.16652139897410639 0.14168520958018349 0 0.15358924641547031 0.14819191489623679 0 0.1627582222322258 0.15630647558264851 0 0.16652139897410639 0.14168520958018349 0 0.14997213984404639 0.23711912782203379 0 0.14728902107697631 0.2491369024321074 0 0.14061479887930581 0.23323425453610269 0 0.14728902107697631 0.2491369024321074 0 0.14061479887930581 0.23323425453610269 0 0.13523916915601941 0.2544822561033695 0 0.14997213984404639 0.23711912782203379 0 0.14728902107697631 0.2491369024321074 0 0.15803123022978219 0.24620339524575799 0 0.14061479887930581 0.23323425453610269 0 0.14021390833034769 0.22813880326234179 0 0.13523916915601941 0.2544822561033695 0 0.14021390833034769 0.22813880326234179 0 0.13523916915601941 0.2544822561033695 0 0.12863682527440121 0.2400675038208642 0 0.14021390833034769 0.22813880326234179 0 0.13523916915601941 0.2544822561033695 0 0.1260522703917622 0.24917289410199869 0 0.12863682527440121 0.2400675038208642 0 0.13523916915601941 0.2544822561033695 0 0.1204237563538363 0.22751263531161489 0 0.12863682527440121 0.2400675038208642 0 0.14021390833034769 0.22813880326234179 0 0.1204237563538363 0.22751263531161489 0 0.14021390833034769 0.22813880326234179 0 0.1204237563538363 0.22751263531161489 0 0.14021390833034769 0.22813880326234179 0 0.13160622523181301 0.2191510136341549 0 0.14021390833034769 0.22813880326234179 0 0.13160622523181301 0.2191510136341549 0 0.14106884163632269 0.223611551794687 0 0.13160622523181301 0.2191510136341549 0 0.14106884163632269 0.223611551794687 0 0.13785756421843279 0.21729905613858921 0 0.14328862814750579 0.22394518736590219 0 0.16186099607375221 0.2288237253684309 0 0.1623061626630011 0.226803537013121 0 0.14997213984404639 0.23711912782203379 0 0.14206465296041579 0.22819736152777331 0 0.16186099607375221 0.2288237253684309 0 0.14328862814750579 0.22394518736590219 0 0.14206465296041579 0.22819736152777331 0 0.16186099607375221 0.2288237253684309 0 0.14206465296041579 0.22819736152777331 0 0.16186099607375221 0.2288237253684309 0 0.14328862814750579 0.22394518736590219 0 0.1623061626630011 0.226803537013121 0 0.14328862814750579 0.22394518736590219 0 0.1542178921103782 0.2148839798350867 0 0.1623061626630011 0.226803537013121 0 0.14328862814750579 0.22394518736590219 0 0.14206465296041579 0.22819736152777331 0 0.14021390833034769 0.22813880326234179 0 0.14106884163632269 0.223611551794687 0 0.14328862814750579 0.22394518736590219 0 0.14106884163632269 0.223611551794687 0 0.14206465296041579 0.22819736152777331 0 0.14328862814750579 0.22394518736590219 0 0.14106884163632269 0.223611551794687 0 0.14997213984404639 0.23711912782203379 0 0.14061479887930581 0.23323425453610269 0 0.14206465296041579 0.22819736152777331 0 0.14021390833034769 0.22813880326234179 0 0.14106884163632269 0.223611551794687 0 0.14206465296041579 0.22819736152777331 0 0.14061479887930581 0.23323425453610269 0 0.14021390833034769 0.22813880326234179 0 0.14206465296041579 0.22819736152777331 0 0.14021390833034769 0.22813880326234179 0 0.14206465296041579 0.22819736152777331 0 0.14061479887930581 0.23323425453610269 0 0.14206465296041579 0.22819736152777331 0 0.14328862814750579 0.22394518736590219 0 0.14106884163632269 0.223611551794687 0 0.1454864113711907 0.20021855853325299 0 0.14106884163632269 0.223611551794687 0 0.1393753096858594 0.21102584398533261 0 0.1454864113711907 0.20021855853325299 0 0.14106884163632269 0.223611551794687 0 0.1454864113711907 0.20021855853325299 0 0.14328862814750579 0.22394518736590219 0 0.14977849284241321 0.20139895010481779 0 0.14328862814750579 0.22394518736590219 0 0.1542178921103782 0.2148839798350867 0 0.14977849284241321 0.20139895010481779 0 0.14328862814750579 0.22394518736590219 0 0.1454864113711907 0.20021855853325299 0 0.14977849284241321 0.20139895010481779 0 0.1542178921103782 0.2148839798350867 0 0.14977849284241321 0.20139895010481779 0 0.15749251191316579 0.20598801353852519 0 0.1393753096858594 0.21102584398533261 0 0.138862209758528 0.20387447620687099 0 0.1454864113711907 0.20021855853325299 0 0.14106884163632269 0.223611551794687 0 0.13785756421843279 0.21729905613858921 0 0.1393753096858594 0.21102584398533261 0 0.13785756421843279 0.21729905613858921 0 0.1393753096858594 0.21102584398533261 0 0.1342031771055637 0.212589762083082 0 0.13160622523181301 0.2191510136341549 0 0.13785756421843279 0.21729905613858921 0 0.1342031771055637 0.212589762083082 0 0.13160622523181301 0.2191510136341549 0 0.1342031771055637 0.212589762083082 0 0.12730803485297121 0.2081062788192958 0 0.12263805442827071 0.21702281967883749 0 0.13160622523181301 0.2191510136341549 0 0.12730803485297121 0.2081062788192958 0 0.1342031771055637 0.212589762083082 0 0.12730803485297121 0.2081062788192958 0 0.13486875153874209 0.20736661783803731 0 0.12730803485297121 0.2081062788192958 0 0.13486875153874209 0.20736661783803731 0 0.13437845771481771 0.20120734006701141 0 0.13486875153874209 0.20736661783803731 0 0.138862209758528 0.20387447620687099 0 0.13437845771481771 0.20120734006701141 0 0.1393753096858594 0.21102584398533261 0 0.1342031771055637 0.212589762083082 0 0.13486875153874209 0.20736661783803731 0 0.1393753096858594 0.21102584398533261 0 0.13486875153874209 0.20736661783803731 0 0.138862209758528 0.20387447620687099 0 0.138862209758528 0.20387447620687099 0 0.1394971173008433 0.19861215989516079 0 0.13437845771481771 0.20120734006701141 0 0.1394971173008433 0.19861215989516079 0 0.13437845771481771 0.20120734006701141 0 0.13528442520731221 0.1928823372774526 0 0.13437845771481771 0.20120734006701141 0 0.12763153325331611 0.1967511737091106 0 0.13528442520731221 0.1928823372774526 0 0.12730803485297121 0.2081062788192958 0 0.13437845771481771 0.20120734006701141 0 0.12763153325331611 0.1967511737091106 0 0.1298701282694488 0.18515594795967369 0 0.12763153325331611 0.1967511737091106 0 0.13528442520731221 0.1928823372774526 0 0.13962577824669001 0.1803624092797261 0 0.13528442520731221 0.1928823372774526 0 0.14195954264641911 0.18978020605148241 0 0.1394971173008433 0.19861215989516079 0 0.13528442520731221 0.1928823372774526 0 0.14195954264641911 0.18978020605148241 0 0.15626835753731949 0.17885271284373319 0 0.14977849284241321 0.20139895010481779 0 0.15657986228140419 0.19254284365240501 0 0.14990398110605879 0.1768255652718192 0 0.14195954264641911 0.18978020605148241 0 0.1454864113711907 0.20021855853325299 0 0.14990398110605879 0.1768255652718192 0 0.1454864113711907 0.20021855853325299 0 0.15626835753731949 0.17885271284373319 0 0.14977849284241321 0.20139895010481779 0 0.15626835753731949 0.17885271284373319 0 0.14977849284241321 0.20139895010481779 0 0.15035931071424549 0.1893239466884058 0 0.14990398110605879 0.1768255652718192 0 0.1454864113711907 0.20021855853325299 0 0.15035931071424549 0.1893239466884058 0 0.1394971173008433 0.19861215989516079 0 0.14195954264641911 0.18978020605148241 0 0.1454864113711907 0.20021855853325299 0 0.138862209758528 0.20387447620687099 0 0.1394971173008433 0.19861215989516079 0 0.1454864113711907 0.20021855853325299 0 0.14977849284241321 0.20139895010481779 0 0.15947232234469641 0.19990351441051679 0 0.15749251191316579 0.20598801353852519 0 0.1454864113711907 0.20021855853325299 0 0.14977849284241321 0.20139895010481779 0 0.15035931071424549 0.1893239466884058 0 0.14977849284241321 0.20139895010481779 0 0.15657986228140419 0.19254284365240501 0 0.15947232234469641 0.19990351441051679 0 0.1706965180473495 0.18872768259423781 0 0.1665013403551753 0.20776560980367939 0 0.15947232234469641 0.19990351441051679 0 0.1706965180473495 0.18872768259423781 0 0.1665013403551753 0.20776560980367939 0 0.1608002764011878 0.1900161972505523 0 0.15947232234469641 0.19990351441051679 0 0.1706965180473495 0.18872768259423781 0 0.15657986228140419 0.19254284365240501 0 0.1608002764011878 0.1900161972505523 0 0.15947232234469641 0.19990351441051679 0 0.17990711082718069 0.20014718856497901 0 0.19397630496437171 0.20330905518466311 0 0.18805246422966629 0.1859536245229588 0 0.1706965180473495 0.18872768259423781 0 0.17990711082718069 0.20014718856497901 0 0.18805246422966629 0.1859536245229588 0 0.1706965180473495 0.18872768259423781 0 0.17990711082718069 0.20014718856497901 0 0.1665013403551753 0.20776560980367939 0 0.17990711082718069 0.20014718856497901 0 0.18262102089490401 0.2143068280319684 0 0.1665013403551753 0.20776560980367939 0 0.18262102089490401 0.2143068280319684 0 0.1665013403551753 0.20776560980367939 0 0.17271958795958359 0.21956405439005749 0 0.17990711082718069 0.20014718856497901 0 0.18262102089490401 0.2143068280319684 0 0.19397630496437171 0.20330905518466311 0 0.1665013403551753 0.20776560980367939 0 0.1623061626630011 0.226803537013121 0 0.1665013403551753 0.20776560980367939 0 0.1623061626630011 0.226803537013121 0 0.17271958795958359 0.21956405439005749 0 0.1542178921103782 0.2148839798350867 0 0.1665013403551753 0.20776560980367939 0 0.1623061626630011 0.226803537013121 0 0.15947232234469641 0.19990351441051679 0 0.1665013403551753 0.20776560980367939 0 0.15749251191316579 0.20598801353852519 0 0.1542178921103782 0.2148839798350867 0 0.1665013403551753 0.20776560980367939 0 0.15749251191316579 0.20598801353852519 0 0.16186099607375221 0.2288237253684309 0 0.1794498279252543 0.22938024271145979 0 0.1623061626630011 0.226803537013121 0 0.1794498279252543 0.22938024271145979 0 0.1623061626630011 0.226803537013121 0 0.17271958795958359 0.21956405439005749 0 0.1794498279252543 0.22938024271145979 0 0.16186099607375221 0.2288237253684309 0 0.1794498279252543 0.22938024271145979 0 0.17164715311359099 0.2438985187785819 0 0.16186099607375221 0.2288237253684309 0 0.1623061626630011 0.226803537013121 0 0.1794498279252543 0.22938024271145979 0 0.16186099607375221 0.2288237253684309 0 0.1623061626630011 0.226803537013121 0 0.18262102089490401 0.2143068280319684 0 0.17271958795958359 0.21956405439005749 0 0.1794498279252543 0.22938024271145979 0 0.18262102089490401 0.2143068280319684 0 0.1794498279252543 0.22938024271145979 0 0.18953964628089021 0.2225883823691889 0 0.1794498279252543 0.22938024271145979 0 0.18610227379829311 0.24835016461093179 0 0.17164715311359099 0.2438985187785819 0 0.1794498279252543 0.22938024271145979 0 0.18610227379829311 0.24835016461093179 0 0.19681932329895899 0.2319908908442854 0 0.16186099607375221 0.2288237253684309 0 0.17164715311359099 0.2438985187785819 0 0.15803123022978219 0.24620339524575799 0 0.17164715311359099 0.2438985187785819 0 0.15803123022978219 0.24620339524575799 0 0.1719608591398771 0.25986583683604431 0 0.14997213984404639 0.23711912782203379 0 0.16186099607375221 0.2288237253684309 0 0.15803123022978219 0.24620339524575799 0 0.16186099607375221 0.2288237253684309 0 0.15803123022978219 0.24620339524575799 0 0.21418881867266551 0.23460153897709851 0 0.1972091934480418 0.25783155378399719 0 0.21418881867266551 0.23460153897709851 0 0.1985799023044886 0.24319353705407731 0 0.19681932329895899 0.2319908908442854 0 0.21418881867266551 0.23460153897709851 0 0.1985799023044886 0.24319353705407731 0 0.1972091934480418 0.25783155378399719 0 0.18610227379829311 0.24835016461093179 0 0.1985799023044886 0.24319353705407731 0 0.19681932329895899 0.2319908908442854 0 0.18610227379829311 0.24835016461093179 0 0.1985799023044886 0.24319353705407731 0 0.1972091934480418 0.25783155378399719 0 0.1794498279252543 0.22938024271145979 0 0.19681932329895899 0.2319908908442854 0 0.1794498279252543 0.22938024271145979 0 0.19829177795619199 0.22997640919126169 0 0.18953964628089021 0.2225883823691889 0 0.1794498279252543 0.22938024271145979 0 0.19829177795619199 0.22997640919126169 0 0.1794498279252543 0.22938024271145979 0 0.19681932329895899 0.2319908908442854 0 0.19829177795619199 0.22997640919126169 0 0.21418881867266551 0.23460153897709851 0 0.19681932329895899 0.2319908908442854 0 0.19829177795619199 0.22997640919126169 0 0.19829177795619199 0.22997640919126169 0 0.18953964628089021 0.2225883823691889 0 0.19779595834721039 0.2166900495420653 0 0.19829177795619199 0.22997640919126169 0 0.20729752831884179 0.22599023007185251 0 0.19779595834721039 0.2166900495420653 0 0.20729752831884179 0.22599023007185251 0 0.2064196423760872 0.21708872800198181 0 0.19779595834721039 0.2166900495420653 0 0.20729752831884179 0.22599023007185251 0 0.22482617040961211 0.22004845932507189 0 0.21418881867266551 0.23460153897709851 0 0.19681932329895899 0.2319908908442854 0 0.20729752831884179 0.22599023007185251 0 0.21405157542807501 0.21560967455512131 0 0.22482617040961211 0.22004845932507189 0 0.20729752831884179 0.22599023007185251 0 0.21713372798712971 0.2305725756710657 0 0.22482617040961211 0.22004845932507189 0 0.19829177795619199 0.22997640919126169 0 0.21713372798712971 0.2305725756710657 0 0.20729752831884179 0.22599023007185251 0 0.21405157542807501 0.21560967455512131 0 0.2064196423760872 0.21708872800198181 0 0.19829177795619199 0.22997640919126169 0 0.20729752831884179 0.22599023007185251 0 0.21713372798712971 0.2305725756710657 0 0.21418881867266551 0.23460153897709851 0 0.19829177795619199 0.22997640919126169 0 0.21713372798712971 0.2305725756710657 0 0.21418881867266551 0.23460153897709851 0 0.21713372798712971 0.2305725756710657 0 0.21405157542807501 0.21560967455512131 0 0.20810179110445851 0.2073312671136171 0 0.2201136001118956 0.20848740342339511 0 0.20810179110445851 0.2073312671136171 0 0.21733696476505759 0.19663911591892319 0 0.2201136001118956 0.20848740342339511 0 0.21405157542807501 0.21560967455512131 0 0.20810179110445851 0.2073312671136171 0 0.2064196423760872 0.21708872800198181 0 0.20810179110445851 0.2073312671136171 0 0.2064196423760872 0.21708872800198181 0 0.19779595834721039 0.2166900495420653 0 0.18262102089490401 0.2143068280319684 0 0.18953964628089021 0.2225883823691889 0 0.19779595834721039 0.2166900495420653 0 0.18262102089490401 0.2143068280319684 0 0.19779595834721039 0.2166900495420653 0 0.19397630496437171 0.20330905518466311 0 0.20810179110445851 0.2073312671136171 0 0.19779595834721039 0.2166900495420653 0 0.19397630496437171 0.20330905518466311 0 0.19397630496437171 0.20330905518466311 0 0.20555978216263371 0.1916330920337222 0 0.18805246422966629 0.1859536245229588 0 0.20810179110445851 0.2073312671136171 0 0.19397630496437171 0.20330905518466311 0 0.20555978216263371 0.1916330920337222 0 0.20810179110445851 0.2073312671136171 0 0.20555978216263371 0.1916330920337222 0 0.21733696476505759 0.19663911591892319 0 0.20555978216263371 0.1916330920337222 0 0.21733696476505759 0.19663911591892319 0 0.22409712376565991 0.18400753126291139 0 0.21733696476505759 0.19663911591892319 0 0.2368147160064023 0.2036467962705151 0 0.2201136001118956 0.20848740342339511 0 0.21733696476505759 0.19663911591892319 0 0.2368147160064023 0.2036467962705151 0 0.22409712376565991 0.18400753126291139 0 0.2368147160064023 0.2036467962705151 0 0.22409712376565991 0.18400753126291139 0 0.24880326160319841 0.18724513321596251 0 0.24884132685392379 0.19925750024763789 0 0.2368147160064023 0.2036467962705151 0 0.24880326160319841 0.18724513321596251 0 0.2368147160064023 0.2036467962705151 0 0.24880326160319841 0.18724513321596251 0 0.22482617040961211 0.22004845932507189 0 0.25351239399892039 0.21032454783920149 0 0.22482617040961211 0.22004845932507189 0 0.23987454472450351 0.22555735360245341 0 0.25351239399892039 0.21032454783920149 0 0.24884132685392379 0.19925750024763789 0 0.2368147160064023 0.2036467962705151 0 0.25351239399892039 0.21032454783920149 0 0.2368147160064023 0.2036467962705151 0 0.22482617040961211 0.22004845932507189 0 0.25351239399892039 0.21032454783920149 0 0.2368147160064023 0.2036467962705151 0 0.22482617040961211 0.22004845932507189 0 0.2368147160064023 0.2036467962705151 0 0.2201136001118956 0.20848740342339511 0 0.22482617040961211 0.22004845932507189 0 0.21405157542807501 0.21560967455512131 0 0.2201136001118956 0.20848740342339511 0 0.22482617040961211 0.22004845932507189 0 0.21713372798712971 0.2305725756710657 0 0.22482617040961211 0.22004845932507189 0 0.21713372798712971 0.2305725756710657 0 0.2275997860587233 0.23090372573715059 0 0.21713372798712971 0.2305725756710657 0 0.22482617040961211 0.22004845932507189 0 0.2275997860587233 0.23090372573715059 0 0.21418881867266551 0.23460153897709851 0 0.21713372798712971 0.2305725756710657 0 0.2275997860587233 0.23090372573715059 0 0.22482617040961211 0.22004845932507189 0 0.2275997860587233 0.23090372573715059 0 0.23987454472450351 0.22555735360245341 0 0.23987454472450351 0.22555735360245341 0 0.2503340027089605 0.22756306829999859 0 0.25351239399892039 0.21032454783920149 0 0.24310037044631011 0.2389469668108497 0 0.2503340027089605 0.22756306829999859 0 0.23987454472450351 0.22555735360245341 0 0.24310037044631011 0.2389469668108497 0 0.2503340027089605 0.22756306829999859 0 0.2275997860587233 0.23090372573715059 0 0.23987454472450351 0.22555735360245341 0 0.24310037044631011 0.2389469668108497 0 0.24310037044631011 0.2389469668108497 0 0.24720520840580751 0.2445325914618775 0 0.2503340027089605 0.22756306829999859 0 0.24720520840580751 0.2445325914618775 0 0.2503340027089605 0.22756306829999859 0 0.24310037044631011 0.2389469668108497 0 0.24720520840580751 0.2445325914618775 0 0.2333647549546472 0.25426835096109768 0 0.24310037044631011 0.2389469668108497 0 0.2333647549546472 0.25426835096109768 0 0.21418881867266551 0.23460153897709851 0 0.2275997860587233 0.23090372573715059 0 0.24310037044631011 0.2389469668108497 0 0.21418881867266551 0.23460153897709851 0 0.24310037044631011 0.2389469668108497 0 0.2333647549546472 0.25426835096109768 0 0.21418881867266551 0.23460153897709851 0 0.21667585833950839 0.25785980669864411 0 0.2333647549546472 0.25426835096109768 0 0.21418881867266551 0.23460153897709851 0 0.24310037044631011 0.2389469668108497 0 0.20742536106327661 0.14895391125157811 0 0.2206736428579073 0.16533690758909669 0 0.22629442737294489 0.14960363790050279 0 0.20742536106327661 0.14895391125157811 0 0.22629442737294489 0.14960363790050279 0 0.22096456322839511 0.13727238115545309 0 0.20742536106327661 0.14895391125157811 0 0.212493460825843 0.1245115682376278 0 0.20742536106327661 0.14895391125157811 0 0.22096456322839511 0.13727238115545309 0 0.212493460825843 0.1245115682376278 0 0.20742536106327661 0.14895391125157811 0 0.19782392705603091 0.12517030880909821 0 0.212493460825843 0.1245115682376278 0 0.18398281531026589 0.13099267893837671 0 0.20742536106327661 0.14895391125157811 0 0.19782392705603091 0.12517030880909821 0 0.1809739466965285 0.1531880939127738 0 0.18398281531026589 0.13099267893837671 0 0.20742536106327661 0.14895391125157811 0 0.1809739466965285 0.1531880939127738 0 0.20742536106327661 0.14895391125157811 0 0.18750326422696109 0.16849827843190199 0 0.20742536106327661 0.14895391125157811 0 0.18750326422696109 0.16849827843190199 0 0.20235726130071019 0.17339625426552849 0 0.20555978216263371 0.1916330920337222 0 0.18805246422966629 0.1859536245229588 0 0.20235726130071019 0.17339625426552849 0 0.18750326422696109 0.16849827843190199 0 0.18805246422966629 0.1859536245229588 0 0.20235726130071019 0.17339625426552849 0 0.20235726130071019 0.17339625426552849 0 0.2206736428579073 0.16533690758909669 0 0.22409712376565991 0.18400753126291139 0 0.20555978216263371 0.1916330920337222 0 0.20235726130071019 0.17339625426552849 0 0.22409712376565991 0.18400753126291139 0 0.20742536106327661 0.14895391125157811 0 0.20235726130071019 0.17339625426552849 0 0.2206736428579073 0.16533690758909669 0 0.20742536106327661 0.14895391125157811 0 0.20235726130071019 0.17339625426552849 0 0.2206736428579073 0.16533690758909669 0 0.23451450260425721 0.16000550410623771 0 0.22629442737294489 0.14960363790050279 0 0.2206736428579073 0.16533690758909669 0 0.239148504846495 0.17393702758889951 0 0.23451450260425721 0.16000550410623771 0 0.2206736428579073 0.16533690758909669 0 0.22409712376565991 0.18400753126291139 0 0.239148504846495 0.17393702758889951 0 0.239148504846495 0.17393702758889951 0 0.24880326160319841 0.18724513321596251 0 0.2607918071999954 0.17084347016141069 0 0.22409712376565991 0.18400753126291139 0 0.239148504846495 0.17393702758889951 0 0.24880326160319841 0.18724513321596251 0 0.239148504846495 0.17393702758889951 0 0.24829504693030499 0.16256673788959519 0 0.2607918071999954 0.17084347016141069 0 0.23451450260425721 0.16000550410623771 0 0.24829504693030499 0.16256673788959519 0 0.24355411021538739 0.14984037209567899 0 0.239148504846495 0.17393702758889951 0 0.23451450260425721 0.16000550410623771 0 0.24829504693030499 0.16256673788959519 0 0.23451450260425721 0.16000550410623771 0 0.24355411021538739 0.14984037209567899 0 0.22629442737294489 0.14960363790050279 0 0.24355411021538739 0.14984037209567899 0 0.22629442737294489 0.14960363790050279 0 0.23400993121885841 0.1364687846724307 0 0.24355411021538739 0.14984037209567899 0 0.23400993121885841 0.1364687846724307 0 0.25296537878834119 0.13774257890375879 0 0.22629442737294489 0.14960363790050279 0 0.22096456322839511 0.13727238115545309 0 0.23400993121885841 0.1364687846724307 0 0.22459963566105259 0.12682400371512609 0 0.23400993121885841 0.1364687846724307 0 0.24285347264255319 0.117037346672415 0 0.22459963566105259 0.12682400371512609 0 0.22096456322839511 0.13727238115545309 0 0.212493460825843 0.1245115682376278 0 0.22459963566105259 0.12682400371512609 0 0.22096456322839511 0.13727238115545309 0 0.23400993121885841 0.1364687846724307 0 0.23400993121885841 0.1364687846724307 0 0.24285347264255319 0.117037346672415 0 0.25296537878834119 0.13774257890375879 0 0.24285347264255319 0.117037346672415 0 0.25296537878834119 0.13774257890375879 0 0.24285347264255319 0.117037346672415 0 0.24824913858458669 0.10321574892714851 0 0.25823040769300448 0.1151039680071204 0 0.24824913858458669 0.10321574892714851 0 0.2327415664967652 0.096332114441071037 0 0.25166648157585242 0.089020785994436816 0 0.24285347264255319 0.117037346672415 0 0.24824913858458669 0.10321574892714851 0 0.2327415664967652 0.096332114441071037 0 0.24285347264255319 0.117037346672415 0 0.2327415664967652 0.096332114441071037 0 0.24285347264255319 0.117037346672415 0 0.2327415664967652 0.096332114441071037 0 0.226100275670686 0.11375926597672691 0 0.2327415664967652 0.096332114441071037 0 0.226100275670686 0.11375926597672691 0 0.21756156058840931 0.1000692252236775 0 0.22459963566105259 0.12682400371512609 0 0.24285347264255319 0.117037346672415 0 0.226100275670686 0.11375926597672691 0 0.22459963566105259 0.12682400371512609 0 0.226100275670686 0.11375926597672691 0 0.212493460825843 0.1245115682376278 0 0.212493460825843 0.1245115682376278 0 0.21756156058840931 0.1000692252236775 0 0.226100275670686 0.11375926597672691 0 0.212493460825843 0.1245115682376278 0 0.21756156058840931 0.1000692252236775 0 0.212493460825843 0.1245115682376278 0 0.20761135308248391 0.114223370792426 0 0.21756156058840931 0.1000692252236775 0 0.19782392705603091 0.12517030880909821 0 0.212493460825843 0.1245115682376278 0 0.20761135308248391 0.114223370792426 0 0.20761135308248391 0.114223370792426 0 0.21756156058840931 0.1000692252236775 0 0.2033411546216452 0.098030455675360381 0 0.21756156058840931 0.1000692252236775 0 0.2033411546216452 0.098030455675360381 0 0.2099655077567793 0.090167449757828422 0 0.20761135308248391 0.114223370792426 0 0.2033411546216452 0.098030455675360381 0 0.18218472281647691 0.1021389986216398 0 0.2033411546216452 0.098030455675360381 0 0.19938262886407651 0.083553233981230088 0 0.18218472281647691 0.1021389986216398 0 0.20761135308248391 0.114223370792426 0 0.18218472281647691 0.1021389986216398 0 0.19782392705603091 0.12517030880909821 0 0.20761135308248391 0.114223370792426 0 0.18218472281647691 0.1021389986216398 0 0.18398281531026589 0.13099267893837671 0 0.19782392705603091 0.12517030880909821 0 0.18218472281647691 0.1021389986216398 0 0.20093877182134059 0.067231042779330952 0 0.19938262886407651 0.083553233981230088 0 0.175562260835738 0.077566449171913382 0 0.20093877182134059 0.067231042779330952 0 0.1885194901468952 0.056526046318538588 0 0.175562260835738 0.077566449171913382 0 0.21756156058840931 0.1000692252236775 0 0.2099655077567793 0.090167449757828422 0 0.22262966035097631 0.075626882209727381 0 0.19938262886407651 0.083553233981230088 0 0.2099655077567793 0.090167449757828422 0 0.22262966035097631 0.075626882209727381 0 0.2033411546216452 0.098030455675360381 0 0.19938262886407651 0.083553233981230088 0 0.2099655077567793 0.090167449757828422 0 0.22262966035097631 0.075626882209727381 0 0.21322913417972 0.056378278171429153 0 0.20093877182134059 0.067231042779330952 0 0.22262966035097631 0.075626882209727381 0 0.21322913417972 0.056378278171429153 0 0.20093877182134059 0.067231042779330952 0 0.19938262886407651 0.083553233981230088 0 0.22262966035097631 0.075626882209727381 0 0.22478308500491159 0.063515236561073551 0 0.2230690991754086 0.073507564322623065 0 0.21322913417972 0.056378278171429153 0 0.22262966035097631 0.075626882209727381 0 0.2230690991754086 0.073507564322623065 0 0.21322913417972 0.056378278171429153 0 0.22262966035097631 0.075626882209727381 0 0.2230690991754086 0.073507564322623065 0 0.2230690991754086 0.073507564322623065 0 0.23263731791139861 0.06809845995151341 0 0.23755877531122629 0.07764311030741651 0 0.22262966035097631 0.075626882209727381 0 0.2230690991754086 0.073507564322623065 0 0.23755877531122629 0.07764311030741651 0 0.22478308500491159 0.063515236561073551 0 0.2230690991754086 0.073507564322623065 0 0.23263731791139861 0.06809845995151341 0 0.22478308500491159 0.063515236561073551 0 0.23263731791139861 0.06809845995151341 0 0.2301967887531195 0.056076643798728627 0 0.2327415664967652 0.096332114441071037 0 0.21756156058840931 0.1000692252236775 0 0.22262966035097631 0.075626882209727381 0 0.2327415664967652 0.096332114441071037 0 0.22262966035097631 0.075626882209727381 0 0.2327415664967652 0.096332114441071037 0 0.22262966035097631 0.075626882209727381 0 0.23755877531122629 0.07764311030741651 0 0.21756156058840931 0.1000692252236775 0 0.22262966035097631 0.075626882209727381 0 0.2327415664967652 0.096332114441071037 0 0.23755877531122629 0.07764311030741651 0 0.25166648157585242 0.089020785994436816 0 0.23755877531122629 0.07764311030741651 0 0.25302199552849458 0.075604107659376696 0 0.25166648157585242 0.089020785994436816 0 0.23263731791139861 0.06809845995151341 0 0.24703616076081211 0.064606006619406756 0 0.2301967887531195 0.056076643798728627 0 0.23263731791139861 0.06809845995151341 0 0.23755877531122629 0.07764311030741651 0 0.24703616076081211 0.064606006619406756 0 0.23755877531122629 0.07764311030741651 0 0.24703616076081211 0.064606006619406756 0 0.25302199552849458 0.075604107659376696 0 0.24703616076081211 0.064606006619406756 0 0.2443517649323515 0.052347169126300573 0 0.25536567821356437 0.059776847080589238 0 0.24703616076081211 0.064606006619406756 0 0.2443517649323515 0.052347169126300573 0 0.2301967887531195 0.056076643798728627 0 0.2443517649323515 0.052347169126300573 0 0.23458902733564019 0.040798236427510341 0 0.2301967887531195 0.056076643798728627 0 0.2443517649323515 0.052347169126300573 0 0.24897128052444459 0.039928538212441661 0 0.23458902733564019 0.040798236427510341 0 0.24897128052444459 0.039928538212441661 0 0.23458902733564019 0.040798236427510341 0 0.24042595915325099 0.026679627748852131 0 0.23458902733564019 0.040798236427510341 0 0.2198369255266967 0.040201788262874349 0 0.2301967887531195 0.056076643798728627 0 0.23458902733564019 0.040798236427510341 0 0.2198369255266967 0.040201788262874349 0 0.22559077335351119 0.027128401027340081 0 0.23458902733564019 0.040798236427510341 0 0.24042595915325099 0.026679627748852131 0 0.22559077335351119 0.027128401027340081 0 0.2198369255266967 0.040201788262874349 0 0.2301967887531195 0.056076643798728627 0 0.21322913417972 0.056378278171429153 0 0.22478308500491159 0.063515236561073551 0 0.2301967887531195 0.056076643798728627 0 0.21322913417972 0.056378278171429153 0 0.2340223041817264 0.0094820534204706555 0 0.2346222633614197 -0.0080126196443228038 0 0.24853671956149301 -0.00016400905018209389 0 0.24744632022655191 0.014158393180581069 0 0.2340223041817264 0.0094820534204706555 0 0.24853671956149301 -0.00016400905018209389 0 0.24744632022655191 0.014158393180581069 0 0.24042595915325099 0.026679627748852131 0 0.2340223041817264 0.0094820534204706555 0 0.24744632022655191 0.014158393180581069 0 0.24042595915325099 0.026679627748852131 0 0.25405393556980521 0.02523596787992622 0 0.24897128052444459 0.039928538212441661 0 0.24042595915325099 0.026679627748852131 0 0.25405393556980521 0.02523596787992622 0 0.24042595915325099 0.026679627748852131 0 0.22559077335351119 0.027128401027340081 0 0.2340223041817264 0.0094820534204706555 0 0.22559077335351119 0.027128401027340081 0 0.2340223041817264 0.0094820534204706555 0 0.220105613075714 0.01277967526305869 0 0.2198369255266967 0.040201788262874349 0 0.22559077335351119 0.027128401027340081 0 0.21158722152972639 0.023699496019106599 0 0.22559077335351119 0.027128401027340081 0 0.220105613075714 0.01277967526305869 0 0.21158722152972639 0.023699496019106599 0 0.2340223041817264 0.0094820534204706555 0 0.220105613075714 0.01277967526305869 0 0.2215207504065515 -0.0027592399919864649 0 0.220105613075714 0.01277967526305869 0 0.20797441612187789 0.007560915051423687 0 0.21158722152972639 0.023699496019106599 0 0.20797441612187789 0.007560915051423687 0 0.2215207504065515 -0.0027592399919864649 0 0.220105613075714 0.01277967526305869 0 0.20797441612187789 0.007560915051423687 0 0.2215207504065515 -0.0027592399919864649 0 0.20797441612187789 0.007560915051423687 0 0.21054347779345531 -0.003562521141335906 0 0.2215207504065515 -0.0027592399919864649 0 0.21158722152972639 0.023699496019106599 0 0.19442808183720439 0.01788107009483408 0 0.20382860800846289 0.037129674133131299 0 0.20797441612187789 0.007560915051423687 0 0.21158722152972639 0.023699496019106599 0 0.19442808183720439 0.01788107009483408 0 0.19442808183720439 0.01788107009483408 0 0.20382860800846289 0.037129674133131299 0 0.17471354543534351 0.03290041540261561 0 0.19442808183720439 0.01788107009483408 0 0.20382860800846289 0.037129674133131299 0 0.19442808183720439 0.01788107009483408 0 0.1835804647422471 -0.0043306106575012604 0 0.20797441612187789 0.007560915051423687 0 0.19442808183720439 0.01788107009483408 0 0.1835804647422471 -0.0043306106575012604 0 0.20797441612187789 0.007560915051423687 0 0.19442808183720439 0.01788107009483408 0 0.21322913417972 0.056378278171429153 0 0.20382860800846289 0.037129674133131299 0 0.2198369255266967 0.040201788262874349 0 0.21158722152972639 0.023699496019106599 0 0.20382860800846289 0.037129674133131299 0 0.2198369255266967 0.040201788262874349 0 0.21322913417972 0.056378278171429153 0 0.20382860800846289 0.037129674133131299 0 0.20382860800846289 0.037129674133131299 0 0.1885194901468952 0.056526046318538588 0 0.17471354543534351 0.03290041540261561 0 0.21322913417972 0.056378278171429153 0 0.20382860800846289 0.037129674133131299 0 0.1885194901468952 0.056526046318538588 0 0.20093877182134059 0.067231042779330952 0 0.21322913417972 0.056378278171429153 0 0.1885194901468952 0.056526046318538588 0 0.1885194901468952 0.056526046318538588 0 0.17203484402866051 0.049832186248166807 0 0.16437405061014379 0.063371921268084525 0 0.1885194901468952 0.056526046318538588 0 0.17203484402866051 0.049832186248166807 0 0.17471354543534351 0.03290041540261561 0 0.17471354543534351 0.03290041540261561 0 0.16139013166153229 0.024149592952520008 0 0.15499900903348271 0.047919760710397392 0 0.17203484402866051 0.049832186248166807 0 0.17471354543534351 0.03290041540261561 0 0.15499900903348271 0.047919760710397392 0 0.17471354543534351 0.03290041540261561 0 0.15499900903348271 0.047919760710397392 0 0.17203484402866051 0.049832186248166807 0 0.15499900903348271 0.047919760710397392 0 0.16437405061014379 0.063371921268084525 0 0.19442808183720439 0.01788107009483408 0 0.17600690335105021 0.01414967214274674 0 0.1835804647422471 -0.0043306106575012604 0 0.17600690335105021 0.01414967214274674 0 0.1835804647422471 -0.0043306106575012604 0 0.16599996820853161 -0.0081069305139563046 0 0.19442808183720439 0.01788107009483408 0 0.17471354543534351 0.03290041540261561 0 0.17600690335105021 0.01414967214274674 0 0.19442808183720439 0.01788107009483408 0 0.17471354543534351 0.03290041540261561 0 0.17471354543534351 0.03290041540261561 0 0.17600690335105021 0.01414967214274674 0 0.16139013166153229 0.024149592952520008 0 0.17600690335105021 0.01414967214274674 0 0.16139013166153229 0.024149592952520008 0 0.1589774368007133 0.0093033835460836437 0 0.17600690335105021 0.01414967214274674 0 0.1589774368007133 0.0093033835460836437 0 0.16599996820853161 -0.0081069305139563046 0 0.14457684461989939 0.022720089477420449 0 0.13114408026797619 0.0065571243895308053 0 0.1465612794743501 -0.0039847483349544424 0 0.1589774368007133 0.0093033835460836437 0 0.14457684461989939 0.022720089477420449 0 0.1465612794743501 -0.0039847483349544424 0 0.16139013166153229 0.024149592952520008 0 0.1589774368007133 0.0093033835460836437 0 0.14457684461989939 0.022720089477420449 0 0.12151084091868281 0.020182889865416841 0 0.14457684461989939 0.022720089477420449 0 0.13369785422660321 0.040701417753974643 0 0.12151084091868281 0.020182889865416841 0 0.14457684461989939 0.022720089477420449 0 0.13114408026797619 0.0065571243895308053 0 0.15499900903348271 0.047919760710397392 0 0.14409945355609291 0.066621568182775356 0 0.16437405061014379 0.063371921268084525 0 0.15499900903348271 0.047919760710397392 0 0.13588064576952261 0.057106568282995943 0 0.14409945355609291 0.066621568182775356 0 0.15499900903348271 0.047919760710397392 0 0.13369785422660321 0.040701417753974643 0 0.13588064576952261 0.057106568282995943 0 0.14457684461989939 0.022720089477420449 0 0.15499900903348271 0.047919760710397392 0 0.13369785422660321 0.040701417753974643 0 0.16139013166153229 0.024149592952520008 0 0.14457684461989939 0.022720089477420449 0 0.15499900903348271 0.047919760710397392 0 0.1195426292045346 0.058923208281537548 0 0.13588064576952261 0.057106568282995943 0 0.1301352312568618 0.066624359842492403 0 0.1195426292045346 0.058923208281537548 0 0.13369785422660321 0.040701417753974643 0 0.13588064576952261 0.057106568282995943 0 0.1198219654696957 0.072500200185086988 0 0.13133146228446321 0.077970254280066154 0 0.1198219654696957 0.072500200185086988 0 0.1301352312568618 0.066624359842492403 0 0.13133146228446321 0.077970254280066154 0 0.1301352312568618 0.066624359842492403 0 0.13133146228446321 0.077970254280066154 0 0.14409945355609291 0.066621568182775356 0 0.13588064576952261 0.057106568282995943 0 0.1301352312568618 0.066624359842492403 0 0.14409945355609291 0.066621568182775356 0 0.14409945355609291 0.066621568182775356 0 0.15344686156010059 0.07776835172598906 0 0.16437405061014379 0.063371921268084525 0 0.13133146228446321 0.077970254280066154 0 0.15344686156010059 0.07776835172598906 0 0.13133146228446321 0.077970254280066154 0 0.14409945355609291 0.066621568182775356 0 0.15344686156010059 0.07776835172598906 0 0.13133146228446321 0.077970254280066154 0 0.15675809255046971 0.090054626450853548 0 0.13133146228446321 0.077970254280066154 0 0.15344686156010059 0.07776835172598906 0 0.15675809255046971 0.090054626450853548 0 0.13133146228446321 0.077970254280066154 0 0.14040310079396931 0.092907877845384623 0 0.15675809255046971 0.090054626450853548 0 0.13133146228446321 0.077970254280066154 0 0.14040310079396931 0.092907877845384623 0 0.12907367728947119 0.092544197373043272 0 0.12274117199636631 0.085853921000333983 0 0.13133146228446321 0.077970254280066154 0 0.12907367728947119 0.092544197373043272 0 0.1231085069715858 0.10011431383498511 0 0.12907367728947119 0.092544197373043272 0 0.13469768055914341 0.1035480443901836 0 0.1223454418747295 0.1099207935353823 0 0.1231085069715858 0.10011431383498511 0 0.13469768055914341 0.1035480443901836 0 0.14040310079396931 0.092907877845384623 0 0.12907367728947119 0.092544197373043272 0 0.13469768055914341 0.1035480443901836 0 0.1223454418747295 0.1099207935353823 0 0.13469768055914341 0.1035480443901836 0 0.13128557190442261 0.1189383057880036 0 0.13469768055914341 0.1035480443901836 0 0.13128557190442261 0.1189383057880036 0 0.1432938949567196 0.114210234310498 0 0.1400210335317946 0.1295081915614085 0 0.13128557190442261 0.1189383057880036 0 0.1432938949567196 0.114210234310498 0 0.1400210335317946 0.1295081915614085 0 0.1432938949567196 0.114210234310498 0 0.1512978865621584 0.1238247725554675 0 0.1432938949567196 0.114210234310498 0 0.14866497965194519 0.102411414830522 0 0.15678906996703679 0.113081157746828 0 0.1432938949567196 0.114210234310498 0 0.1512978865621584 0.1238247725554675 0 0.15678906996703679 0.113081157746828 0 0.14040310079396931 0.092907877845384623 0 0.14866497965194519 0.102411414830522 0 0.15675809255046971 0.090054626450853548 0 0.14040310079396931 0.092907877845384623 0 0.13469768055914341 0.1035480443901836 0 0.14866497965194519 0.102411414830522 0 0.13469768055914341 0.1035480443901836 0 0.1432938949567196 0.114210234310498 0 0.14866497965194519 0.102411414830522 0 0.14866497965194519 0.102411414830522 0 0.16289292210102249 0.104048742309269 0 0.15678906996703679 0.113081157746828 0 0.14866497965194519 0.102411414830522 0 0.16289292210102249 0.104048742309269 0 0.15675809255046971 0.090054626450853548 0 0.16289292210102249 0.104048742309269 0 0.18218472281647691 0.1021389986216398 0 0.15675809255046971 0.090054626450853548 0 0.16289292210102249 0.104048742309269 0 0.170050179627417 0.1145546687166281 0 0.18218472281647691 0.1021389986216398 0 0.18218472281647691 0.1021389986216398 0 0.15675809255046971 0.090054626450853548 0 0.1643662361587499 0.1265060756072803 0 0.1512978865621584 0.1238247725554675 0 0.15678906996703679 0.113081157746828 0 0.1643662361587499 0.1265060756072803 0 0.15678906996703679 0.113081157746828 0 0.170050179627417 0.1145546687166281 0 0.16289292210102249 0.104048742309269 0 0.15678906996703679 0.113081157746828 0 0.170050179627417 0.1145546687166281 0 0.18398281531026589 0.13099267893837671 0 0.170050179627417 0.1145546687166281 0 0.18218472281647691 0.1021389986216398 0 0.18398281531026589 0.13099267893837671 0 0.1643662361587499 0.1265060756072803 0 0.170050179627417 0.1145546687166281 0 0.19938262886407651 0.083553233981230088 0 0.18218472281647691 0.1021389986216398 0 0.175562260835738 0.077566449171913382 0 0.1885194901468952 0.056526046318538588 0 0.175562260835738 0.077566449171913382 0 0.16437405061014379 0.063371921268084525 0 0.15344686156010059 0.07776835172598906 0 0.175562260835738 0.077566449171913382 0 0.15344686156010059 0.07776835172598906 0 0.175562260835738 0.077566449171913382 0 0.16437405061014379 0.063371921268084525 0 0.18218472281647691 0.1021389986216398 0 0.175562260835738 0.077566449171913382 0 0.15675809255046971 0.090054626450853548 0 0.15344686156010059 0.07776835172598906 0 0.175562260835738 0.077566449171913382 0 0.15675809255046971 0.090054626450853548 0 0.10144703026557091 0.47338960074318259 0 0.10143351845755461 0.5 0 0.090312192636962954 0.48179028834523058 0 0.10144703026557091 0.47338960074318259 0 0.10143351845755461 0.5 0 0.1186224487051766 0.48436046462258192 0 0.10143351845755461 0.5 0 0.1186224487051766 0.48436046462258192 0 0.13136684150751951 0.5 0 0.10144703026557091 0.47338960074318259 0 0.1186224487051766 0.48436046462258192 0 0.12177343935339011 0.46769119136788578 0 0.12177343935339011 0.46769119136788578 0 0.1146962649002578 0.44824305247100799 0 0.13547954841418841 0.45740842584297042 0 0.10144703026557091 0.47338960074318259 0 0.12177343935339011 0.46769119136788578 0 0.10819403748039209 0.46083126923364193 0 0.12177343935339011 0.46769119136788578 0 0.1146962649002578 0.44824305247100799 0 0.10819403748039209 0.46083126923364193 0 0.1146962649002578 0.44824305247100799 0 0.1167198789000736 0.42758498376004328 0 0.1329192962952509 0.43711670997100049 0 0.094859415402349712 0.45400123235249129 0 0.099477741135684541 0.43425540716308841 0 0.1146962649002578 0.44824305247100799 0 0.094859415402349712 0.45400123235249129 0 0.099477741135684541 0.43425540716308841 0 0.1146962649002578 0.44824305247100799 0 0.094859415402349712 0.45400123235249129 0 0.10819403748039209 0.46083126923364193 0 0.10144703026557091 0.47338960074318259 0 0.094859415402349712 0.45400123235249129 0 0.10819403748039209 0.46083126923364193 0 0.10144703026557091 0.47338960074318259 0 0.094859415402349712 0.45400123235249129 0 0.080159391271140565 0.4659087940142988 0 0.080159391271140565 0.4659087940142988 0 0.082109951988695251 0.44395482940515668 0 0.094859415402349712 0.45400123235249129 0 0.080159391271140565 0.4659087940142988 0 0.082109951988695251 0.44395482940515668 0 0.094859415402349712 0.45400123235249129 0 0.082109951988695251 0.44395482940515668 0 0.099477741135684541 0.43425540716308841 0 0.082109951988695251 0.44395482940515668 0 0.069307445820385519 0.44123278844352071 0 0.06715270314905139 0.42832268560865688 0 0.082109951988695251 0.44395482940515668 0 0.069307445820385519 0.44123278844352071 0 0.062900100087771235 0.45294736086655768 0 0.080159391271140565 0.4659087940142988 0 0.062900100087771235 0.45294736086655768 0 0.065516172196447828 0.47180437317672003 0 0.080159391271140565 0.4659087940142988 0 0.082109951988695251 0.44395482940515668 0 0.062900100087771235 0.45294736086655768 0 0.065516172196447828 0.47180437317672003 0 0.078208830553585892 0.48786275862344081 0 0.058437288811095368 0.48560869670656281 0 0.080159391271140565 0.4659087940142988 0 0.065516172196447828 0.47180437317672003 0 0.078208830553585892 0.48786275862344081 0 0.080159391271140565 0.4659087940142988 0 0.078208830553585892 0.48786275862344081 0 0.10144703026557091 0.47338960074318259 0 0.080159391271140565 0.4659087940142988 0 0.090312192636962954 0.48179028834523058 0 0.080159391271140565 0.4659087940142988 0 0.090312192636962954 0.48179028834523058 0 0.078208830553585892 0.48786275862344081 0 0.10143351845755461 0.5 0 0.078208830553585892 0.48786275862344081 0 0.071500195407589562 0.5 0 0.10143351845755461 0.5 0 0.090312192636962954 0.48179028834523058 0 0.078208830553585892 0.48786275862344081 0 0.078208830553585892 0.48786275862344081 0 0.071500195407589562 0.5 0 0.058437288811095368 0.48560869670656281 0 0.071500195407589562 0.5 0 0.058437288811095368 0.48560869670656281 0 0.041566872357624567 0.5 0 0.058437288811095368 0.48560869670656281 0 0.04169275505256665 0.48304493904513601 0 0.041566872357624567 0.5 0 0.065516172196447828 0.47180437317672003 0 0.058437288811095368 0.48560869670656281 0 0.04787525025864614 0.46669425567273992 0 0.058437288811095368 0.48560869670656281 0 0.04169275505256665 0.48304493904513601 0 0.04787525025864614 0.46669425567273992 0 0.04169275505256665 0.48304493904513601 0 0.028760023556042891 0.47009576107248441 0 0.04787525025864614 0.46669425567273992 0 0.04169275505256665 0.48304493904513601 0 0.027158679009709821 0.48637196853641512 0 0.028760023556042891 0.47009576107248441 0 0.04169275505256665 0.48304493904513601 0 0.041566872357624567 0.5 0 0.027158679009709821 0.48637196853641512 0 0.041566872357624567 0.5 0 0.027158679009709821 0.48637196853641512 0 0.01163354930765959 0.49999999999999922 0 0.027158679009709821 0.48637196853641512 0 0.01214019477465543 0.47871914256445519 0 0.01163354930765959 0.49999999999999922 0 0.028760023556042891 0.47009576107248441 0 0.01214019477465543 0.47871914256445519 0 0.01264684024165129 0.45743828512891133 0 0.027158679009709821 0.48637196853641512 0 0.028760023556042891 0.47009576107248441 0 0.01214019477465543 0.47871914256445519 0 -0.0020579450925737059 0.48747626695549862 0 -0.0040184959864603426 0.47404905711895429 0 0.01214019477465543 0.47871914256445519 0 -0.0040184959864603426 0.47404905711895429 0 0.01214019477465543 0.47871914256445519 0 0.01264684024165129 0.45743828512891133 0 0.01214019477465543 0.47871914256445519 0 0.01163354930765959 0.49999999999999922 0 -0.0020579450925737059 0.48747626695549862 0 0.01214019477465543 0.47871914256445519 0 0.01163354930765959 0.49999999999999922 0 0.01264684024165129 0.45743828512891133 0 0.01315348570864714 0.43615742769336741 0 0.00062826185133309231 0.44396229266221959 0 0.01264684024165129 0.45743828512891133 0 0.01315348570864714 0.43615742769336741 0 0.00062826185133309231 0.44396229266221959 0 0.0032072944985491619 0.43356084649817778 0 0.01315348570864714 0.43615742769336741 0 -0.0080284061150216138 0.45825371315562652 0 0.00062826185133309231 0.44396229266221959 0 0.01264684024165129 0.45743828512891133 0 -0.0080284061150216138 0.45825371315562652 0 -0.0040184959864603426 0.47404905711895429 0 0.01264684024165129 0.45743828512891133 0 0.01214019477465543 0.47871914256445519 0 0.01264684024165129 0.45743828512891133 0 0.028760023556042891 0.47009576107248441 0 0.01264684024165129 0.45743828512891133 0 0.032986414637478402 0.44890673589748181 0 0.032986414637478402 0.44890673589748181 0 0.028901969571840911 0.42874025763589768 0 0.01315348570864714 0.43615742769336741 0 0.01264684024165129 0.45743828512891133 0 0.032986414637478402 0.44890673589748181 0 0.01315348570864714 0.43615742769336741 0 0.032986414637478402 0.44890673589748181 0 0.048157808472734237 0.45047415898733439 0 0.050244893591853447 0.43464450642130009 0 0.028760023556042891 0.47009576107248441 0 0.032986414637478402 0.44890673589748181 0 0.04787525025864614 0.46669425567273992 0 0.032986414637478402 0.44890673589748181 0 0.04787525025864614 0.46669425567273992 0 0.048157808472734237 0.45047415898733439 0 0.062900100087771235 0.45294736086655768 0 0.065516172196447828 0.47180437317672003 0 0.04787525025864614 0.46669425567273992 0 0.062900100087771235 0.45294736086655768 0 0.04787525025864614 0.46669425567273992 0 0.048157808472734237 0.45047415898733439 0 0.062900100087771235 0.45294736086655768 0 0.048157808472734237 0.45047415898733439 0 0.050244893591853447 0.43464450642130009 0 0.069307445820385519 0.44123278844352071 0 0.062900100087771235 0.45294736086655768 0 0.050244893591853447 0.43464450642130009 0 0.050244893591853447 0.43464450642130009 0 0.056239142756100952 0.41798451370981471 0 0.06715270314905139 0.42832268560865688 0 0.050244893591853447 0.43464450642130009 0 0.056239142756100952 0.41798451370981471 0 0.042057853058136009 0.41648438352422118 0 0.069307445820385519 0.44123278844352071 0 0.050244893591853447 0.43464450642130009 0 0.06715270314905139 0.42832268560865688 0 0.050244893591853447 0.43464450642130009 0 0.06715270314905139 0.42832268560865688 0 0.056239142756100952 0.41798451370981471 0 0.049308188086795803 0.40096391930853481 0 0.067731390019622598 0.40943498952043578 0 0.056239142756100952 0.41798451370981471 0 0.042057853058136009 0.41648438352422118 0 0.049308188086795803 0.40096391930853481 0 0.042057853058136009 0.41648438352422118 0 0.028901969571840911 0.42874025763589768 0 0.025671491034531299 0.41353387984329959 0 0.042057853058136009 0.41648438352422118 0 0.025671491034531299 0.41353387984329959 0 0.03516464439205947 0.40460124957635651 0 0.042057853058136009 0.41648438352422118 0 0.03516464439205947 0.40460124957635651 0 0.049308188086795803 0.40096391930853481 0 0.050244893591853447 0.43464450642130009 0 0.042057853058136009 0.41648438352422118 0 0.028901969571840911 0.42874025763589768 0 0.032986414637478402 0.44890673589748181 0 0.050244893591853447 0.43464450642130009 0 0.028901969571840911 0.42874025763589768 0 0.028901969571840911 0.42874025763589768 0 0.01315348570864714 0.43615742769336741 0 0.009297679400399236 0.42271461243571667 0 0.025671491034531299 0.41353387984329959 0 0.0055633800221229022 0.40923753810589819 0 0.024261846086925921 0.40112643936869857 0 0.028901969571840911 0.42874025763589768 0 0.025671491034531299 0.41353387984329959 0 0.009297679400399236 0.42271461243571667 0 0.025671491034531299 0.41353387984329959 0 0.024261846086925921 0.40112643936869857 0 0.03516464439205947 0.40460124957635651 0 -0.0050430068879795736 0.42642029092100753 0 0.0055633800221229022 0.40923753810589819 0 -0.0050430068879795736 0.42642029092100753 0 0.0055633800221229022 0.40923753810589819 0 0.009297679400399236 0.42271461243571667 0 0.025671491034531299 0.41353387984329959 0 0.0055633800221229022 0.40923753810589819 0 0.009297679400399236 0.42271461243571667 0 -0.0050430068879795736 0.42642029092100753 0 0.0032072944985491619 0.43356084649817778 0 0.009297679400399236 0.42271461243571667 0 -0.0037307996613493029 0.43334658286874261 0 0.00062826185133309231 0.44396229266221959 0 0.0032072944985491619 0.43356084649817778 0 0.0032072944985491619 0.43356084649817778 0 0.01315348570864714 0.43615742769336741 0 0.009297679400399236 0.42271461243571667 0 0.01055678567003075 0.37795673964204513 0 0.0060518419207558072 0.38918077330078032 0 0.01616976693222455 0.39205478529078841 0 -0.00057715577063301854 0.37459337764846962 0 0.01055678567003075 0.37795673964204513 0 0.0060518419207558072 0.38918077330078032 0 0.0055633800221229022 0.40923753810589819 0 0.01616976693222455 0.39205478529078841 0 0.024261846086925921 0.40112643936869857 0 0.0055633800221229022 0.40923753810589819 0 0.005589288741092914 0.397344873489268 0 0.01616976693222455 0.39205478529078841 0 0.0055633800221229022 0.40923753810589819 0 0.01616976693222455 0.39205478529078841 0 -0.005427833910731596 0.39890639725960519 0 0.0060518419207558072 0.38918077330078032 0 0.005589288741092914 0.397344873489268 0 -0.005427833910731596 0.39890639725960519 0 0.0055633800221229022 0.40923753810589819 0 0.005589288741092914 0.397344873489268 0 0.0060518419207558072 0.38918077330078032 0 0.005589288741092914 0.397344873489268 0 0.01616976693222455 0.39205478529078841 0 0.01616976693222455 0.39205478529078841 0 0.024261846086925921 0.40112643936869857 0 0.034523843693908318 0.39089762583702831 0 0.01616976693222455 0.39205478529078841 0 0.026776153842326199 0.37487203247567857 0 0.01055678567003075 0.37795673964204513 0 0.01616976693222455 0.39205478529078841 0 0.026776153842326199 0.37487203247567857 0 0.01616976693222455 0.39205478529078841 0 0.034523843693908318 0.39089762583702831 0 0.026776153842326199 0.37487203247567857 0 0.034523843693908318 0.39089762583702831 0 0.051940532158086819 0.38814959458197618 0 0.046407041369050731 0.37361449391510859 0 0.034523843693908318 0.39089762583702831 0 0.046407041369050731 0.37361449391510859 0 0.026776153842326199 0.37487203247567857 0 0.034523843693908318 0.39089762583702831 0 0.049308188086795803 0.40096391930853481 0 0.051940532158086819 0.38814959458197618 0 0.024261846086925921 0.40112643936869857 0 0.03516464439205947 0.40460124957635651 0 0.034523843693908318 0.39089762583702831 0 0.03516464439205947 0.40460124957635651 0 0.034523843693908318 0.39089762583702831 0 0.049308188086795803 0.40096391930853481 0 0.049308188086795803 0.40096391930853481 0 0.063970391511205968 0.39621024413567862 0 0.067731390019622598 0.40943498952043578 0 0.049308188086795803 0.40096391930853481 0 0.051940532158086819 0.38814959458197618 0 0.063970391511205968 0.39621024413567862 0 0.051940532158086819 0.38814959458197618 0 0.064832089494606379 0.38277866563714791 0 0.046407041369050731 0.37361449391510859 0 0.064832089494606379 0.38277866563714791 0 0.064179174852965773 0.36953488785469152 0 0.046407041369050731 0.37361449391510859 0 0.051940532158086819 0.38814959458197618 0 0.064832089494606379 0.38277866563714791 0 0.063970391511205968 0.39621024413567862 0 0.064832089494606379 0.38277866563714791 0 0.088019002887586628 0.377447238464582 0 0.064179174852965773 0.36953488785469152 0 0.088019002887586628 0.377447238464582 0 0.086039757796918276 0.39972405163029828 0 0.064832089494606379 0.38277866563714791 0 0.088019002887586628 0.377447238464582 0 0.086039757796918276 0.39972405163029828 0 0.086039757796918276 0.39972405163029828 0 0.063970391511205968 0.39621024413567862 0 0.067731390019622598 0.40943498952043578 0 0.064832089494606379 0.38277866563714791 0 0.086039757796918276 0.39972405163029828 0 0.063970391511205968 0.39621024413567862 0 0.067731390019622598 0.40943498952043578 0 0.06715270314905139 0.42832268560865688 0 0.084060512706249577 0.42200086479601462 0 0.056239142756100952 0.41798451370981471 0 0.067731390019622598 0.40943498952043578 0 0.06715270314905139 0.42832268560865688 0 0.082109951988695251 0.44395482940515668 0 0.06715270314905139 0.42832268560865688 0 0.084060512706249577 0.42200086479601462 0 0.06715270314905139 0.42832268560865688 0 0.084060512706249577 0.42200086479601462 0 0.082109951988695251 0.44395482940515668 0 0.084060512706249577 0.42200086479601462 0 0.099477741135684541 0.43425540716308841 0 0.082109951988695251 0.44395482940515668 0 0.084060512706249577 0.42200086479601462 0 0.086039757796918276 0.39972405163029828 0 0.067731390019622598 0.40943498952043578 0 0.084060512706249577 0.42200086479601462 0 0.086039757796918276 0.39972405163029828 0 0.084060512706249577 0.42200086479601462 0 0.1040960668690193 0.41450958197368543 0 0.086039757796918276 0.39972405163029828 0 0.084060512706249577 0.42200086479601462 0 0.084060512706249577 0.42200086479601462 0 0.1040960668690193 0.41450958197368543 0 0.1040960668690193 0.41450958197368543 0 0.099477741135684541 0.43425540716308841 0 0.084060512706249577 0.42200086479601462 0 0.1040960668690193 0.41450958197368543 0 0.099477741135684541 0.43425540716308841 0 0.1040960668690193 0.41450958197368543 0 0.099477741135684541 0.43425540716308841 0 0.1167198789000736 0.42758498376004328 0 0.1146962649002578 0.44824305247100799 0 0.099477741135684541 0.43425540716308841 0 0.1167198789000736 0.42758498376004328 0 0.1040960668690193 0.41450958197368543 0 0.1167198789000736 0.42758498376004328 0 0.1197541858591491 0.4086550197854979 0 0.1167198789000736 0.42758498376004328 0 0.1197541858591491 0.4086550197854979 0 0.133234518322108 0.41870066565176162 0 0.1040960668690193 0.41450958197368543 0 0.1197541858591491 0.4086550197854979 0 0.1197541858591491 0.4086550197854979 0 0.11913960732629961 0.39296678288380138 0 0.1282773725517653 0.39488067271661809 0 0.1197541858591491 0.4086550197854979 0 0.11913960732629961 0.39296678288380138 0 0.1089161657060863 0.39390106829839677 0 0.1040960668690193 0.41450958197368543 0 0.1197541858591491 0.4086550197854979 0 0.1089161657060863 0.39390106829839677 0 0.11913960732629961 0.39296678288380138 0 0.12585432187410789 0.3878481036350282 0 0.1282773725517653 0.39488067271661809 0 0.1193786900911014 0.38331935017023561 0 0.1089161657060863 0.39390106829839677 0 0.1137362645431531 0.37329255462310812 0 0.11913960732629961 0.39296678288380138 0 0.1193786900911014 0.38331935017023561 0 0.12585432187410789 0.3878481036350282 0 0.1193786900911014 0.38331935017023561 0 0.12764429901342969 0.38071543219320148 0 0.12585432187410789 0.3878481036350282 0 0.1089161657060863 0.39390106829839677 0 0.1137362645431531 0.37329255462310812 0 0.1193786900911014 0.38331935017023561 0 0.1137362645431531 0.37329255462310812 0 0.12215821492722891 0.37337772218537979 0 0.1193786900911014 0.38331935017023561 0 0.12215821492722891 0.37337772218537979 0 0.12764429901342969 0.38071543219320148 0 0.1193786900911014 0.38331935017023561 0 0.1137362645431531 0.37329255462310812 0 0.11913960732629961 0.39296678288380138 0 0.1193786900911014 0.38331935017023561 0 0.1089161657060863 0.39390106829839677 0 0.088019002887586628 0.377447238464582 0 0.1089161657060863 0.39390106829839677 0 0.1137362645431531 0.37329255462310812 0 0.088019002887586628 0.377447238464582 0 0.086039757796918276 0.39972405163029828 0 0.1089161657060863 0.39390106829839677 0 0.1040960668690193 0.41450958197368543 0 0.1089161657060863 0.39390106829839677 0 0.086039757796918276 0.39972405163029828 0 0.1040960668690193 0.41450958197368543 0 0.1089161657060863 0.39390106829839677 0 0.1022591169537989 0.35289724566161151 0 0.091844529491647897 0.33439014471658568 0 0.089998247978265666 0.35517042529886661 0 0.1022591169537989 0.35289724566161151 0 0.1153841326758905 0.35046385219352538 0 0.1043566162257538 0.33407242554155381 0 0.1022591169537989 0.35289724566161151 0 0.1153841326758905 0.35046385219352538 0 0.1022591169537989 0.35289724566161151 0 0.089998247978265666 0.35517042529886661 0 0.1022591169537989 0.35289724566161151 0 0.09853190348326786 0.36590468147244809 0 0.089998247978265666 0.35517042529886661 0 0.1022591169537989 0.35289724566161151 0 0.1137362645431531 0.37329255462310812 0 0.088019002887586628 0.377447238464582 0 0.09853190348326786 0.36590468147244809 0 0.1137362645431531 0.37329255462310812 0 0.1022591169537989 0.35289724566161151 0 0.09853190348326786 0.36590468147244809 0 0.1137362645431531 0.37329255462310812 0 0.12215821492722891 0.37337772218537979 0 0.118123341279294 0.35453544320953168 0 0.131908479709166 0.37502583073082257 0 0.1137362645431531 0.37329255462310812 0 0.12215821492722891 0.37337772218537979 0 0.118123341279294 0.35453544320953168 0 0.1137362645431531 0.37329255462310812 0 0.118123341279294 0.35453544320953168 0 0.1022591169537989 0.35289724566161151 0 0.1137362645431531 0.37329255462310812 0 0.118123341279294 0.35453544320953168 0 0.118123341279294 0.35453544320953168 0 0.11924297229023161 0.34974841875627671 0 0.13016095209214229 0.35692778468816511 0 0.1022591169537989 0.35289724566161151 0 0.118123341279294 0.35453544320953168 0 0.1153841326758905 0.35046385219352538 0 0.1153841326758905 0.35046385219352538 0 0.11924297229023161 0.34974841875627671 0 0.1043566162257538 0.33407242554155381 0 0.118123341279294 0.35453544320953168 0 0.11924297229023161 0.34974841875627671 0 0.118123341279294 0.35453544320953168 0 0.1153841326758905 0.35046385219352538 0 0.11924297229023161 0.34974841875627671 0 0.118123341279294 0.35453544320953168 0 0.1153841326758905 0.35046385219352538 0 0.1153841326758905 0.35046385219352538 0 0.11924297229023161 0.34974841875627671 0 0.1153841326758905 0.35046385219352538 0 0.1043566162257538 0.33407242554155381 0 0.11924297229023161 0.34974841875627671 0 0.1043566162257538 0.33407242554155381 0 0.1260354903324625 0.32070675266293952 0 0.11924297229023161 0.34974841875627671 0 0.1260354903324625 0.32070675266293952 0 0.1071648495448673 0.31832203498353162 0 0.1043566162257538 0.33407242554155381 0 0.1260354903324625 0.32070675266293952 0 0.1071648495448673 0.31832203498353162 0 0.1143872000984946 0.30756902748878429 0 0.1260354903324625 0.32070675266293952 0 0.1071648495448673 0.31832203498353162 0 0.1043566162257538 0.33407242554155381 0 0.093329099775619664 0.31768099888958051 0 0.1043566162257538 0.33407242554155381 0 0.093329099775619664 0.31768099888958051 0 0.1071648495448673 0.31832203498353162 0 0.093329099775619664 0.31768099888958051 0 0.10332121578201379 0.30846755409982118 0 0.1043566162257538 0.33407242554155381 0 0.091844529491647897 0.33439014471658568 0 0.093329099775619664 0.31768099888958051 0 0.1022591169537989 0.35289724566161151 0 0.1043566162257538 0.33407242554155381 0 0.091844529491647897 0.33439014471658568 0 0.1022591169537989 0.35289724566161151 0 0.091844529491647897 0.33439014471658568 0 0.091844529491647897 0.33439014471658568 0 0.081170446935766138 0.34346399844674191 0 0.080440359544657267 0.32738928859963312 0 0.091844529491647897 0.33439014471658568 0 0.093329099775619664 0.31768099888958051 0 0.091844529491647897 0.33439014471658568 0 0.080440359544657267 0.32738928859963312 0 0.08167921887493157 0.31632601779799352 0 0.091844529491647897 0.33439014471658568 0 0.093329099775619664 0.31768099888958051 0 0.08167921887493157 0.31632601779799352 0 0.091844529491647897 0.33439014471658568 0 0.08167921887493157 0.31632601779799352 0 0.093329099775619664 0.31768099888958051 0 0.08167921887493157 0.31632601779799352 0 0.086631068230799274 0.30772496814811229 0 0.093329099775619664 0.31768099888958051 0 0.086631068230799274 0.30772496814811229 0 0.080440359544657267 0.32738928859963312 0 0.08167921887493157 0.31632601779799352 0 0.076258304942274674 0.31707225644046472 0 0.08167921887493157 0.31632601779799352 0 0.076258304942274674 0.31707225644046472 0 0.086631068230799274 0.30772496814811229 0 0.076258304942274674 0.31707225644046472 0 0.07308522356862826 0.32368400556650428 0 0.069590456304792228 0.31300182680675132 0 0.076258304942274674 0.31707225644046472 0 0.069590456304792228 0.31300182680675132 0 0.075886341126323101 0.30941281763715012 0 0.080440359544657267 0.32738928859963312 0 0.076258304942274674 0.31707225644046472 0 0.07308522356862826 0.32368400556650428 0 0.07308522356862826 0.32368400556650428 0 0.064188082585928466 0.32387471214384711 0 0.07265381951303615 0.33474540666406932 0 0.07308522356862826 0.32368400556650428 0 0.064188082585928466 0.32387471214384711 0 0.069590456304792228 0.31300182680675132 0 0.064188082585928466 0.32387471214384711 0 0.069590456304792228 0.31300182680675132 0 0.05894890461309691 0.31115169542615428 0 0.081170446935766138 0.34346399844674191 0 0.080440359544657267 0.32738928859963312 0 0.07265381951303615 0.33474540666406932 0 0.081170446935766138 0.34346399844674191 0 0.07265381951303615 0.33474540666406932 0 0.06923629557643754 0.34390548719391367 0 0.080440359544657267 0.32738928859963312 0 0.07308522356862826 0.32368400556650428 0 0.07265381951303615 0.33474540666406932 0 0.064188082585928466 0.32387471214384711 0 0.07265381951303615 0.33474540666406932 0 0.062818603398748937 0.33573906060242198 0 0.062818603398748937 0.33573906060242198 0 0.06923629557643754 0.34390548719391367 0 0.057897532307993722 0.34700510346866942 0 0.07265381951303615 0.33474540666406932 0 0.062818603398748937 0.33573906060242198 0 0.06923629557643754 0.34390548719391367 0 0.06923629557643754 0.34390548719391367 0 0.071641075726642731 0.35857386678766567 0 0.057897532307993722 0.34700510346866942 0 0.081170446935766138 0.34346399844674191 0 0.06923629557643754 0.34390548719391367 0 0.071641075726642731 0.35857386678766567 0 0.071641075726642731 0.35857386678766567 0 0.089998247978265666 0.35517042529886661 0 0.091844529491647897 0.33439014471658568 0 0.081170446935766138 0.34346399844674191 0 0.089998247978265666 0.35517042529886661 0 0.081170446935766138 0.34346399844674191 0 0.071641075726642731 0.35857386678766567 0 0.089998247978265666 0.35517042529886661 0 0.091844529491647897 0.33439014471658568 0 0.089998247978265666 0.35517042529886661 0 0.088019002887586628 0.377447238464582 0 0.089998247978265666 0.35517042529886661 0 0.088019002887586628 0.377447238464582 0 0.071641075726642731 0.35857386678766567 0 0.089998247978265666 0.35517042529886661 0 0.088019002887586628 0.377447238464582 0 0.09853190348326786 0.36590468147244809 0 0.089998247978265666 0.35517042529886661 0 0.071641075726642731 0.35857386678766567 0 0.064179174852965773 0.36953488785469152 0 0.053283903475019302 0.36197730827646207 0 0.088019002887586628 0.377447238464582 0 0.071641075726642731 0.35857386678766567 0 0.064179174852965773 0.36953488785469152 0 0.071641075726642731 0.35857386678766567 0 0.053283903475019302 0.36197730827646207 0 0.064179174852965773 0.36953488785469152 0 0.053283903475019302 0.36197730827646207 0 0.046407041369050731 0.37361449391510859 0 0.053283903475019302 0.36197730827646207 0 0.046407041369050731 0.37361449391510859 0 0.042867931900235579 0.35950690932075291 0 0.057897532307993722 0.34700510346866942 0 0.04033430573734309 0.34826204645279102 0 0.045510135669333512 0.33809916134068768 0 0.071641075726642731 0.35857386678766567 0 0.053283903475019302 0.36197730827646207 0 0.057897532307993722 0.34700510346866942 0 0.057897532307993722 0.34700510346866942 0 0.04033430573734309 0.34826204645279102 0 0.042867931900235579 0.35950690932075291 0 0.053283903475019302 0.36197730827646207 0 0.057897532307993722 0.34700510346866942 0 0.042867931900235579 0.35950690932075291 0 0.04033430573734309 0.34826204645279102 0 0.042867931900235579 0.35950690932075291 0 0.032429786368607452 0.36188187304839448 0 0.04033430573734309 0.34826204645279102 0 0.032429786368607452 0.36188187304839448 0 0.03119699965656492 0.34832591497526999 0 0.046407041369050731 0.37361449391510859 0 0.032429786368607452 0.36188187304839448 0 0.026776153842326199 0.37487203247567857 0 0.046407041369050731 0.37361449391510859 0 0.042867931900235579 0.35950690932075291 0 0.032429786368607452 0.36188187304839448 0 0.01055678567003075 0.37795673964204513 0 0.0208602307301133 0.35370549334731322 0 0.01055678567003075 0.37795673964204513 0 0.026776153842326199 0.37487203247567857 0 0.02265573915276942 0.36710403462835778 0 0.032429786368607452 0.36188187304839448 0 0.026776153842326199 0.37487203247567857 0 0.02265573915276942 0.36710403462835778 0 0.01055678567003075 0.37795673964204513 0 0.02265573915276942 0.36710403462835778 0 0.0208602307301133 0.35370549334731322 0 0.032429786368607452 0.36188187304839448 0 0.02265573915276942 0.36710403462835778 0 0.0208602307301133 0.35370549334731322 0 0.032429786368607452 0.36188187304839448 0 0.03119699965656492 0.34832591497526999 0 0.0208602307301133 0.35370549334731322 0 0.03119699965656492 0.34832591497526999 0 0.0208602307301133 0.35370549334731322 0 0.031163675790195831 0.32945424705258142 0 0.016715394881433358 0.34410469055966969 0 0.0208602307301133 0.35370549334731322 0 0.011528013621000879 0.35418422421224821 0 -0.0096468366801115077 0.359339393619792 0 0.011528013621000879 0.35418422421224821 0 -0.001729759820654255 0.348274071856288 0 -0.0096468366801115077 0.359339393619792 0 0.011528013621000879 0.35418422421224821 0 0.016715394881433358 0.34410469055966969 0 0.011528013621000879 0.35418422421224821 0 0.0075468616312981303 0.34456999390661153 0 -0.001729759820654255 0.348274071856288 0 0.011528013621000879 0.35418422421224821 0 0.0075468616312981303 0.34456999390661153 0 0.01055678567003075 0.37795673964204513 0 0.0208602307301133 0.35370549334731322 0 0.011528013621000879 0.35418422421224821 0 0.01055678567003075 0.37795673964204513 0 0.011528013621000879 0.35418422421224821 0 0.0031281328263341982 0.3657471439459844 0 -0.0096468366801115077 0.359339393619792 0 0.011528013621000879 0.35418422421224821 0 0.0031281328263341982 0.3657471439459844 0 -0.00057715577063301854 0.37459337764846962 0 0.01055678567003075 0.37795673964204513 0 0.0031281328263341982 0.3657471439459844 0 -0.004032943588530782 0.31888470654317191 0 0.012492704683039649 0.32385224392620399 0 0.0095903170782337538 0.30973713230809952 0 -0.00091397169615309889 0.33551013776220778 0 -0.004032943588530782 0.31888470654317191 0 0.012492704683039649 0.32385224392620399 0 0.012492704683039649 0.32385224392620399 0 0.02473411121726752 0.31340970424608539 0 0.0095903170782337538 0.30973713230809952 0 -0.00091397169615309889 0.33551013776220778 0 0.0075468616312981303 0.34456999390661153 0 0.01282175409825361 0.33644214341654483 0 -0.00091397169615309889 0.33551013776220778 0 -0.001729759820654255 0.348274071856288 0 0.0075468616312981303 0.34456999390661153 0 0.016715394881433358 0.34410469055966969 0 0.0075468616312981303 0.34456999390661153 0 0.01282175409825361 0.33644214341654483 0 -0.00091397169615309889 0.33551013776220778 0 0.012492704683039649 0.32385224392620399 0 0.01282175409825361 0.33644214341654483 0 0.016715394881433358 0.34410469055966969 0 0.01282175409825361 0.33644214341654483 0 0.031163675790195831 0.32945424705258142 0 0.016715394881433358 0.34410469055966969 0 0.0208602307301133 0.35370549334731322 0 0.031163675790195831 0.32945424705258142 0 0.012492704683039649 0.32385224392620399 0 0.01282175409825361 0.33644214341654483 0 0.031163675790195831 0.32945424705258142 0 0.0208602307301133 0.35370549334731322 0 0.031163675790195831 0.32945424705258142 0 0.012492704683039649 0.32385224392620399 0 0.031163675790195831 0.32945424705258142 0 0.02473411121726752 0.31340970424608539 0 0.031163675790195831 0.32945424705258142 0 0.04146712085027808 0.30520300075784962 0 0.049682326579135787 0.32610405211325949 0 0.04146712085027808 0.30520300075784962 0 0.031163675790195831 0.32945424705258142 0 0.049682326579135787 0.32610405211325949 0 0.04146712085027808 0.30520300075784962 0 0.031163675790195831 0.32945424705258142 0 0.02473411121726752 0.31340970424608539 0 0.04146712085027808 0.30520300075784962 0 0.04033430573734309 0.34826204645279102 0 0.031163675790195831 0.32945424705258142 0 0.045510135669333512 0.33809916134068768 0 0.04033430573734309 0.34826204645279102 0 0.03119699965656492 0.34832591497526999 0 0.031163675790195831 0.32945424705258142 0 0.031163675790195831 0.32945424705258142 0 0.045510135669333512 0.33809916134068768 0 0.049682326579135787 0.32610405211325949 0 0.057897532307993722 0.34700510346866942 0 0.049682326579135787 0.32610405211325949 0 0.057897532307993722 0.34700510346866942 0 0.045510135669333512 0.33809916134068768 0 0.049682326579135787 0.32610405211325949 0 0.062818603398748937 0.33573906060242198 0 0.057897532307993722 0.34700510346866942 0 0.049682326579135787 0.32610405211325949 0 0.064188082585928466 0.32387471214384711 0 0.062818603398748937 0.33573906060242198 0 0.049682326579135787 0.32610405211325949 0 0.049682326579135787 0.32610405211325949 0 0.05894890461309691 0.31115169542615428 0 0.04146712085027808 0.30520300075784962 0 0.064188082585928466 0.32387471214384711 0 0.049682326579135787 0.32610405211325949 0 0.05894890461309691 0.31115169542615428 0 0.05894890461309691 0.31115169542615428 0 0.058897274461578247 0.29708695563338572 0 0.04146712085027808 0.30520300075784962 0 0.058897274461578247 0.29708695563338572 0 0.051094550461583017 0.28254289383948722 0 0.04146712085027808 0.30520300075784962 0 0.058897274461578247 0.29708695563338572 0 0.051094550461583017 0.28254289383948722 0 0.071412824629312949 0.28510439669907589 0 0.051094550461583017 0.28254289383948722 0 0.033760344406955307 0.28559549054532801 0 0.04146712085027808 0.30520300075784962 0 0.033760344406955307 0.28559549054532801 0 0.04146712085027808 0.30520300075784962 0 0.051094550461583017 0.28254289383948722 0 0.04146712085027808 0.30520300075784962 0 0.033760344406955307 0.28559549054532801 0 0.04146712085027808 0.30520300075784962 0 0.025208393306196539 0.3010087048854504 0 0.02473411121726752 0.31340970424608539 0 0.04146712085027808 0.30520300075784962 0 0.025208393306196539 0.3010087048854504 0 0.025208393306196539 0.3010087048854504 0 0.016490072978248029 0.29109819656988939 0 0.0095903170782337538 0.30973713230809952 0 0.02473411121726752 0.31340970424608539 0 0.025208393306196539 0.3010087048854504 0 0.0095903170782337538 0.30973713230809952 0 0.033760344406955307 0.28559549054532801 0 0.025208393306196539 0.3010087048854504 0 0.016490072978248029 0.29109819656988939 0 0.033760344406955307 0.28559549054532801 0 0.016490072978248029 0.29109819656988939 0 0.018482828013636439 0.27819950385533643 0 0.016490072978248029 0.29109819656988939 0 0.0052481500658994066 0.2792492100760936 0 0.018482828013636439 0.27819950385533643 0 0.016490072978248029 0.29109819656988939 0 0.0030968340097195768 0.29276702124610893 0 0.0052481500658994066 0.2792492100760936 0 -0.0063616811426247836 0.30141228279566817 0 0.0030968340097195768 0.29276702124610893 0 0.0095903170782337538 0.30973713230809952 0 0.016490072978248029 0.29109819656988939 0 0.0030968340097195768 0.29276702124610893 0 0.0095903170782337538 0.30973713230809952 0 -0.0063616811426247836 0.30141228279566817 0 0.0095903170782337538 0.30973713230809952 0 -0.0054404186780465059 0.26478821024882238 0 0.0044984839953912826 0.2499188924550132 0 0.010699502094894481 0.26414819879990648 0 0.0044984839953912826 0.2499188924550132 0 0.010699502094894481 0.26414819879990648 0 0.020913797705668521 0.25050317984115877 0 -0.0054404186780465059 0.26478821024882238 0 0.010699502094894481 0.26414819879990648 0 0.0052481500658994066 0.2792492100760936 0 0.010699502094894481 0.26414819879990648 0 0.0052481500658994066 0.2792492100760936 0 0.018482828013636439 0.27819950385533643 0 0.010699502094894481 0.26414819879990648 0 0.018482828013636439 0.27819950385533643 0 0.026053567963632718 0.26598798033280618 0 0.033760344406955307 0.28559549054532801 0 0.018482828013636439 0.27819950385533643 0 0.026053567963632718 0.26598798033280618 0 0.033760344406955307 0.28559549054532801 0 0.026053567963632718 0.26598798033280618 0 0.026053567963632718 0.26598798033280618 0 0.020913797705668521 0.25050317984115877 0 0.037167960439743061 0.25011599192568418 0 0.010699502094894481 0.26414819879990648 0 0.026053567963632718 0.26598798033280618 0 0.020913797705668521 0.25050317984115877 0 0.055651201629902773 0.24229758800037821 0 0.037167960439743061 0.25011599192568418 0 0.046890306092784363 0.26168627184368942 0 0.026053567963632718 0.26598798033280618 0 0.037167960439743061 0.25011599192568418 0 0.046890306092784363 0.26168627184368942 0 0.026053567963632718 0.26598798033280618 0 0.040314944494144307 0.27384164127167138 0 0.046890306092784363 0.26168627184368942 0 0.033760344406955307 0.28559549054532801 0 0.026053567963632718 0.26598798033280618 0 0.040314944494144307 0.27384164127167138 0 0.051094550461583017 0.28254289383948722 0 0.033760344406955307 0.28559549054532801 0 0.040314944494144307 0.27384164127167138 0 0.051094550461583017 0.28254289383948722 0 0.040314944494144307 0.27384164127167138 0 0.046890306092784363 0.26168627184368942 0 0.051094550461583017 0.28254289383948722 0 0.046890306092784363 0.26168627184368942 0 0.069628907922458003 0.26565186490735898 0 0.055651201629902773 0.24229758800037821 0 0.046890306092784363 0.26168627184368942 0 0.069628907922458003 0.26565186490735898 0 0.055651201629902773 0.24229758800037821 0 0.077778595372197307 0.25022734984993827 0 0.069628907922458003 0.26565186490735898 0 0.077778595372197307 0.25022734984993827 0 0.092633308588420199 0.2601396728988411 0 0.069628907922458003 0.26565186490735898 0 0.0950277132042463 0.24398024313979591 0 0.077778595372197307 0.25022734984993827 0 0.092633308588420199 0.2601396728988411 0 0.092633308588420199 0.2601396728988411 0 0.092510097250834741 0.27718499221718018 0 0.069628907922458003 0.26565186490735898 0 0.051094550461583017 0.28254289383948722 0 0.069628907922458003 0.26565186490735898 0 0.071412824629312949 0.28510439669907589 0 0.092510097250834741 0.27718499221718018 0 0.069628907922458003 0.26565186490735898 0 0.071412824629312949 0.28510439669907589 0 0.058897274461578247 0.29708695563338572 0 0.071412824629312949 0.28510439669907589 0 0.071562971753620239 0.30143279144436153 0 0.071412824629312949 0.28510439669907589 0 0.071562971753620239 0.30143279144436153 0 0.086631068230799274 0.30772496814811229 0 0.069590456304792228 0.31300182680675132 0 0.05894890461309691 0.31115169542615428 0 0.071562971753620239 0.30143279144436153 0 0.05894890461309691 0.31115169542615428 0 0.058897274461578247 0.29708695563338572 0 0.071562971753620239 0.30143279144436153 0 0.071562971753620239 0.30143279144436153 0 0.075886341126323101 0.30941281763715012 0 0.086631068230799274 0.30772496814811229 0 0.069590456304792228 0.31300182680675132 0 0.071562971753620239 0.30143279144436153 0 0.075886341126323101 0.30941281763715012 0 0.071412824629312949 0.28510439669907589 0 0.087947642253593791 0.29932482996523002 0 0.086631068230799274 0.30772496814811229 0 0.093329099775619664 0.31768099888958051 0 0.086631068230799274 0.30772496814811229 0 0.094873601674891422 0.30029731032750318 0 0.076258304942274674 0.31707225644046472 0 0.086631068230799274 0.30772496814811229 0 0.076258304942274674 0.31707225644046472 0 0.075886341126323101 0.30941281763715012 0 0.086631068230799274 0.30772496814811229 0 0.086631068230799274 0.30772496814811229 0 0.094873601674891422 0.30029731032750318 0 0.087947642253593791 0.29932482996523002 0 0.086631068230799274 0.30772496814811229 0 0.094873601674891422 0.30029731032750318 0 0.087947642253593791 0.29932482996523002 0 0.091699792613020997 0.29369009139238178 0 0.094873601674891422 0.30029731032750318 0 0.071412824629312949 0.28510439669907589 0 0.087947642253593791 0.29932482996523002 0 0.087954044999167341 0.2885754506168649 0 0.092510097250834741 0.27718499221718018 0 0.071412824629312949 0.28510439669907589 0 0.087954044999167341 0.2885754506168649 0 0.071412824629312949 0.28510439669907589 0 0.086631068230799274 0.30772496814811229 0 0.087947642253593791 0.29932482996523002 0 0.091699792613020997 0.29369009139238178 0 0.087954044999167341 0.2885754506168649 0 0.091699792613020997 0.29369009139238178 0 0.087954044999167341 0.2885754506168649 0 0.096598116755366406 0.28807546537919271 0 0.092510097250834741 0.27718499221718018 0 0.087954044999167341 0.2885754506168649 0 0.096598116755366406 0.28807546537919271 0 0.094873601674891422 0.30029731032750318 0 0.1143470683969663 0.28274903486418662 0 0.096598116755366406 0.28807546537919271 0 0.094873601674891422 0.30029731032750318 0 0.1143470683969663 0.28274903486418662 0 0.094873601674891422 0.30029731032750318 0 0.109654015061201 0.29691169069221701 0 0.1143470683969663 0.28274903486418662 0 0.092510097250834741 0.27718499221718018 0 0.096598116755366406 0.28807546537919271 0 0.1143470683969663 0.28274903486418662 0 0.091699792613020997 0.29369009139238178 0 0.096598116755366406 0.28807546537919271 0 0.094873601674891422 0.30029731032750318 0 0.093329099775619664 0.31768099888958051 0 0.094873601674891422 0.30029731032750318 0 0.10332121578201379 0.30846755409982118 0 0.093329099775619664 0.31768099888958051 0 0.094873601674891422 0.30029731032750318 0 0.10332121578201379 0.30846755409982118 0 0.1143872000984946 0.30756902748878429 0 0.109654015061201 0.29691169069221701 0 0.094873601674891422 0.30029731032750318 0 0.10332121578201379 0.30846755409982118 0 0.109654015061201 0.29691169069221701 0 0.1071648495448673 0.31832203498353162 0 0.10332121578201379 0.30846755409982118 0 0.1143872000984946 0.30756902748878429 0 0.1143872000984946 0.30756902748878429 0 0.109654015061201 0.29691169069221701 0 0.13282800837469441 0.29166508656960249 0 0.1143872000984946 0.30756902748878429 0 0.13282800837469441 0.29166508656960249 0 0.1260354903324625 0.32070675266293952 0 0.109654015061201 0.29691169069221701 0 0.1143470683969663 0.28274903486418662 0 0.13282800837469441 0.29166508656960249 0 0.1143470683969663 0.28274903486418662 0 0.13382053511904091 0.26520075940086962 0 0.1143470683969663 0.28274903486418662 0 0.1119351469000055 0.26767428119375791 0 0.13382053511904091 0.26520075940086962 0 0.1119351469000055 0.26767428119375791 0 0.12191468284983289 0.25817184287102152 0 0.13382053511904091 0.26520075940086962 0 0.1143491954972289 0.24297069234231419 0 0.1260522703917622 0.24917289410199869 0 0.12191468284983289 0.25817184287102152 0 0.1143491954972289 0.24297069234231419 0 0.12191468284983289 0.25817184287102152 0 0.1073509458567966 0.25475794498723559 0 0.1119351469000055 0.26767428119375791 0 0.12191468284983289 0.25817184287102152 0 0.1073509458567966 0.25475794498723559 0 0.092633308588420199 0.2601396728988411 0 0.1119351469000055 0.26767428119375791 0 0.1073509458567966 0.25475794498723559 0 0.0950277132042463 0.24398024313979591 0 0.092633308588420199 0.2601396728988411 0 0.1073509458567966 0.25475794498723559 0 0.092633308588420199 0.2601396728988411 0 0.092510097250834741 0.27718499221718018 0 0.1119351469000055 0.26767428119375791 0 0.092510097250834741 0.27718499221718018 0 0.1143470683969663 0.28274903486418662 0 0.1119351469000055 0.26767428119375791 0 0.14652535176491541 0.27794672152748712 0 0.1542014643858117 0.2635830651230851 0 0.14374664600556919 0.26106138492434261 0 0.14652535176491541 0.27794672152748712 0 0.14374664600556919 0.26106138492434261 0 0.13382053511904091 0.26520075940086962 0 0.14728902107697631 0.2491369024321074 0 0.15803123022978219 0.24620339524575799 0 0.1542014643858117 0.2635830651230851 0 0.15803123022978219 0.24620339524575799 0 0.1542014643858117 0.2635830651230851 0 0.14728902107697631 0.2491369024321074 0 0.14374664600556919 0.26106138492434261 0 0.13523916915601941 0.2544822561033695 0 0.14728902107697631 0.2491369024321074 0 0.1542014643858117 0.2635830651230851 0 0.14374664600556919 0.26106138492434261 0 0.14374664600556919 0.26106138492434261 0 0.13382053511904091 0.26520075940086962 0 0.13523916915601941 0.2544822561033695 0 0.1260522703917622 0.24917289410199869 0 0.12191468284983289 0.25817184287102152 0 0.13523916915601941 0.2544822561033695 0 0.12191468284983289 0.25817184287102152 0 0.13382053511904091 0.26520075940086962 0 0.13523916915601941 0.2544822561033695 0 0.1143470683969663 0.28274903486418662 0 0.13382053511904091 0.26520075940086962 0 0.13188024091390421 0.27939040059053638 0 0.14652535176491541 0.27794672152748712 0 0.13382053511904091 0.26520075940086962 0 0.13188024091390421 0.27939040059053638 0 0.1143470683969663 0.28274903486418662 0 0.13188024091390421 0.27939040059053638 0 0.13282800837469441 0.29166508656960249 0 0.14652535176491541 0.27794672152748712 0 0.13188024091390421 0.27939040059053638 0 0.13282800837469441 0.29166508656960249 0 0.13282800837469441 0.29166508656960249 0 0.1260354903324625 0.32070675266293952 0 0.13282800837469441 0.29166508656960249 0 0.14572602018205461 0.31140127293486158 0 0.1260354903324625 0.32070675266293952 0 0.13282800837469441 0.29166508656960249 0 0.14572602018205461 0.31140127293486158 0 0.14879121232190309 0.295857222944024 0 0.14572602018205461 0.31140127293486158 0 0.14879121232190309 0.295857222944024 0 0.1628346268686838 0.30568665298403852 0 0.14652535176491541 0.27794672152748712 0 0.13282800837469441 0.29166508656960249 0 0.14879121232190309 0.295857222944024 0 0.14652535176491541 0.27794672152748712 0 0.14879121232190309 0.295857222944024 0 0.16018819366419981 0.28979378618360918 0 0.16018819366419981 0.28979378618360918 0 0.1628346268686838 0.30568665298403852 0 0.17317195280081971 0.29203841790627311 0 0.14652535176491541 0.27794672152748712 0 0.16018819366419981 0.28979378618360918 0 0.16885356655630601 0.27663867876346693 0 0.16018819366419981 0.28979378618360918 0 0.17317195280081971 0.29203841790627311 0 0.16885356655630601 0.27663867876346693 0 0.14879121232190309 0.295857222944024 0 0.16018819366419981 0.28979378618360918 0 0.1628346268686838 0.30568665298403852 0 0.1628346268686838 0.30568665298403852 0 0.18609715372561519 0.30272308820475979 0 0.17102569745396981 0.32283259710270401 0 0.1628346268686838 0.30568665298403852 0 0.18609715372561519 0.30272308820475979 0 0.17317195280081971 0.29203841790627311 0 0.18609715372561519 0.30272308820475979 0 0.18051123974637009 0.28612122661748007 0 0.19103293876335209 0.28248268565081802 0 0.18609715372561519 0.30272308820475979 0 0.17317195280081971 0.29203841790627311 0 0.18051123974637009 0.28612122661748007 0 0.17317195280081971 0.29203841790627311 0 0.18051123974637009 0.28612122661748007 0 0.16885356655630601 0.27663867876346693 0 0.18051123974637009 0.28612122661748007 0 0.18340058688575719 0.27672326256208241 0 0.19103293876335209 0.28248268565081802 0 0.1773931561370761 0.26902969624746059 0 0.16885356655630601 0.27663867876346693 0 0.1719608591398771 0.25986583683604431 0 0.18340058688575719 0.27672326256208241 0 0.1773931561370761 0.26902969624746059 0 0.18331937220282651 0.26238638518533808 0 0.18340058688575719 0.27672326256208241 0 0.1773931561370761 0.26902969624746059 0 0.16885356655630601 0.27663867876346693 0 0.18051123974637009 0.28612122661748007 0 0.18340058688575719 0.27672326256208241 0 0.16885356655630601 0.27663867876346693 0 0.14652535176491541 0.27794672152748712 0 0.1542014643858117 0.2635830651230851 0 0.16885356655630601 0.27663867876346693 0 0.1542014643858117 0.2635830651230851 0 0.16885356655630601 0.27663867876346693 0 0.1719608591398771 0.25986583683604431 0 0.15803123022978219 0.24620339524575799 0 0.1542014643858117 0.2635830651230851 0 0.1719608591398771 0.25986583683604431 0 0.18610227379829311 0.24835016461093179 0 0.17164715311359099 0.2438985187785819 0 0.1719608591398771 0.25986583683604431 0 0.1773931561370761 0.26902969624746059 0 0.1719608591398771 0.25986583683604431 0 0.18331937220282651 0.26238638518533808 0 0.18610227379829311 0.24835016461093179 0 0.1719608591398771 0.25986583683604431 0 0.18331937220282651 0.26238638518533808 0 0.18610227379829311 0.24835016461093179 0 0.18331937220282651 0.26238638518533808 0 0.1972091934480418 0.25783155378399719 0 0.18610227379829311 0.24835016461093179 0 0.1972091934480418 0.25783155378399719 0 0.21498738515920759 0.27300785465968408 0 0.20116860999726069 0.28261357930681569 0 0.19103293876335209 0.28248268565081802 0 0.18340058688575719 0.27672326256208241 0 0.1972091934480418 0.25783155378399719 0 0.19307478854882409 0.27220800887706947 0 0.18340058688575719 0.27672326256208241 0 0.18331937220282651 0.26238638518533808 0 0.1972091934480418 0.25783155378399719 0 0.18340058688575719 0.27672326256208241 0 0.1972091934480418 0.25783155378399719 0 0.21498738515920759 0.27300785465968408 0 0.19103293876335209 0.28248268565081802 0 0.20065643509814571 0.27179453351138072 0 0.21498738515920759 0.27300785465968408 0 0.19103293876335209 0.28248268565081802 0 0.19307478854882409 0.27220800887706947 0 0.20065643509814571 0.27179453351138072 0 0.19103293876335209 0.28248268565081802 0 0.18340058688575719 0.27672326256208241 0 0.19307478854882409 0.27220800887706947 0 0.19103293876335209 0.28248268565081802 0 0.1972091934480418 0.25783155378399719 0 0.19307478854882409 0.27220800887706947 0 0.20065643509814571 0.27179453351138072 0 0.1972091934480418 0.25783155378399719 0 0.20065643509814571 0.27179453351138072 0 0.21498738515920759 0.27300785465968408 0 0.21498738515920759 0.27300785465968408 0 0.2191819287299504 0.27658851439718468 0 0.20116860999726069 0.28261357930681569 0 0.21498738515920759 0.27300785465968408 0 0.21667585833950839 0.25785980669864411 0 0.22362913946298599 0.26958973511134671 0 0.21498738515920759 0.27300785465968408 0 0.2191819287299504 0.27658851439718468 0 0.1972091934480418 0.25783155378399719 0 0.21498738515920759 0.27300785465968408 0 0.1972091934480418 0.25783155378399719 0 0.21498738515920759 0.27300785465968408 0 0.21667585833950839 0.25785980669864411 0 0.21418881867266551 0.23460153897709851 0 0.1972091934480418 0.25783155378399719 0 0.21667585833950839 0.25785980669864411 0 0.22362913946298599 0.26958973511134671 0 0.24407641410265299 0.26150211462375611 0 0.21667585833950839 0.25785980669864411 0 0.2333647549546472 0.25426835096109768 0 0.22362913946298599 0.26958973511134671 0 0.2333647549546472 0.25426835096109768 0 0.22362913946298599 0.26958973511134671 0 0.24407641410265299 0.26150211462375611 0 0.2333647549546472 0.25426835096109768 0 0.22362913946298599 0.26958973511134671 0 0.21498738515920759 0.27300785465968408 0 0.22362913946298599 0.26958973511134671 0 0.2191819287299504 0.27658851439718468 0 0.21498738515920759 0.27300785465968408 0 0.22362913946298599 0.26958973511134671 0 0.22362913946298599 0.26958973511134671 0 0.2191819287299504 0.27658851439718468 0 0.24118206058913139 0.2772001101541583 0 0.22362913946298599 0.26958973511134671 0 0.2191819287299504 0.27658851439718468 0 0.24118206058913139 0.2772001101541583 0 0.24407641410265299 0.26150211462375611 0 0.25182524268512912 0.27807423856998981 0 0.24118206058913139 0.2772001101541583 0 0.24407641410265299 0.26150211462375611 0 0.22362913946298599 0.26958973511134671 0 0.24118206058913139 0.2772001101541583 0 0.24407641410265299 0.26150211462375611 0 0.24720520840580751 0.2445325914618775 0 0.24407641410265299 0.26150211462375611 0 0.24720520840580751 0.2445325914618775 0 0.24407641410265299 0.26150211462375611 0 0.25178547191824352 0.25218307534180678 0 0.24720520840580751 0.2445325914618775 0 0.2333647549546472 0.25426835096109768 0 0.24407641410265299 0.26150211462375611 0 0.2350033574332803 0.31071130844803568 0 0.23828770707559979 0.29289810568455871 0 0.2350033574332803 0.31071130844803568 0 0.24586836705520429 0.30210056017726272 0 0.23828770707559979 0.29289810568455871 0 0.2350033574332803 0.31071130844803568 0 0.24586836705520429 0.30210056017726272 0 0.24752752116414251 0.30078564570671018 0 0.24586836705520429 0.30210056017726272 0 0.23828770707559979 0.29289810568455871 0 0.24752752116414251 0.30078564570671018 0 0.24586836705520429 0.30210056017726272 0 0.24752752116414251 0.30078564570671018 0 0.25182524268512912 0.27807423856998981 0 0.24752752116414251 0.30078564570671018 0 0.23828770707559979 0.29289810568455871 0 0.24752752116414251 0.30078564570671018 0 0.23828770707559979 0.29289810568455871 0 0.25182524268512912 0.27807423856998981 0 0.24118206058913139 0.2772001101541583 0 0.23828770707559979 0.29289810568455871 0 0.24118206058913139 0.2772001101541583 0 0.23828770707559979 0.29289810568455871 0 0.25182524268512912 0.27807423856998981 0 0.2191819287299504 0.27658851439718468 0 0.23828770707559979 0.29289810568455871 0 0.22349644428484489 0.29650581561597461 0 0.2191819287299504 0.27658851439718468 0 0.23828770707559979 0.29289810568455871 0 0.2191819287299504 0.27658851439718468 0 0.24118206058913139 0.2772001101541583 0 0.23828770707559979 0.29289810568455871 0 0.2350033574332803 0.31071130844803568 0 0.22349644428484489 0.29650581561597461 0 0.21448497653689641 0.30711415293162297 0 0.2350033574332803 0.31071130844803568 0 0.23828770707559979 0.29289810568455871 0 0.22349644428484489 0.29650581561597461 0 0.22349644428484489 0.29650581561597461 0 0.21448497653689641 0.30711415293162297 0 0.20717107436804061 0.29549054620083659 0 0.21448497653689641 0.30711415293162297 0 0.20717107436804061 0.29549054620083659 0 0.19918587386593531 0.30259509603037249 0 0.21448497653689641 0.30711415293162297 0 0.19918587386593531 0.30259509603037249 0 0.20262288037331769 0.3144552629764612 0 0.2191819287299504 0.27658851439718468 0 0.22349644428484489 0.29650581561597461 0 0.20717107436804061 0.29549054620083659 0 0.2191819287299504 0.27658851439718468 0 0.20717107436804061 0.29549054620083659 0 0.2191819287299504 0.27658851439718468 0 0.20717107436804061 0.29549054620083659 0 0.20116860999726069 0.28261357930681569 0 0.18609715372561519 0.30272308820475979 0 0.20116860999726069 0.28261357930681569 0 0.19103293876335209 0.28248268565081802 0 0.18609715372561519 0.30272308820475979 0 0.20116860999726069 0.28261357930681569 0 0.19918587386593531 0.30259509603037249 0 0.18609715372561519 0.30272308820475979 0 0.20116860999726069 0.28261357930681569 0 0.20717107436804061 0.29549054620083659 0 0.20116860999726069 0.28261357930681569 0 0.19918587386593531 0.30259509603037249 0 0.18609715372561519 0.30272308820475979 0 0.19918587386593531 0.30259509603037249 0 0.20262288037331769 0.3144552629764612 0 0.18609715372561519 0.30272308820475979 0 0.18936113151915279 0.32239239871448172 0 0.20262288037331769 0.3144552629764612 0 0.18936113151915279 0.32239239871448172 0 0.20262288037331769 0.3144552629764612 0 0.206055203634468 0.33365332819210802 0 0.20049766314842959 0.3380577957255203 0 0.206055203634468 0.33365332819210802 0 0.18100472240839341 0.33829771709637457 0 0.206055203634468 0.33365332819210802 0 0.18100472240839341 0.33829771709637457 0 0.20049766314842959 0.3380577957255203 0 0.1909162564440359 0.3515887178475896 0 0.18100472240839341 0.33829771709637457 0 0.18936113151915279 0.32239239871448172 0 0.206055203634468 0.33365332819210802 0 0.18100472240839341 0.33829771709637457 0 0.206055203634468 0.33365332819210802 0 0.23164823673115831 0.32890834952809839 0 0.21223124854017431 0.34527057287772722 0 0.20049766314842959 0.3380577957255203 0 0.206055203634468 0.33365332819210802 0 0.21223124854017431 0.34527057287772722 0 0.20049766314842959 0.3380577957255203 0 0.206055203634468 0.33365332819210802 0 0.20262288037331769 0.3144552629764612 0 0.206055203634468 0.33365332819210802 0 0.22052928053387569 0.32218231832007382 0 0.21448497653689641 0.30711415293162297 0 0.20262288037331769 0.3144552629764612 0 0.22052928053387569 0.32218231832007382 0 0.206055203634468 0.33365332819210802 0 0.22052928053387569 0.32218231832007382 0 0.2350033574332803 0.31071130844803568 0 0.21448497653689641 0.30711415293162297 0 0.22052928053387569 0.32218231832007382 0 0.2350033574332803 0.31071130844803568 0 0.23164823673115831 0.32890834952809839 0 0.2350033574332803 0.31071130844803568 0 0.22052928053387569 0.32218231832007382 0 0.23164823673115831 0.32890834952809839 0 0.2350033574332803 0.31071130844803568 0 0.22052928053387569 0.32218231832007382 0 0.23164823673115831 0.32890834952809839 0 0.2268624726211162 0.35486471707543482 0 0.21223124854017431 0.34527057287772722 0 0.23164823673115831 0.32890834952809839 0 0.24397807951173839 0.34730970729394223 0 0.2268624726211162 0.35486471707543482 0 0.206055203634468 0.33365332819210802 0 0.22052928053387569 0.32218231832007382 0 0.23164823673115831 0.32890834952809839 0 0.23164823673115831 0.32890834952809839 0 0.2268624726211162 0.35486471707543482 0 0.206055203634468 0.33365332819210802 0 0.23164823673115831 0.32890834952809839 0 0.23164823673115831 0.32890834952809839 0 0.2420165560165379 0.33347440639451631 0 0.23914036835322569 0.32923711138799738 0 0.23164823673115831 0.32890834952809839 0 0.23914036835322569 0.32923711138799738 0 0.2395867880526977 0.3274365327058657 0 0.2420165560165379 0.33347440639451631 0 0.2395867880526977 0.3274365327058657 0 0.25572930743386868 0.33448033105667241 0 0.23164823673115831 0.32890834952809839 0 0.2395867880526977 0.3274365327058657 0 0.23164823673115831 0.32890834952809839 0 0.2420165560165379 0.33347440639451631 0 0.24397807951173839 0.34730970729394223 0 0.2420165560165379 0.33347440639451631 0 0.23914036835322569 0.32923711138799738 0 0.2395867880526977 0.3274365327058657 0 0.23914036835322569 0.32923711138799738 0 0.2395867880526977 0.3274365327058657 0 0.2420165560165379 0.33347440639451631 0 0.24397807951173839 0.34730970729394223 0 0.25572930743386868 0.33448033105667241 0 0.24586836705520429 0.30210056017726272 0 0.2395867880526977 0.3274365327058657 0 0.24586836705520429 0.30210056017726272 0 0.2395867880526977 0.3274365327058657 0 0.25730519482475889 0.3091323279648921 0 0.2350033574332803 0.31071130844803568 0 0.24586836705520429 0.30210056017726272 0 0.2395867880526977 0.3274365327058657 0 0.2350033574332803 0.31071130844803568 0 0.23164823673115831 0.32890834952809839 0 0.2395867880526977 0.3274365327058657 0 0.24635607666156281 0.37217441287281577 0 0.24397807951173839 0.34730970729394223 0 0.2268624726211162 0.35486471707543482 0 0.2268624726211162 0.35486471707543482 0 0.222076708511076 0.38082108462277148 0 0.24635607666156281 0.37217441287281577 0 0.2268624726211162 0.35486471707543482 0 0.222076708511076 0.38082108462277148 0 0.2268624726211162 0.35486471707543482 0 0.2052384846920694 0.36082783231533938 0 0.222076708511076 0.38082108462277148 0 0.2052384846920694 0.36082783231533938 0 0.1955398718396881 0.37697048418314971 0 0.222076708511076 0.38082108462277148 0 0.2268624726211162 0.35486471707543482 0 0.2052384846920694 0.36082783231533938 0 0.21223124854017431 0.34527057287772722 0 0.2052384846920694 0.36082783231533938 0 0.21223124854017431 0.34527057287772722 0 0.20174633426488139 0.34909980959664572 0 0.20049766314842959 0.3380577957255203 0 0.21223124854017431 0.34527057287772722 0 0.20174633426488139 0.34909980959664572 0 0.2052384846920694 0.36082783231533938 0 0.1909162564440359 0.3515887178475896 0 0.18747897345843639 0.3650243268750325 0 0.20049766314842959 0.3380577957255203 0 0.20174633426488139 0.34909980959664572 0 0.1909162564440359 0.3515887178475896 0 0.2052384846920694 0.36082783231533938 0 0.20174633426488139 0.34909980959664572 0 0.1909162564440359 0.3515887178475896 0 0.2052384846920694 0.36082783231533938 0 0.18747897345843639 0.3650243268750325 0 0.1955398718396881 0.37697048418314971 0 0.18747897345843639 0.3650243268750325 0 0.17757331717509239 0.3757121253941218 0 0.1955398718396881 0.37697048418314971 0 0.18747897345843639 0.3650243268750325 0 0.17202749546867971 0.35672262605814981 0 0.17757331717509239 0.3757121253941218 0 0.16460727500666439 0.36988896839787838 0 0.17202749546867971 0.35672262605814981 0 0.17757331717509239 0.3757121253941218 0 0.16460727500666439 0.36988896839787838 0 0.15643736135027619 0.36023370663634741 0 0.1526381892006381 0.37744018418386521 0 0.16460727500666439 0.36988896839787838 0 0.15643736135027619 0.36023370663634741 0 0.17202749546867971 0.35672262605814981 0 0.17202749546867971 0.35672262605814981 0 0.18100472240839341 0.33829771709637457 0 0.15595424118231949 0.34294210600064462 0 0.15643736135027619 0.36023370663634741 0 0.17202749546867971 0.35672262605814981 0 0.15595424118231949 0.34294210600064462 0 0.1909162564440359 0.3515887178475896 0 0.17202749546867971 0.35672262605814981 0 0.18100472240839341 0.33829771709637457 0 0.1909162564440359 0.3515887178475896 0 0.18747897345843639 0.3650243268750325 0 0.17202749546867971 0.35672262605814981 0 0.18609715372561519 0.30272308820475979 0 0.18936113151915279 0.32239239871448172 0 0.17102569745396981 0.32283259710270401 0 0.18936113151915279 0.32239239871448172 0 0.18100472240839341 0.33829771709637457 0 0.17102569745396981 0.32283259710270401 0 0.18609715372561519 0.30272308820475979 0 0.17102569745396981 0.32283259710270401 0 0.1628346268686838 0.30568665298403852 0 0.17102569745396981 0.32283259710270401 0 0.15599730057691941 0.32237889709759598 0 0.18100472240839341 0.33829771709637457 0 0.15595424118231949 0.34294210600064462 0 0.17102569745396981 0.32283259710270401 0 0.15595424118231949 0.34294210600064462 0 0.17102569745396981 0.32283259710270401 0 0.15595424118231949 0.34294210600064462 0 0.15599730057691941 0.32237889709759598 0 0.18100472240839341 0.33829771709637457 0 0.17102569745396981 0.32283259710270401 0 0.15595424118231949 0.34294210600064462 0 0.15595424118231949 0.34294210600064462 0 0.1444459171975703 0.32903185646573568 0 0.13759860673627539 0.34634526237845992 0 0.15595424118231949 0.34294210600064462 0 0.1444459171975703 0.32903185646573568 0 0.15599730057691941 0.32237889709759598 0 0.14572602018205461 0.31140127293486158 0 0.1628346268686838 0.30568665298403852 0 0.15599730057691941 0.32237889709759598 0 0.14572602018205461 0.31140127293486158 0 0.1444459171975703 0.32903185646573568 0 0.15599730057691941 0.32237889709759598 0 0.14572602018205461 0.31140127293486158 0 0.1444459171975703 0.32903185646573568 0 0.1260354903324625 0.32070675266293952 0 0.1444459171975703 0.32903185646573568 0 0.1260354903324625 0.32070675266293952 0 0.13759860673627539 0.34634526237845992 0 0.11924297229023161 0.34974841875627671 0 0.1260354903324625 0.32070675266293952 0 0.13759860673627539 0.34634526237845992 0 0.11924297229023161 0.34974841875627671 0 0.13759860673627539 0.34634526237845992 0 0.13016095209214229 0.35692778468816511 0 0.11924297229023161 0.34974841875627671 0 0.13759860673627539 0.34634526237845992 0 0.13759860673627539 0.34634526237845992 0 0.13016095209214229 0.35692778468816511 0 0.14393136044574481 0.35898396836573521 0 0.14426192284115341 0.36982244382611179 0 0.14393136044574481 0.35898396836573521 0 0.131908479709166 0.37502583073082257 0 0.13016095209214229 0.35692778468816511 0 0.14393136044574481 0.35898396836573521 0 0.131908479709166 0.37502583073082257 0 0.118123341279294 0.35453544320953168 0 0.131908479709166 0.37502583073082257 0 0.14393136044574481 0.35898396836573521 0 0.131908479709166 0.37502583073082257 0 0.118123341279294 0.35453544320953168 0 0.13016095209214229 0.35692778468816511 0 0.131908479709166 0.37502583073082257 0 0.14426192284115341 0.36982244382611179 0 0.1526381892006381 0.37744018418386521 0 0.131908479709166 0.37502583073082257 0 0.15643736135027619 0.36023370663634741 0 0.14426192284115341 0.36982244382611179 0 0.14393136044574481 0.35898396836573521 0 0.15643736135027619 0.36023370663634741 0 0.14426192284115341 0.36982244382611179 0 0.1526381892006381 0.37744018418386521 0 0.15595424118231949 0.34294210600064462 0 0.14393136044574481 0.35898396836573521 0 0.15595424118231949 0.34294210600064462 0 0.13759860673627539 0.34634526237845992 0 0.15595424118231949 0.34294210600064462 0 0.13759860673627539 0.34634526237845992 0 0.14393136044574481 0.35898396836573521 0 0.15643736135027619 0.36023370663634741 0 0.15595424118231949 0.34294210600064462 0 0.14393136044574481 0.35898396836573521 0 0.14769715729273381 0.3984943017789499 0 0.15351540810756351 0.38910151660439118 0 0.16330177840987001 0.40591113901967352 0 0.14769715729273381 0.3984943017789499 0 0.14623167416186761 0.40932536796725277 0 0.16330177840987001 0.40591113901967352 0 0.14769715729273381 0.3984943017789499 0 0.13541230484927891 0.40280045759731048 0 0.14623167416186761 0.40932536796725277 0 0.15351540810756351 0.38910151660439118 0 0.1526381892006381 0.37744018418386521 0 0.131908479709166 0.37502583073082257 0 0.14769715729273381 0.3984943017789499 0 0.15351540810756351 0.38910151660439118 0 0.131908479709166 0.37502583073082257 0 0.14769715729273381 0.3984943017789499 0 0.13448180759946721 0.38769354515564319 0 0.131908479709166 0.37502583073082257 0 0.14769715729273381 0.3984943017789499 0 0.131908479709166 0.37502583073082257 0 0.13448180759946721 0.38769354515564319 0 0.131908479709166 0.37502583073082257 0 0.12764429901342969 0.38071543219320148 0 0.12215821492722891 0.37337772218537979 0 0.131908479709166 0.37502583073082257 0 0.12764429901342969 0.38071543219320148 0 0.131908479709166 0.37502583073082257 0 0.12764429901342969 0.38071543219320148 0 0.13448180759946721 0.38769354515564319 0 0.12585432187410789 0.3878481036350282 0 0.1282773725517653 0.39488067271661809 0 0.13448180759946721 0.38769354515564319 0 0.12764429901342969 0.38071543219320148 0 0.12585432187410789 0.3878481036350282 0 0.1197541858591491 0.4086550197854979 0 0.1282773725517653 0.39488067271661809 0 0.13541230484927891 0.40280045759731048 0 0.1197541858591491 0.4086550197854979 0 0.13541230484927891 0.40280045759731048 0 0.14769715729273381 0.3984943017789499 0 0.13448180759946721 0.38769354515564319 0 0.13646716057331129 0.39596724431213037 0 0.1282773725517653 0.39488067271661809 0 0.13646716057331129 0.39596724431213037 0 0.13541230484927891 0.40280045759731048 0 0.13448180759946721 0.38769354515564319 0 0.1282773725517653 0.39488067271661809 0 0.13646716057331129 0.39596724431213037 0 0.14769715729273381 0.3984943017789499 0 0.13646716057331129 0.39596724431213037 0 0.13541230484927891 0.40280045759731048 0 0.1197541858591491 0.4086550197854979 0 0.13541230484927891 0.40280045759731048 0 0.133234518322108 0.41870066565176162 0 0.13541230484927891 0.40280045759731048 0 0.133234518322108 0.41870066565176162 0 0.14623167416186761 0.40932536796725277 0 0.1167198789000736 0.42758498376004328 0 0.133234518322108 0.41870066565176162 0 0.1329192962952509 0.43711670997100049 0 0.133234518322108 0.41870066565176162 0 0.1329192962952509 0.43711670997100049 0 0.14525227034609259 0.42817098046381541 0 0.1329192962952509 0.43711670997100049 0 0.14525227034609259 0.42817098046381541 0 0.14891040466548211 0.44371813275362182 0 0.14525227034609259 0.42817098046381541 0 0.14623167416186761 0.40932536796725277 0 0.16496545828575429 0.43199402597544012 0 0.14525227034609259 0.42817098046381541 0 0.16496545828575429 0.43199402597544012 0 0.14891040466548211 0.44371813275362182 0 0.14623167416186761 0.40932536796725277 0 0.16496545828575429 0.43199402597544012 0 0.133234518322108 0.41870066565176162 0 0.14525227034609259 0.42817098046381541 0 0.14623167416186761 0.40932536796725277 0 0.16496545828575429 0.43199402597544012 0 0.18168652988558251 0.41966686153161731 0 0.16330177840987001 0.40591113901967352 0 0.14623167416186761 0.40932536796725277 0 0.16496545828575429 0.43199402597544012 0 0.16330177840987001 0.40591113901967352 0 0.16496545828575429 0.43199402597544012 0 0.18168652988558251 0.41966686153161731 0 0.19118493638253439 0.43663238825985601 0 0.18168652988558251 0.41966686153161731 0 0.18152624011781321 0.40247460181927941 0 0.16330177840987001 0.40591113901967352 0 0.18152624011781321 0.40247460181927941 0 0.16592889406379491 0.38942117914898611 0 0.18397094062688901 0.38790376056428849 0 0.18152624011781321 0.40247460181927941 0 0.16330177840987001 0.40591113901967352 0 0.16592889406379491 0.38942117914898611 0 0.15351540810756351 0.38910151660439118 0 0.16330177840987001 0.40591113901967352 0 0.16592889406379491 0.38942117914898611 0 0.16460727500666439 0.36988896839787838 0 0.16592889406379491 0.38942117914898611 0 0.17757331717509239 0.3757121253941218 0 0.16460727500666439 0.36988896839787838 0 0.1526381892006381 0.37744018418386521 0 0.16592889406379491 0.38942117914898611 0 0.15351540810756351 0.38910151660439118 0 0.1526381892006381 0.37744018418386521 0 0.16592889406379491 0.38942117914898611 0 0.17757331717509239 0.3757121253941218 0 0.18397094062688901 0.38790376056428849 0 0.1955398718396881 0.37697048418314971 0 0.16592889406379491 0.38942117914898611 0 0.17757331717509239 0.3757121253941218 0 0.18397094062688901 0.38790376056428849 0 0.18397094062688901 0.38790376056428849 0 0.1955398718396881 0.37697048418314971 0 0.1997875508127393 0.39565609230711618 0 0.18152624011781321 0.40247460181927941 0 0.18397094062688901 0.38790376056428849 0 0.1997875508127393 0.39565609230711618 0 0.18152624011781321 0.40247460181927941 0 0.1997875508127393 0.39565609230711618 0 0.19996101885283549 0.41700158468720527 0 0.1997875508127393 0.39565609230711618 0 0.222076708511076 0.38082108462277148 0 0.2172909444010358 0.40677745217010819 0 0.1955398718396881 0.37697048418314971 0 0.1997875508127393 0.39565609230711618 0 0.222076708511076 0.38082108462277148 0 0.222076708511076 0.38082108462277148 0 0.2172909444010358 0.40677745217010819 0 0.222076708511076 0.38082108462277148 0 0.24085069762851249 0.4010777219639729 0 0.2172909444010358 0.40677745217010819 0 0.24635607666156281 0.37217441287281577 0 0.222076708511076 0.38082108462277148 0 0.24085069762851249 0.4010777219639729 0 0.2375771601173077 0.43047115221667598 0 0.25685277097048931 0.41821490084631419 0 0.2375771601173077 0.43047115221667598 0 0.25466539094448221 0.44443129666892311 0 0.25685277097048931 0.41821490084631419 0 0.24085069762851249 0.4010777219639729 0 0.2375771601173077 0.43047115221667598 0 0.25685277097048931 0.41821490084631419 0 0.24085069762851249 0.4010777219639729 0 0.22455543018283389 0.42193093315814412 0 0.2172909444010358 0.40677745217010819 0 0.24085069762851249 0.4010777219639729 0 0.2375771601173077 0.43047115221667598 0 0.22455543018283389 0.42193093315814412 0 0.2375771601173077 0.43047115221667598 0 0.21830154926412609 0.44272740358703772 0 0.2375771601173077 0.43047115221667598 0 0.22455543018283389 0.42193093315814412 0 0.21830154926412609 0.44272740358703772 0 0.2125051802909956 0.43273381971744468 0 0.19996101885283549 0.41700158468720527 0 0.2020835081600425 0.43363396153103512 0 0.22455543018283389 0.42193093315814412 0 0.2125051802909956 0.43273381971744468 0 0.21830154926412609 0.44272740358703772 0 0.2125051802909956 0.43273381971744468 0 0.2020835081600425 0.43363396153103512 0 0.20481780799236629 0.44112555453350172 0 0.2125051802909956 0.43273381971744468 0 0.2172909444010358 0.40677745217010819 0 0.19996101885283549 0.41700158468720527 0 0.1997875508127393 0.39565609230711618 0 0.2172909444010358 0.40677745217010819 0 0.19996101885283549 0.41700158468720527 0 0.22455543018283389 0.42193093315814412 0 0.2125051802909956 0.43273381971744468 0 0.2172909444010358 0.40677745217010819 0 0.2125051802909956 0.43273381971744468 0 0.2172909444010358 0.40677745217010819 0 0.18168652988558251 0.41966686153161731 0 0.18152624011781321 0.40247460181927941 0 0.19996101885283549 0.41700158468720527 0 0.19996101885283549 0.41700158468720527 0 0.2020835081600425 0.43363396153103512 0 0.19118493638253439 0.43663238825985601 0 0.18168652988558251 0.41966686153161731 0 0.19996101885283549 0.41700158468720527 0 0.19118493638253439 0.43663238825985601 0 0.2020835081600425 0.43363396153103512 0 0.19118493638253439 0.43663238825985601 0 0.20481780799236629 0.44112555453350172 0 0.19118493638253439 0.43663238825985601 0 0.19902593841094449 0.45498365495739962 0 0.20481780799236629 0.44112555453350172 0 0.19118493638253439 0.43663238825985601 0 0.19902593841094449 0.45498365495739962 0 0.18369924240964089 0.4546626839836273 0 0.19902593841094449 0.45498365495739962 0 0.20243302653352749 0.4773313419918146 0 0.18369924240964089 0.4546626839836273 0 0.20243302653352749 0.4773313419918146 0 0.18369924240964089 0.4546626839836273 0 0.19902593841094449 0.45498365495739962 0 0.21595017025224 0.46031501356607218 0 0.20243302653352749 0.4773313419918146 0 0.19902593841094449 0.45498365495739962 0 0.20481780799236629 0.44112555453350172 0 0.21830154926412609 0.44272740358703772 0 0.19902593841094449 0.45498365495739962 0 0.21830154926412609 0.44272740358703772 0 0.19902593841094449 0.45498365495739962 0 0.21595017025224 0.46031501356607218 0 0.21830154926412609 0.44272740358703772 0 0.2125051802909956 0.43273381971744468 0 0.20481780799236629 0.44112555453350172 0 0.21830154926412609 0.44272740358703772 0 0.2375771601173077 0.43047115221667598 0 0.21830154926412609 0.44272740358703772 0 0.23671341172788229 0.45039838367583018 0 0.21595017025224 0.46031501356607218 0 0.21830154926412609 0.44272740358703772 0 0.23671341172788229 0.45039838367583018 0 0.21595017025224 0.46031501356607218 0 0.23671341172788229 0.45039838367583018 0 0.23383097351592341 0.46928367035403562 0 0.23671341172788229 0.45039838367583018 0 0.23383097351592341 0.46928367035403562 0 0.25787763689716658 0.46253917154794388 0 0.23671341172788229 0.45039838367583018 0 0.25466539094448221 0.44443129666892311 0 0.25787763689716658 0.46253917154794388 0 0.2375771601173077 0.43047115221667598 0 0.23671341172788229 0.45039838367583018 0 0.25466539094448221 0.44443129666892311 0 0.23493214902208689 0.48633810635594471 0 0.2484342142573043 0.5 0 0.25402636056610001 0.48234364425746767 0 0.23493214902208689 0.48633810635594471 0 0.2484342142573043 0.5 0 0.2211668106574147 0.50000000000000133 0 0.23383097351592341 0.46928367035403562 0 0.25402636056610001 0.48234364425746767 0 0.25787763689716658 0.46253917154794388 0 0.23493214902208689 0.48633810635594471 0 0.23383097351592341 0.46928367035403562 0 0.25402636056610001 0.48234364425746767 0 0.23493214902208689 0.48633810635594471 0 0.23383097351592341 0.46928367035403562 0 0.22125714964327969 0.47878177106399578 0 0.21595017025224 0.46031501356607218 0 0.23383097351592341 0.46928367035403562 0 0.22125714964327969 0.47878177106399578 0 0.23493214902208689 0.48633810635594471 0 0.22125714964327969 0.47878177106399578 0 0.2211668106574147 0.50000000000000133 0 0.2211668106574147 0.50000000000000133 0 0.20243302653352749 0.4773313419918146 0 0.2211668106574147 0.50000000000000133 0 0.20243302653352749 0.4773313419918146 0 0.1912334876074496 0.5 0 0.22125714964327969 0.47878177106399578 0 0.2211668106574147 0.50000000000000133 0 0.20243302653352749 0.4773313419918146 0 0.21595017025224 0.46031501356607218 0 0.22125714964327969 0.47878177106399578 0 0.20243302653352749 0.4773313419918146 0 0.20243302653352749 0.4773313419918146 0 0.1779480608477613 0.47746524456902328 0 0.18369924240964089 0.4546626839836273 0 0.20243302653352749 0.4773313419918146 0 0.1912334876074496 0.5 0 0.1779480608477613 0.47746524456902328 0 0.1912334876074496 0.5 0 0.1613001645574845 0.5 0 0.1779480608477613 0.47746524456902328 0 0.1613001645574845 0.5 0 0.1779480608477613 0.47746524456902328 0 0.1568154519865502 0.46813334487991498 0 0.1779480608477613 0.47746524456902328 0 0.1568154519865502 0.46813334487991498 0 0.1711050653770953 0.46346970476678351 0 0.18369924240964089 0.4546626839836273 0 0.1641944236807171 0.45170651876736823 0 0.1711050653770953 0.46346970476678351 0 0.1779480608477613 0.47746524456902328 0 0.18369924240964089 0.4546626839836273 0 0.1711050653770953 0.46346970476678351 0 0.16496545828575429 0.43199402597544012 0 0.18369924240964089 0.4546626839836273 0 0.16496545828575429 0.43199402597544012 0 0.19118493638253439 0.43663238825985601 0 0.18369924240964089 0.4546626839836273 0 0.16496545828575429 0.43199402597544012 0 0.18369924240964089 0.4546626839836273 0 0.1641944236807171 0.45170651876736823 0 0.16496545828575429 0.43199402597544012 0 0.1641944236807171 0.45170651876736823 0 0.14891040466548211 0.44371813275362182 0 0.1641944236807171 0.45170651876736823 0 0.1568154519865502 0.46813334487991498 0 0.14891040466548211 0.44371813275362182 0 0.1641944236807171 0.45170651876736823 0 0.1568154519865502 0.46813334487991498 0 0.1711050653770953 0.46346970476678351 0 0.1568154519865502 0.46813334487991498 0 0.14891040466548211 0.44371813275362182 0 0.13547954841418841 0.45740842584297042 0 0.1568154519865502 0.46813334487991498 0 0.13547954841418841 0.45740842584297042 0 0.13776243328419971 0.47954812361439098 0 0.1146962649002578 0.44824305247100799 0 0.1329192962952509 0.43711670997100049 0 0.13547954841418841 0.45740842584297042 0 0.1329192962952509 0.43711670997100049 0 0.14891040466548211 0.44371813275362182 0 0.13547954841418841 0.45740842584297042 0 0.12177343935339011 0.46769119136788578 0 0.13547954841418841 0.45740842584297042 0 0.13776243328419971 0.47954812361439098 0 0.1186224487051766 0.48436046462258192 0 0.12177343935339011 0.46769119136788578 0 0.13776243328419971 0.47954812361439098 0 0.1613001645574845 0.5 0 0.1568154519865502 0.46813334487991498 0 0.13776243328419971 0.47954812361439098 0 0.1186224487051766 0.48436046462258192 0 0.13776243328419971 0.47954812361439098 0 0.13136684150751951 0.5 0 0.1613001645574845 0.5 0 0.13776243328419971 0.47954812361439098 0 0.13136684150751951 0.5 0 0.34761672306218488 0.4830911110324605 0 0.36734929289761548 0.46389375133865951 0 0.34761672306218488 0.4830911110324605 0 0.36734929289761548 0.46389375133865951 0 0.36172358907413482 0.46345106095636279 0 0.34761672306218488 0.4830911110324605 0 0.34676236978087682 0.5 0 0.36328831450478022 0.49999999999999789 0 0.34761672306218488 0.4830911110324605 0 0.36328831450478022 0.49999999999999789 0 0.36692213163391052 0.48039887470311787 0 0.34761672306218488 0.4830911110324605 0 0.36328831450478022 0.49999999999999789 0 0.36328831450478022 0.49999999999999789 0 0.36692213163391052 0.48039887470311787 0 0.37912745472777248 0.4839790046718056 0 0.36692213163391052 0.48039887470311787 0 0.37774356081674049 0.47088222594167639 0 0.37912745472777248 0.4839790046718056 0 0.36692213163391052 0.48039887470311787 0 0.36734929289761548 0.46389375133865951 0 0.37774356081674049 0.47088222594167639 0 0.34761672306218488 0.4830911110324605 0 0.36692213163391052 0.48039887470311787 0 0.36734929289761548 0.46389375133865951 0 0.36734929289761548 0.46389375133865951 0 0.37956017847766738 0.46020704583401723 0 0.37774356081674049 0.47088222594167639 0 0.36734929289761548 0.46389375133865951 0 0.36172358907413482 0.46345106095636279 0 0.3713559959980865 0.44834239135753878 0 0.36299546527668758 0.43939150325672233 0 0.3713559959980865 0.44834239135753878 0 0.37795693461410862 0.43248932227343789 0 0.36172358907413482 0.46345106095636279 0 0.36299546527668758 0.43939150325672233 0 0.3713559959980865 0.44834239135753878 0 0.36172358907413482 0.46345106095636279 0 0.36299546527668758 0.43939150325672233 0 0.36299546527668758 0.43939150325672233 0 0.34714373858560599 0.45227158897183961 0 0.34995959969063989 0.42785729135340028 0 0.36172358907413482 0.46345106095636279 0 0.36299546527668758 0.43939150325672233 0 0.34714373858560599 0.45227158897183961 0 0.34761672306218488 0.4830911110324605 0 0.36172358907413482 0.46345106095636279 0 0.34714373858560599 0.45227158897183961 0 0.34761672306218488 0.4830911110324605 0 0.34714373858560599 0.45227158897183961 0 0.32814042100151308 0.46207712338172441 0 0.34714373858560599 0.45227158897183961 0 0.32814042100151308 0.46207712338172441 0 0.33021661370495009 0.43886292261244492 0 0.34714373858560599 0.45227158897183961 0 0.33021661370495009 0.43886292261244492 0 0.34995959969063989 0.42785729135340028 0 0.33021661370495009 0.43886292261244492 0 0.30866411894084111 0.4410631357309881 0 0.31328110608838128 0.43608382350870561 0 0.32814042100151308 0.46207712338172441 0 0.30866411894084111 0.4410631357309881 0 0.32814042100151308 0.46207712338172441 0 0.30489301434369842 0.45522316212572678 0 0.30866411894084111 0.4410631357309881 0 0.32814042100151308 0.46207712338172441 0 0.33021661370495009 0.43886292261244492 0 0.30866411894084111 0.4410631357309881 0 0.32814042100151308 0.46207712338172441 0 0.32247633377880858 0.48161303996820742 0 0.30039280328538281 0.46916861578679131 0 0.34761672306218488 0.4830911110324605 0 0.32814042100151308 0.46207712338172441 0 0.34761672306218488 0.4830911110324605 0 0.32814042100151308 0.46207712338172441 0 0.32247633377880858 0.48161303996820742 0 0.34761672306218488 0.4830911110324605 0 0.32247633377880858 0.48161303996820742 0 0.33023642505697332 0.49999999999999978 0 0.34761672306218488 0.4830911110324605 0 0.34676236978087682 0.5 0 0.33023642505697332 0.49999999999999978 0 0.34761672306218488 0.4830911110324605 0 0.33023642505697332 0.49999999999999978 0 0.33023642505697332 0.49999999999999978 0 0.30599529648798912 0.49372834964006113 0 0.3029690214570836 0.5 0 0.32247633377880858 0.48161303996820742 0 0.33023642505697332 0.49999999999999978 0 0.30599529648798912 0.49372834964006113 0 0.30599529648798912 0.49372834964006113 0 0.3029690214570836 0.5 0 0.29209353853987369 0.4876314319323245 0 0.30599529648798912 0.49372834964006113 0 0.30039280328538281 0.46916861578679131 0 0.32247633377880858 0.48161303996820742 0 0.30599529648798912 0.49372834964006113 0 0.30039280328538281 0.46916861578679131 0 0.30599529648798912 0.49372834964006113 0 0.30039280328538281 0.46916861578679131 0 0.29209353853987369 0.4876314319323245 0 0.30039280328538281 0.46916861578679131 0 0.29209353853987369 0.4876314319323245 0 0.27540895361171902 0.47526019423477051 0 0.3029690214570836 0.5 0 0.29209353853987369 0.4876314319323245 0 0.27570161785719388 0.5 0 0.27570161785719388 0.5 0 0.27540895361171902 0.47526019423477051 0 0.25402636056610001 0.48234364425746767 0 0.29209353853987369 0.4876314319323245 0 0.27570161785719388 0.5 0 0.27540895361171902 0.47526019423477051 0 0.27540895361171902 0.47526019423477051 0 0.25402636056610001 0.48234364425746767 0 0.25787763689716658 0.46253917154794388 0 0.2484342142573043 0.5 0 0.27570161785719388 0.5 0 0.25402636056610001 0.48234364425746767 0 0.25466539094448221 0.44443129666892311 0 0.25787763689716658 0.46253917154794388 0 0.27839047784451698 0.45552684248219422 0 0.27540895361171902 0.47526019423477051 0 0.25787763689716658 0.46253917154794388 0 0.27839047784451698 0.45552684248219422 0 0.27839047784451698 0.45552684248219422 0 0.28260318545764179 0.44347793358813381 0 0.27201318508830408 0.43688585277974062 0 0.25466539094448221 0.44443129666892311 0 0.27839047784451698 0.45552684248219422 0 0.27201318508830408 0.43688585277974062 0 0.28260318545764179 0.44347793358813381 0 0.28420855514250482 0.4344115089902687 0 0.27201318508830408 0.43688585277974062 0 0.28260318545764179 0.44347793358813381 0 0.2947903100827764 0.44460888193352138 0 0.28420855514250482 0.4344115089902687 0 0.27839047784451698 0.45552684248219422 0 0.28260318545764179 0.44347793358813381 0 0.2947903100827764 0.44460888193352138 0 0.30039280328538281 0.46916861578679131 0 0.27540895361171902 0.47526019423477051 0 0.27839047784451698 0.45552684248219422 0 0.30039280328538281 0.46916861578679131 0 0.27839047784451698 0.45552684248219422 0 0.2947903100827764 0.44460888193352138 0 0.30039280328538281 0.46916861578679131 0 0.2947903100827764 0.44460888193352138 0 0.30489301434369842 0.45522316212572678 0 0.32814042100151308 0.46207712338172441 0 0.30039280328538281 0.46916861578679131 0 0.30489301434369842 0.45522316212572678 0 0.30039280328538281 0.46916861578679131 0 0.2947903100827764 0.44460888193352138 0 0.2947903100827764 0.44460888193352138 0 0.30489301434369842 0.45522316212572678 0 0.30866411894084111 0.4410631357309881 0 0.30866411894084111 0.4410631357309881 0 0.28918781688016959 0.42004914808025162 0 0.30662555327773339 0.43289323822932663 0 0.30062640936499951 0.42898012920614281 0 0.30991491372602897 0.41224585862267948 0 0.30662555327773339 0.43289323822932663 0 0.30991491372602897 0.41224585862267948 0 0.31328110608838128 0.43608382350870561 0 0.30866411894084111 0.4410631357309881 0 0.30662555327773339 0.43289323822932663 0 0.31328110608838128 0.43608382350870561 0 0.30866411894084111 0.4410631357309881 0 0.30062640936499951 0.42898012920614281 0 0.28918781688016959 0.42004914808025162 0 0.2947903100827764 0.44460888193352138 0 0.30866411894084111 0.4410631357309881 0 0.28918781688016959 0.42004914808025162 0 0.30866411894084111 0.4410631357309881 0 0.30662555327773339 0.43289323822932663 0 0.30062640936499951 0.42898012920614281 0 0.30991491372602897 0.41224585862267948 0 0.31328110608838128 0.43608382350870561 0 0.30062640936499951 0.42898012920614281 0 0.29853888781995419 0.4202169162117711 0 0.29533015774921573 0.42180543692949368 0 0.30062640936499951 0.42898012920614281 0 0.30991491372602897 0.41224585862267948 0 0.29853888781995419 0.4202169162117711 0 0.30991491372602897 0.41224585862267948 0 0.29853888781995419 0.4202169162117711 0 0.29790224763385792 0.41401339891389999 0 0.30991491372602897 0.41224585862267948 0 0.29790224763385792 0.41401339891389999 0 0.29718945213038478 0.40648577593236529 0 0.29718945213038478 0.40648577593236529 0 0.29133765670479278 0.41105599747713512 0 0.28840512386907308 0.40613601495947249 0 0.29133765670479278 0.41105599747713512 0 0.28802230220470021 0.41123789601154409 0 0.28840512386907308 0.40613601495947249 0 0.29790224763385792 0.41401339891389999 0 0.29718945213038478 0.40648577593236529 0 0.29133765670479278 0.41105599747713512 0 0.29133765670479278 0.41105599747713512 0 0.28860798104778501 0.417507313006656 0 0.28802230220470021 0.41123789601154409 0 0.29133765670479278 0.41105599747713512 0 0.29296751693173972 0.41797555421980948 0 0.28860798104778501 0.417507313006656 0 0.29853888781995419 0.4202169162117711 0 0.29790224763385792 0.41401339891389999 0 0.29296751693173972 0.41797555421980948 0 0.29790224763385792 0.41401339891389999 0 0.29133765670479278 0.41105599747713512 0 0.29296751693173972 0.41797555421980948 0 0.29853888781995419 0.4202169162117711 0 0.29533015774921573 0.42180543692949368 0 0.29296751693173972 0.41797555421980948 0 0.29533015774921573 0.42180543692949368 0 0.29296751693173972 0.41797555421980948 0 0.28918781688016959 0.42004914808025162 0 0.29296751693173972 0.41797555421980948 0 0.28918781688016959 0.42004914808025162 0 0.28860798104778501 0.417507313006656 0 0.28918781688016959 0.42004914808025162 0 0.28860798104778501 0.417507313006656 0 0.28373844719714969 0.41025225860291298 0 0.28918781688016959 0.42004914808025162 0 0.28181689465834109 0.42548657346543939 0 0.28017782383642048 0.41803952435867731 0 0.28918781688016959 0.42004914808025162 0 0.28017782383642048 0.41803952435867731 0 0.27612838182367078 0.40595864947595223 0 0.28918781688016959 0.42004914808025162 0 0.28860798104778501 0.417507313006656 0 0.28918781688016959 0.42004914808025162 0 0.28373844719714969 0.41025225860291298 0 0.27612838182367078 0.40595864947595223 0 0.28918781688016959 0.42004914808025162 0 0.27612838182367078 0.40595864947595223 0 0.28860798104778501 0.417507313006656 0 0.28802230220470021 0.41123789601154409 0 0.28373844719714969 0.41025225860291298 0 0.28802230220470021 0.41123789601154409 0 0.28373844719714969 0.41025225860291298 0 0.28840512386907308 0.40613601495947249 0 0.2947903100827764 0.44460888193352138 0 0.28918781688016959 0.42004914808025162 0 0.2947903100827764 0.44460888193352138 0 0.28918781688016959 0.42004914808025162 0 0.28420855514250482 0.4344115089902687 0 0.30062640936499951 0.42898012920614281 0 0.29533015774921573 0.42180543692949368 0 0.28918781688016959 0.42004914808025162 0 0.28918781688016959 0.42004914808025162 0 0.28181689465834109 0.42548657346543939 0 0.28420855514250482 0.4344115089902687 0 0.28181689465834109 0.42548657346543939 0 0.28420855514250482 0.4344115089902687 0 0.27201318508830408 0.43688585277974062 0 0.27201318508830408 0.43688585277974062 0 0.27357820198350052 0.42066372641306599 0 0.25685277097048931 0.41821490084631419 0 0.28181689465834109 0.42548657346543939 0 0.27201318508830408 0.43688585277974062 0 0.27357820198350052 0.42066372641306599 0 0.28017782383642048 0.41803952435867731 0 0.27357820198350052 0.42066372641306599 0 0.27612838182367078 0.40595864947595223 0 0.27357820198350052 0.42066372641306599 0 0.25685277097048931 0.41821490084631419 0 0.27612838182367078 0.40595864947595223 0 0.28181689465834109 0.42548657346543939 0 0.28017782383642048 0.41803952435867731 0 0.27357820198350052 0.42066372641306599 0 0.25685277097048931 0.41821490084631419 0 0.27612838182367078 0.40595864947595223 0 0.24085069762851249 0.4010777219639729 0 0.25685277097048931 0.41821490084631419 0 0.26187004859215551 0.40573405191615669 0 0.25685277097048931 0.41821490084631419 0 0.26187004859215551 0.40573405191615669 0 0.27612838182367078 0.40595864947595223 0 0.25466539094448221 0.44443129666892311 0 0.27201318508830408 0.43688585277974062 0 0.25685277097048931 0.41821490084631419 0 0.24635607666156281 0.37217441287281577 0 0.24085069762851249 0.4010777219639729 0 0.26394398342173669 0.39281227308723582 0 0.24635607666156281 0.37217441287281577 0 0.26394398342173669 0.39281227308723582 0 0.26795830425761352 0.37423044045664711 0 0.24085069762851249 0.4010777219639729 0 0.26187004859215551 0.40573405191615669 0 0.26394398342173669 0.39281227308723582 0 0.26394398342173669 0.39281227308723582 0 0.27612838182367078 0.40595864947595223 0 0.2757142812457018 0.39176594040377871 0 0.26394398342173669 0.39281227308723582 0 0.27612838182367078 0.40595864947595223 0 0.26187004859215551 0.40573405191615669 0 0.26394398342173669 0.39281227308723582 0 0.27612838182367078 0.40595864947595223 0 0.27612838182367078 0.40595864947595223 0 0.2757142812457018 0.39176594040377871 0 0.28307849470663071 0.40153947276633928 0 0.28373844719714969 0.41025225860291298 0 0.27612838182367078 0.40595864947595223 0 0.28307849470663071 0.40153947276633928 0 0.27612838182367078 0.40595864947595223 0 0.28307849470663071 0.40153947276633928 0 0.26394398342173669 0.39281227308723582 0 0.2757142812457018 0.39176594040377871 0 0.26795830425761352 0.37423044045664711 0 0.2757142812457018 0.39176594040377871 0 0.28507668292589228 0.377725388705481 0 0.26795830425761352 0.37423044045664711 0 0.28507668292589228 0.377725388705481 0 0.28504254002956009 0.38937946853528299 0 0.30654872136367661 0.38840789373665352 0 0.2757142812457018 0.39176594040377871 0 0.28507668292589228 0.377725388705481 0 0.28504254002956009 0.38937946853528299 0 0.28504254002956009 0.38937946853528299 0 0.29226426750343482 0.39757656893768162 0 0.30654872136367661 0.38840789373665352 0 0.28373844719714969 0.41025225860291298 0 0.28840512386907308 0.40613601495947249 0 0.28307849470663071 0.40153947276633928 0 0.28840512386907308 0.40613601495947249 0 0.28307849470663071 0.40153947276633928 0 0.29226426750343482 0.39757656893768162 0 0.2757142812457018 0.39176594040377871 0 0.28504254002956009 0.38937946853528299 0 0.28307849470663071 0.40153947276633928 0 0.28504254002956009 0.38937946853528299 0 0.28307849470663071 0.40153947276633928 0 0.29226426750343482 0.39757656893768162 0 0.29718945213038478 0.40648577593236529 0 0.28840512386907308 0.40613601495947249 0 0.29226426750343482 0.39757656893768162 0 0.29718945213038478 0.40648577593236529 0 0.29226426750343482 0.39757656893768162 0 0.30654872136367661 0.38840789373665352 0 0.30991491372602897 0.41224585862267948 0 0.30654872136367661 0.38840789373665352 0 0.30991491372602897 0.41224585862267948 0 0.29718945213038478 0.40648577593236529 0 0.30654872136367661 0.38840789373665352 0 0.28507668292589228 0.377725388705481 0 0.30654872136367661 0.38840789373665352 0 0.30318252900132431 0.36456992885062728 0 0.30654872136367661 0.38840789373665352 0 0.30318252900132431 0.36456992885062728 0 0.30654872136367661 0.38840789373665352 0 0.33698046996925279 0.38407955595996562 0 0.32192581634194978 0.36778259306029171 0 0.33698046996925279 0.38407955595996562 0 0.32687819270654528 0.40406935009705619 0 0.34713170602479149 0.406286709307706 0 0.30991491372602897 0.41224585862267948 0 0.30654872136367661 0.38840789373665352 0 0.32687819270654528 0.40406935009705619 0 0.30654872136367661 0.38840789373665352 0 0.33698046996925279 0.38407955595996562 0 0.32687819270654528 0.40406935009705619 0 0.30991491372602897 0.41224585862267948 0 0.32687819270654528 0.40406935009705619 0 0.32132131643453932 0.42279179935153571 0 0.32687819270654528 0.40406935009705619 0 0.32132131643453932 0.42279179935153571 0 0.33527301958025463 0.42134359608417149 0 0.33021661370495009 0.43886292261244492 0 0.31328110608838128 0.43608382350870561 0 0.32496872942487892 0.43097716095136768 0 0.30991491372602897 0.41224585862267948 0 0.31328110608838128 0.43608382350870561 0 0.32132131643453932 0.42279179935153571 0 0.31328110608838128 0.43608382350870561 0 0.32132131643453932 0.42279179935153571 0 0.32496872942487892 0.43097716095136768 0 0.32132131643453932 0.42279179935153571 0 0.32496872942487892 0.43097716095136768 0 0.33527301958025463 0.42134359608417149 0 0.33021661370495009 0.43886292261244492 0 0.32496872942487892 0.43097716095136768 0 0.33527301958025463 0.42134359608417149 0 0.33021661370495009 0.43886292261244492 0 0.33527301958025463 0.42134359608417149 0 0.34995959969063989 0.42785729135340028 0 0.32687819270654528 0.40406935009705619 0 0.33527301958025463 0.42134359608417149 0 0.34713170602479149 0.406286709307706 0 0.34713170602479149 0.406286709307706 0 0.34995959969063989 0.42785729135340028 0 0.36426734147924061 0.41533194555708169 0 0.33527301958025463 0.42134359608417149 0 0.34713170602479149 0.406286709307706 0 0.34995959969063989 0.42785729135340028 0 0.36299546527668758 0.43939150325672233 0 0.34995959969063989 0.42785729135340028 0 0.36426734147924061 0.41533194555708169 0 0.36299546527668758 0.43939150325672233 0 0.36426734147924061 0.41533194555708169 0 0.37795693461410862 0.43248932227343789 0 0.36299546527668758 0.43939150325672233 0 0.36426734147924061 0.41533194555708169 0 0.36426734147924061 0.41533194555708169 0 0.36553921768179348 0.39127238785744117 0 0.38185390862892932 0.39749044155542013 0 0.36426734147924061 0.41533194555708169 0 0.36553921768179348 0.39127238785744117 0 0.36553921768179348 0.39127238785744117 0 0.36681109388434641 0.36721283015780071 0 0.38776289471696818 0.37718031551755338 0 0.36553921768179348 0.39127238785744117 0 0.35128383120367801 0.37273425168911117 0 0.36681109388434641 0.36721283015780071 0 0.36553921768179348 0.39127238785744117 0 0.36681109388434641 0.36721283015780071 0 0.33698046996925279 0.38407955595996562 0 0.36553921768179348 0.39127238785744117 0 0.35128383120367801 0.37273425168911117 0 0.33698046996925279 0.38407955595996562 0 0.34713170602479149 0.406286709307706 0 0.36553921768179348 0.39127238785744117 0 0.34713170602479149 0.406286709307706 0 0.36426734147924061 0.41533194555708169 0 0.36553921768179348 0.39127238785744117 0 0.34933339048499829 0.35514104228391391 0 0.36681109388434641 0.36721283015780071 0 0.36072320518350559 0.34403842643583599 0 0.34933339048499829 0.35514104228391391 0 0.36072320518350559 0.34403842643583599 0 0.3505530744645699 0.33304400866251188 0 0.34933339048499829 0.35514104228391391 0 0.35128383120367801 0.37273425168911117 0 0.33775498399799903 0.36596544218643462 0 0.34933339048499829 0.35514104228391391 0 0.35128383120367801 0.37273425168911117 0 0.36681109388434641 0.36721283015780071 0 0.36681109388434641 0.36721283015780071 0 0.36072320518350559 0.34403842643583599 0 0.37534136460269257 0.34220169285451302 0 0.36681109388434641 0.36721283015780071 0 0.37534136460269257 0.34220169285451302 0 0.38255479897454853 0.35862212975376001 0 0.36072320518350559 0.34403842643583599 0 0.36739084402072059 0.33252147381560843 0 0.3505530744645699 0.33304400866251188 0 0.36072320518350559 0.34403842643583599 0 0.36739084402072059 0.33252147381560843 0 0.37534136460269257 0.34220169285451302 0 0.36739084402072059 0.33252147381560843 0 0.38092028095450903 0.32904330717634911 0 0.37534136460269257 0.34220169285451302 0 0.36739084402072059 0.33252147381560843 0 0.37180313497311951 0.31601384378627978 0 0.3505530744645699 0.33304400866251188 0 0.36739084402072059 0.33252147381560843 0 0.37180313497311951 0.31601384378627978 0 0.38092028095450903 0.32904330717634911 0 0.37180313497311951 0.31601384378627978 0 0.35634769992394072 0.31447679422015701 0 0.3505530744645699 0.33304400866251188 0 0.37180313497311951 0.31601384378627978 0 0.3505530744645699 0.33304400866251188 0 0.35634769992394072 0.31447679422015701 0 0.3505530744645699 0.33304400866251188 0 0.34203624826059748 0.30844228138017149 0 0.3505530744645699 0.33304400866251188 0 0.3295661788544928 0.3258909398115159 0 0.32930301395602019 0.35007417353874398 0 0.3505530744645699 0.33304400866251188 0 0.32930301395602019 0.35007417353874398 0 0.3295661788544928 0.3258909398115159 0 0.34203624826059748 0.30844228138017149 0 0.3295661788544928 0.3258909398115159 0 0.31924319626860959 0.31266814022937428 0 0.34203624826059748 0.30844228138017149 0 0.3505530744645699 0.33304400866251188 0 0.3295661788544928 0.3258909398115159 0 0.34203624826059748 0.30844228138017149 0 0.3295661788544928 0.3258909398115159 0 0.31924319626860959 0.31266814022937428 0 0.31130228270624322 0.32763339056559099 0 0.3295661788544928 0.3258909398115159 0 0.3170961094483904 0.34333959824286209 0 0.3295661788544928 0.3258909398115159 0 0.3170961094483904 0.34333959824286209 0 0.31130228270624322 0.32763339056559099 0 0.3295661788544928 0.3258909398115159 0 0.3170961094483904 0.34333959824286209 0 0.32930301395602019 0.35007417353874398 0 0.31426476107733142 0.35329965153142529 0 0.32930301395602019 0.35007417353874398 0 0.32192581634194978 0.36778259306029171 0 0.3170961094483904 0.34333959824286209 0 0.31426476107733142 0.35329965153142529 0 0.32930301395602019 0.35007417353874398 0 0.34933339048499829 0.35514104228391391 0 0.32930301395602019 0.35007417353874398 0 0.33775498399799903 0.36596544218643462 0 0.34933339048499829 0.35514104228391391 0 0.3505530744645699 0.33304400866251188 0 0.32930301395602019 0.35007417353874398 0 0.33698046996925279 0.38407955595996562 0 0.33775498399799903 0.36596544218643462 0 0.32192581634194978 0.36778259306029171 0 0.33698046996925279 0.38407955595996562 0 0.35128383120367801 0.37273425168911117 0 0.33775498399799903 0.36596544218643462 0 0.32930301395602019 0.35007417353874398 0 0.33775498399799903 0.36596544218643462 0 0.32192581634194978 0.36778259306029171 0 0.31426476107733142 0.35329965153142529 0 0.32192581634194978 0.36778259306029171 0 0.30318252900132431 0.36456992885062728 0 0.30654872136367661 0.38840789373665352 0 0.32192581634194978 0.36778259306029171 0 0.30318252900132431 0.36456992885062728 0 0.30318252900132431 0.36456992885062728 0 0.29981633663897189 0.34073196396460131 0 0.3170961094483904 0.34333959824286209 0 0.31426476107733142 0.35329965153142529 0 0.29981633663897189 0.34073196396460131 0 0.31426476107733142 0.35329965153142529 0 0.30318252900132431 0.36456992885062728 0 0.29981633663897189 0.34073196396460131 0 0.30318252900132431 0.36456992885062728 0 0.28283843662865821 0.35656161019788729 0 0.29981633663897189 0.34073196396460131 0 0.28283843662865821 0.35656161019788729 0 0.2812180452789908 0.33607161122118262 0 0.29981633663897189 0.34073196396460131 0 0.28507668292589228 0.377725388705481 0 0.30318252900132431 0.36456992885062728 0 0.28283843662865821 0.35656161019788729 0 0.28507668292589228 0.377725388705481 0 0.28283843662865821 0.35656161019788729 0 0.26795830425761352 0.37423044045664711 0 0.28283843662865821 0.35656161019788729 0 0.26795830425761352 0.37423044045664711 0 0.26239509497701652 0.35393489427900782 0 0.28283843662865821 0.35656161019788729 0 0.26239509497701652 0.35393489427900782 0 0.2812180452789908 0.33607161122118262 0 0.24635607666156281 0.37217441287281577 0 0.24397807951173839 0.34730970729394223 0 0.26239509497701652 0.35393489427900782 0 0.24397807951173839 0.34730970729394223 0 0.26239509497701652 0.35393489427900782 0 0.25572930743386868 0.33448033105667241 0 0.24635607666156281 0.37217441287281577 0 0.26795830425761352 0.37423044045664711 0 0.26239509497701652 0.35393489427900782 0 0.2395867880526977 0.3274365327058657 0 0.26801846616465957 0.32216526589222028 0 0.2395867880526977 0.3274365327058657 0 0.25572930743386868 0.33448033105667241 0 0.26801846616465957 0.32216526589222028 0 0.2395867880526977 0.3274365327058657 0 0.26801846616465957 0.32216526589222028 0 0.25730519482475889 0.3091323279648921 0 0.26801846616465957 0.32216526589222028 0 0.26978266442200588 0.30945324278494019 0 0.25730519482475889 0.3091323279648921 0 0.25572930743386868 0.33448033105667241 0 0.2812180452789908 0.33607161122118262 0 0.26801846616465957 0.32216526589222028 0 0.26239509497701652 0.35393489427900782 0 0.25572930743386868 0.33448033105667241 0 0.2812180452789908 0.33607161122118262 0 0.26801846616465957 0.32216526589222028 0 0.28226955601944809 0.31091326157286769 0 0.26978266442200588 0.30945324278494019 0 0.2812180452789908 0.33607161122118262 0 0.26801846616465957 0.32216526589222028 0 0.2964501442766212 0.31689399907857502 0 0.26801846616465957 0.32216526589222028 0 0.2964501442766212 0.31689399907857502 0 0.28226955601944809 0.31091326157286769 0 0.26801846616465957 0.32216526589222028 0 0.2964501442766212 0.31689399907857502 0 0.2812180452789908 0.33607161122118262 0 0.2964501442766212 0.31689399907857502 0 0.29981633663897189 0.34073196396460131 0 0.3170961094483904 0.34333959824286209 0 0.29981633663897189 0.34073196396460131 0 0.31130228270624322 0.32763339056559099 0 0.2964501442766212 0.31689399907857502 0 0.29981633663897189 0.34073196396460131 0 0.31130228270624322 0.32763339056559099 0 0.2964501442766212 0.31689399907857502 0 0.29981633663897189 0.34073196396460131 0 0.31924319626860959 0.31266814022937428 0 0.2964501442766212 0.31689399907857502 0 0.31130228270624322 0.32763339056559099 0 0.31924319626860959 0.31266814022937428 0 0.2964501442766212 0.31689399907857502 0 0.2964501442766212 0.31689399907857502 0 0.29997057684687572 0.30881996995820521 0 0.29423226677235098 0.30118791921826532 0 0.31924319626860959 0.31266814022937428 0 0.2964501442766212 0.31689399907857502 0 0.31032687088898131 0.30689507117777171 0 0.31032687088898131 0.30689507117777171 0 0.30416560620435379 0.30177558525090481 0 0.29997057684687572 0.30881996995820521 0 0.31032687088898131 0.30689507117777171 0 0.30416560620435379 0.30177558525090481 0 0.31080629296358392 0.29608403300477432 0 0.30416560620435379 0.30177558525090481 0 0.30111834517202313 0.29702831200153251 0 0.31080629296358392 0.29608403300477432 0 0.30416560620435379 0.30177558525090481 0 0.29893151941717783 0.30174318767435221 0 0.29997057684687572 0.30881996995820521 0 0.30416560620435379 0.30177558525090481 0 0.30111834517202313 0.29702831200153251 0 0.29893151941717783 0.30174318767435221 0 0.30111834517202313 0.29702831200153251 0 0.29893151941717783 0.30174318767435221 0 0.29423226677235098 0.30118791921826532 0 0.29893151941717783 0.30174318767435221 0 0.29997057684687572 0.30881996995820521 0 0.29423226677235098 0.30118791921826532 0 0.29997057684687572 0.30881996995820521 0 0.29423226677235098 0.30118791921826532 0 0.2964501442766212 0.31689399907857502 0 0.31032687088898131 0.30689507117777171 0 0.29997057684687572 0.30881996995820521 0 0.29423226677235098 0.30118791921826532 0 0.30263865102488169 0.27981743680181098 0 0.30186884783949292 0.2906250458362134 0 0.29423226677235098 0.30118791921826532 0 0.30263865102488169 0.27981743680181098 0 0.31095223355456481 0.28584081598757632 0 0.30186884783949292 0.2906250458362134 0 0.30263865102488169 0.27981743680181098 0 0.31095223355456481 0.28584081598757632 0 0.31080629296358392 0.29608403300477432 0 0.30186884783949292 0.2906250458362134 0 0.30111834517202313 0.29702831200153251 0 0.30186884783949292 0.2906250458362134 0 0.29423226677235098 0.30118791921826532 0 0.30111834517202313 0.29702831200153251 0 0.31080629296358392 0.29608403300477432 0 0.30186884783949292 0.2906250458362134 0 0.29185632830324559 0.28436251778508492 0 0.29423226677235098 0.30118791921826532 0 0.30263865102488169 0.27981743680181098 0 0.29185632830324559 0.28436251778508492 0 0.29423226677235098 0.30118791921826532 0 0.27660395447489311 0.27774196175579657 0 0.29423226677235098 0.30118791921826532 0 0.27660395447489311 0.27774196175579657 0 0.29185632830324559 0.28436251778508492 0 0.29423226677235098 0.30118791921826532 0 0.29423226677235098 0.30118791921826532 0 0.2751015762792367 0.29360195323051391 0 0.27660395447489311 0.27774196175579657 0 0.2964501442766212 0.31689399907857502 0 0.29423226677235098 0.30118791921826532 0 0.29423226677235098 0.30118791921826532 0 0.27675521484483362 0.30392800181806179 0 0.2751015762792367 0.29360195323051391 0 0.29423226677235098 0.30118791921826532 0 0.28226955601944809 0.31091326157286769 0 0.27675521484483362 0.30392800181806179 0 0.2964501442766212 0.31689399907857502 0 0.29423226677235098 0.30118791921826532 0 0.28226955601944809 0.31091326157286769 0 0.28226955601944809 0.31091326157286769 0 0.26978266442200588 0.30945324278494019 0 0.27675521484483362 0.30392800181806179 0 0.26978266442200588 0.30945324278494019 0 0.27675521484483362 0.30392800181806179 0 0.26456489025632951 0.30112735667665907 0 0.27675521484483362 0.30392800181806179 0 0.2751015762792367 0.29360195323051391 0 0.26456489025632951 0.30112735667665907 0 0.2751015762792367 0.29360195323051391 0 0.26206573781951709 0.28926380373125271 0 0.27660395447489311 0.27774196175579657 0 0.26206573781951709 0.28926380373125271 0 0.27660395447489311 0.27774196175579657 0 0.2751015762792367 0.29360195323051391 0 0.26206573781951709 0.28926380373125271 0 0.26456489025632951 0.30112735667665907 0 0.24752752116414251 0.30078564570671018 0 0.26206573781951709 0.28926380373125271 0 0.25182524268512912 0.27807423856998981 0 0.24752752116414251 0.30078564570671018 0 0.26206573781951709 0.28926380373125271 0 0.24752752116414251 0.30078564570671018 0 0.26206573781951709 0.28926380373125271 0 0.26456489025632951 0.30112735667665907 0 0.24752752116414251 0.30078564570671018 0 0.25730519482475889 0.3091323279648921 0 0.26456489025632951 0.30112735667665907 0 0.24752752116414251 0.30078564570671018 0 0.24586836705520429 0.30210056017726272 0 0.25730519482475889 0.3091323279648921 0 0.24752752116414251 0.30078564570671018 0 0.25730519482475889 0.3091323279648921 0 0.26978266442200588 0.30945324278494019 0 0.25730519482475889 0.3091323279648921 0 0.26456489025632951 0.30112735667665907 0 0.24407641410265299 0.26150211462375611 0 0.25722324101379868 0.25630207948228922 0 0.25182524268512912 0.27807423856998981 0 0.25973652225635729 0.25530798783796449 0 0.25722324101379868 0.25630207948228922 0 0.26149093964993958 0.27133801427545878 0 0.25973652225635729 0.25530798783796449 0 0.25722324101379868 0.25630207948228922 0 0.25803183332292112 0.25304072234222907 0 0.25973652225635729 0.25530798783796449 0 0.25803183332292112 0.25304072234222907 0 0.25973652225635729 0.25530798783796449 0 0.25722324101379868 0.25630207948228922 0 0.24407641410265299 0.26150211462375611 0 0.25722324101379868 0.25630207948228922 0 0.25178547191824352 0.25218307534180678 0 0.25803183332292112 0.25304072234222907 0 0.25722324101379868 0.25630207948228922 0 0.25803183332292112 0.25304072234222907 0 0.25178547191824352 0.25218307534180678 0 0.25239066274603172 0.24553786879888129 0 0.25803183332292112 0.25304072234222907 0 0.25722324101379868 0.25630207948228922 0 0.25178547191824352 0.25218307534180678 0 0.24407641410265299 0.26150211462375611 0 0.25722324101379868 0.25630207948228922 0 0.25722324101379868 0.25630207948228922 0 0.25182524268512912 0.27807423856998981 0 0.26149093964993958 0.27133801427545878 0 0.26206573781951709 0.28926380373125271 0 0.25182524268512912 0.27807423856998981 0 0.26149093964993958 0.27133801427545878 0 0.25722324101379868 0.25630207948228922 0 0.25182524268512912 0.27807423856998981 0 0.25973652225635729 0.25530798783796449 0 0.27660395447489311 0.27774196175579657 0 0.27170970052814353 0.26406696160166637 0 0.25973652225635729 0.25530798783796449 0 0.27660395447489311 0.27774196175579657 0 0.26206573781951709 0.28926380373125271 0 0.26149093964993958 0.27133801427545878 0 0.27660395447489311 0.27774196175579657 0 0.25973652225635729 0.25530798783796449 0 0.26149093964993958 0.27133801427545878 0 0.27660395447489311 0.27774196175579657 0 0.27660395447489311 0.27774196175579657 0 0.280007572255491 0.2688104923711766 0 0.27170970052814353 0.26406696160166637 0 0.280007572255491 0.2688104923711766 0 0.27170970052814353 0.26406696160166637 0 0.288719109733242 0.26214604942516728 0 0.27170970052814353 0.26406696160166637 0 0.28756175187550498 0.25395012566222441 0 0.28422577633489488 0.24562162148832201 0 0.25973652225635729 0.25530798783796449 0 0.28422577633489488 0.24562162148832201 0 0.25803183332292112 0.25304072234222907 0 0.25973652225635729 0.25530798783796449 0 0.28422577633489488 0.24562162148832201 0 0.25973652225635729 0.25530798783796449 0 0.27170970052814353 0.26406696160166637 0 0.28422577633489488 0.24562162148832201 0 0.27170970052814353 0.26406696160166637 0 0.288719109733242 0.26214604942516728 0 0.27170970052814353 0.26406696160166637 0 0.28756175187550498 0.25395012566222441 0 0.288719109733242 0.26214604942516728 0 0.28756175187550498 0.25395012566222441 0 0.288719109733242 0.26214604942516728 0 0.28756175187550498 0.25395012566222441 0 0.288719109733242 0.26214604942516728 0 0.29265094743197778 0.25741115118210872 0 0.28948038983413971 0.26753711635190452 0 0.29753973558195262 0.2611499156151792 0 0.288719109733242 0.26214604942516728 0 0.29265094743197778 0.25741115118210872 0 0.29753973558195262 0.2611499156151792 0 0.288719109733242 0.26214604942516728 0 0.29753973558195262 0.2611499156151792 0 0.288719109733242 0.26214604942516728 0 0.28948038983413971 0.26753711635190452 0 0.29753973558195262 0.2611499156151792 0 0.288719109733242 0.26214604942516728 0 0.28948038983413971 0.26753711635190452 0 0.28756175187550498 0.25395012566222441 0 0.29265094743197778 0.25741115118210872 0 0.29698925233516221 0.25139881805566588 0 0.28756175187550498 0.25395012566222441 0 0.29698925233516221 0.25139881805566588 0 0.28422577633489488 0.24562162148832201 0 0.29265094743197778 0.25741115118210872 0 0.29698925233516221 0.25139881805566588 0 0.29753973558195262 0.2611499156151792 0 0.29185632830324559 0.28436251778508492 0 0.27660395447489311 0.27774196175579657 0 0.28948038983413971 0.26753711635190452 0 0.29185632830324559 0.28436251778508492 0 0.28948038983413971 0.26753711635190452 0 0.29185632830324559 0.28436251778508492 0 0.28948038983413971 0.26753711635190452 0 0.29832432094073902 0.27051954164294911 0 0.27660395447489311 0.27774196175579657 0 0.280007572255491 0.2688104923711766 0 0.28948038983413971 0.26753711635190452 0 0.27660395447489311 0.27774196175579657 0 0.28948038983413971 0.26753711635190452 0 0.280007572255491 0.2688104923711766 0 0.288719109733242 0.26214604942516728 0 0.28948038983413971 0.26753711635190452 0 0.28948038983413971 0.26753711635190452 0 0.29832432094073902 0.27051954164294911 0 0.29753973558195262 0.2611499156151792 0 0.30263865102488169 0.27981743680181098 0 0.31010649995947598 0.25973072166076799 0 0.30263865102488169 0.27981743680181098 0 0.29832432094073902 0.27051954164294911 0 0.31010649995947598 0.25973072166076799 0 0.30263865102488169 0.27981743680181098 0 0.31010649995947598 0.25973072166076799 0 0.31585517393386248 0.27329952439107108 0 0.29185632830324559 0.28436251778508492 0 0.30263865102488169 0.27981743680181098 0 0.29832432094073902 0.27051954164294911 0 0.31095223355456481 0.28584081598757632 0 0.30263865102488169 0.27981743680181098 0 0.31585517393386248 0.27329952439107108 0 0.29753973558195262 0.2611499156151792 0 0.31460790143211742 0.24762303577851899 0 0.29753973558195262 0.2611499156151792 0 0.31010649995947598 0.25973072166076799 0 0.31460790143211742 0.24762303577851899 0 0.29698925233516221 0.25139881805566588 0 0.29753973558195262 0.2611499156151792 0 0.31460790143211742 0.24762303577851899 0 0.29832432094073902 0.27051954164294911 0 0.29753973558195262 0.2611499156151792 0 0.31010649995947598 0.25973072166076799 0 0.29753973558195262 0.2611499156151792 0 0.31010649995947598 0.25973072166076799 0 0.31010649995947598 0.25973072166076799 0 0.31460790143211742 0.24762303577851899 0 0.31010649995947598 0.25973072166076799 0 0.32611071621637733 0.25792332826382353 0 0.32611071621637733 0.25792332826382353 0 0.33295078381861182 0.24672992490143841 0 0.31460790143211742 0.24762303577851899 0 0.31010649995947598 0.25973072166076799 0 0.32611071621637733 0.25792332826382353 0 0.31460790143211742 0.24762303577851899 0 0.31010649995947598 0.25973072166076799 0 0.32611071621637733 0.25792332826382353 0 0.31585517393386248 0.27329952439107108 0 0.32611071621637733 0.25792332826382353 0 0.34211493247327862 0.25611593486687989 0 0.32611071621637733 0.25792332826382353 0 0.34211493247327862 0.25611593486687989 0 0.33163081877347828 0.27158449046155608 0 0.32611071621637733 0.25792332826382353 0 0.34211493247327862 0.25611593486687989 0 0.33295078381861182 0.24672992490143841 0 0.34211493247327862 0.25611593486687989 0 0.33163081877347828 0.27158449046155608 0 0.34211493247327862 0.25611593486687989 0 0.33163081877347828 0.27158449046155608 0 0.34775672795298268 0.27397616518155771 0 0.33163081877347828 0.27158449046155608 0 0.33759733560456168 0.28691559655774762 0 0.34775672795298268 0.27397616518155771 0 0.32611071621637733 0.25792332826382353 0 0.33163081877347828 0.27158449046155608 0 0.31585517393386248 0.27329952439107108 0 0.33163081877347828 0.27158449046155608 0 0.32114670507367787 0.28705304605623222 0 0.33163081877347828 0.27158449046155608 0 0.31585517393386248 0.27329952439107108 0 0.32114670507367787 0.28705304605623222 0 0.31095223355456481 0.28584081598757632 0 0.31585517393386248 0.27329952439107108 0 0.32114670507367787 0.28705304605623222 0 0.32114670507367787 0.28705304605623222 0 0.32529558847761703 0.29977561832405369 0 0.33759733560456168 0.28691559655774762 0 0.31080629296358392 0.29608403300477432 0 0.32114670507367787 0.28705304605623222 0 0.32529558847761703 0.29977561832405369 0 0.31095223355456481 0.28584081598757632 0 0.31080629296358392 0.29608403300477432 0 0.32114670507367787 0.28705304605623222 0 0.31924319626860959 0.31266814022937428 0 0.31032687088898131 0.30689507117777171 0 0.32529558847761703 0.29977561832405369 0 0.31032687088898131 0.30689507117777171 0 0.31080629296358392 0.29608403300477432 0 0.32529558847761703 0.29977561832405369 0 0.32529558847761703 0.29977561832405369 0 0.34203624826059748 0.30844228138017149 0 0.33759733560456168 0.28691559655774762 0 0.31924319626860959 0.31266814022937428 0 0.32529558847761703 0.29977561832405369 0 0.34203624826059748 0.30844228138017149 0 0.31924319626860959 0.31266814022937428 0 0.34203624826059748 0.30844228138017149 0 0.33163081877347828 0.27158449046155608 0 0.32114670507367787 0.28705304605623222 0 0.33759733560456168 0.28691559655774762 0 0.33759733560456168 0.28691559655774762 0 0.35304970972443039 0.29303177154489851 0 0.34775672795298268 0.27397616518155771 0 0.35304970972443039 0.29303177154489851 0 0.36406317118826581 0.27762126170962709 0 0.34775672795298268 0.27397616518155771 0 0.34203624826059748 0.30844228138017149 0 0.33759733560456168 0.28691559655774762 0 0.35304970972443039 0.29303177154489851 0 0.35304970972443039 0.29303177154489851 0 0.36406317118826581 0.27762126170962709 0 0.34203624826059748 0.30844228138017149 0 0.36754472187113119 0.30371298014510578 0 0.34203624826059748 0.30844228138017149 0 0.35304970972443039 0.29303177154489851 0 0.36754472187113119 0.30371298014510578 0 0.35634769992394072 0.31447679422015701 0 0.34203624826059748 0.30844228138017149 0 0.36754472187113119 0.30371298014510578 0 0.34203624826059748 0.30844228138017149 0 0.35304970972443039 0.29303177154489851 0 0.37180313497311951 0.31601384378627978 0 0.35634769992394072 0.31447679422015701 0 0.36754472187113119 0.30371298014510578 0 0.35304970972443039 0.29303177154489851 0 0.36754472187113119 0.30371298014510578 0 0.37533489837193917 0.28648779654238338 0 0.35304970972443039 0.29303177154489851 0 0.36406317118826581 0.27762126170962709 0 0.37533489837193917 0.28648779654238338 0 0.36406317118826581 0.27762126170962709 0 0.36949453297485241 0.26054665955127121 0 0.34775672795298268 0.27397616518155771 0 0.36406317118826581 0.27762126170962709 0 0.3769320789533368 0.27231366097312693 0 0.37533489837193917 0.28648779654238338 0 0.36406317118826581 0.27762126170962709 0 0.36949453297485241 0.26054665955127121 0 0.3769320789533368 0.27231366097312693 0 0.36949453297485241 0.26054665955127121 0 0.35747246919036862 0.25438157249572518 0 0.37042795120398347 0.24392227605349909 0 0.36949453297485241 0.26054665955127121 0 0.35747246919036862 0.25438157249572518 0 0.34775672795298268 0.27397616518155771 0 0.34211493247327862 0.25611593486687989 0 0.35747246919036862 0.25438157249572518 0 0.34775672795298268 0.27397616518155771 0 0.34211493247327862 0.25611593486687989 0 0.35747246919036862 0.25438157249572518 0 0.36949453297485241 0.26054665955127121 0 0.34775672795298268 0.27397616518155771 0 0.39816988316685792 0.27099087850128212 0 0.39509551059822318 0.25896643272008008 0 0.38838601573625009 0.26946228132107958 0 0.39816988316685792 0.27099087850128212 0 0.39227116720729233 0.27644810401346709 0 0.38838601573625009 0.26946228132107958 0 0.39227116720729233 0.27644810401346709 0 0.40097809472256402 0.28089510725856509 0 0.38934790355677462 0.28405917371508588 0 0.39816988316685792 0.27099087850128212 0 0.39227116720729233 0.27644810401346709 0 0.40097809472256402 0.28089510725856509 0 0.39816988316685792 0.27099087850128212 0 0.40097809472256402 0.28089510725856509 0 0.40679401448237201 0.2741906201676923 0 0.39816988316685792 0.27099087850128212 0 0.40479754348344749 0.2646540889072353 0 0.40679401448237201 0.2741906201676923 0 0.39816988316685792 0.27099087850128212 0 0.40479754348344749 0.2646540889072353 0 0.39509551059822318 0.25896643272008008 0 0.40479754348344749 0.2646540889072353 0 0.40446087524774821 0.2502991645331486 0 0.39509551059822318 0.25896643272008008 0 0.40446087524774821 0.2502991645331486 0 0.39509551059822318 0.25896643272008008 0 0.39123233799672208 0.24711715392098471 0 0.36949453297485241 0.26054665955127121 0 0.37042795120398347 0.24392227605349909 0 0.39123233799672208 0.24711715392098471 0 0.36949453297485241 0.26054665955127121 0 0.39123233799672208 0.24711715392098471 0 0.36949453297485241 0.26054665955127121 0 0.38422809525187701 0.2616812376973085 0 0.39123233799672208 0.24711715392098471 0 0.39509551059822318 0.25896643272008008 0 0.38422809525187701 0.2616812376973085 0 0.38838601573625009 0.26946228132107958 0 0.39509551059822318 0.25896643272008008 0 0.38422809525187701 0.2616812376973085 0 0.39123233799672208 0.24711715392098471 0 0.36949453297485241 0.26054665955127121 0 0.38422809525187701 0.2616812376973085 0 0.3769320789533368 0.27231366097312693 0 0.38422809525187701 0.2616812376973085 0 0.3769320789533368 0.27231366097312693 0 0.38838601573625009 0.26946228132107958 0 0.3769320789533368 0.27231366097312693 0 0.38838601573625009 0.26946228132107958 0 0.38447393885401498 0.27683307927132278 0 0.39227116720729233 0.27644810401346709 0 0.38447393885401498 0.27683307927132278 0 0.38934790355677462 0.28405917371508588 0 0.39227116720729233 0.27644810401346709 0 0.38838601573625009 0.26946228132107958 0 0.38447393885401498 0.27683307927132278 0 0.3769320789533368 0.27231366097312693 0 0.38447393885401498 0.27683307927132278 0 0.37533489837193917 0.28648779654238338 0 0.36754472187113119 0.30371298014510578 0 0.37533489837193917 0.28648779654238338 0 0.39305319548166551 0.29898367891004313 0 0.37533489837193917 0.28648779654238338 0 0.38934790355677462 0.28405917371508588 0 0.39305319548166551 0.29898367891004313 0 0.38447393885401498 0.27683307927132278 0 0.37533489837193917 0.28648779654238338 0 0.38934790355677462 0.28405917371508588 0 0.37180313497311951 0.31601384378627978 0 0.39305319548166551 0.29898367891004313 0 0.38921016704288908 0.31607865821121162 0 0.36754472187113119 0.30371298014510578 0 0.39305319548166551 0.29898367891004313 0 0.37180313497311951 0.31601384378627978 0 0.39305319548166551 0.29898367891004313 0 0.37180313497311951 0.31601384378627978 0 0.36754472187113119 0.30371298014510578 0 0.39305319548166551 0.29898367891004313 0 0.39305319548166551 0.29898367891004313 0 0.40420171999181931 0.31052057440791242 0 0.4115622500070989 0.29555207826769581 0 0.39305319548166551 0.29898367891004313 0 0.4115622500070989 0.29555207826769581 0 0.39305319548166551 0.29898367891004313 0 0.40420171999181931 0.31052057440791242 0 0.38921016704288908 0.31607865821121162 0 0.40097809472256402 0.28089510725856509 0 0.39305319548166551 0.29898367891004313 0 0.41457151040813778 0.28173853031816432 0 0.39305319548166551 0.29898367891004313 0 0.41457151040813778 0.28173853031816432 0 0.40097809472256402 0.28089510725856509 0 0.38934790355677462 0.28405917371508588 0 0.39305319548166551 0.29898367891004313 0 0.39305319548166551 0.29898367891004313 0 0.4115622500070989 0.29555207826769581 0 0.41457151040813778 0.28173853031816432 0 0.4115622500070989 0.29555207826769581 0 0.41457151040813778 0.28173853031816432 0 0.42814541733912692 0.30272476388370317 0 0.41457151040813778 0.28173853031816432 0 0.42814541733912692 0.30272476388370317 0 0.41457151040813778 0.28173853031816432 0 0.42379924829598242 0.28530358241330428 0 0.41823863790152171 0.27879963111788397 0 0.4115622500070989 0.29555207826769581 0 0.41690380545839778 0.30595885265988082 0 0.42814541733912692 0.30272476388370317 0 0.40420171999181931 0.31052057440791242 0 0.4115622500070989 0.29555207826769581 0 0.41690380545839778 0.30595885265988082 0 0.42814541733912692 0.30272476388370317 0 0.44047888871280261 0.3105053793315708 0 0.44171932427011568 0.32371099744924198 0 0.41690380545839778 0.30595885265988082 0 0.42814541733912692 0.30272476388370317 0 0.42388442906334761 0.31427078855424673 0 0.42867837663495761 0.30061839117188649 0 0.43562808815019838 0.30305291265003542 0 0.43972895785750638 0.29742030736483738 0 0.42814541733912692 0.30272476388370317 0 0.42867837663495761 0.30061839117188649 0 0.43562808815019838 0.30305291265003542 0 0.42814541733912692 0.30272476388370317 0 0.43562808815019838 0.30305291265003542 0 0.44047888871280261 0.3105053793315708 0 0.41457151040813778 0.28173853031816432 0 0.42867837663495761 0.30061839117188649 0 0.42379924829598242 0.28530358241330428 0 0.41457151040813778 0.28173853031816432 0 0.42814541733912692 0.30272476388370317 0 0.42867837663495761 0.30061839117188649 0 0.42379924829598242 0.28530358241330428 0 0.43057524248957829 0.28641502405268798 0 0.4269324740457161 0.27894633540589869 0 0.42867837663495761 0.30061839117188649 0 0.42379924829598242 0.28530358241330428 0 0.43057524248957829 0.28641502405268798 0 0.42867837663495761 0.30061839117188649 0 0.44086460290242308 0.28615046435373631 0 0.43972895785750638 0.29742030736483738 0 0.42867837663495761 0.30061839117188649 0 0.44086460290242308 0.28615046435373631 0 0.42867837663495761 0.30061839117188649 0 0.43057524248957829 0.28641502405268798 0 0.44086460290242308 0.28615046435373631 0 0.43057524248957829 0.28641502405268798 0 0.43444247731904517 0.27802239127396072 0 0.44086460290242308 0.28615046435373631 0 0.43444247731904517 0.27802239127396072 0 0.43107573407167438 0.27024924805332218 0 0.4269324740457161 0.27894633540589869 0 0.43057524248957829 0.28641502405268798 0 0.43444247731904517 0.27802239127396072 0 0.4269324740457161 0.27894633540589869 0 0.43444247731904517 0.27802239127396072 0 0.43107573407167438 0.27024924805332218 0 0.4416672863904359 0.26974294536905569 0 0.43107573407167438 0.27024924805332218 0 0.43742538799983649 0.25903357333466892 0 0.4416672863904359 0.26974294536905569 0 0.43107573407167438 0.27024924805332218 0 0.42161554903092913 0.27252591768886109 0 0.42127667017199 0.26501089313130483 0 0.4269324740457161 0.27894633540589869 0 0.41823863790152171 0.27879963111788397 0 0.42161554903092913 0.27252591768886109 0 0.42379924829598242 0.28530358241330428 0 0.4269324740457161 0.27894633540589869 0 0.41823863790152171 0.27879963111788397 0 0.43107573407167438 0.27024924805332218 0 0.4269324740457161 0.27894633540589869 0 0.42161554903092913 0.27252591768886109 0 0.41457151040813778 0.28173853031816432 0 0.41823863790152171 0.27879963111788397 0 0.41277304948759608 0.27895798075871397 0 0.41457151040813778 0.28173853031816432 0 0.41823863790152171 0.27879963111788397 0 0.41823863790152171 0.27879963111788397 0 0.41505362423682751 0.27380800051474963 0 0.41277304948759608 0.27895798075871397 0 0.41823863790152171 0.27879963111788397 0 0.41505362423682751 0.27380800051474963 0 0.42161554903092913 0.27252591768886109 0 0.42161554903092913 0.27252591768886109 0 0.41680153665324349 0.26802006853862143 0 0.42127667017199 0.26501089313130483 0 0.41505362423682751 0.27380800051474963 0 0.42161554903092913 0.27252591768886109 0 0.41680153665324349 0.26802006853862143 0 0.40479754348344749 0.2646540889072353 0 0.41026483715076828 0.26945703745906507 0 0.40679401448237201 0.2741906201676923 0 0.41505362423682751 0.27380800051474963 0 0.41680153665324349 0.26802006853862143 0 0.41026483715076828 0.26945703745906507 0 0.41505362423682751 0.27380800051474963 0 0.41026483715076828 0.26945703745906507 0 0.41110673936934361 0.27414027289465998 0 0.41680153665324349 0.26802006853862143 0 0.41026483715076828 0.26945703745906507 0 0.41485396360945592 0.25941516454545671 0 0.41026483715076828 0.26945703745906507 0 0.40679401448237201 0.2741906201676923 0 0.41110673936934361 0.27414027289465998 0 0.40097809472256402 0.28089510725856509 0 0.40679401448237201 0.2741906201676923 0 0.41277304948759608 0.27895798075871397 0 0.40097809472256402 0.28089510725856509 0 0.41457151040813778 0.28173853031816432 0 0.41277304948759608 0.27895798075871397 0 0.41457151040813778 0.28173853031816432 0 0.41277304948759608 0.27895798075871397 0 0.41505362423682751 0.27380800051474963 0 0.41277304948759608 0.27895798075871397 0 0.41110673936934361 0.27414027289465998 0 0.40679401448237201 0.2741906201676923 0 0.41277304948759608 0.27895798075871397 0 0.41110673936934361 0.27414027289465998 0 0.40446087524774821 0.2502991645331486 0 0.41485396360945592 0.25941516454545671 0 0.41553722866893961 0.2466290840187445 0 0.40479754348344749 0.2646540889072353 0 0.41026483715076828 0.26945703745906507 0 0.41485396360945592 0.25941516454545671 0 0.40479754348344749 0.2646540889072353 0 0.40446087524774821 0.2502991645331486 0 0.41485396360945592 0.25941516454545671 0 0.41680153665324349 0.26802006853862143 0 0.41485396360945592 0.25941516454545671 0 0.42127667017199 0.26501089313130483 0 0.41485396360945592 0.25941516454545671 0 0.42127667017199 0.26501089313130483 0 0.42662790379728471 0.25925598661282201 0 0.41485396360945592 0.25941516454545671 0 0.42387560445215311 0.25012596742606552 0 0.42662790379728471 0.25925598661282201 0 0.41485396360945592 0.25941516454545671 0 0.42387560445215311 0.25012596742606552 0 0.41553722866893961 0.2466290840187445 0 0.42387560445215311 0.25012596742606552 0 0.42662790379728471 0.25925598661282201 0 0.43191149085118358 0.25237062314198672 0 0.43107573407167438 0.27024924805332218 0 0.42127667017199 0.26501089313130483 0 0.42662790379728471 0.25925598661282201 0 0.43107573407167438 0.27024924805332218 0 0.42662790379728471 0.25925598661282201 0 0.43742538799983649 0.25903357333466892 0 0.42662790379728471 0.25925598661282201 0 0.43742538799983649 0.25903357333466892 0 0.43191149085118358 0.25237062314198672 0 0.43742538799983649 0.25903357333466892 0 0.43191149085118358 0.25237062314198672 0 0.43957858242423259 0.24932271469960041 0 0.43742538799983649 0.25903357333466892 0 0.4416672863904359 0.26974294536905569 0 0.45314468687974768 0.25331945766306052 0 0.4416672863904359 0.26974294536905569 0 0.45305082916988859 0.2716825375355858 0 0.45314468687974768 0.25331945766306052 0 0.45305082916988859 0.2716825375355858 0 0.45314468687974768 0.25331945766306052 0 0.43742538799983649 0.25903357333466892 0 0.45314468687974768 0.25331945766306052 0 0.43957858242423259 0.24932271469960041 0 0.4416672863904359 0.26974294536905569 0 0.45305082916988859 0.2716825375355858 0 0.44086460290242308 0.28615046435373631 0 0.43444247731904517 0.27802239127396072 0 0.4416672863904359 0.26974294536905569 0 0.44086460290242308 0.28615046435373631 0 0.45305082916988859 0.2716825375355858 0 0.44086460290242308 0.28615046435373631 0 0.45305082916988859 0.2716825375355858 0 0.46619805472564252 0.26968220204178311 0 0.46631018287963322 0.25594055515990077 0 0.45305082916988859 0.2716825375355858 0 0.46619805472564252 0.26968220204178311 0 0.46632958810841818 0.28439818726344401 0 0.45305082916988859 0.2716825375355858 0 0.45314468687974768 0.25331945766306052 0 0.46631018287963322 0.25594055515990077 0 0.45305082916988859 0.2716825375355858 0 0.46631018287963322 0.25594055515990077 0 0.45314468687974768 0.25331945766306052 0 0.46631018287963322 0.25594055515990077 0 0.46128191470692848 0.24473147065540271 0 0.46631018287963322 0.25594055515990077 0 0.47847634469829858 0.2566538488816909 0 0.47956953658937768 0.24019857278421569 0 0.47847634469829858 0.2566538488816909 0 0.48322202399414288 0.2662475665729323 0 0.49064181440979859 0.25737885097138252 0 0.47847634469829858 0.2566538488816909 0 0.47649819735737209 0.26777199984268252 0 0.48322202399414288 0.2662475665729323 0 0.46619805472564252 0.26968220204178311 0 0.46631018287963322 0.25594055515990077 0 0.47649819735737209 0.26777199984268252 0 0.46631018287963322 0.25594055515990077 0 0.47847634469829858 0.2566538488816909 0 0.47649819735737209 0.26777199984268252 0 0.47649819735737209 0.26777199984268252 0 0.48322202399414288 0.2662475665729323 0 0.4872717395111027 0.28318556659597333 0 0.46619805472564252 0.26968220204178311 0 0.47649819735737209 0.26777199984268252 0 0.47509038359527422 0.27950778864290909 0 0.46619805472564252 0.26968220204178311 0 0.47509038359527422 0.27950778864290909 0 0.46632958810841818 0.28439818726344401 0 0.47649819735737209 0.26777199984268252 0 0.47509038359527422 0.27950778864290909 0 0.4872717395111027 0.28318556659597333 0 0.48322202399414288 0.2662475665729323 0 0.49064181440979859 0.25737885097138252 0 0.4872717395111027 0.28318556659597333 0 0.49064181440979859 0.25737885097138252 0 0.4872717395111027 0.28318556659597333 0 0.5 0.27986017184182288 0 0.49064181440979859 0.25737885097138252 0 0.4872717395111027 0.28318556659597333 0 0.5 0.27986017184182288 0 0.5 0.25407686477288871 0 0.49064181440979859 0.25737885097138252 0 0.47847634469829858 0.2566538488816909 0 0.49064181440979859 0.25737885097138252 0 0.48567489625149229 0.24645085199602021 0 0.5 0.30564347891075688 0 0.4872717395111027 0.28318556659597333 0 0.48390166461240669 0.30899228222056419 0 0.5 0.27986017184182288 0 0.5 0.30564347891075688 0 0.4872717395111027 0.28318556659597333 0 0.4872717395111027 0.28318556659597333 0 0.48390166461240669 0.30899228222056419 0 0.4872717395111027 0.28318556659597333 0 0.47425909559633361 0.29291950421983942 0 0.48390166461240669 0.30899228222056419 0 0.47509038359527422 0.27950778864290909 0 0.4872717395111027 0.28318556659597333 0 0.47425909559633361 0.29291950421983942 0 0.47509038359527422 0.27950778864290909 0 0.47425909559633361 0.29291950421983942 0 0.46632958810841818 0.28439818726344401 0 0.48390166461240669 0.30899228222056419 0 0.46636136886398488 0.30632863932950499 0 0.4655654976523485 0.31891159838364641 0 0.47425909559633361 0.29291950421983942 0 0.48390166461240669 0.30899228222056419 0 0.46636136886398488 0.30632863932950499 0 0.46636136886398488 0.30632863932950499 0 0.45293300820953231 0.29473398114018601 0 0.45281518724917619 0.31778542474478633 0 0.46636136886398488 0.30632863932950499 0 0.46445051572827661 0.2950518875519485 0 0.45293300820953231 0.29473398114018601 0 0.47425909559633361 0.29291950421983942 0 0.46636136886398488 0.30632863932950499 0 0.46445051572827661 0.2950518875519485 0 0.45305082916988859 0.2716825375355858 0 0.46632958810841818 0.28439818726344401 0 0.45293300820953231 0.29473398114018601 0 0.46632958810841818 0.28439818726344401 0 0.46445051572827661 0.2950518875519485 0 0.45293300820953231 0.29473398114018601 0 0.47425909559633361 0.29291950421983942 0 0.46632958810841818 0.28439818726344401 0 0.46445051572827661 0.2950518875519485 0 0.45305082916988859 0.2716825375355858 0 0.45293300820953231 0.29473398114018601 0 0.45305082916988859 0.2716825375355858 0 0.45293300820953231 0.29473398114018601 0 0.44086460290242308 0.28615046435373631 0 0.45293300820953231 0.29473398114018601 0 0.44086460290242308 0.28615046435373631 0 0.43972895785750638 0.29742030736483738 0 0.45293300820953231 0.29473398114018601 0 0.44408642655539537 0.30525279793008681 0 0.45281518724917619 0.31778542474478633 0 0.45293300820953231 0.29473398114018601 0 0.45281518724917619 0.31778542474478633 0 0.44047888871280261 0.3105053793315708 0 0.44408642655539537 0.30525279793008681 0 0.45281518724917619 0.31778542474478633 0 0.45293300820953231 0.29473398114018601 0 0.43972895785750638 0.29742030736483738 0 0.44408642655539537 0.30525279793008681 0 0.43562808815019838 0.30305291265003542 0 0.43972895785750638 0.29742030736483738 0 0.44408642655539537 0.30525279793008681 0 0.43562808815019838 0.30305291265003542 0 0.44047888871280261 0.3105053793315708 0 0.44408642655539537 0.30525279793008681 0 0.44047888871280261 0.3105053793315708 0 0.44171932427011568 0.32371099744924198 0 0.45281518724917619 0.31778542474478633 0 0.4434376731352121 0.32636768802574878 0 0.44171932427011568 0.32371099744924198 0 0.4358629813959477 0.32100157094838477 0 0.44171932427011568 0.32371099744924198 0 0.4358629813959477 0.32100157094838477 0 0.44171932427011568 0.32371099744924198 0 0.44842607898503839 0.32681386545915919 0 0.4434376731352121 0.32636768802574878 0 0.44171932427011568 0.32371099744924198 0 0.44842607898503839 0.32681386545915919 0 0.4434376731352121 0.32636768802574878 0 0.44171932427011568 0.32371099744924198 0 0.44171932427011568 0.32371099744924198 0 0.44842607898503839 0.32681386545915919 0 0.45281518724917619 0.31778542474478633 0 0.4434376731352121 0.32636768802574878 0 0.44842607898503839 0.32681386545915919 0 0.44310337052670989 0.33661949445347999 0 0.43810004330838243 0.33406998376033969 0 0.43464887043555522 0.34140250510234238 0 0.44310337052670989 0.33661949445347999 0 0.44498951005991599 0.35030316453006649 0 0.43464887043555522 0.34140250510234238 0 0.4434376731352121 0.32636768802574878 0 0.43810004330838243 0.33406998376033969 0 0.43121025913605188 0.33189024745978868 0 0.4434376731352121 0.32636768802574878 0 0.44310337052670989 0.33661949445347999 0 0.43810004330838243 0.33406998376033969 0 0.4434376731352121 0.32636768802574878 0 0.44842607898503839 0.32681386545915919 0 0.45259058148323322 0.34051874073092547 0 0.4434376731352121 0.32636768802574878 0 0.45259058148323322 0.34051874073092547 0 0.4434376731352121 0.32636768802574878 0 0.44310337052670989 0.33661949445347999 0 0.45259058148323322 0.34051874073092547 0 0.44310337052670989 0.33661949445347999 0 0.45259058148323322 0.34051874073092547 0 0.44498951005991599 0.35030316453006649 0 0.44842607898503839 0.32681386545915919 0 0.47421303949251947 0.33874415637223432 0 0.47421303949251792 0.32912032571942512 0 0.44842607898503839 0.32681386545915919 0 0.45259058148323322 0.34051874073092547 0 0.47421303949251947 0.33874415637223432 0 0.44842607898503839 0.32681386545915919 0 0.47421303949251947 0.33874415637223432 0 0.44842607898503839 0.32681386545915919 0 0.45281518724917619 0.31778542474478633 0 0.4655654976523485 0.31891159838364641 0 0.44842607898503839 0.32681386545915919 0 0.47421303949251792 0.32912032571942512 0 0.44842607898503839 0.32681386545915919 0 0.4655654976523485 0.31891159838364641 0 0.47421303949251792 0.32912032571942512 0 0.46636136886398488 0.30632863932950499 0 0.45281518724917619 0.31778542474478633 0 0.4655654976523485 0.31891159838364641 0 0.48390166461240669 0.30899228222056419 0 0.4655654976523485 0.31891159838364641 0 0.47421303949251792 0.32912032571942512 0 0.47421303949251947 0.33874415637223432 0 0.47421303949251792 0.32912032571942512 0 0.49999999999999728 0.331426785979691 0 0.47421303949251947 0.33874415637223432 0 0.49999999999999728 0.331426785979691 0 0.50000000000000067 0.35067444728530928 0 0.47421303949251792 0.32912032571942512 0 0.49999999999999728 0.331426785979691 0 0.48390166461240669 0.30899228222056419 0 0.47421303949251792 0.32912032571942512 0 0.49999999999999728 0.331426785979691 0 0.5 0.30564347891075688 0 0.48390166461240669 0.30899228222056419 0 0.49999999999999728 0.331426785979691 0 0.48973039310475869 0.36412688540337329 0 0.47577847348051661 0.37072025583723961 0 0.50000000000000333 0.3766306035995155 0 0.48973039310475869 0.36412688540337329 0 0.50000000000000067 0.35067444728530928 0 0.50000000000000333 0.3766306035995155 0 0.47577847348051661 0.37072025583723961 0 0.50000000000000333 0.3766306035995155 0 0.47421303949251947 0.33874415637223432 0 0.50000000000000067 0.35067444728530928 0 0.48037251117057028 0.35586222269540713 0 0.47421303949251947 0.33874415637223432 0 0.50000000000000067 0.35067444728530928 0 0.48973039310475869 0.36412688540337329 0 0.50000000000000067 0.35067444728530928 0 0.48037251117057028 0.35586222269540713 0 0.47421303949251947 0.33874415637223432 0 0.48037251117057028 0.35586222269540713 0 0.46174348983125602 0.35466979343610111 0 0.48037251117057028 0.35586222269540713 0 0.47577847348051661 0.37072025583723961 0 0.46174348983125602 0.35466979343610111 0 0.48973039310475869 0.36412688540337329 0 0.48037251117057028 0.35586222269540713 0 0.47577847348051661 0.37072025583723961 0 0.47577847348051661 0.37072025583723961 0 0.45155694696102949 0.3648099080749645 0 0.45906142244083942 0.38227031885945428 0 0.47577847348051661 0.37072025583723961 0 0.45155694696102949 0.3648099080749645 0 0.47577847348051661 0.37072025583723961 0 0.46174348983125602 0.35466979343610111 0 0.45155694696102949 0.3648099080749645 0 0.45259058148323322 0.34051874073092547 0 0.47421303949251947 0.33874415637223432 0 0.46174348983125602 0.35466979343610111 0 0.45259058148323322 0.34051874073092547 0 0.46174348983125602 0.35466979343610111 0 0.45259058148323322 0.34051874073092547 0 0.46174348983125602 0.35466979343610111 0 0.44498951005991599 0.35030316453006649 0 0.46174348983125602 0.35466979343610111 0 0.44498951005991599 0.35030316453006649 0 0.45155694696102949 0.3648099080749645 0 0.44498951005991599 0.35030316453006649 0 0.45155694696102949 0.3648099080749645 0 0.42733542044154238 0.35889956031268933 0 0.45155694696102949 0.3648099080749645 0 0.42733542044154238 0.35889956031268933 0 0.45155694696102949 0.3648099080749645 0 0.42733542044154238 0.35889956031268933 0 0.44402095386562401 0.37730645049659911 0 0.45155694696102949 0.3648099080749645 0 0.44402095386562401 0.37730645049659911 0 0.45906142244083942 0.38227031885945428 0 0.42733542044154238 0.35889956031268933 0 0.41238237242518189 0.37773040553877651 0 0.43269919545908681 0.38825351520030937 0 0.42733542044154238 0.35889956031268933 0 0.43269919545908681 0.38825351520030937 0 0.44402095386562401 0.37730645049659911 0 0.42733542044154238 0.35889956031268933 0 0.40311389392205532 0.35298921255041421 0 0.41238237242518189 0.37773040553877651 0 0.42733542044154238 0.35889956031268933 0 0.40311389392205532 0.35298921255041421 0 0.42733542044154238 0.35889956031268933 0 0.41971265154896648 0.33799987250252539 0 0.40311389392205532 0.35298921255041421 0 0.42733542044154238 0.35889956031268933 0 0.43464887043555522 0.34140250510234238 0 0.41971265154896648 0.33799987250252539 0 0.44498951005991599 0.35030316453006649 0 0.42733542044154238 0.35889956031268933 0 0.43464887043555522 0.34140250510234238 0 0.43810004330838243 0.33406998376033969 0 0.43464887043555522 0.34140250510234238 0 0.43121025913605188 0.33189024745978868 0 0.43464887043555522 0.34140250510234238 0 0.43121025913605188 0.33189024745978868 0 0.41971265154896648 0.33799987250252539 0 0.4358629813959477 0.32100157094838477 0 0.42388442906334761 0.31427078855424673 0 0.41401296026388129 0.32373585668262428 0 0.4434376731352121 0.32636768802574878 0 0.41401296026388129 0.32373585668262428 0 0.42814541733912692 0.30272476388370317 0 0.44171932427011568 0.32371099744924198 0 0.4434376731352121 0.32636768802574878 0 0.43121025913605188 0.33189024745978868 0 0.41401296026388129 0.32373585668262428 0 0.42814541733912692 0.30272476388370317 0 0.4358629813959477 0.32100157094838477 0 0.42388442906334761 0.31427078855424673 0 0.42814541733912692 0.30272476388370317 0 0.44171932427011568 0.32371099744924198 0 0.4358629813959477 0.32100157094838477 0 0.4434376731352121 0.32636768802574878 0 0.4358629813959477 0.32100157094838477 0 0.41401296026388129 0.32373585668262428 0 0.41690380545839778 0.30595885265988082 0 0.42388442906334761 0.31427078855424673 0 0.41401296026388129 0.32373585668262428 0 0.40420171999181931 0.31052057440791242 0 0.41690380545839778 0.30595885265988082 0 0.41401296026388129 0.32373585668262428 0 0.41971265154896648 0.33799987250252539 0 0.40424265285290928 0.33591069245281918 0 0.40311389392205532 0.35298921255041421 0 0.43121025913605188 0.33189024745978868 0 0.41401296026388129 0.32373585668262428 0 0.41971265154896648 0.33799987250252539 0 0.41401296026388129 0.32373585668262428 0 0.41971265154896648 0.33799987250252539 0 0.40424265285290928 0.33591069245281918 0 0.40424265285290928 0.33591069245281918 0 0.39035743771913928 0.34140272983467629 0 0.40311389392205532 0.35298921255041421 0 0.41401296026388129 0.32373585668262428 0 0.40424265285290928 0.33591069245281918 0 0.39607250381333309 0.32583188677547842 0 0.40424265285290928 0.33591069245281918 0 0.39607250381333309 0.32583188677547842 0 0.39035743771913928 0.34140272983467629 0 0.40420171999181931 0.31052057440791242 0 0.41401296026388129 0.32373585668262428 0 0.39607250381333309 0.32583188677547842 0 0.40420171999181931 0.31052057440791242 0 0.39607250381333309 0.32583188677547842 0 0.38921016704288908 0.31607865821121162 0 0.37180313497311951 0.31601384378627978 0 0.38921016704288908 0.31607865821121162 0 0.38092028095450903 0.32904330717634911 0 0.39607250381333309 0.32583188677547842 0 0.38921016704288908 0.31607865821121162 0 0.38092028095450903 0.32904330717634911 0 0.39607250381333309 0.32583188677547842 0 0.39035743771913928 0.34140272983467629 0 0.38092028095450903 0.32904330717634911 0 0.39035743771913928 0.34140272983467629 0 0.38092028095450903 0.32904330717634911 0 0.37534136460269257 0.34220169285451302 0 0.39035743771913928 0.34140272983467629 0 0.37534136460269257 0.34220169285451302 0 0.38255479897454853 0.35862212975376001 0 0.36681109388434641 0.36721283015780071 0 0.38255479897454853 0.35862212975376001 0 0.38776289471696818 0.37718031551755338 0 0.38255479897454853 0.35862212975376001 0 0.40311389392205532 0.35298921255041421 0 0.38776289471696818 0.37718031551755338 0 0.40311389392205532 0.35298921255041421 0 0.38776289471696818 0.37718031551755338 0 0.41238237242518189 0.37773040553877651 0 0.39035743771913928 0.34140272983467629 0 0.38255479897454853 0.35862212975376001 0 0.40311389392205532 0.35298921255041421 0 0.40031554589752588 0.39764661743129648 0 0.38776289471696818 0.37718031551755338 0 0.41238237242518189 0.37773040553877651 0 0.36553921768179348 0.39127238785744117 0 0.38776289471696818 0.37718031551755338 0 0.38185390862892932 0.39749044155542013 0 0.40031554589752588 0.39764661743129648 0 0.38776289471696818 0.37718031551755338 0 0.38185390862892932 0.39749044155542013 0 0.40031554589752588 0.39764661743129648 0 0.38185390862892932 0.39749044155542013 0 0.38732285252674498 0.41461731082441539 0 0.36426734147924061 0.41533194555708169 0 0.38732285252674498 0.41461731082441539 0 0.37795693461410862 0.43248932227343789 0 0.36426734147924061 0.41533194555708169 0 0.38185390862892932 0.39749044155542013 0 0.38732285252674498 0.41461731082441539 0 0.37795693461410862 0.43248932227343789 0 0.39471808967084682 0.43255639100001142 0 0.38708186273304579 0.44469639164485852 0 0.38732285252674498 0.41461731082441539 0 0.37795693461410862 0.43248932227343789 0 0.39471808967084682 0.43255639100001142 0 0.40031554589752588 0.39764661743129648 0 0.38732285252674498 0.41461731082441539 0 0.40651636009051018 0.4144063574911917 0 0.38732285252674498 0.41461731082441539 0 0.39471808967084682 0.43255639100001142 0 0.40651636009051018 0.4144063574911917 0 0.40651636009051018 0.4144063574911917 0 0.42103856725313499 0.42629238837088751 0 0.42986137633261179 0.40846480468490742 0 0.40651636009051018 0.4144063574911917 0 0.42986137633261179 0.40846480468490742 0 0.41703794981687808 0.39698671899037091 0 0.39471808967084682 0.43255639100001142 0 0.42103856725313499 0.42629238837088751 0 0.40339276060194812 0.44223768675513081 0 0.39471808967084682 0.43255639100001142 0 0.40651636009051018 0.4144063574911917 0 0.42103856725313499 0.42629238837088751 0 0.39471808967084682 0.43255639100001142 0 0.42103856725313499 0.42629238837088751 0 0.42103856725313499 0.42629238837088751 0 0.44735904483542333 0.4200283857417636 0 0.42103856725313499 0.42629238837088751 0 0.44735904483542333 0.4200283857417636 0 0.43914904854528691 0.43848591528687803 0 0.42103856725313499 0.42629238837088751 0 0.42986137633261179 0.40846480468490742 0 0.44735904483542333 0.4200283857417636 0 0.42986137633261179 0.40846480468490742 0 0.41703794981687808 0.39698671899037091 0 0.43269919545908681 0.38825351520030937 0 0.42986137633261179 0.40846480468490742 0 0.43269919545908681 0.38825351520030937 0 0.44473305844400302 0.40493847534095823 0 0.40031554589752588 0.39764661743129648 0 0.41703794981687808 0.39698671899037091 0 0.41238237242518189 0.37773040553877651 0 0.40031554589752588 0.39764661743129648 0 0.40651636009051018 0.4144063574911917 0 0.41703794981687808 0.39698671899037091 0 0.41703794981687808 0.39698671899037091 0 0.41238237242518189 0.37773040553877651 0 0.43269919545908681 0.38825351520030937 0 0.43269919545908681 0.38825351520030937 0 0.44402095386562401 0.37730645049659911 0 0.44801613189802653 0.3912879263829192 0 0.44402095386562401 0.37730645049659911 0 0.44801613189802653 0.3912879263829192 0 0.45906142244083942 0.38227031885945428 0 0.43269919545908681 0.38825351520030937 0 0.44473305844400302 0.40493847534095823 0 0.44801613189802653 0.3912879263829192 0 0.44473305844400302 0.40493847534095823 0 0.44801613189802653 0.3912879263829192 0 0.45909937918864302 0.40268761394053237 0 0.44801613189802653 0.3912879263829192 0 0.45909937918864302 0.40268761394053237 0 0.45906142244083942 0.38227031885945428 0 0.45909937918864302 0.40268761394053237 0 0.45906142244083942 0.38227031885945428 0 0.47331331596725229 0.38432122930505502 0 0.47577847348051661 0.37072025583723961 0 0.45906142244083942 0.38227031885945428 0 0.47331331596725229 0.38432122930505502 0 0.47577847348051661 0.37072025583723961 0 0.47331331596725229 0.38432122930505502 0 0.48572829580841809 0.38350819291988619 0 0.47331331596725229 0.38432122930505502 0 0.4795496895943212 0.39618549659938451 0 0.48572829580841809 0.38350819291988619 0 0.45909937918864302 0.40268761394053237 0 0.4795496895943212 0.39618549659938451 0 0.45909937918864302 0.40268761394053237 0 0.47331331596725229 0.38432122930505502 0 0.4795496895943212 0.39618549659938451 0 0.45909937918864302 0.40268761394053237 0 0.4795496895943212 0.39618549659938451 0 0.47367952241771161 0.41376438311263969 0 0.4795496895943212 0.39618549659938451 0 0.49999999999999939 0.38968337925823671 0 0.4795496895943212 0.39618549659938451 0 0.49999999999999978 0.40750038048351589 0 0.47367952241771161 0.41376438311263969 0 0.4795496895943212 0.39618549659938451 0 0.49999999999999939 0.38968337925823671 0 0.49999999999999978 0.40750038048351589 0 0.47577847348051661 0.37072025583723961 0 0.50000000000000333 0.3766306035995155 0 0.48572829580841809 0.38350819291988619 0 0.4795496895943212 0.39618549659938451 0 0.49999999999999939 0.38968337925823671 0 0.48572829580841809 0.38350819291988619 0 0.49999999999999939 0.38968337925823671 0 0.50000000000000333 0.3766306035995155 0 0.48572829580841809 0.38350819291988619 0 0.49999999999999978 0.40750038048351589 0 0.47784053195349852 0.43697340846236449 0 0.5 0.46155090596141829 0 0.49999999999999978 0.40750038048351589 0 0.47367952241771161 0.41376438311263969 0 0.49999999999999978 0.40750038048351589 0 0.47367952241771161 0.41376438311263969 0 0.47784053195349852 0.43697340846236449 0 0.47367952241771161 0.41376438311263969 0 0.47784053195349852 0.43697340846236449 0 0.46352871037396659 0.42954158174435791 0 0.47367952241771161 0.41376438311263969 0 0.46352871037396659 0.42954158174435791 0 0.44735904483542333 0.4200283857417636 0 0.45909937918864302 0.40268761394053237 0 0.47367952241771161 0.41376438311263969 0 0.44735904483542333 0.4200283857417636 0 0.47367952241771161 0.41376438311263969 0 0.44735904483542333 0.4200283857417636 0 0.44473305844400302 0.40493847534095823 0 0.45909937918864302 0.40268761394053237 0 0.44735904483542333 0.4200283857417636 0 0.42986137633261179 0.40846480468490742 0 0.44473305844400302 0.40493847534095823 0 0.44735904483542333 0.4200283857417636 0 0.46352871037396659 0.42954158174435791 0 0.44735904483542333 0.4200283857417636 0 0.43914904854528691 0.43848591528687803 0 0.46352871037396659 0.42954158174435791 0 0.43914904854528691 0.43848591528687803 0 0.45577330158500912 0.44662410545510578 0 0.43914904854528691 0.43848591528687803 0 0.45577330158500912 0.44662410545510578 0 0.43536256277303581 0.45999783460498372 0 0.47784053195349852 0.43697340846236449 0 0.45577330158500912 0.44662410545510578 0 0.47228346186856007 0.46974341210107329 0 0.45577330158500912 0.44662410545510578 0 0.45195341308595388 0.47331205272755161 0 0.43536256277303581 0.45999783460498372 0 0.45577330158500912 0.44662410545510578 0 0.45195341308595388 0.47331205272755161 0 0.45577330158500912 0.44662410545510578 0 0.47228346186856007 0.46974341210107329 0 0.45195341308595388 0.47331205272755161 0 0.47784053195349852 0.43697340846236449 0 0.46352871037396659 0.42954158174435791 0 0.45577330158500912 0.44662410545510578 0 0.47784053195349852 0.43697340846236449 0 0.5 0.46155090596141829 0 0.47228346186856007 0.46974341210107329 0 0.5 0.46155090596141829 0 0.5 0.5 0 0.47228346186856007 0.46974341210107329 0 0.5 0.5 0 0.47228346186856007 0.46974341210107329 0 0.44813352458689898 0.49999999999999728 0 0.47228346186856007 0.46974341210107329 0 0.45195341308595388 0.47331205272755161 0 0.44813352458689898 0.49999999999999728 0 0.45195341308595388 0.47331205272755161 0 0.4354042469341648 0.48377508599869817 0 0.43536256277303581 0.45999783460498372 0 0.45195341308595388 0.47331205272755161 0 0.44813352458689898 0.49999999999999728 0 0.4354042469341648 0.48377508599869817 0 0.45195341308595388 0.47331205272755161 0 0.44813352458689898 0.49999999999999728 0 0.41985178789285937 0.5 0 0.41552215508915719 0.47351656474382597 0 0.4354042469341648 0.48377508599869817 0 0.44813352458689898 0.49999999999999728 0 0.41985178789285937 0.5 0 0.4354042469341648 0.48377508599869817 0 0.41985178789285937 0.5 0 0.41552215508915719 0.47351656474382597 0 0.40407476420878369 0.48708047596441262 0 0.41552215508915719 0.47351656474382597 0 0.4354042469341648 0.48377508599869817 0 0.43536256277303581 0.45999783460498372 0 0.41552215508915719 0.47351656474382597 0 0.43536256277303581 0.45999783460498372 0 0.41554224075014229 0.45088137436309572 0 0.43914904854528691 0.43848591528687803 0 0.43536256277303581 0.45999783460498372 0 0.41554224075014229 0.45088137436309572 0 0.42103856725313499 0.42629238837088751 0 0.43914904854528691 0.43848591528687803 0 0.41554224075014229 0.45088137436309572 0 0.42103856725313499 0.42629238837088751 0 0.41554224075014229 0.45088137436309572 0 0.40339276060194812 0.44223768675513081 0 0.41552215508915719 0.47351656474382597 0 0.41554224075014229 0.45088137436309572 0 0.39858304260257083 0.45676188839680049 0 0.41552215508915719 0.47351656474382597 0 0.39858304260257083 0.45676188839680049 0 0.39278398476853998 0.47222053222537319 0 0.39858304260257083 0.45676188839680049 0 0.38606599746326747 0.46135581441087431 0 0.39278398476853998 0.47222053222537319 0 0.41554224075014229 0.45088137436309572 0 0.39858304260257083 0.45676188839680049 0 0.40339276060194812 0.44223768675513081 0 0.39471808967084682 0.43255639100001142 0 0.40339276060194812 0.44223768675513081 0 0.38708186273304579 0.44469639164485852 0 0.39858304260257083 0.45676188839680049 0 0.40339276060194812 0.44223768675513081 0 0.38708186273304579 0.44469639164485852 0 0.36734929289761548 0.46389375133865951 0 0.3713559959980865 0.44834239135753878 0 0.38708186273304579 0.44469639164485852 0 0.3713559959980865 0.44834239135753878 0 0.37795693461410862 0.43248932227343789 0 0.38708186273304579 0.44469639164485852 0 0.36734929289761548 0.46389375133865951 0 0.38708186273304579 0.44469639164485852 0 0.38708186273304579 0.44469639164485852 0 0.38606599746326747 0.46135581441087431 0 0.37956017847766738 0.46020704583401723 0 0.36734929289761548 0.46389375133865951 0 0.38708186273304579 0.44469639164485852 0 0.37956017847766738 0.46020704583401723 0 0.39858304260257083 0.45676188839680049 0 0.38708186273304579 0.44469639164485852 0 0.38606599746326747 0.46135581441087431 0 0.38606599746326747 0.46135581441087431 0 0.37774356081674049 0.47088222594167639 0 0.39278398476853998 0.47222053222537319 0 0.38606599746326747 0.46135581441087431 0 0.37956017847766738 0.46020704583401723 0 0.37774356081674049 0.47088222594167639 0 0.37774356081674049 0.47088222594167639 0 0.37912745472777248 0.4839790046718056 0 0.39278398476853998 0.47222053222537319 0 0.36328831450478022 0.49999999999999789 0 0.37912745472777248 0.4839790046718056 0 0.39157005119881982 0.5 0 0.37912745472777248 0.4839790046718056 0 0.40407476420878369 0.48708047596441262 0 0.39157005119881982 0.5 0 0.41985178789285937 0.5 0 0.40407476420878369 0.48708047596441262 0 0.39157005119881982 0.5 0 0.41552215508915719 0.47351656474382597 0 0.40407476420878369 0.48708047596441262 0 0.39278398476853998 0.47222053222537319 0 0.37912745472777248 0.4839790046718056 0 0.40407476420878369 0.48708047596441262 0 0.39278398476853998 0.47222053222537319 0 0.32953864664077981 0.090109625794917853 0 0.33284058640317898 0.072272731080404051 0 0.33549098399738547 0.083967705221696221 0 0.32953864664077981 0.090109625794917853 0 0.33284058640317898 0.072272731080404051 0 0.33549098399738547 0.083967705221696221 0 0.32953864664077981 0.090109625794917853 0 0.33795689588533251 0.092961437387074408 0 0.33549098399738547 0.083967705221696221 0 0.34162780706024931 0.080527026624387404 0 0.33284058640317898 0.072272731080404051 0 0.33549098399738547 0.083967705221696221 0 0.33795689588533251 0.092961437387074408 0 0.34162780706024931 0.080527026624387404 0 0.33284058640317898 0.072272731080404051 0 0.34464119895373929 0.066446645453315287 0 0.34469344123906609 0.073535897292770519 0 0.33284058640317898 0.072272731080404051 0 0.34661215215566948 0.053431698247673402 0 0.34162780706024931 0.080527026624387404 0 0.33284058640317898 0.072272731080404051 0 0.34469344123906609 0.073535897292770519 0 0.33284058640317898 0.072272731080404051 0 0.34464119895373929 0.066446645453315287 0 0.34661215215566948 0.053431698247673402 0 0.33284058640317898 0.072272731080404051 0 0.31452651678889337 0.07656121504677392 0 0.30618351596347498 0.058826861766911487 0 0.33284058640317898 0.072272731080404051 0 0.31452651678889337 0.07656121504677392 0 0.31771215236133621 0.092970110566009317 0 0.32953864664077981 0.090109625794917853 0 0.33284058640317898 0.072272731080404051 0 0.31771215236133621 0.092970110566009317 0 0.33284058640317898 0.072272731080404051 0 0.31771215236133621 0.092970110566009317 0 0.31771215236133621 0.092970110566009317 0 0.32387511316785289 0.112840755379395 0 0.30258371831949182 0.11366749005161331 0 0.31771215236133621 0.092970110566009317 0 0.32623670687838258 0.1079465205094321 0 0.32387511316785289 0.112840755379395 0 0.32953864664077981 0.090109625794917853 0 0.31771215236133621 0.092970110566009317 0 0.32623670687838258 0.1079465205094321 0 0.32953864664077981 0.090109625794917853 0 0.32623670687838258 0.1079465205094321 0 0.32387511316785289 0.112840755379395 0 0.30979333045037333 0.13272007337171571 0 0.32387511316785289 0.112840755379395 0 0.32476509091358458 0.12445416603605459 0 0.30979333045037333 0.13272007337171571 0 0.32387511316785289 0.112840755379395 0 0.32476509091358458 0.12445416603605459 0 0.32924715350015371 0.11677801021794811 0 0.32476509091358458 0.12445416603605459 0 0.33447907505053631 0.11983960040941929 0 0.33185734839169467 0.12782465862182191 0 0.32476509091358458 0.12445416603605459 0 0.33447907505053631 0.11983960040941929 0 0.32924715350015371 0.11677801021794811 0 0.32387511316785289 0.112840755379395 0 0.32924715350015371 0.11677801021794811 0 0.3338693348686409 0.10997751904692341 0 0.33447907505053631 0.11983960040941929 0 0.32924715350015371 0.11677801021794811 0 0.3338693348686409 0.10997751904692341 0 0.33447907505053631 0.11983960040941929 0 0.3338693348686409 0.10997751904692341 0 0.34318155490553692 0.11158956423778151 0 0.33447907505053631 0.11983960040941929 0 0.34291449434417698 0.1214302755990124 0 0.33907819653582849 0.13049635195894599 0 0.33447907505053631 0.11983960040941929 0 0.34318155490553692 0.11158956423778151 0 0.34291449434417698 0.1214302755990124 0 0.33795689588533251 0.092961437387074408 0 0.32623670687838258 0.1079465205094321 0 0.32387511316785289 0.112840755379395 0 0.33795689588533251 0.092961437387074408 0 0.32387511316785289 0.112840755379395 0 0.33795689588533251 0.092961437387074408 0 0.32387511316785289 0.112840755379395 0 0.3338693348686409 0.10997751904692341 0 0.32953864664077981 0.090109625794917853 0 0.33795689588533251 0.092961437387074408 0 0.32623670687838258 0.1079465205094321 0 0.33795689588533251 0.092961437387074408 0 0.3338693348686409 0.10997751904692341 0 0.34187184455993069 0.1029483519014997 0 0.3338693348686409 0.10997751904692341 0 0.34318155490553692 0.11158956423778151 0 0.34187184455993069 0.1029483519014997 0 0.33795689588533251 0.092961437387074408 0 0.34187184455993069 0.1029483519014997 0 0.34644403122340739 0.096697781464997523 0 0.34187184455993069 0.1029483519014997 0 0.34644403122340739 0.096697781464997523 0 0.35160537102003919 0.1039025022373354 0 0.34644403122340739 0.096697781464997523 0 0.35160537102003919 0.1039025022373354 0 0.35659584534790179 0.093984960483480651 0 0.35160537102003919 0.1039025022373354 0 0.35368848471279318 0.1164337020708433 0 0.37168386170311291 0.10497631158614169 0 0.34318155490553692 0.11158956423778151 0 0.34187184455993069 0.1029483519014997 0 0.35160537102003919 0.1039025022373354 0 0.34291449434417698 0.1214302755990124 0 0.35368848471279318 0.1164337020708433 0 0.34876635351862267 0.12916398940766721 0 0.34318155490553692 0.11158956423778151 0 0.34291449434417698 0.1214302755990124 0 0.35368848471279318 0.1164337020708433 0 0.34318155490553692 0.11158956423778151 0 0.35160537102003919 0.1039025022373354 0 0.35368848471279318 0.1164337020708433 0 0.35368848471279318 0.1164337020708433 0 0.34876635351862267 0.12916398940766721 0 0.36363038123728758 0.12730474371633149 0 0.37168386170311291 0.10497631158614169 0 0.36363038123728758 0.12730474371633149 0 0.38235590342937159 0.1277180993298854 0 0.35368848471279318 0.1164337020708433 0 0.37168386170311291 0.10497631158614169 0 0.36363038123728758 0.12730474371633149 0 0.35659584534790179 0.093984960483480651 0 0.37168386170311291 0.10497631158614169 0 0.36532807411096802 0.087004242176129898 0 0.35160537102003919 0.1039025022373354 0 0.35659584534790179 0.093984960483480651 0 0.37168386170311291 0.10497631158614169 0 0.37168386170311291 0.10497631158614169 0 0.36532807411096802 0.087004242176129898 0 0.3790221715104749 0.08404117392570333 0 0.36532807411096802 0.087004242176129898 0 0.36964290334501382 0.077882963597786417 0 0.3790221715104749 0.08404117392570333 0 0.36532807411096802 0.087004242176129898 0 0.35588628745111189 0.084961307569110758 0 0.35913737530819267 0.076178735894556648 0 0.36532807411096802 0.087004242176129898 0 0.35913737530819267 0.076178735894556648 0 0.36964290334501382 0.077882963597786417 0 0.33795689588533251 0.092961437387074408 0 0.35203867860281141 0.073082119394753287 0 0.33795689588533251 0.092961437387074408 0 0.35139361499555638 0.076057472205469503 0 0.35203867860281141 0.073082119394753287 0 0.33795689588533251 0.092961437387074408 0 0.34915850446458663 0.089001597594169368 0 0.35139361499555638 0.076057472205469503 0 0.35659584534790179 0.093984960483480651 0 0.35588628745111189 0.084961307569110758 0 0.34915850446458663 0.089001597594169368 0 0.35659584534790179 0.093984960483480651 0 0.36532807411096802 0.087004242176129898 0 0.35588628745111189 0.084961307569110758 0 0.33795689588533251 0.092961437387074408 0 0.34162780706024931 0.080527026624387404 0 0.35203867860281141 0.073082119394753287 0 0.35588628745111189 0.084961307569110758 0 0.34915850446458663 0.089001597594169368 0 0.35139361499555638 0.076057472205469503 0 0.35588628745111189 0.084961307569110758 0 0.35139361499555638 0.076057472205469503 0 0.35913737530819267 0.076178735894556648 0 0.34644403122340739 0.096697781464997523 0 0.35659584534790179 0.093984960483480651 0 0.34915850446458663 0.089001597594169368 0 0.33795689588533251 0.092961437387074408 0 0.34644403122340739 0.096697781464997523 0 0.34915850446458663 0.089001597594169368 0 0.34972386705143588 0.063280900055611461 0 0.35203867860281141 0.073082119394753287 0 0.35621119825547942 0.053836392404845092 0 0.35203867860281141 0.073082119394753287 0 0.35621119825547942 0.053836392404845092 0 0.35203867860281141 0.073082119394753287 0 0.35737096344319208 0.065554508147353696 0 0.35621119825547942 0.053836392404845092 0 0.34777429646176322 0.069086390549112642 0 0.34972386705143588 0.063280900055611461 0 0.35203867860281141 0.073082119394753287 0 0.34777429646176322 0.069086390549112642 0 0.34972386705143588 0.063280900055611461 0 0.34464119895373929 0.066446645453315287 0 0.34777429646176322 0.069086390549112642 0 0.34464119895373929 0.066446645453315287 0 0.34469344123906609 0.073535897292770519 0 0.34162780706024931 0.080527026624387404 0 0.34469344123906609 0.073535897292770519 0 0.35203867860281141 0.073082119394753287 0 0.34777429646176322 0.069086390549112642 0 0.34469344123906609 0.073535897292770519 0 0.35203867860281141 0.073082119394753287 0 0.35139361499555638 0.076057472205469503 0 0.35203867860281141 0.073082119394753287 0 0.35913737530819267 0.076178735894556648 0 0.35139361499555638 0.076057472205469503 0 0.35203867860281141 0.073082119394753287 0 0.35203867860281141 0.073082119394753287 0 0.35913737530819267 0.076178735894556648 0 0.35714978832683159 0.071050239299745965 0 0.35203867860281141 0.073082119394753287 0 0.35714978832683159 0.071050239299745965 0 0.35737096344319208 0.065554508147353696 0 0.35203867860281141 0.073082119394753287 0 0.35737096344319208 0.065554508147353696 0 0.35714978832683159 0.071050239299745965 0 0.35737096344319208 0.065554508147353696 0 0.36546005020768352 0.067951458620632593 0 0.35737096344319208 0.065554508147353696 0 0.36546005020768352 0.067951458620632593 0 0.36127344409586898 0.05907762515089178 0 0.35913737530819267 0.076178735894556648 0 0.36546005020768352 0.067951458620632593 0 0.36964290334501382 0.077882963597786417 0 0.35913737530819267 0.076178735894556648 0 0.35714978832683159 0.071050239299745965 0 0.36546005020768352 0.067951458620632593 0 0.36546005020768352 0.067951458620632593 0 0.36964290334501382 0.077882963597786417 0 0.3771576423064843 0.072019114951921634 0 0.36546005020768352 0.067951458620632593 0 0.37430426914389958 0.063334596227678119 0 0.3771576423064843 0.072019114951921634 0 0.36546005020768352 0.067951458620632593 0 0.37430426914389958 0.063334596227678119 0 0.36840037022267957 0.058264831052537588 0 0.37430426914389958 0.063334596227678119 0 0.3737480526492859 0.05788784112570268 0 0.36840037022267957 0.058264831052537588 0 0.3737480526492859 0.05788784112570268 0 0.36840037022267957 0.058264831052537588 0 0.3729480631216312 0.051988243496014608 0 0.36840037022267957 0.058264831052537588 0 0.36127344409586898 0.05907762515089178 0 0.36552004985796799 0.047609179045715322 0 0.36546005020768352 0.067951458620632593 0 0.36840037022267957 0.058264831052537588 0 0.36127344409586898 0.05907762515089178 0 0.36127344409586898 0.05907762515089178 0 0.36552004985796799 0.047609179045715322 0 0.35621119825547942 0.053836392404845092 0 0.36840037022267957 0.058264831052537588 0 0.36552004985796799 0.047609179045715322 0 0.3729480631216312 0.051988243496014608 0 0.36552004985796799 0.047609179045715322 0 0.3729480631216312 0.051988243496014608 0 0.37439131565737671 0.042189232081366462 0 0.36552004985796799 0.047609179045715322 0 0.36038371790815388 0.034590665414938361 0 0.35621119825547942 0.053836392404845092 0 0.37439131565737671 0.042189232081366462 0 0.36038371790815388 0.034590665414938361 0 0.37568361593246041 0.030004370030681089 0 0.36552004985796799 0.047609179045715322 0 0.37439131565737671 0.042189232081366462 0 0.36038371790815388 0.034590665414938361 0 0.34831460232407818 0.034947652504555109 0 0.34661215215566948 0.053431698247673402 0 0.33787697389961718 0.045066446296368967 0 0.36038371790815388 0.034590665414938361 0 0.35621119825547942 0.053836392404845092 0 0.36038371790815388 0.034590665414938361 0 0.34661215215566948 0.053431698247673402 0 0.36038371790815388 0.034590665414938361 0 0.34831460232407818 0.034947652504555109 0 0.34661215215566948 0.053431698247673402 0 0.36038371790815388 0.034590665414938361 0 0.34661215215566948 0.053431698247673402 0 0.35621119825547942 0.053836392404845092 0 0.34972386705143588 0.063280900055611461 0 0.34661215215566948 0.053431698247673402 0 0.35621119825547942 0.053836392404845092 0 0.34972386705143588 0.063280900055611461 0 0.34464119895373929 0.066446645453315287 0 0.34661215215566948 0.053431698247673402 0 0.35737096344319208 0.065554508147353696 0 0.36127344409586898 0.05907762515089178 0 0.35621119825547942 0.053836392404845092 0 0.35952598283318982 0.0045837589169943956 0 0.3644348400387003 0.015904883916577451 0 0.36848596216925461 -0.0027808975817818471 0 0.3644348400387003 0.015904883916577451 0 0.36848596216925461 -0.0027808975817818471 0 0.37222212860729698 0.018394403589772929 0 0.38406053930642892 0.00219814176459928 0 0.36848596216925461 -0.0027808975817818471 0 0.3644348400387003 0.015904883916577451 0 0.37222212860729698 0.018394403589772929 0 0.36848596216925461 -0.0027808975817818471 0 0.36038371790815388 0.034590665414938361 0 0.37222212860729698 0.018394403589772929 0 0.37568361593246041 0.030004370030681089 0 0.36038371790815388 0.034590665414938361 0 0.3644348400387003 0.015904883916577451 0 0.36038371790815388 0.034590665414938361 0 0.37222212860729698 0.018394403589772929 0 0.36038371790815388 0.034590665414938361 0 0.3644348400387003 0.015904883916577451 0 0.35378680626088849 0.023789291051457499 0 0.36038371790815388 0.034590665414938361 0 0.3644348400387003 0.015904883916577451 0 0.37222212860729698 0.018394403589772929 0 0.34831460232407818 0.034947652504555109 0 0.35378680626088849 0.023789291051457499 0 0.34291336139605771 0.01786016151233406 0 0.36038371790815388 0.034590665414938361 0 0.34831460232407818 0.034947652504555109 0 0.35378680626088849 0.023789291051457499 0 0.35378680626088849 0.023789291051457499 0 0.35324461597408152 0.01328200384683483 0 0.34291336139605771 0.01786016151233406 0 0.3644348400387003 0.015904883916577451 0 0.35378680626088849 0.023789291051457499 0 0.35324461597408152 0.01328200384683483 0 0.35324461597408152 0.01328200384683483 0 0.35193851315072239 -0.0080709545136512795 0 0.35952598283318982 0.0045837589169943956 0 0.35324461597408152 0.01328200384683483 0 0.35193851315072239 -0.0080709545136512795 0 0.35324461597408152 0.01328200384683483 0 0.34291336139605771 0.01786016151233406 0 0.34794974889249652 -0.0093461232717011039 0 0.34291336139605771 0.01786016151233406 0 0.34794974889249652 -0.0093461232717011039 0 0.35952598283318982 0.0045837589169943956 0 0.3644348400387003 0.015904883916577451 0 0.35324461597408152 0.01328200384683483 0 0.34291336139605771 0.01786016151233406 0 0.3186690037540324 0.0084681899200438338 0 0.34794974889249652 -0.0093461232717011039 0 0.34291336139605771 0.01786016151233406 0 0.3186690037540324 0.0084681899200438338 0 0.31242625985875372 0.033647525843477619 0 0.3186690037540324 0.0084681899200438338 0 0.31242625985875372 0.033647525843477619 0 0.33787697389961718 0.045066446296368967 0 0.30618351596347498 0.058826861766911487 0 0.31242625985875372 0.033647525843477619 0 0.33284058640317898 0.072272731080404051 0 0.33787697389961718 0.045066446296368967 0 0.30618351596347498 0.058826861766911487 0 0.33284058640317898 0.072272731080404051 0 0.33787697389961718 0.045066446296368967 0 0.33284058640317898 0.072272731080404051 0 0.34661215215566948 0.053431698247673402 0 0.33787697389961718 0.045066446296368967 0 0.34291336139605771 0.01786016151233406 0 0.33787697389961718 0.045066446296368967 0 0.34831460232407818 0.034947652504555109 0 0.34291336139605771 0.01786016151233406 0 0.33787697389961718 0.045066446296368967 0 0.34291336139605771 0.01786016151233406 0 0.33787697389961718 0.045066446296368967 0 0.31242625985875372 0.033647525843477619 0 0.30618351596347498 0.058826861766911487 0 0.29868689046381608 0.044606188066654423 0 0.29227420466955562 0.058117613584716517 0 0.30618351596347498 0.058826861766911487 0 0.31242625985875372 0.033647525843477619 0 0.30618351596347498 0.058826861766911487 0 0.31242625985875372 0.033647525843477619 0 0.29868689046381608 0.044606188066654423 0 0.31242625985875372 0.033647525843477619 0 0.29868689046381608 0.044606188066654423 0 0.29803829738236393 0.030246726416644769 0 0.29868689046381608 0.044606188066654423 0 0.28451217444493238 0.042192212721521669 0 0.29803829738236393 0.030246726416644769 0 0.28451217444493238 0.042192212721521669 0 0.29227420466955562 0.058117613584716517 0 0.27915345206723158 0.071256112324916909 0 0.28451217444493238 0.042192212721521669 0 0.27915345206723158 0.071256112324916909 0 0.29868689046381608 0.044606188066654423 0 0.28451217444493238 0.042192212721521669 0 0.29227420466955562 0.058117613584716517 0 0.3186690037540324 0.0084681899200438338 0 0.30401492553729509 0.0035714526625518629 0 0.31099124674179951 -0.0075645759515133174 0 0.30401492553729509 0.0035714526625518629 0 0.28987089682263317 0.01312831311812623 0 0.30029053096928288 -0.0041408854862211106 0 0.3186690037540324 0.0084681899200438338 0 0.30401492553729509 0.0035714526625518629 0 0.30460387667101568 0.017812441592168861 0 0.30401492553729509 0.0035714526625518629 0 0.30460387667101568 0.017812441592168861 0 0.28987089682263317 0.01312831311812623 0 0.30460387667101568 0.017812441592168861 0 0.29803829738236393 0.030246726416644769 0 0.28987089682263317 0.01312831311812623 0 0.31242625985875372 0.033647525843477619 0 0.30460387667101568 0.017812441592168861 0 0.29803829738236393 0.030246726416644769 0 0.3186690037540324 0.0084681899200438338 0 0.31242625985875372 0.033647525843477619 0 0.30460387667101568 0.017812441592168861 0 0.28451217444493238 0.042192212721521669 0 0.28262881016197039 0.023221990845361688 0 0.28987089682263317 0.01312831311812623 0 0.28451217444493238 0.042192212721521669 0 0.28987089682263317 0.01312831311812623 0 0.28451217444493238 0.042192212721521669 0 0.29803829738236393 0.030246726416644769 0 0.28987089682263317 0.01312831311812623 0 0.28262881016197039 0.023221990845361688 0 0.28987089682263317 0.01312831311812623 0 0.28076039486998 0.010940330796390381 0 0.28987089682263317 0.01312831311812623 0 0.28647542284004301 0.0055395812586009497 0 0.29522961920033408 -0.01593558648526916 0 0.28987089682263317 0.01312831311812623 0 0.28647542284004301 0.0055395812586009497 0 0.28076039486998 0.010940330796390381 0 0.28647542284004301 0.0055395812586009497 0 0.27964016863840641 0.0045184138826110803 0 0.28684033492735211 -0.0042431203533897077 0 0.28647542284004301 0.0055395812586009497 0 0.27964016863840641 0.0045184138826110803 0 0.28076039486998 0.010940330796390381 0 0.27964016863840641 0.0045184138826110803 0 0.28076039486998 0.010940330796390381 0 0.27541773044392681 0.029968745441502982 0 0.27964016863840641 0.0045184138826110803 0 0.27049320987814568 0.019273158754156791 0 0.27389119817144431 0.020387949478464371 0 0.2657252734336269 0.0024632726037020292 0 0.27098696738999262 0.005743386228859189 0 0.27204340244472158 -0.0033132433083641558 0 0.2657252734336269 0.0024632726037020292 0 0.27098696738999262 0.005743386228859189 0 0.26502218425809709 0.0099619708016381349 0 0.27098696738999262 0.005743386228859189 0 0.27964016863840641 0.0045184138826110803 0 0.27204340244472158 -0.0033132433083641558 0 0.27098696738999262 0.005743386228859189 0 0.27964016863840641 0.0045184138826110803 0 0.27081976041402489 0.013033918955480461 0 0.27964016863840641 0.0045184138826110803 0 0.27081976041402489 0.013033918955480461 0 0.27049320987814568 0.019273158754156791 0 0.27081976041402489 0.013033918955480461 0 0.26366677163060792 0.01813194390443466 0 0.26502218425809709 0.0099619708016381349 0 0.27098696738999262 0.005743386228859189 0 0.27081976041402489 0.013033918955480461 0 0.26502218425809709 0.0099619708016381349 0 0.27964016863840641 0.0045184138826110803 0 0.27389119817144431 0.020387949478464371 0 0.27541773044392681 0.029968745441502982 0 0.28262881016197039 0.023221990845361688 0 0.28076039486998 0.010940330796390381 0 0.27634122593778138 0.033936300617137843 0 0.28076039486998 0.010940330796390381 0 0.27634122593778138 0.033936300617137843 0 0.28076039486998 0.010940330796390381 0 0.27541773044392681 0.029968745441502982 0 0.27634122593778138 0.033936300617137843 0 0.27964016863840641 0.0045184138826110803 0 0.27541773044392681 0.029968745441502982 0 0.27049320987814568 0.019273158754156791 0 0.27389119817144431 0.020387949478464371 0 0.27001368372529833 0.027791479835586629 0 0.27049320987814568 0.019273158754156791 0 0.26467337520132411 0.026458750562573199 0 0.26366677163060792 0.01813194390443466 0 0.27081976041402489 0.013033918955480461 0 0.27049320987814568 0.019273158754156791 0 0.26366677163060792 0.01813194390443466 0 0.27049320987814568 0.019273158754156791 0 0.27001368372529833 0.027791479835586629 0 0.26467337520132411 0.026458750562573199 0 0.27389119817144431 0.020387949478464371 0 0.27541773044392681 0.029968745441502982 0 0.27001368372529833 0.027791479835586629 0 0.27541773044392681 0.029968745441502982 0 0.27001368372529833 0.027791479835586629 0 0.27096557376257729 0.03326744754188031 0 0.27001368372529833 0.027791479835586629 0 0.26467337520132411 0.026458750562573199 0 0.26683054095474917 0.033623773642067457 0 0.26467337520132411 0.026458750562573199 0 0.25405393556980521 0.02523596787992622 0 0.26008066891817883 0.035539895841192382 0 0.24744632022655191 0.014158393180581069 0 0.25405393556980521 0.02523596787992622 0 0.25693816446225032 0.01482789647283316 0 0.26467337520132411 0.026458750562573199 0 0.25405393556980521 0.02523596787992622 0 0.26366677163060792 0.01813194390443466 0 0.25405393556980521 0.02523596787992622 0 0.26366677163060792 0.01813194390443466 0 0.25693816446225032 0.01482789647283316 0 0.26366677163060792 0.01813194390443466 0 0.26502218425809709 0.0099619708016381349 0 0.25693816446225032 0.01482789647283316 0 0.26502218425809709 0.0099619708016381349 0 0.25693816446225032 0.01482789647283316 0 0.25712954117744752 0.0064660173255619569 0 0.24744632022655191 0.014158393180581069 0 0.25693816446225032 0.01482789647283316 0 0.25712954117744752 0.0064660173255619569 0 0.25712954117744752 0.0064660173255619569 0 0.25856925482875243 -0.0020804629474657828 0 0.24853671956149301 -0.00016400905018209389 0 0.24744632022655191 0.014158393180581069 0 0.25712954117744752 0.0064660173255619569 0 0.24853671956149301 -0.00016400905018209389 0 0.2657252734336269 0.0024632726037020292 0 0.25712954117744752 0.0064660173255619569 0 0.25856925482875243 -0.0020804629474657828 0 0.2657252734336269 0.0024632726037020292 0 0.26502218425809709 0.0099619708016381349 0 0.25712954117744752 0.0064660173255619569 0 0.28451217444493238 0.042192212721521669 0 0.27192205700558281 0.056932270437885291 0 0.27915345206723158 0.071256112324916909 0 0.28451217444493238 0.042192212721521669 0 0.28262881016197039 0.023221990845361688 0 0.27634122593778138 0.033936300617137843 0 0.28451217444493238 0.042192212721521669 0 0.27192205700558281 0.056932270437885291 0 0.27634122593778138 0.033936300617137843 0 0.27192205700558281 0.056932270437885291 0 0.27634122593778138 0.033936300617137843 0 0.27192205700558281 0.056932270437885291 0 0.27634122593778138 0.033936300617137843 0 0.26622468775113101 0.04101693817310665 0 0.27541773044392681 0.029968745441502982 0 0.27634122593778138 0.033936300617137843 0 0.27096557376257729 0.03326744754188031 0 0.27634122593778138 0.033936300617137843 0 0.27096557376257729 0.03326744754188031 0 0.26622468775113101 0.04101693817310665 0 0.27096557376257729 0.03326744754188031 0 0.26683054095474917 0.033623773642067457 0 0.26622468775113101 0.04101693817310665 0 0.27001368372529833 0.027791479835586629 0 0.27096557376257729 0.03326744754188031 0 0.26683054095474917 0.033623773642067457 0 0.26622468775113101 0.04101693817310665 0 0.25834692689542937 0.042310816043817812 0 0.26008066891817883 0.035539895841192382 0 0.26622468775113101 0.04101693817310665 0 0.25834692689542937 0.042310816043817812 0 0.25694673493277959 0.050757467121346322 0 0.26467337520132411 0.026458750562573199 0 0.26683054095474917 0.033623773642067457 0 0.26008066891817883 0.035539895841192382 0 0.26683054095474917 0.033623773642067457 0 0.26622468775113101 0.04101693817310665 0 0.26008066891817883 0.035539895841192382 0 0.24897128052444459 0.039928538212441661 0 0.25405393556980521 0.02523596787992622 0 0.26008066891817883 0.035539895841192382 0 0.24897128052444459 0.039928538212441661 0 0.25834692689542937 0.042310816043817812 0 0.25694673493277959 0.050757467121346322 0 0.24897128052444459 0.039928538212441661 0 0.25834692689542937 0.042310816043817812 0 0.26008066891817883 0.035539895841192382 0 0.27192205700558281 0.056932270437885291 0 0.25694673493277959 0.050757467121346322 0 0.25536567821356437 0.059776847080589238 0 0.2443517649323515 0.052347169126300573 0 0.24897128052444459 0.039928538212441661 0 0.25694673493277959 0.050757467121346322 0 0.27192205700558281 0.056932270437885291 0 0.25536567821356437 0.059776847080589238 0 0.26134567192119851 0.066822395116990646 0 0.2443517649323515 0.052347169126300573 0 0.25694673493277959 0.050757467121346322 0 0.25536567821356437 0.059776847080589238 0 0.27192205700558281 0.056932270437885291 0 0.26622468775113101 0.04101693817310665 0 0.25694673493277959 0.050757467121346322 0 0.24703616076081211 0.064606006619406756 0 0.25302199552849458 0.075604107659376696 0 0.26134567192119851 0.066822395116990646 0 0.24703616076081211 0.064606006619406756 0 0.25536567821356437 0.059776847080589238 0 0.26134567192119851 0.066822395116990646 0 0.25302199552849458 0.075604107659376696 0 0.26134567192119851 0.066822395116990646 0 0.26750288807338418 0.079928240258632752 0 0.26750288807338418 0.079928240258632752 0 0.26308371914118561 0.1029242100793802 0 0.25302199552849458 0.075604107659376696 0 0.25166648157585242 0.089020785994436816 0 0.26750288807338418 0.079928240258632752 0 0.25166648157585242 0.089020785994436816 0 0.26750288807338418 0.079928240258632752 0 0.26308371914118561 0.1029242100793802 0 0.27915345206723158 0.071256112324916909 0 0.27379472968953078 0.10032001192831221 0 0.27915345206723158 0.071256112324916909 0 0.2864512665426 0.085314251764127103 0 0.27379472968953078 0.10032001192831221 0 0.26750288807338418 0.079928240258632752 0 0.27915345206723158 0.071256112324916909 0 0.27379472968953078 0.10032001192831221 0 0.27192205700558281 0.056932270437885291 0 0.26750288807338418 0.079928240258632752 0 0.27192205700558281 0.056932270437885291 0 0.26750288807338418 0.079928240258632752 0 0.27915345206723158 0.071256112324916909 0 0.27192205700558281 0.056932270437885291 0 0.26134567192119851 0.066822395116990646 0 0.26750288807338418 0.079928240258632752 0 0.29227420466955562 0.058117613584716517 0 0.27915345206723158 0.071256112324916909 0 0.2928006422622117 0.071504207426203489 0 0.27915345206723158 0.071256112324916909 0 0.2928006422622117 0.071504207426203489 0 0.2864512665426 0.085314251764127103 0 0.2864512665426 0.085314251764127103 0 0.29994077206819619 0.08400619769034548 0 0.28617428090509928 0.099302077438175651 0 0.2928006422622117 0.071504207426203489 0 0.2864512665426 0.085314251764127103 0 0.29994077206819619 0.08400619769034548 0 0.31452651678889337 0.07656121504677392 0 0.31771215236133621 0.092970110566009317 0 0.29994077206819619 0.08400619769034548 0 0.31771215236133621 0.092970110566009317 0 0.29994077206819619 0.08400619769034548 0 0.30436317022843601 0.099090514428224918 0 0.30618351596347498 0.058826861766911487 0 0.2928006422622117 0.071504207426203489 0 0.29994077206819619 0.08400619769034548 0 0.30618351596347498 0.058826861766911487 0 0.29994077206819619 0.08400619769034548 0 0.31452651678889337 0.07656121504677392 0 0.30618351596347498 0.058826861766911487 0 0.29994077206819619 0.08400619769034548 0 0.30618351596347498 0.058826861766911487 0 0.29227420466955562 0.058117613584716517 0 0.2928006422622117 0.071504207426203489 0 0.32387511316785289 0.112840755379395 0 0.30258371831949182 0.11366749005161331 0 0.30979333045037333 0.13272007337171571 0 0.31771215236133621 0.092970110566009317 0 0.30258371831949182 0.11366749005161331 0 0.29994077206819619 0.08400619769034548 0 0.30436317022843601 0.099090514428224918 0 0.29369802817291751 0.1091855336137794 0 0.31771215236133621 0.092970110566009317 0 0.30258371831949182 0.11366749005161331 0 0.30436317022843601 0.099090514428224918 0 0.30258371831949182 0.11366749005161331 0 0.30436317022843601 0.099090514428224918 0 0.29369802817291751 0.1091855336137794 0 0.29369802817291751 0.1091855336137794 0 0.28617428090509928 0.099302077438175651 0 0.28097424374705049 0.1150045193751065 0 0.29994077206819619 0.08400619769034548 0 0.29369802817291751 0.1091855336137794 0 0.29994077206819619 0.08400619769034548 0 0.29369802817291751 0.1091855336137794 0 0.28617428090509928 0.099302077438175651 0 0.2864512665426 0.085314251764127103 0 0.28617428090509928 0.099302077438175651 0 0.27379472968953078 0.10032001192831221 0 0.30258371831949182 0.11366749005161331 0 0.28745528427764361 0.13436486953721449 0 0.29369802817291751 0.1091855336137794 0 0.28097424374705049 0.1150045193751065 0 0.28745528427764361 0.13436486953721449 0 0.30258371831949182 0.11366749005161331 0 0.29369802817291751 0.1091855336137794 0 0.28745528427764361 0.13436486953721449 0 0.29369802817291751 0.1091855336137794 0 0.28745528427764361 0.13436486953721449 0 0.28097424374705049 0.1150045193751065 0 0.27379472968953078 0.10032001192831221 0 0.26843600731182998 0.1293839115317075 0 0.27379472968953078 0.10032001192831221 0 0.25823040769300448 0.1151039680071204 0 0.26843600731182998 0.1293839115317075 0 0.27379472968953078 0.10032001192831221 0 0.26843600731182998 0.1293839115317075 0 0.28617428090509928 0.099302077438175651 0 0.28097424374705049 0.1150045193751065 0 0.27379472968953078 0.10032001192831221 0 0.26750288807338418 0.079928240258632752 0 0.27379472968953078 0.10032001192831221 0 0.26308371914118561 0.1029242100793802 0 0.27379472968953078 0.10032001192831221 0 0.26308371914118561 0.1029242100793802 0 0.25823040769300448 0.1151039680071204 0 0.24824913858458669 0.10321574892714851 0 0.26308371914118561 0.1029242100793802 0 0.25823040769300448 0.1151039680071204 0 0.24824913858458669 0.10321574892714851 0 0.25166648157585242 0.089020785994436816 0 0.26308371914118561 0.1029242100793802 0 0.24285347264255319 0.117037346672415 0 0.25823040769300448 0.1151039680071204 0 0.25296537878834119 0.13774257890375879 0 0.25823040769300448 0.1151039680071204 0 0.25296537878834119 0.13774257890375879 0 0.26843600731182998 0.1293839115317075 0 0.28097424374705049 0.1150045193751065 0 0.26843600731182998 0.1293839115317075 0 0.28745528427764361 0.13436486953721449 0 0.26843600731182998 0.1293839115317075 0 0.27412354573882092 0.1526041698493136 0 0.28745528427764361 0.13436486953721449 0 0.26843600731182998 0.1293839115317075 0 0.26307728493412919 0.15844781113510281 0 0.27412354573882092 0.1526041698493136 0 0.28038537358259219 0.16288048051300311 0 0.28745528427764361 0.13436486953721449 0 0.26843600731182998 0.1293839115317075 0 0.27412354573882092 0.1526041698493136 0 0.26307728493412919 0.15844781113510281 0 0.27412354573882092 0.1526041698493136 0 0.28745528427764361 0.13436486953721449 0 0.24355411021538739 0.14984037209567899 0 0.25296537878834119 0.13774257890375879 0 0.26307728493412919 0.15844781113510281 0 0.25296537878834119 0.13774257890375879 0 0.26307728493412919 0.15844781113510281 0 0.25296537878834119 0.13774257890375879 0 0.26843600731182998 0.1293839115317075 0 0.26307728493412919 0.15844781113510281 0 0.24829504693030499 0.16256673788959519 0 0.24355411021538739 0.14984037209567899 0 0.26307728493412919 0.15844781113510281 0 0.24829504693030499 0.16256673788959519 0 0.2607918071999954 0.17084347016141069 0 0.26307728493412919 0.15844781113510281 0 0.2607918071999954 0.17084347016141069 0 0.26307728493412919 0.15844781113510281 0 0.26509624914602059 0.1625818608653205 0 0.26307728493412919 0.15844781113510281 0 0.2607918071999954 0.17084347016141069 0 0.26509624914602059 0.1625818608653205 0 0.26307728493412919 0.15844781113510281 0 0.24880326160319841 0.18724513321596251 0 0.2607918071999954 0.17084347016141069 0 0.25715210059945831 0.1905840090003062 0 0.2607918071999954 0.17084347016141069 0 0.25715210059945831 0.1905840090003062 0 0.2733154628875466 0.1913960914887928 0 0.2607918071999954 0.17084347016141069 0 0.25715210059945831 0.1905840090003062 0 0.24880326160319841 0.18724513321596251 0 0.2607918071999954 0.17084347016141069 0 0.2607918071999954 0.17084347016141069 0 0.28038537358259219 0.16288048051300311 0 0.2733154628875466 0.1913960914887928 0 0.28350883203912258 0.17535431943130619 0 0.2733154628875466 0.1913960914887928 0 0.28038537358259219 0.16288048051300311 0 0.2733154628875466 0.1913960914887928 0 0.28038537358259219 0.16288048051300311 0 0.28350883203912258 0.17535431943130619 0 0.2733154628875466 0.1913960914887928 0 0.27412354573882092 0.1526041698493136 0 0.2607918071999954 0.17084347016141069 0 0.28038537358259219 0.16288048051300311 0 0.27412354573882092 0.1526041698493136 0 0.2607918071999954 0.17084347016141069 0 0.26509624914602059 0.1625818608653205 0 0.27412354573882092 0.1526041698493136 0 0.2607918071999954 0.17084347016141069 0 0.27412354573882092 0.1526041698493136 0 0.26509624914602059 0.1625818608653205 0 0.26307728493412919 0.15844781113510281 0 0.28038537358259219 0.16288048051300311 0 0.29061303297057423 0.16337478083918339 0 0.29273925002897938 0.15240067429033349 0 0.28038537358259219 0.16288048051300311 0 0.29061303297057423 0.16337478083918339 0 0.28350883203912258 0.17535431943130619 0 0.29664679844880087 0.17028521016901241 0 0.29061303297057423 0.16337478083918339 0 0.30061082445655007 0.1599643200588183 0 0.29664679844880087 0.17028521016901241 0 0.29061303297057423 0.16337478083918339 0 0.28350883203912258 0.17535431943130619 0 0.29061303297057423 0.16337478083918339 0 0.30061082445655007 0.1599643200588183 0 0.29273925002897938 0.15240067429033349 0 0.29664679844880087 0.17028521016901241 0 0.28837007658248509 0.18605259447596659 0 0.30010280401241851 0.1891866607581271 0 0.29664679844880087 0.17028521016901241 0 0.28837007658248509 0.18605259447596659 0 0.28350883203912258 0.17535431943130619 0 0.28837007658248509 0.18605259447596659 0 0.28350883203912258 0.17535431943130619 0 0.2733154628875466 0.1913960914887928 0 0.29664679844880087 0.17028521016901241 0 0.30860063063363619 0.1790522775381615 0 0.30010280401241851 0.1891866607581271 0 0.29664679844880087 0.17028521016901241 0 0.30860063063363619 0.1790522775381615 0 0.31466797050833312 0.1695862034707647 0 0.30860063063363619 0.1790522775381615 0 0.31018239011158671 0.18704781474806989 0 0.31809182910409378 0.18508023929972819 0 0.30860063063363619 0.1790522775381615 0 0.31018239011158671 0.18704781474806989 0 0.30010280401241851 0.1891866607581271 0 0.29664679844880087 0.17028521016901241 0 0.31466797050833312 0.1695862034707647 0 0.29664679844880087 0.17028521016901241 0 0.30061082445655007 0.1599643200588183 0 0.31466797050833312 0.1695862034707647 0 0.30939264651914672 0.1545072212598872 0 0.31466797050833312 0.1695862034707647 0 0.30061082445655007 0.1599643200588183 0 0.30939264651914672 0.1545072212598872 0 0.31466797050833312 0.1695862034707647 0 0.30061082445655007 0.1599643200588183 0 0.30076345404433441 0.15010307695611841 0 0.29273925002897938 0.15240067429033349 0 0.30061082445655007 0.1599643200588183 0 0.30939264651914672 0.1545072212598872 0 0.30076345404433441 0.15010307695611841 0 0.30076345404433441 0.15010307695611841 0 0.30411732252995982 0.13942823904900989 0 0.29626347999726882 0.14233871187587041 0 0.31014726041652169 0.14868860328888481 0 0.31228885371621129 0.13913382566061749 0 0.30411732252995982 0.13942823904900989 0 0.30939264651914672 0.1545072212598872 0 0.30076345404433441 0.15010307695611841 0 0.30411732252995982 0.13942823904900989 0 0.31014726041652169 0.14868860328888481 0 0.30939264651914672 0.1545072212598872 0 0.30411732252995982 0.13942823904900989 0 0.30939264651914672 0.1545072212598872 0 0.30411732252995982 0.13942823904900989 0 0.30258371831949182 0.11366749005161331 0 0.30979333045037333 0.13272007337171571 0 0.30004262711494822 0.13250387677708531 0 0.31228885371621129 0.13913382566061749 0 0.30979333045037333 0.13272007337171571 0 0.30411732252995982 0.13942823904900989 0 0.30004262711494822 0.13250387677708531 0 0.30411732252995982 0.13942823904900989 0 0.29626347999726882 0.14233871187587041 0 0.30979333045037333 0.13272007337171571 0 0.30004262711494822 0.13250387677708531 0 0.30411732252995982 0.13942823904900989 0 0.30258371831949182 0.11366749005161331 0 0.30004262711494822 0.13250387677708531 0 0.28745528427764361 0.13436486953721449 0 0.30004262711494822 0.13250387677708531 0 0.28745528427764361 0.13436486953721449 0 0.29626347999726882 0.14233871187587041 0 0.28038537358259219 0.16288048051300311 0 0.28745528427764361 0.13436486953721449 0 0.29273925002897938 0.15240067429033349 0 0.28745528427764361 0.13436486953721449 0 0.29273925002897938 0.15240067429033349 0 0.29626347999726882 0.14233871187587041 0 0.28038537358259219 0.16288048051300311 0 0.28745528427764361 0.13436486953721449 0 0.30076345404433441 0.15010307695611841 0 0.29273925002897938 0.15240067429033349 0 0.29626347999726882 0.14233871187587041 0 0.25803183332292112 0.25304072234222907 0 0.26402037462430822 0.22888668116283509 0 0.28422577633489488 0.24562162148832201 0 0.26402037462430822 0.22888668116283509 0 0.28357457388991242 0.2292376672443926 0 0.28422577633489488 0.24562162148832201 0 0.24720520840580751 0.2445325914618775 0 0.25497688971820032 0.23878609064464471 0 0.2503340027089605 0.22756306829999859 0 0.25803183332292112 0.25304072234222907 0 0.26402037462430822 0.22888668116283509 0 0.25803183332292112 0.25304072234222907 0 0.25497688971820032 0.23878609064464471 0 0.26402037462430822 0.22888668116283509 0 0.25803183332292112 0.25304072234222907 0 0.25239066274603172 0.24553786879888129 0 0.25803183332292112 0.25304072234222907 0 0.25239066274603172 0.24553786879888129 0 0.25497688971820032 0.23878609064464471 0 0.24720520840580751 0.2445325914618775 0 0.25239066274603172 0.24553786879888129 0 0.25497688971820032 0.23878609064464471 0 0.24720520840580751 0.2445325914618775 0 0.25178547191824352 0.25218307534180678 0 0.25239066274603172 0.24553786879888129 0 0.2503340027089605 0.22756306829999859 0 0.25351239399892039 0.21032454783920149 0 0.26402037462430822 0.22888668116283509 0 0.2503340027089605 0.22756306829999859 0 0.26342236263721469 0.20696531661914999 0 0.25497688971820032 0.23878609064464471 0 0.26402037462430822 0.22888668116283509 0 0.2503340027089605 0.22756306829999859 0 0.26402037462430822 0.22888668116283509 0 0.28288646287375091 0.2140913825697166 0 0.28357457388991242 0.2292376672443926 0 0.26402037462430822 0.22888668116283509 0 0.27000891592569998 0.20473263998344221 0 0.26342236263721469 0.20696531661914999 0 0.26402037462430822 0.22888668116283509 0 0.27000891592569998 0.20473263998344221 0 0.26402037462430822 0.22888668116283509 0 0.27000891592569998 0.20473263998344221 0 0.28288646287375091 0.2140913825697166 0 0.27000891592569998 0.20473263998344221 0 0.2871853380988707 0.19891026296906431 0 0.28288646287375091 0.2140913825697166 0 0.27000891592569998 0.20473263998344221 0 0.26342236263721469 0.20696531661914999 0 0.2503340027089605 0.22756306829999859 0 0.26342236263721469 0.20696531661914999 0 0.2503340027089605 0.22756306829999859 0 0.25351239399892039 0.21032454783920149 0 0.26342236263721469 0.20696531661914999 0 0.25351239399892039 0.21032454783920149 0 0.26342236263721469 0.20696531661914999 0 0.24884132685392379 0.19925750024763789 0 0.25351239399892039 0.21032454783920149 0 0.25715210059945831 0.1905840090003062 0 0.25351239399892039 0.21032454783920149 0 0.26342236263721469 0.20696531661914999 0 0.25715210059945831 0.1905840090003062 0 0.25351239399892039 0.21032454783920149 0 0.25715210059945831 0.1905840090003062 0 0.26342236263721469 0.20696531661914999 0 0.25715210059945831 0.1905840090003062 0 0.2733154628875466 0.1913960914887928 0 0.24884132685392379 0.19925750024763789 0 0.24880326160319841 0.18724513321596251 0 0.25715210059945831 0.1905840090003062 0 0.27000891592569998 0.20473263998344221 0 0.2733154628875466 0.1913960914887928 0 0.2871853380988707 0.19891026296906431 0 0.27000891592569998 0.20473263998344221 0 0.2871853380988707 0.19891026296906431 0 0.27000891592569998 0.20473263998344221 0 0.2733154628875466 0.1913960914887928 0 0.26342236263721469 0.20696531661914999 0 0.2733154628875466 0.1913960914887928 0 0.27000891592569998 0.20473263998344221 0 0.26342236263721469 0.20696531661914999 0 0.2733154628875466 0.1913960914887928 0 0.2871853380988707 0.19891026296906431 0 0.30010280401241851 0.1891866607581271 0 0.29775308377061038 0.20596479826040809 0 0.28837007658248509 0.18605259447596659 0 0.2733154628875466 0.1913960914887928 0 0.2871853380988707 0.19891026296906431 0 0.28837007658248509 0.18605259447596659 0 0.2871853380988707 0.19891026296906431 0 0.30010280401241851 0.1891866607581271 0 0.30010280401241851 0.1891866607581271 0 0.30984011321887162 0.20204721790051089 0 0.29775308377061038 0.20596479826040809 0 0.31018239011158671 0.18704781474806989 0 0.30010280401241851 0.1891866607581271 0 0.30984011321887162 0.20204721790051089 0 0.31018239011158671 0.18704781474806989 0 0.30984011321887162 0.20204721790051089 0 0.31655397456065498 0.19370662297732949 0 0.30984011321887162 0.20204721790051089 0 0.29775308377061038 0.20596479826040809 0 0.30795363393692382 0.21451274035929649 0 0.29775308377061038 0.20596479826040809 0 0.30795363393692382 0.21451274035929649 0 0.29606885958894008 0.2197074361824726 0 0.29775308377061038 0.20596479826040809 0 0.28288646287375091 0.2140913825697166 0 0.29606885958894008 0.2197074361824726 0 0.2871853380988707 0.19891026296906431 0 0.29775308377061038 0.20596479826040809 0 0.28288646287375091 0.2140913825697166 0 0.28357457388991242 0.2292376672443926 0 0.29606885958894008 0.2197074361824726 0 0.30871503041343262 0.23593525513867991 0 0.28288646287375091 0.2140913825697166 0 0.28357457388991242 0.2292376672443926 0 0.29606885958894008 0.2197074361824726 0 0.30795363393692382 0.21451274035929649 0 0.30871503041343262 0.23593525513867991 0 0.31831547267940108 0.22169468662243591 0 0.30795363393692382 0.21451274035929649 0 0.29606885958894008 0.2197074361824726 0 0.30871503041343262 0.23593525513867991 0 0.30871503041343262 0.23593525513867991 0 0.30330971001170209 0.24395309779640381 0 0.28422577633489488 0.24562162148832201 0 0.29698925233516221 0.25139881805566588 0 0.30330971001170209 0.24395309779640381 0 0.31460790143211742 0.24762303577851899 0 0.30871503041343262 0.23593525513867991 0 0.30330971001170209 0.24395309779640381 0 0.30871503041343262 0.23593525513867991 0 0.30330971001170209 0.24395309779640381 0 0.31460790143211742 0.24762303577851899 0 0.28357457388991242 0.2292376672443926 0 0.30871503041343262 0.23593525513867991 0 0.28422577633489488 0.24562162148832201 0 0.30871503041343262 0.23593525513867991 0 0.28422577633489488 0.24562162148832201 0 0.29698925233516221 0.25139881805566588 0 0.30330971001170209 0.24395309779640381 0 0.28422577633489488 0.24562162148832201 0 0.33295078381861182 0.24672992490143841 0 0.33226423312372549 0.2336300221621225 0 0.3559334796561906 0.2357276625286476 0 0.34211493247327862 0.25611593486687989 0 0.33295078381861182 0.24672992490143841 0 0.3559334796561906 0.2357276625286476 0 0.31460790143211742 0.24762303577851899 0 0.33226423312372549 0.2336300221621225 0 0.31460790143211742 0.24762303577851899 0 0.32071829905509958 0.23118753774869849 0 0.33226423312372549 0.2336300221621225 0 0.33295078381861182 0.24672992490143841 0 0.31460790143211742 0.24762303577851899 0 0.33226423312372549 0.2336300221621225 0 0.31460790143211742 0.24762303577851899 0 0.32071829905509958 0.23118753774869849 0 0.30871503041343262 0.23593525513867991 0 0.31460790143211742 0.24762303577851899 0 0.32071829905509958 0.23118753774869849 0 0.32071829905509958 0.23118753774869849 0 0.3237284444194235 0.22309097165639499 0 0.33531943193521518 0.22541227314721091 0 0.32071829905509958 0.23118753774869849 0 0.3237284444194235 0.22309097165639499 0 0.32071829905509958 0.23118753774869849 0 0.33531943193521518 0.22541227314721091 0 0.30871503041343262 0.23593525513867991 0 0.31831547267940108 0.22169468662243591 0 0.30871503041343262 0.23593525513867991 0 0.32071829905509958 0.23118753774869849 0 0.30871503041343262 0.23593525513867991 0 0.32071829905509958 0.23118753774869849 0 0.31831547267940108 0.22169468662243591 0 0.32071829905509958 0.23118753774869849 0 0.31831547267940108 0.22169468662243591 0 0.3237284444194235 0.22309097165639499 0 0.3237284444194235 0.22309097165639499 0 0.33531943193521518 0.22541227314721091 0 0.33241147320256792 0.22030421852224419 0 0.33226423312372549 0.2336300221621225 0 0.34992056481533018 0.2196370085457216 0 0.33531943193521518 0.22541227314721091 0 0.33226423312372549 0.2336300221621225 0 0.34992056481533018 0.2196370085457216 0 0.32071829905509958 0.23118753774869849 0 0.33531943193521518 0.22541227314721091 0 0.33226423312372549 0.2336300221621225 0 0.33531943193521518 0.22541227314721091 0 0.3404970799250514 0.21313890847107789 0 0.34992056481533018 0.2196370085457216 0 0.33531943193521518 0.22541227314721091 0 0.33241147320256792 0.22030421852224419 0 0.3404970799250514 0.21313890847107789 0 0.33531943193521518 0.22541227314721091 0 0.34992056481533018 0.2196370085457216 0 0.3404970799250514 0.21313890847107789 0 0.32791591494536931 0.2074541181061916 0 0.33594834816432412 0.1955394153833647 0 0.33241147320256792 0.22030421852224419 0 0.32791591494536931 0.2074541181061916 0 0.33241147320256792 0.22030421852224419 0 0.3404970799250514 0.21313890847107789 0 0.32791591494536931 0.2074541181061916 0 0.31831547267940108 0.22169468662243591 0 0.32791591494536931 0.2074541181061916 0 0.30795363393692382 0.21451274035929649 0 0.31831547267940108 0.22169468662243591 0 0.32791591494536931 0.2074541181061916 0 0.3237284444194235 0.22309097165639499 0 0.33241147320256792 0.22030421852224419 0 0.32791591494536931 0.2074541181061916 0 0.31831547267940108 0.22169468662243591 0 0.3237284444194235 0.22309097165639499 0 0.32791591494536931 0.2074541181061916 0 0.30984011321887162 0.20204721790051089 0 0.30795363393692382 0.21451274035929649 0 0.32791591494536931 0.2074541181061916 0 0.32791591494536931 0.2074541181061916 0 0.32060310158863781 0.18655117778562541 0 0.30984011321887162 0.20204721790051089 0 0.32791591494536931 0.2074541181061916 0 0.31655397456065498 0.19370662297732949 0 0.32791591494536931 0.2074541181061916 0 0.31655397456065498 0.19370662297732949 0 0.32060310158863781 0.18655117778562541 0 0.31018239011158671 0.18704781474806989 0 0.31655397456065498 0.19370662297732949 0 0.31809182910409378 0.18508023929972819 0 0.31655397456065498 0.19370662297732949 0 0.31809182910409378 0.18508023929972819 0 0.32060310158863781 0.18655117778562541 0 0.32791591494536931 0.2074541181061916 0 0.33594834816432412 0.1955394153833647 0 0.32060310158863781 0.18655117778562541 0 0.33594834816432412 0.1955394153833647 0 0.32060310158863781 0.18655117778562541 0 0.32791591494536931 0.2074541181061916 0 0.33594834816432412 0.1955394153833647 0 0.33594834816432412 0.1955394153833647 0 0.36146674648750321 0.21048641712173599 0 0.3515640003395018 0.191536507946832 0 0.36473595224466332 0.1955565231492587 0 0.36146674648750321 0.21048641712173599 0 0.33594834816432412 0.1955394153833647 0 0.3515640003395018 0.191536507946832 0 0.36146674648750321 0.21048641712173599 0 0.33594834816432412 0.1955394153833647 0 0.3515640003395018 0.191536507946832 0 0.34941808131889041 0.1755594339857289 0 0.3515640003395018 0.191536507946832 0 0.36473595224466332 0.1955565231492587 0 0.36588889780665401 0.1847672057228667 0 0.37447328168113259 0.19004524246878959 0 0.36473595224466332 0.1955565231492587 0 0.36588889780665401 0.1847672057228667 0 0.37447328168113259 0.19004524246878959 0 0.37397013753952141 0.20057721716457291 0 0.36473595224466332 0.1955565231492587 0 0.37397013753952141 0.20057721716457291 0 0.36473595224466332 0.1955565231492587 0 0.36146674648750321 0.21048641712173599 0 0.37397013753952141 0.20057721716457291 0 0.36146674648750321 0.21048641712173599 0 0.37397013753952141 0.20057721716457291 0 0.36146674648750321 0.21048641712173599 0 0.37303608135248828 0.2104940039927039 0 0.37303608135248828 0.2104940039927039 0 0.36975202683910341 0.21533939019041581 0 0.37303608135248828 0.2104940039927039 0 0.36975202683910341 0.21533939019041581 0 0.36613790682695069 0.21322247605575129 0 0.37303608135248828 0.2104940039927039 0 0.36613790682695069 0.21322247605575129 0 0.36975202683910341 0.21533939019041581 0 0.36613790682695069 0.21322247605575129 0 0.36146674648750321 0.21048641712173599 0 0.37303608135248828 0.2104940039927039 0 0.36613790682695069 0.21322247605575129 0 0.36146674648750321 0.21048641712173599 0 0.36613790682695069 0.21322247605575129 0 0.3404970799250514 0.21313890847107789 0 0.33594834816432412 0.1955394153833647 0 0.36146674648750321 0.21048641712173599 0 0.3404970799250514 0.21313890847107789 0 0.36146674648750321 0.21048641712173599 0 0.34992056481533018 0.2196370085457216 0 0.36146674648750321 0.21048641712173599 0 0.34992056481533018 0.2196370085457216 0 0.36613790682695069 0.21322247605575129 0 0.34992056481533018 0.2196370085457216 0 0.36146674648750321 0.21048641712173599 0 0.36613790682695069 0.21322247605575129 0 0.34992056481533018 0.2196370085457216 0 0.36613790682695069 0.21322247605575129 0 0.34992056481533018 0.2196370085457216 0 0.3559334796561906 0.2357276625286476 0 0.33226423312372549 0.2336300221621225 0 0.34992056481533018 0.2196370085457216 0 0.3559334796561906 0.2357276625286476 0 0.36975202683910341 0.21533939019041581 0 0.36613790682695069 0.21322247605575129 0 0.3559334796561906 0.2357276625286476 0 0.36975202683910341 0.21533939019041581 0 0.3559334796561906 0.2357276625286476 0 0.37588596503388449 0.2306696874523633 0 0.36975202683910341 0.21533939019041581 0 0.3559334796561906 0.2357276625286476 0 0.37042795120398347 0.24392227605349909 0 0.3559334796561906 0.2357276625286476 0 0.37588596503388449 0.2306696874523633 0 0.35747246919036862 0.25438157249572518 0 0.37042795120398347 0.24392227605349909 0 0.3559334796561906 0.2357276625286476 0 0.34211493247327862 0.25611593486687989 0 0.35747246919036862 0.25438157249572518 0 0.3559334796561906 0.2357276625286476 0 0.34211493247327862 0.25611593486687989 0 0.3559334796561906 0.2357276625286476 0 0.34323201530375619 0.1533305665583552 0 0.32769665038525758 0.15082648333323609 0 0.34524604035399359 0.15296436337758729 0 0.34058301984043537 0.14048230266078229 0 0.32769665038525758 0.15082648333323609 0 0.34524604035399359 0.15296436337758729 0 0.32769665038525758 0.15082648333323609 0 0.34524604035399359 0.15296436337758729 0 0.34058301984043537 0.14048230266078229 0 0.32903081357067659 0.13650783096893709 0 0.32769665038525758 0.15082648333323609 0 0.34323201530375619 0.1533305665583552 0 0.32769665038525758 0.15082648333323609 0 0.33441532422930609 0.15858658804702119 0 0.34058301984043537 0.14048230266078229 0 0.33907819653582849 0.13049635195894599 0 0.34876635351862267 0.12916398940766721 0 0.34058301984043537 0.14048230266078229 0 0.33907819653582849 0.13049635195894599 0 0.32903081357067659 0.13650783096893709 0 0.34291449434417698 0.1214302755990124 0 0.33907819653582849 0.13049635195894599 0 0.34876635351862267 0.12916398940766721 0 0.33447907505053631 0.11983960040941929 0 0.33907819653582849 0.13049635195894599 0 0.33185734839169467 0.12782465862182191 0 0.33185734839169467 0.12782465862182191 0 0.32903081357067659 0.13650783096893709 0 0.32635261270355359 0.1294830530986954 0 0.33907819653582849 0.13049635195894599 0 0.33185734839169467 0.12782465862182191 0 0.32903081357067659 0.13650783096893709 0 0.32903081357067659 0.13650783096893709 0 0.32635261270355359 0.1294830530986954 0 0.31958627930725431 0.13369801599354411 0 0.32903081357067659 0.13650783096893709 0 0.31958627930725431 0.13369801599354411 0 0.31959514829681951 0.1420235178675672 0 0.32476509091358458 0.12445416603605459 0 0.32635261270355359 0.1294830530986954 0 0.31958627930725431 0.13369801599354411 0 0.32476509091358458 0.12445416603605459 0 0.33185734839169467 0.12782465862182191 0 0.32635261270355359 0.1294830530986954 0 0.32476509091358458 0.12445416603605459 0 0.30979333045037333 0.13272007337171571 0 0.31958627930725431 0.13369801599354411 0 0.31228885371621129 0.13913382566061749 0 0.31958627930725431 0.13369801599354411 0 0.31959514829681951 0.1420235178675672 0 0.31228885371621129 0.13913382566061749 0 0.30979333045037333 0.13272007337171571 0 0.31958627930725431 0.13369801599354411 0 0.31014726041652169 0.14868860328888481 0 0.31228885371621129 0.13913382566061749 0 0.31959514829681951 0.1420235178675672 0 0.31014726041652169 0.14868860328888481 0 0.32769665038525758 0.15082648333323609 0 0.31987870055719281 0.1593009825644445 0 0.31014726041652169 0.14868860328888481 0 0.31959514829681951 0.1420235178675672 0 0.32769665038525758 0.15082648333323609 0 0.31014726041652169 0.14868860328888481 0 0.32769665038525758 0.15082648333323609 0 0.32903081357067659 0.13650783096893709 0 0.31959514829681951 0.1420235178675672 0 0.32769665038525758 0.15082648333323609 0 0.32769665038525758 0.15082648333323609 0 0.31987870055719281 0.1593009825644445 0 0.33441532422930609 0.15858658804702119 0 0.31014726041652169 0.14868860328888481 0 0.30939264651914672 0.1545072212598872 0 0.31987870055719281 0.1593009825644445 0 0.31466797050833312 0.1695862034707647 0 0.33569952425533878 0.16877042984099791 0 0.31466797050833312 0.1695862034707647 0 0.32609724756904529 0.1763151909376694 0 0.33569952425533878 0.16877042984099791 0 0.31987870055719281 0.1593009825644445 0 0.31466797050833312 0.1695862034707647 0 0.33569952425533878 0.16877042984099791 0 0.30939264651914672 0.1545072212598872 0 0.31987870055719281 0.1593009825644445 0 0.31466797050833312 0.1695862034707647 0 0.31466797050833312 0.1695862034707647 0 0.31809182910409378 0.18508023929972819 0 0.32060310158863781 0.18655117778562541 0 0.31466797050833312 0.1695862034707647 0 0.32060310158863781 0.18655117778562541 0 0.31466797050833312 0.1695862034707647 0 0.32609724756904529 0.1763151909376694 0 0.32060310158863781 0.18655117778562541 0 0.31809182910409378 0.18508023929972819 0 0.32060310158863781 0.18655117778562541 0 0.30860063063363619 0.1790522775381615 0 0.31466797050833312 0.1695862034707647 0 0.31809182910409378 0.18508023929972819 0 0.32609724756904529 0.1763151909376694 0 0.32060310158863781 0.18655117778562541 0 0.33341839392387229 0.1803529526532896 0 0.33594834816432412 0.1955394153833647 0 0.33341839392387229 0.1803529526532896 0 0.34941808131889041 0.1755594339857289 0 0.33594834816432412 0.1955394153833647 0 0.34941808131889041 0.1755594339857289 0 0.33341839392387229 0.1803529526532896 0 0.33569952425533878 0.16877042984099791 0 0.34941808131889041 0.1755594339857289 0 0.33594834816432412 0.1955394153833647 0 0.32060310158863781 0.18655117778562541 0 0.33341839392387229 0.1803529526532896 0 0.32609724756904529 0.1763151909376694 0 0.33341839392387229 0.1803529526532896 0 0.33569952425533878 0.16877042984099791 0 0.31987870055719281 0.1593009825644445 0 0.33441532422930609 0.15858658804702119 0 0.33569952425533878 0.16877042984099791 0 0.33441532422930609 0.15858658804702119 0 0.33569952425533878 0.16877042984099791 0 0.34453549770144171 0.16022937074622531 0 0.34323201530375619 0.1533305665583552 0 0.33441532422930609 0.15858658804702119 0 0.34453549770144171 0.16022937074622531 0 0.33569952425533878 0.16877042984099791 0 0.35673107800234438 0.1679546562112296 0 0.34941808131889041 0.1755594339857289 0 0.34453549770144171 0.16022937074622531 0 0.35673107800234438 0.1679546562112296 0 0.35188900406391083 0.1597696204421607 0 0.34453549770144171 0.16022937074622531 0 0.35188900406391083 0.1597696204421607 0 0.34524604035399359 0.15296436337758729 0 0.33569952425533878 0.16877042984099791 0 0.34453549770144171 0.16022937074622531 0 0.35673107800234438 0.1679546562112296 0 0.33569952425533878 0.16877042984099791 0 0.35673107800234438 0.1679546562112296 0 0.35673107800234438 0.1679546562112296 0 0.35188900406391083 0.1597696204421607 0 0.36580886592404449 0.1554693424406775 0 0.3515640003395018 0.191536507946832 0 0.34941808131889041 0.1755594339857289 0 0.35853919327057421 0.17869722274914401 0 0.35673107800234438 0.1679546562112296 0 0.34941808131889041 0.1755594339857289 0 0.35853919327057421 0.17869722274914401 0 0.3515640003395018 0.191536507946832 0 0.35853919327057421 0.17869722274914401 0 0.36588889780665401 0.1847672057228667 0 0.35673107800234438 0.1679546562112296 0 0.35853919327057421 0.17869722274914401 0 0.36775203809570339 0.17543830665923321 0 0.35853919327057421 0.17869722274914401 0 0.36588889780665401 0.1847672057228667 0 0.36775203809570339 0.17543830665923321 0 0.36588889780665401 0.1847672057228667 0 0.36775203809570339 0.17543830665923321 0 0.37983838964959482 0.1786335660314643 0 0.37447328168113259 0.19004524246878959 0 0.36588889780665401 0.1847672057228667 0 0.37983838964959482 0.1786335660314643 0 0.35673107800234438 0.1679546562112296 0 0.37776263174934999 0.16713888258146131 0 0.35673107800234438 0.1679546562112296 0 0.36580886592404449 0.1554693424406775 0 0.37776263174934999 0.16713888258146131 0 0.35673107800234438 0.1679546562112296 0 0.36775203809570339 0.17543830665923321 0 0.37776263174934999 0.16713888258146131 0 0.37063558113997119 0.14834787134687999 0 0.36580886592404449 0.1554693424406775 0 0.34524604035399359 0.15296436337758729 0 0.37063558113997119 0.14834787134687999 0 0.36580886592404449 0.1554693424406775 0 0.38637169149409539 0.15797432150376761 0 0.35188900406391083 0.1597696204421607 0 0.36580886592404449 0.1554693424406775 0 0.34524604035399359 0.15296436337758729 0 0.37063558113997119 0.14834787134687999 0 0.34524604035399359 0.15296436337758729 0 0.37063558113997119 0.14834787134687999 0 0.34524604035399359 0.15296436337758729 0 0.3527035444412146 0.1388365604400881 0 0.36580886592404449 0.1554693424406775 0 0.34524604035399359 0.15296436337758729 0 0.34058301984043537 0.14048230266078229 0 0.34524604035399359 0.15296436337758729 0 0.3527035444412146 0.1388365604400881 0 0.34323201530375619 0.1533305665583552 0 0.34453549770144171 0.16022937074622531 0 0.34524604035399359 0.15296436337758729 0 0.34323201530375619 0.1533305665583552 0 0.34524604035399359 0.15296436337758729 0 0.34058301984043537 0.14048230266078229 0 0.34876635351862267 0.12916398940766721 0 0.3527035444412146 0.1388365604400881 0 0.34876635351862267 0.12916398940766721 0 0.3527035444412146 0.1388365604400881 0 0.36363038123728758 0.12730474371633149 0 0.37063558113997119 0.14834787134687999 0 0.3527035444412146 0.1388365604400881 0 0.36363038123728758 0.12730474371633149 0 0.37063558113997119 0.14834787134687999 0 0.36363038123728758 0.12730474371633149 0 0.38235590342937159 0.1277180993298854 0 0.37063558113997119 0.14834787134687999 0 0.38235590342937159 0.1277180993298854 0 0.39602512192594902 0.1437313793161728 0 0.38235590342937159 0.1277180993298854 0 0.39579373050464289 0.130106080641431 0 0.39602512192594902 0.1437313793161728 0 0.39579373050464289 0.130106080641431 0 0.39602512192594902 0.1437313793161728 0 0.40917854243900148 0.1326652046024035 0 0.39914782474898169 0.15415863725952819 0 0.39602512192594902 0.1437313793161728 0 0.40825813461390892 0.1585263980859411 0 0.39914782474898169 0.15415863725952819 0 0.38804505482724932 0.1510530523565872 0 0.38637169149409539 0.15797432150376761 0 0.39914782474898169 0.15415863725952819 0 0.39602512192594902 0.1437313793161728 0 0.38804505482724932 0.1510530523565872 0 0.37063558113997119 0.14834787134687999 0 0.39602512192594902 0.1437313793161728 0 0.38804505482724932 0.1510530523565872 0 0.37063558113997119 0.14834787134687999 0 0.39602512192594902 0.1437313793161728 0 0.37063558113997119 0.14834787134687999 0 0.38804505482724932 0.1510530523565872 0 0.38637169149409539 0.15797432150376761 0 0.36580886592404449 0.1554693424406775 0 0.37776263174934999 0.16713888258146131 0 0.38637169149409539 0.15797432150376761 0 0.36580886592404449 0.1554693424406775 0 0.38637169149409539 0.15797432150376761 0 0.37776263174934999 0.16713888258146131 0 0.38847245600516478 0.16857364547352699 0 0.37983838964959482 0.1786335660314643 0 0.37776263174934999 0.16713888258146131 0 0.38847245600516478 0.16857364547352699 0 0.38637169149409539 0.15797432150376761 0 0.38847245600516478 0.16857364547352699 0 0.37983838964959482 0.1786335660314643 0 0.39670402282784278 0.1755736588871338 0 0.37983838964959482 0.1786335660314643 0 0.39670402282784278 0.1755736588871338 0 0.38647352859153888 0.190668017207409 0 0.37447328168113259 0.19004524246878959 0 0.37983838964959482 0.1786335660314643 0 0.38647352859153888 0.190668017207409 0 0.36775203809570339 0.17543830665923321 0 0.37776263174934999 0.16713888258146131 0 0.37983838964959482 0.1786335660314643 0 0.40321387726450242 0.1774009393672544 0 0.38647352859153888 0.190668017207409 0 0.39850259600437898 0.1929127350046568 0 0.40321387726450242 0.1774009393672544 0 0.38647352859153888 0.190668017207409 0 0.40321387726450242 0.1774009393672544 0 0.39670402282784278 0.1755736588871338 0 0.38647352859153888 0.190668017207409 0 0.39670402282784278 0.1755736588871338 0 0.38647352859153888 0.190668017207409 0 0.38847245600516478 0.16857364547352699 0 0.39670402282784278 0.1755736588871338 0 0.40693451706414629 0.1604793005668583 0 0.38637169149409539 0.15797432150376761 0 0.40693451706414629 0.1604793005668583 0 0.39914782474898169 0.15415863725952819 0 0.38637169149409539 0.15797432150376761 0 0.40693451706414629 0.1604793005668583 0 0.38847245600516478 0.16857364547352699 0 0.38637169149409539 0.15797432150376761 0 0.40693451706414629 0.1604793005668583 0 0.40321387726450242 0.1774009393672544 0 0.39670402282784278 0.1755736588871338 0 0.40693451706414629 0.1604793005668583 0 0.39670402282784278 0.1755736588871338 0 0.40693451706414629 0.1604793005668583 0 0.39914782474898169 0.15415863725952819 0 0.40825813461390892 0.1585263980859411 0 0.40693451706414629 0.1604793005668583 0 0.39914782474898169 0.15415863725952819 0 0.40825813461390892 0.1585263980859411 0 0.40825813461390892 0.1585263980859411 0 0.41146959330686478 0.16103176700678479 0 0.40693451706414629 0.1604793005668583 0 0.40825813461390892 0.1585263980859411 0 0.41146959330686478 0.16103176700678479 0 0.4199542259374649 0.16413386152709861 0 0.40321387726450242 0.1774009393672544 0 0.4199542259374649 0.16413386152709861 0 0.40321387726450242 0.1774009393672544 0 0.41146959330686478 0.16103176700678479 0 0.4199542259374649 0.16413386152709861 0 0.40321387726450242 0.1774009393672544 0 0.41146959330686478 0.16103176700678479 0 0.40693451706414629 0.1604793005668583 0 0.40825813461390892 0.1585263980859411 0 0.40693451706414629 0.1604793005668583 0 0.41146959330686478 0.16103176700678479 0 0.40693451706414629 0.1604793005668583 0 0.40825813461390892 0.1585263980859411 0 0.4199542259374649 0.16413386152709861 0 0.40321387726450242 0.1774009393672544 0 0.4199542259374649 0.16413386152709861 0 0.42597584440406761 0.18318138744854659 0 0.40321387726450242 0.1774009393672544 0 0.42597584440406761 0.18318138744854659 0 0.41041550747487909 0.19570911858134471 0 0.4199542259374649 0.16413386152709861 0 0.42597584440406761 0.18318138744854659 0 0.44666690202595261 0.17694073439067681 0 0.42597584440406761 0.18318138744854659 0 0.43927864496059482 0.1950624161584463 0 0.44666690202595261 0.17694073439067681 0 0.4199542259374649 0.16413386152709861 0 0.44112338130282258 0.1473568613863438 0 0.44666690202595261 0.17694073439067681 0 0.4199542259374649 0.16413386152709861 0 0.44666690202595261 0.17694073439067681 0 0.4199542259374649 0.16413386152709861 0 0.42141466271192662 0.13911488728546489 0 0.44112338130282258 0.1473568613863438 0 0.42141466271192662 0.13911488728546489 0 0.43898048457650291 0.13592095489676059 0 0.44112338130282258 0.1473568613863438 0 0.4199542259374649 0.16413386152709861 0 0.44112338130282258 0.1473568613863438 0 0.42141466271192662 0.13911488728546489 0 0.42052899247656039 0.12836471162503371 0 0.43299388712879189 0.12203057460399309 0 0.43246429483738802 0.12539195695324809 0 0.42141466271192662 0.13911488728546489 0 0.43299388712879189 0.12203057460399309 0 0.43246429483738802 0.12539195695324809 0 0.42141466271192662 0.13911488728546489 0 0.43898048457650291 0.13592095489676059 0 0.42141466271192662 0.13911488728546489 0 0.43299388712879189 0.12203057460399309 0 0.42141466271192662 0.13911488728546489 0 0.43898048457650291 0.13592095489676059 0 0.43246429483738802 0.12539195695324809 0 0.43780122957278877 0.12962767450474699 0 0.43898048457650291 0.13592095489676059 0 0.43246429483738802 0.12539195695324809 0 0.43780122957278877 0.12962767450474699 0 0.43246429483738802 0.12539195695324809 0 0.43780122957278877 0.12962767450474699 0 0.43656373293078549 0.123023578420544 0 0.43780122957278877 0.12962767450474699 0 0.43656373293078549 0.123023578420544 0 0.39602512192594902 0.1437313793161728 0 0.42141466271192662 0.13911488728546489 0 0.40917854243900148 0.1326652046024035 0 0.42141466271192662 0.13911488728546489 0 0.42052899247656039 0.12836471162503371 0 0.40917854243900148 0.1326652046024035 0 0.42052899247656039 0.12836471162503371 0 0.40917854243900148 0.1326652046024035 0 0.42104962642742011 0.1187081071585684 0 0.40917854243900148 0.1326652046024035 0 0.42104962642742011 0.1187081071585684 0 0.39602512192594902 0.1437313793161728 0 0.42141466271192662 0.13911488728546489 0 0.40825813461390892 0.1585263980859411 0 0.42141466271192662 0.13911488728546489 0 0.40825813461390892 0.1585263980859411 0 0.4199542259374649 0.16413386152709861 0 0.42141466271192662 0.13911488728546489 0 0.39602512192594902 0.1437313793161728 0 0.40825813461390892 0.1585263980859411 0 0.42141466271192662 0.13911488728546489 0 0.39123233799672208 0.24711715392098471 0 0.39131172283986537 0.22796764410827319 0 0.41297014301859181 0.2336876482906981 0 0.39123233799672208 0.24711715392098471 0 0.41297014301859181 0.2336876482906981 0 0.40446087524774821 0.2502991645331486 0 0.39123233799672208 0.24711715392098471 0 0.41297014301859181 0.2336876482906981 0 0.39123233799672208 0.24711715392098471 0 0.37588596503388449 0.2306696874523633 0 0.39131172283986537 0.22796764410827319 0 0.37042795120398347 0.24392227605349909 0 0.39123233799672208 0.24711715392098471 0 0.37588596503388449 0.2306696874523633 0 0.36975202683910341 0.21533939019041581 0 0.39131172283986537 0.22796764410827319 0 0.38523328417503649 0.21434701446137519 0 0.36975202683910341 0.21533939019041581 0 0.37588596503388449 0.2306696874523633 0 0.39131172283986537 0.22796764410827319 0 0.36975202683910341 0.21533939019041581 0 0.39131172283986537 0.22796764410827319 0 0.39131172283986537 0.22796764410827319 0 0.40107743180755501 0.21503601888506049 0 0.38523328417503649 0.21434701446137519 0 0.39131172283986537 0.22796764410827319 0 0.40107743180755501 0.21503601888506049 0 0.41297014301859181 0.2336876482906981 0 0.40107743180755501 0.21503601888506049 0 0.39172579441368383 0.2031015612870245 0 0.41041550747487909 0.19570911858134471 0 0.40107743180755501 0.21503601888506049 0 0.38523328417503649 0.21434701446137519 0 0.39172579441368383 0.2031015612870245 0 0.37303608135248828 0.2104940039927039 0 0.39172579441368383 0.2031015612870245 0 0.37303608135248828 0.2104940039927039 0 0.38523328417503649 0.21434701446137519 0 0.39172579441368383 0.2031015612870245 0 0.37303608135248828 0.2104940039927039 0 0.36975202683910341 0.21533939019041581 0 0.38523328417503649 0.21434701446137519 0 0.37303608135248828 0.2104940039927039 0 0.38647352859153888 0.190668017207409 0 0.39172579441368383 0.2031015612870245 0 0.37303608135248828 0.2104940039927039 0 0.38647352859153888 0.190668017207409 0 0.37397013753952141 0.20057721716457291 0 0.37303608135248828 0.2104940039927039 0 0.38647352859153888 0.190668017207409 0 0.37397013753952141 0.20057721716457291 0 0.38647352859153888 0.190668017207409 0 0.37447328168113259 0.19004524246878959 0 0.37397013753952141 0.20057721716457291 0 0.38647352859153888 0.190668017207409 0 0.40321387726450242 0.1774009393672544 0 0.39850259600437898 0.1929127350046568 0 0.41041550747487909 0.19570911858134471 0 0.39172579441368383 0.2031015612870245 0 0.39850259600437898 0.1929127350046568 0 0.41041550747487909 0.19570911858134471 0 0.39172579441368383 0.2031015612870245 0 0.41041550747487909 0.19570911858134471 0 0.38647352859153888 0.190668017207409 0 0.39172579441368383 0.2031015612870245 0 0.39850259600437898 0.1929127350046568 0 0.42597584440406761 0.18318138744854659 0 0.41041550747487909 0.19570911858134471 0 0.42724107206345951 0.20167600184317391 0 0.42597584440406761 0.18318138744854659 0 0.42724107206345951 0.20167600184317391 0 0.43927864496059482 0.1950624161584463 0 0.43740052179137412 0.20303414053748109 0 0.42724107206345951 0.20167600184317391 0 0.43927864496059482 0.1950624161584463 0 0.42724107206345951 0.20167600184317391 0 0.42754620232544382 0.21271928627170861 0 0.4165760662293021 0.21589163735749031 0 0.42724107206345951 0.20167600184317391 0 0.43652948110001583 0.2113152982414192 0 0.42754620232544382 0.21271928627170861 0 0.43740052179137412 0.20303414053748109 0 0.42724107206345951 0.20167600184317391 0 0.43652948110001583 0.2113152982414192 0 0.43652948110001583 0.2113152982414192 0 0.43107421781653371 0.2214269088712614 0 0.44027493653833882 0.22071549718620859 0 0.43652948110001583 0.2113152982414192 0 0.42754620232544382 0.21271928627170861 0 0.43107421781653371 0.2214269088712614 0 0.42754620232544382 0.21271928627170861 0 0.4165760662293021 0.21589163735749031 0 0.43107421781653371 0.2214269088712614 0 0.41041550747487909 0.19570911858134471 0 0.42724107206345951 0.20167600184317391 0 0.4165760662293021 0.21589163735749031 0 0.40107743180755501 0.21503601888506049 0 0.41041550747487909 0.19570911858134471 0 0.4165760662293021 0.21589163735749031 0 0.40107743180755501 0.21503601888506049 0 0.4165760662293021 0.21589163735749031 0 0.41297014301859181 0.2336876482906981 0 0.4165760662293021 0.21589163735749031 0 0.41297014301859181 0.2336876482906981 0 0.42762589189070571 0.23298203600346601 0 0.4165760662293021 0.21589163735749031 0 0.43107421781653371 0.2214269088712614 0 0.42762589189070571 0.23298203600346601 0 0.43107421781653371 0.2214269088712614 0 0.44001085857204569 0.2315755281270542 0 0.44027493653833882 0.22071549718620859 0 0.43107421781653371 0.2214269088712614 0 0.42762589189070571 0.23298203600346601 0 0.44001085857204569 0.2315755281270542 0 0.42762589189070571 0.23298203600346601 0 0.42317573419981219 0.2414081151667391 0 0.43204997558241121 0.24411487363677681 0 0.42762589189070571 0.23298203600346601 0 0.4384403437141049 0.23943607806138789 0 0.44001085857204569 0.2315755281270542 0 0.42762589189070571 0.23298203600346601 0 0.43204997558241121 0.24411487363677681 0 0.4384403437141049 0.23943607806138789 0 0.43191149085118358 0.25237062314198672 0 0.43204997558241121 0.24411487363677681 0 0.43957858242423259 0.24932271469960041 0 0.43204997558241121 0.24411487363677681 0 0.43957858242423259 0.24932271469960041 0 0.4384403437141049 0.23943607806138789 0 0.42387560445215311 0.25012596742606552 0 0.43191149085118358 0.25237062314198672 0 0.43204997558241121 0.24411487363677681 0 0.42387560445215311 0.25012596742606552 0 0.42317573419981219 0.2414081151667391 0 0.43204997558241121 0.24411487363677681 0 0.40446087524774821 0.2502991645331486 0 0.41297014301859181 0.2336876482906981 0 0.41553722866893961 0.2466290840187445 0 0.42387560445215311 0.25012596742606552 0 0.42317573419981219 0.2414081151667391 0 0.41553722866893961 0.2466290840187445 0 0.41297014301859181 0.2336876482906981 0 0.42762589189070571 0.23298203600346601 0 0.42317573419981219 0.2414081151667391 0 0.41297014301859181 0.2336876482906981 0 0.42317573419981219 0.2414081151667391 0 0.41553722866893961 0.2466290840187445 0 0.45314468687974768 0.25331945766306052 0 0.45744584165225449 0.24078453109550491 0 0.45323854458960688 0.23495637779053519 0 0.46631018287963322 0.25594055515990077 0 0.46128191470692848 0.24473147065540271 0 0.4679915155333374 0.2399743206103887 0 0.45314468687974768 0.25331945766306052 0 0.45323854458960688 0.23495637779053519 0 0.4679915155333374 0.2399743206103887 0 0.46215139183441611 0.23738694487836501 0 0.4653935916284041 0.2313667633354865 0 0.46128191470692848 0.24473147065540271 0 0.4679915155333374 0.2399743206103887 0 0.46215139183441611 0.23738694487836501 0 0.46128191470692848 0.24473147065540271 0 0.46215139183441611 0.23738694487836501 0 0.45744584165225449 0.24078453109550491 0 0.46215139183441611 0.23738694487836501 0 0.45744584165225449 0.24078453109550491 0 0.45731943695252819 0.23378966779990629 0 0.45744584165225449 0.24078453109550491 0 0.45323854458960688 0.23495637779053519 0 0.45731943695252819 0.23378966779990629 0 0.45314468687974768 0.25331945766306052 0 0.46128191470692848 0.24473147065540271 0 0.45744584165225449 0.24078453109550491 0 0.45314468687974768 0.25331945766306052 0 0.43957858242423259 0.24932271469960041 0 0.44526770900365292 0.24287814159370069 0 0.45314468687974768 0.25331945766306052 0 0.45323854458960688 0.23495637779053519 0 0.44526770900365292 0.24287814159370069 0 0.43957858242423259 0.24932271469960041 0 0.44526770900365292 0.24287814159370069 0 0.4384403437141049 0.23943607806138789 0 0.4384403437141049 0.23943607806138789 0 0.44524814929976309 0.23606135807493109 0 0.44001085857204569 0.2315755281270542 0 0.44526770900365292 0.24287814159370069 0 0.4384403437141049 0.23943607806138789 0 0.44524814929976309 0.23606135807493109 0 0.45323854458960688 0.23495637779053519 0 0.44526770900365292 0.24287814159370069 0 0.44524814929976309 0.23606135807493109 0 0.44913382959304798 0.23151590503933889 0 0.44001085857204569 0.2315755281270542 0 0.44780763528002182 0.22550573498537571 0 0.45323854458960688 0.23495637779053519 0 0.44524814929976309 0.23606135807493109 0 0.44913382959304798 0.23151590503933889 0 0.44913382959304798 0.23151590503933889 0 0.44780763528002182 0.22550573498537571 0 0.45731943695252819 0.23378966779990629 0 0.44524814929976309 0.23606135807493109 0 0.44913382959304798 0.23151590503933889 0 0.44001085857204569 0.2315755281270542 0 0.44027493653833882 0.22071549718620859 0 0.44780763528002182 0.22550573498537571 0 0.44595248992307712 0.2137540157059323 0 0.44001085857204569 0.2315755281270542 0 0.44027493653833882 0.22071549718620859 0 0.44780763528002182 0.22550573498537571 0 0.44780763528002182 0.22550573498537571 0 0.45444080567428818 0.21842739778864911 0 0.44595248992307712 0.2137540157059323 0 0.45731943695252819 0.23378966779990629 0 0.45444080567428818 0.21842739778864911 0 0.44780763528002182 0.22550573498537571 0 0.45731943695252819 0.23378966779990629 0 0.45444080567428818 0.21842739778864911 0 0.45731943695252819 0.23378966779990629 0 0.46324047866508128 0.22158247052825111 0 0.45444080567428818 0.21842739778864911 0 0.45323854458960688 0.23495637779053519 0 0.44913382959304798 0.23151590503933889 0 0.45731943695252819 0.23378966779990629 0 0.45731943695252819 0.23378966779990629 0 0.4653935916284041 0.2313667633354865 0 0.46324047866508128 0.22158247052825111 0 0.46215139183441611 0.23738694487836501 0 0.45731943695252819 0.23378966779990629 0 0.4653935916284041 0.2313667633354865 0 0.46324047866508128 0.22158247052825111 0 0.47052630520667837 0.21287469914967569 0 0.47204955053934089 0.22354769061292709 0 0.4653935916284041 0.2313667633354865 0 0.46324047866508128 0.22158247052825111 0 0.47204955053934089 0.22354769061292709 0 0.46075225685265742 0.21030832610076269 0 0.45156217439604818 0.2030651277773918 0 0.46897907966555319 0.19952659902576819 0 0.46324047866508128 0.22158247052825111 0 0.46075225685265742 0.21030832610076269 0 0.47052630520667837 0.21287469914967569 0 0.46075225685265742 0.21030832610076269 0 0.46897907966555319 0.19952659902576819 0 0.47052630520667837 0.21287469914967569 0 0.46075225685265742 0.21030832610076269 0 0.45444080567428818 0.21842739778864911 0 0.45156217439604818 0.2030651277773918 0 0.46324047866508128 0.22158247052825111 0 0.46075225685265742 0.21030832610076269 0 0.45444080567428818 0.21842739778864911 0 0.45444080567428818 0.21842739778864911 0 0.44595248992307712 0.2137540157059323 0 0.45156217439604818 0.2030651277773918 0 0.43652948110001583 0.2113152982414192 0 0.44027493653833882 0.22071549718620859 0 0.44595248992307712 0.2137540157059323 0 0.43740052179137412 0.20303414053748109 0 0.43652948110001583 0.2113152982414192 0 0.4465528890414262 0.20408284590688519 0 0.43652948110001583 0.2113152982414192 0 0.44595248992307712 0.2137540157059323 0 0.4465528890414262 0.20408284590688519 0 0.44595248992307712 0.2137540157059323 0 0.4465528890414262 0.20408284590688519 0 0.45156217439604818 0.2030651277773918 0 0.45444080567428818 0.21842739778864911 0 0.45156217439604818 0.2030651277773918 0 0.4465528890414262 0.20408284590688519 0 0.45156217439604818 0.2030651277773918 0 0.45156217439604818 0.2030651277773918 0 0.43927864496059482 0.1950624161584463 0 0.44666690202595261 0.17694073439067681 0 0.45156217439604818 0.2030651277773918 0 0.45857367354521877 0.19239971602289821 0 0.44666690202595261 0.17694073439067681 0 0.45156217439604818 0.2030651277773918 0 0.44666690202595261 0.17694073439067681 0 0.4465528890414262 0.20408284590688519 0 0.45156217439604818 0.2030651277773918 0 0.43927864496059482 0.1950624161584463 0 0.43740052179137412 0.20303414053748109 0 0.4465528890414262 0.20408284590688519 0 0.43927864496059482 0.1950624161584463 0 0.45156217439604818 0.2030651277773918 0 0.46897907966555319 0.19952659902576819 0 0.45156217439604818 0.2030651277773918 0 0.45857367354521877 0.19239971602289821 0 0.46897907966555319 0.19952659902576819 0 0.45857367354521877 0.19239971602289821 0 0.46897907966555319 0.19952659902576819 0 0.46653144348050501 0.18646440233240991 0 0.46897907966555319 0.19952659902576819 0 0.48639598493505781 0.19598807027414281 0 0.46653144348050501 0.18646440233240991 0 0.46897907966555319 0.19952659902576819 0 0.48639598493505781 0.19598807027414281 0 0.46897907966555319 0.19952659902576819 0 0.48639598493505781 0.19598807027414281 0 0.47903597950787219 0.20634926295471581 0 0.48639598493505781 0.19598807027414281 0 0.46653144348050501 0.18646440233240991 0 0.50000000000000044 0.19322419243821551 0 0.48639598493505781 0.19598807027414281 0 0.49149575218252889 0.1862275763490559 0 0.50000000000000044 0.19322419243821551 0 0.48639598493505781 0.19598807027414281 0 0.50000000000000044 0.19322419243821551 0 0.49999999999999561 0.20251025063502059 0 0.48639598493505781 0.19598807027414281 0 0.49999999999999561 0.20251025063502059 0 0.48639598493505781 0.19598807027414281 0 0.49999999999999561 0.20251025063502059 0 0.48639598493505781 0.19598807027414281 0 0.48794978975128489 0.20767732282034351 0 0.49999999999999561 0.20251025063502059 0 0.49134750920795123 0.21919458794754021 0 0.5 0.22829355770395471 0 0.48639598493505781 0.19598807027414281 0 0.48794978975128489 0.20767732282034351 0 0.47903597950787219 0.20634926295471581 0 0.49999999999999561 0.20251025063502059 0 0.48794978975128489 0.20767732282034351 0 0.49134750920795123 0.21919458794754021 0 0.48794978975128489 0.20767732282034351 0 0.4813287379807864 0.21567962350364819 0 0.49134750920795123 0.21919458794754021 0 0.4813287379807864 0.21567962350364819 0 0.47903597950787219 0.20634926295471581 0 0.47052630520667837 0.21287469914967569 0 0.48794978975128489 0.20767732282034351 0 0.4813287379807864 0.21567962350364819 0 0.47903597950787219 0.20634926295471581 0 0.46897907966555319 0.19952659902576819 0 0.47903597950787219 0.20634926295471581 0 0.47052630520667837 0.21287469914967569 0 0.4813287379807864 0.21567962350364819 0 0.47052630520667837 0.21287469914967569 0 0.47204955053934089 0.22354769061292709 0 0.4653935916284041 0.2313667633354865 0 0.47204955053934089 0.22354769061292709 0 0.47342042107455079 0.23254964187768079 0 0.47204955053934089 0.22354769061292709 0 0.47342042107455079 0.23254964187768079 0 0.48209791108229377 0.22766086204538619 0 0.47342042107455079 0.23254964187768079 0 0.48209791108229377 0.22766086204538619 0 0.47956953658937768 0.24019857278421569 0 0.4813287379807864 0.21567962350364819 0 0.47204955053934089 0.22354769061292709 0 0.48209791108229377 0.22766086204538619 0 0.4813287379807864 0.21567962350364819 0 0.48209791108229377 0.22766086204538619 0 0.49134750920795123 0.21919458794754021 0 0.48209791108229377 0.22766086204538619 0 0.49134750920795123 0.21919458794754021 0 0.49401188930849438 0.23157213534679169 0 0.49134750920795123 0.21919458794754021 0 0.5 0.22829355770395471 0 0.49401188930849438 0.23157213534679169 0 0.48209791108229377 0.22766086204538619 0 0.49401188930849438 0.23157213534679169 0 0.47956953658937768 0.24019857278421569 0 0.49064181440979859 0.25737885097138252 0 0.49401188930849438 0.23157213534679169 0 0.5 0.25407686477288871 0 0.5 0.22829355770395471 0 0.49401188930849438 0.23157213534679169 0 0.49064181440979859 0.25737885097138252 0 0.49401188930849438 0.23157213534679169 0 0.48567489625149229 0.24645085199602021 0 0.49401188930849438 0.23157213534679169 0 0.48567489625149229 0.24645085199602021 0 0.47956953658937768 0.24019857278421569 0 0.5 0.25407686477288871 0 0.49064181440979859 0.25737885097138252 0 0.49401188930849438 0.23157213534679169 0 0.46631018287963322 0.25594055515990077 0 0.47956953658937768 0.24019857278421569 0 0.47847634469829858 0.2566538488816909 0 0.48567489625149229 0.24645085199602021 0 0.47956953658937768 0.24019857278421569 0 0.46631018287963322 0.25594055515990077 0 0.4679915155333374 0.2399743206103887 0 0.47956953658937768 0.24019857278421569 0 0.4679915155333374 0.2399743206103887 0 0.4653935916284041 0.2313667633354865 0 0.47342042107455079 0.23254964187768079 0 0.4679915155333374 0.2399743206103887 0 0.47342042107455079 0.23254964187768079 0 0.47956953658937768 0.24019857278421569 0 0.45063838223564101 0.13981602334939641 0 0.47402785276578019 0.15837933651632399 0 0.47133332699146829 0.14374504361459359 0 0.45063838223564101 0.13981602334939641 0 0.45573834020559018 0.15748056336176511 0 0.47402785276578019 0.15837933651632399 0 0.45063838223564101 0.13981602334939641 0 0.47402785276578019 0.15837933651632399 0 0.46445156852394259 0.1358998813130739 0 0.46416972611262891 0.13070258141105459 0 0.47345079461126421 0.13495156750906301 0 0.46445156852394259 0.1358998813130739 0 0.45063838223564101 0.13981602334939641 0 0.47133332699146829 0.14374504361459359 0 0.46445156852394259 0.1358998813130739 0 0.4626656126687102 0.13028419068126151 0 0.46416972611262891 0.13070258141105459 0 0.4626656126687102 0.13028419068126151 0 0.46416972611262891 0.13070258141105459 0 0.4626656126687102 0.13028419068126151 0 0.45547750923346952 0.13292135819270029 0 0.45063838223564101 0.13981602334939641 0 0.46445156852394259 0.1358998813130739 0 0.4626656126687102 0.13028419068126151 0 0.45063838223564101 0.13981602334939641 0 0.4626656126687102 0.13028419068126151 0 0.45063838223564101 0.13981602334939641 0 0.4626656126687102 0.13028419068126151 0 0.45547750923346952 0.13292135819270029 0 0.43656373293078549 0.123023578420544 0 0.45547750923346952 0.13292135819270029 0 0.44447245735526603 0.1349223685584052 0 0.43656373293078549 0.123023578420544 0 0.45547750923346952 0.13292135819270029 0 0.45063838223564101 0.13981602334939641 0 0.44447245735526603 0.1349223685584052 0 0.45547750923346952 0.13292135819270029 0 0.44447245735526603 0.1349223685584052 0 0.4626656126687102 0.13028419068126151 0 0.43656373293078549 0.123023578420544 0 0.45063838223564101 0.13981602334939641 0 0.44447245735526603 0.1349223685584052 0 0.43780122957278877 0.12962767450474699 0 0.44447245735526603 0.1349223685584052 0 0.43656373293078549 0.123023578420544 0 0.43780122957278877 0.12962767450474699 0 0.43898048457650291 0.13592095489676059 0 0.43780122957278877 0.12962767450474699 0 0.44447245735526603 0.1349223685584052 0 0.44447245735526603 0.1349223685584052 0 0.43898048457650291 0.13592095489676059 0 0.44112338130282258 0.1473568613863438 0 0.44447245735526603 0.1349223685584052 0 0.43898048457650291 0.13592095489676059 0 0.43780122957278877 0.12962767450474699 0 0.44447245735526603 0.1349223685584052 0 0.43898048457650291 0.13592095489676059 0 0.43898048457650291 0.13592095489676059 0 0.44112338130282258 0.1473568613863438 0 0.45063838223564101 0.13981602334939641 0 0.44112338130282258 0.1473568613863438 0 0.45573834020559018 0.15748056336176511 0 0.45063838223564101 0.13981602334939641 0 0.44112338130282258 0.1473568613863438 0 0.45063838223564101 0.13981602334939641 0 0.44447245735526603 0.1349223685584052 0 0.44112338130282258 0.1473568613863438 0 0.44112338130282258 0.1473568613863438 0 0.44666690202595261 0.17694073439067681 0 0.45573834020559018 0.15748056336176511 0 0.44112338130282258 0.1473568613863438 0 0.44666690202595261 0.17694073439067681 0 0.45857367354521877 0.19239971602289821 0 0.44666690202595261 0.17694073439067681 0 0.46653144348050501 0.18646440233240991 0 0.44666690202595261 0.17694073439067681 0 0.46653144348050501 0.18646440233240991 0 0.44666690202595261 0.17694073439067681 0 0.46653144348050501 0.18646440233240991 0 0.46145485991615121 0.17157453790853711 0 0.45573834020559018 0.15748056336176511 0 0.46145485991615121 0.17157453790853711 0 0.47402785276578019 0.15837933651632399 0 0.44666690202595261 0.17694073439067681 0 0.45573834020559018 0.15748056336176511 0 0.46145485991615121 0.17157453790853711 0 0.47402785276578019 0.15837933651632399 0 0.47955386942932249 0.1792627621772884 0 0.49741732329591232 0.1769426496832604 0 0.46145485991615121 0.17157453790853711 0 0.47402785276578019 0.15837933651632399 0 0.47955386942932249 0.1792627621772884 0 0.46653144348050501 0.18646440233240991 0 0.46145485991615121 0.17157453790853711 0 0.47955386942932249 0.1792627621772884 0 0.48639598493505781 0.19598807027414281 0 0.46653144348050501 0.18646440233240991 0 0.47955386942932249 0.1792627621772884 0 0.50000000000000044 0.19322419243821551 0 0.49741732329591232 0.1769426496832604 0 0.5 0.17009212052043021 0 0.50000000000000044 0.19322419243821551 0 0.49741732329591232 0.1769426496832604 0 0.49149575218252889 0.1862275763490559 0 0.47955386942932249 0.1792627621772884 0 0.49741732329591232 0.1769426496832604 0 0.49149575218252889 0.1862275763490559 0 0.48639598493505781 0.19598807027414281 0 0.47955386942932249 0.1792627621772884 0 0.49149575218252889 0.1862275763490559 0 0.47402785276578019 0.15837933651632399 0 0.49741732329591232 0.1769426496832604 0 0.49091269135683369 0.1600455821167576 0 0.49091269135683369 0.1600455821167576 0 0.5 0.17009212052043021 0 0.5 0.146960048602645 0 0.49741732329591232 0.1769426496832604 0 0.49091269135683369 0.1600455821167576 0 0.5 0.17009212052043021 0 0.47402785276578019 0.15837933651632399 0 0.49741732329591232 0.1769426496832604 0 0.49091269135683369 0.1600455821167576 0 0.5 0.146960048602645 0 0.48419057180116393 0.14922883708395729 0 0.5 0.146960048602645 0 0.48419057180116393 0.14922883708395729 0 0.48467898789173702 0.13701417456946641 0 0.47402785276578019 0.15837933651632399 0 0.49091269135683369 0.1600455821167576 0 0.48419057180116393 0.14922883708395729 0 0.48419057180116393 0.14922883708395729 0 0.47133332699146829 0.14374504361459359 0 0.48467898789173702 0.13701417456946641 0 0.47402785276578019 0.15837933651632399 0 0.48419057180116393 0.14922883708395729 0 0.47133332699146829 0.14374504361459359 0 0.4626656126687102 0.13028419068126151 0 0.46416972611262891 0.13070258141105459 0 0.4813328063343556 0.1154900477241676 0 0.46416972611262891 0.13070258141105459 0 0.47345079461126421 0.13495156750906301 0 0.48050111829389841 0.12763609085012589 0 0.46445156852394259 0.1358998813130739 0 0.47133332699146829 0.14374504361459359 0 0.47345079461126421 0.13495156750906301 0 0.47133332699146829 0.14374504361459359 0 0.47345079461126421 0.13495156750906301 0 0.48467898789173702 0.13701417456946641 0 0.47345079461126421 0.13495156750906301 0 0.48050111829389841 0.12763609085012589 0 0.48467898789173702 0.13701417456946641 0 0.5 0.146960048602645 0 0.48467898789173702 0.13701417456946641 0 0.5 0.1238279766848598 0 0.48050111829389841 0.12763609085012589 0 0.48467898789173702 0.13701417456946641 0 0.5 0.1238279766848598 0 0.5 0.1238279766848598 0 0.50000000000000155 0.1006959047670746 0 0.4813328063343556 0.1154900477241676 0 0.48050111829389841 0.12763609085012589 0 0.5 0.1238279766848598 0 0.4813328063343556 0.1154900477241676 0 0.50000000000000155 0.1006959047670746 0 0.4813328063343556 0.1154900477241676 0 0.50000000000000155 0.1006959047670746 0 0.4813328063343556 0.1154900477241676 0 0.48843845925743379 0.09368642142030624 0 0.47475497795800431 0.099303305334723535 0 0.4813328063343556 0.1154900477241676 0 0.46666898158844361 0.1124476578656768 0 0.47475497795800431 0.099303305334723535 0 0.4813328063343556 0.1154900477241676 0 0.48843845925743379 0.09368642142030624 0 0.4626656126687102 0.13028419068126151 0 0.4813328063343556 0.1154900477241676 0 0.46416972611262891 0.13070258141105459 0 0.48050111829389841 0.12763609085012589 0 0.4813328063343556 0.1154900477241676 0 0.4626656126687102 0.13028419068126151 0 0.4813328063343556 0.1154900477241676 0 0.46666898158844361 0.1124476578656768 0 0.48737748897900218 0.077505090732942691 0 0.5 0.078201390449118224 0 0.50000000000000011 0.055706876131161751 0 0.48737748897900218 0.077505090732942691 0 0.50000000000000011 0.055706876131161751 0 0.48737748897900218 0.077505090732942691 0 0.4837361467113922 0.062243702727651277 0 0.50000000000000011 0.055706876131161751 0 0.50000000000000155 0.1006959047670746 0 0.48843845925743379 0.09368642142030624 0 0.5 0.078201390449118224 0 0.48737748897900218 0.077505090732942691 0 0.48843845925743379 0.09368642142030624 0 0.5 0.078201390449118224 0 0.47475497795800431 0.099303305334723535 0 0.48737748897900218 0.077505090732942691 0 0.47475497795800431 0.099303305334723535 0 0.47390804347048732 0.082767376612292984 0 0.46531559514508142 0.090927060923222447 0 0.47475497795800431 0.099303305334723535 0 0.48737748897900218 0.077505090732942691 0 0.47390804347048732 0.082767376612292984 0 0.47475497795800431 0.099303305334723535 0 0.48737748897900218 0.077505090732942691 0 0.48843845925743379 0.09368642142030624 0 0.47705309257472089 0.071142310435432052 0 0.46633874461458419 0.06546068373031988 0 0.4837361467113922 0.062243702727651277 0 0.48737748897900218 0.077505090732942691 0 0.47390804347048732 0.082767376612292984 0 0.47705309257472089 0.071142310435432052 0 0.47390804347048732 0.082767376612292984 0 0.47705309257472089 0.071142310435432052 0 0.46534392903801669 0.074300414850717603 0 0.47705309257472089 0.071142310435432052 0 0.46633874461458419 0.06546068373031988 0 0.46534392903801669 0.074300414850717603 0 0.48737748897900218 0.077505090732942691 0 0.47705309257472089 0.071142310435432052 0 0.4837361467113922 0.062243702727651277 0 0.46633874461458419 0.06546068373031988 0 0.45530823226831862 0.071593036824978765 0 0.44971947932202438 0.085000323527283969 0 0.46633874461458419 0.06546068373031988 0 0.44971947932202438 0.085000323527283969 0 0.46633874461458419 0.06546068373031988 0 0.46534392903801669 0.074300414850717603 0 0.44971947932202438 0.085000323527283969 0 0.45888371984118098 0.06466152543846318 0 0.46633874461458419 0.06546068373031988 0 0.45530823226831862 0.071593036824978765 0 0.45888371984118098 0.06466152543846318 0 0.45530823226831862 0.071593036824978765 0 0.45374224333647428 0.059227760358941749 0 0.47390804347048732 0.082767376612292984 0 0.46534392903801669 0.074300414850717603 0 0.46531559514508142 0.090927060923222447 0 0.46534392903801669 0.074300414850717603 0 0.4504943495096439 0.096209901247891166 0 0.46534392903801669 0.074300414850717603 0 0.46531559514508142 0.090927060923222447 0 0.4504943495096439 0.096209901247891166 0 0.46534392903801669 0.074300414850717603 0 0.44971947932202438 0.085000323527283969 0 0.4504943495096439 0.096209901247891166 0 0.44296448066715549 0.079446353988782178 0 0.43218671799783598 0.099664947618622171 0 0.44296448066715549 0.079446353988782178 0 0.44971947932202438 0.085000323527283969 0 0.43218671799783598 0.099664947618622171 0 0.44296448066715549 0.079446353988782178 0 0.43498377983803599 0.084830087952218178 0 0.43617758932898598 0.077630750292335543 0 0.45530823226831862 0.071593036824978765 0 0.44971947932202438 0.085000323527283969 0 0.44997215289227588 0.077808151949602805 0 0.44296448066715549 0.079446353988782178 0 0.44971947932202438 0.085000323527283969 0 0.44997215289227588 0.077808151949602805 0 0.45530823226831862 0.071593036824978765 0 0.44997215289227588 0.077808151949602805 0 0.45374224333647428 0.059227760358941749 0 0.44296448066715549 0.079446353988782178 0 0.44263166221290362 0.065231664759476643 0 0.45374224333647428 0.059227760358941749 0 0.44296448066715549 0.079446353988782178 0 0.44997215289227588 0.077808151949602805 0 0.45374224333647428 0.059227760358941749 0 0.44296448066715549 0.079446353988782178 0 0.45374224333647428 0.059227760358941749 0 0.44296448066715549 0.079446353988782178 0 0.43811196695203652 0.070761546202299713 0 0.44263166221290362 0.065231664759476643 0 0.44296448066715549 0.079446353988782178 0 0.43811196695203652 0.070761546202299713 0 0.43617758932898598 0.077630750292335543 0 0.43811196695203652 0.070761546202299713 0 0.44263166221290362 0.065231664759476643 0 0.43596298062074867 0.062954294952025217 0 0.4626656126687102 0.13028419068126151 0 0.46666898158844361 0.1124476578656768 0 0.45248648109438999 0.1140879020833812 0 0.46666898158844361 0.1124476578656768 0 0.46210502988675911 0.1030728435048516 0 0.45248648109438999 0.1140879020833812 0 0.46210502988675911 0.1030728435048516 0 0.4504943495096439 0.096209901247891166 0 0.45248648109438999 0.1140879020833812 0 0.47475497795800431 0.099303305334723535 0 0.46666898158844361 0.1124476578656768 0 0.46210502988675911 0.1030728435048516 0 0.47475497795800431 0.099303305334723535 0 0.46531559514508142 0.090927060923222447 0 0.46210502988675911 0.1030728435048516 0 0.46531559514508142 0.090927060923222447 0 0.46210502988675911 0.1030728435048516 0 0.4504943495096439 0.096209901247891166 0 0.44971947932202438 0.085000323527283969 0 0.43310021402946552 0.104539963324249 0 0.43218671799783598 0.099664947618622171 0 0.44971947932202438 0.085000323527283969 0 0.43310021402946552 0.104539963324249 0 0.4504943495096439 0.096209901247891166 0 0.43564476998127172 0.11811938764506499 0 0.4504943495096439 0.096209901247891166 0 0.43564476998127172 0.11811938764506499 0 0.43310021402946552 0.104539963324249 0 0.44971947932202438 0.085000323527283969 0 0.4504943495096439 0.096209901247891166 0 0.43310021402946552 0.104539963324249 0 0.4626656126687102 0.13028419068126151 0 0.45248648109438999 0.1140879020833812 0 0.43656373293078549 0.123023578420544 0 0.45248648109438999 0.1140879020833812 0 0.43656373293078549 0.123023578420544 0 0.43564476998127172 0.11811938764506499 0 0.4504943495096439 0.096209901247891166 0 0.45248648109438999 0.1140879020833812 0 0.43564476998127172 0.11811938764506499 0 0.43564476998127172 0.11811938764506499 0 0.43299388712879189 0.12203057460399309 0 0.42104962642742011 0.1187081071585684 0 0.43246429483738802 0.12539195695324809 0 0.43656373293078549 0.123023578420544 0 0.43299388712879189 0.12203057460399309 0 0.43656373293078549 0.123023578420544 0 0.43299388712879189 0.12203057460399309 0 0.43656373293078549 0.123023578420544 0 0.43564476998127172 0.11811938764506499 0 0.43656373293078549 0.123023578420544 0 0.43564476998127172 0.11811938764506499 0 0.43299388712879189 0.12203057460399309 0 0.43564476998127172 0.11811938764506499 0 0.43299388712879189 0.12203057460399309 0 0.43564476998127172 0.11811938764506499 0 0.43310021402946552 0.104539963324249 0 0.43564476998127172 0.11811938764506499 0 0.42434137360071039 0.1148379268024274 0 0.43310021402946552 0.104539963324249 0 0.42434137360071039 0.1148379268024274 0 0.43310021402946552 0.104539963324249 0 0.42434137360071039 0.1148379268024274 0 0.42104962642742011 0.1187081071585684 0 0.42331326502658639 0.10521406296543399 0 0.42434137360071039 0.1148379268024274 0 0.42104962642742011 0.1187081071585684 0 0.43299388712879189 0.12203057460399309 0 0.42104962642742011 0.1187081071585684 0 0.42052899247656039 0.12836471162503371 0 0.43299388712879189 0.12203057460399309 0 0.42104962642742011 0.1187081071585684 0 0.43564476998127172 0.11811938764506499 0 0.42434137360071039 0.1148379268024274 0 0.42104962642742011 0.1187081071585684 0 0.42104962642742011 0.1187081071585684 0 0.3963667440652664 0.1118422093723552 0 0.42104962642742011 0.1187081071585684 0 0.41329422471242772 0.1025399215319607 0 0.3963667440652664 0.1118422093723552 0 0.40917854243900148 0.1326652046024035 0 0.42104962642742011 0.1187081071585684 0 0.3963667440652664 0.1118422093723552 0 0.42104962642742011 0.1187081071585684 0 0.41329422471242772 0.1025399215319607 0 0.42331326502658639 0.10521406296543399 0 0.41329422471242772 0.1025399215319607 0 0.41488725140263472 0.09269486168408661 0 0.40340453152333527 0.092072333359030062 0 0.41329422471242772 0.1025399215319607 0 0.42240666036765617 0.096220038618338152 0 0.41488725140263472 0.09269486168408661 0 0.41329422471242772 0.1025399215319607 0 0.42240666036765617 0.096220038618338152 0 0.42331326502658639 0.10521406296543399 0 0.42240666036765617 0.096220038618338152 0 0.42720953663085509 0.098516336159054446 0 0.4309315031313421 0.092966295433823454 0 0.42240666036765617 0.096220038618338152 0 0.42720953663085509 0.098516336159054446 0 0.42331326502658639 0.10521406296543399 0 0.42720953663085509 0.098516336159054446 0 0.42331326502658639 0.10521406296543399 0 0.43218671799783598 0.099664947618622171 0 0.42434137360071039 0.1148379268024274 0 0.42331326502658639 0.10521406296543399 0 0.43218671799783598 0.099664947618622171 0 0.42434137360071039 0.1148379268024274 0 0.43218671799783598 0.099664947618622171 0 0.42434137360071039 0.1148379268024274 0 0.43310021402946552 0.104539963324249 0 0.43218671799783598 0.099664947618622171 0 0.43310021402946552 0.104539963324249 0 0.43218671799783598 0.099664947618622171 0 0.42720953663085509 0.098516336159054446 0 0.43218671799783598 0.099664947618622171 0 0.4309315031313421 0.092966295433823454 0 0.43218671799783598 0.099664947618622171 0 0.4309315031313421 0.092966295433823454 0 0.44296448066715549 0.079446353988782178 0 0.43218671799783598 0.099664947618622171 0 0.43498377983803599 0.084830087952218178 0 0.43218671799783598 0.099664947618622171 0 0.4309315031313421 0.092966295433823454 0 0.43498377983803599 0.084830087952218178 0 0.4309315031313421 0.092966295433823454 0 0.43498377983803599 0.084830087952218178 0 0.42891720400327182 0.086235550404226494 0 0.43498377983803599 0.084830087952218178 0 0.42988648009205133 0.079024568057128625 0 0.43617758932898598 0.077630750292335543 0 0.43498377983803599 0.084830087952218178 0 0.42988648009205133 0.079024568057128625 0 0.42891720400327182 0.086235550404226494 0 0.42988648009205133 0.079024568057128625 0 0.42190154749623382 0.080128929919291547 0 0.42891720400327182 0.086235550404226494 0 0.42190154749623382 0.080128929919291547 0 0.42251103613010738 0.088041726872147313 0 0.42891720400327182 0.086235550404226494 0 0.42240666036765617 0.096220038618338152 0 0.4309315031313421 0.092966295433823454 0 0.42251103613010738 0.088041726872147313 0 0.4309315031313421 0.092966295433823454 0 0.42251103613010738 0.088041726872147313 0 0.42891720400327182 0.086235550404226494 0 0.43596298062074867 0.062954294952025217 0 0.42990280090687122 0.071165166454175505 0 0.42715333146494738 0.063626847317074867 0 0.43811196695203652 0.070761546202299713 0 0.43596298062074867 0.062954294952025217 0 0.42990280090687122 0.071165166454175505 0 0.42988648009205133 0.079024568057128625 0 0.42990280090687122 0.071165166454175505 0 0.43617758932898598 0.077630750292335543 0 0.43811196695203652 0.070761546202299713 0 0.42990280090687122 0.071165166454175505 0 0.43617758932898598 0.077630750292335543 0 0.42190154749623382 0.080128929919291547 0 0.42558385871953708 0.07462744957640699 0 0.42029855105327918 0.072063984550981924 0 0.42988648009205133 0.079024568057128625 0 0.42990280090687122 0.071165166454175505 0 0.42558385871953708 0.07462744957640699 0 0.42988648009205133 0.079024568057128625 0 0.42190154749623382 0.080128929919291547 0 0.42558385871953708 0.07462744957640699 0 0.42558385871953708 0.07462744957640699 0 0.42466915139184808 0.06906578227322499 0 0.42029855105327918 0.072063984550981924 0 0.42990280090687122 0.071165166454175505 0 0.42558385871953708 0.07462744957640699 0 0.42466915139184808 0.06906578227322499 0 0.42990280090687122 0.071165166454175505 0 0.42466915139184808 0.06906578227322499 0 0.42715333146494738 0.063626847317074867 0 0.42466915139184808 0.06906578227322499 0 0.42715333146494738 0.063626847317074867 0 0.41949637270552431 0.065160716478935593 0 0.41949637270552431 0.065160716478935593 0 0.41470681552114719 0.069564304864856999 0 0.41273336420835771 0.062938565899922444 0 0.41949637270552431 0.065160716478935593 0 0.41470681552114719 0.069564304864856999 0 0.42029855105327918 0.072063984550981924 0 0.42466915139184808 0.06906578227322499 0 0.41949637270552431 0.065160716478935593 0 0.42029855105327918 0.072063984550981924 0 0.41470681552114719 0.069564304864856999 0 0.42029855105327918 0.072063984550981924 0 0.41239769032011248 0.075288960369092037 0 0.42190154749623382 0.080128929919291547 0 0.42029855105327918 0.072063984550981924 0 0.41239769032011248 0.075288960369092037 0 0.41239769032011248 0.075288960369092037 0 0.40383391499866572 0.07981686049567327 0 0.4048014894973182 0.072004416078878988 0 0.41239769032011248 0.075288960369092037 0 0.40914203639379371 0.067341017761651217 0 0.4048014894973182 0.072004416078878988 0 0.41470681552114719 0.069564304864856999 0 0.41239769032011248 0.075288960369092037 0 0.40914203639379371 0.067341017761651217 0 0.41470681552114719 0.069564304864856999 0 0.40914203639379371 0.067341017761651217 0 0.41273336420835771 0.062938565899922444 0 0.40914203639379371 0.067341017761651217 0 0.41273336420835771 0.062938565899922444 0 0.4065485570109747 0.061955092477960452 0 0.42251103613010738 0.088041726872147313 0 0.41488725140263472 0.09269486168408661 0 0.4128198042796471 0.084600288038956764 0 0.42240666036765617 0.096220038618338152 0 0.42251103613010738 0.088041726872147313 0 0.41488725140263472 0.09269486168408661 0 0.42190154749623382 0.080128929919291547 0 0.41239769032011248 0.075288960369092037 0 0.4128198042796471 0.084600288038956764 0 0.42190154749623382 0.080128929919291547 0 0.42251103613010738 0.088041726872147313 0 0.4128198042796471 0.084600288038956764 0 0.41239769032011248 0.075288960369092037 0 0.4128198042796471 0.084600288038956764 0 0.40383391499866572 0.07981686049567327 0 0.4128198042796471 0.084600288038956764 0 0.40340453152333527 0.092072333359030062 0 0.40383391499866572 0.07981686049567327 0 0.41488725140263472 0.09269486168408661 0 0.4128198042796471 0.084600288038956764 0 0.40340453152333527 0.092072333359030062 0 0.40340453152333527 0.092072333359030062 0 0.40383391499866572 0.07981686049567327 0 0.392680006792888 0.082001273502144575 0 0.40383391499866572 0.07981686049567327 0 0.392680006792888 0.082001273502144575 0 0.39689996757869289 0.072933891625937247 0 0.40340453152333527 0.092072333359030062 0 0.392680006792888 0.082001273502144575 0 0.38863146311901547 0.094986660349074978 0 0.40125640210940239 0.064755775293438761 0 0.4048014894973182 0.072004416078878988 0 0.39689996757869289 0.072933891625937247 0 0.40914203639379371 0.067341017761651217 0 0.40125640210940239 0.064755775293438761 0 0.4048014894973182 0.072004416078878988 0 0.40914203639379371 0.067341017761651217 0 0.40125640210940239 0.064755775293438761 0 0.4065485570109747 0.061955092477960452 0 0.40383391499866572 0.07981686049567327 0 0.4048014894973182 0.072004416078878988 0 0.39689996757869289 0.072933891625937247 0 0.392680006792888 0.082001273502144575 0 0.39689996757869289 0.072933891625937247 0 0.38704713283900288 0.073232735586422584 0 0.40125640210940239 0.064755775293438761 0 0.39689996757869289 0.072933891625937247 0 0.39205963512034281 0.064396530719830633 0 0.39689996757869289 0.072933891625937247 0 0.39205963512034281 0.064396530719830633 0 0.38704713283900288 0.073232735586422584 0 0.40125640210940239 0.064755775293438761 0 0.39205963512034281 0.064396530719830633 0 0.39761192618451652 0.059179510500637841 0 0.39205963512034281 0.064396530719830633 0 0.38285138047958012 0.064826070970039854 0 0.38623503078378851 0.058881050045639871 0 0.39205963512034281 0.064396530719830633 0 0.38285138047958012 0.064826070970039854 0 0.38704713283900288 0.073232735586422584 0 0.38704713283900288 0.073232735586422584 0 0.3771576423064843 0.072019114951921634 0 0.3790221715104749 0.08404117392570333 0 0.36964290334501382 0.077882963597786417 0 0.3771576423064843 0.072019114951921634 0 0.3790221715104749 0.08404117392570333 0 0.38285138047958012 0.064826070970039854 0 0.38704713283900288 0.073232735586422584 0 0.3771576423064843 0.072019114951921634 0 0.37430426914389958 0.063334596227678119 0 0.38285138047958012 0.064826070970039854 0 0.3771576423064843 0.072019114951921634 0 0.392680006792888 0.082001273502144575 0 0.3790221715104749 0.08404117392570333 0 0.38863146311901547 0.094986660349074978 0 0.392680006792888 0.082001273502144575 0 0.38704713283900288 0.073232735586422584 0 0.3790221715104749 0.08404117392570333 0 0.37168386170311291 0.10497631158614169 0 0.3963667440652664 0.1118422093723552 0 0.37168386170311291 0.10497631158614169 0 0.38863146311901547 0.094986660349074978 0 0.3963667440652664 0.1118422093723552 0 0.37168386170311291 0.10497631158614169 0 0.3790221715104749 0.08404117392570333 0 0.38863146311901547 0.094986660349074978 0 0.37168386170311291 0.10497631158614169 0 0.38235590342937159 0.1277180993298854 0 0.3963667440652664 0.1118422093723552 0 0.39579373050464289 0.130106080641431 0 0.40917854243900148 0.1326652046024035 0 0.3963667440652664 0.1118422093723552 0 0.38235590342937159 0.1277180993298854 0 0.39579373050464289 0.130106080641431 0 0.3963667440652664 0.1118422093723552 0 0.41329422471242772 0.1025399215319607 0 0.40340453152333527 0.092072333359030062 0 0.3963667440652664 0.1118422093723552 0 0.40340453152333527 0.092072333359030062 0 0.38863146311901547 0.094986660349074978 0 0.3963667440652664 0.1118422093723552 0 0.39694771796794748 0.018312104332693861 0 0.39638310702745388 0.027303717444472041 0 0.38613049153758783 0.01913604262662081 0 0.39694771796794748 0.018312104332693861 0 0.39321283839114152 0.01060501016591906 0 0.38613049153758783 0.01913604262662081 0 0.39638310702745388 0.027303717444472041 0 0.40452313107728738 0.031190532349047031 0 0.40428165515469427 0.021827542174789681 0 0.39694771796794748 0.018312104332693861 0 0.39638310702745388 0.027303717444472041 0 0.40428165515469427 0.021827542174789681 0 0.39694771796794748 0.018312104332693861 0 0.40428165515469427 0.021827542174789681 0 0.40548909399233152 0.01313639105720397 0 0.39694771796794748 0.018312104332693861 0 0.40548909399233152 0.01313639105720397 0 0.39321283839114152 0.01060501016591906 0 0.40548909399233152 0.01313639105720397 0 0.39321283839114152 0.01060501016591906 0 0.41348807575856911 0.01105908223383395 0 0.39321283839114152 0.01060501016591906 0 0.38406053930642892 0.00219814176459928 0 0.41348807575856911 0.01105908223383395 0 0.38406053930642892 0.00219814176459928 0 0.41348807575856911 0.01105908223383395 0 0.40468769448445879 -0.0018117748698273481 0 0.38406053930642892 0.00219814176459928 0 0.41348807575856911 0.01105908223383395 0 0.37222212860729698 0.018394403589772929 0 0.38406053930642892 0.00219814176459928 0 0.39321283839114152 0.01060501016591906 0 0.38406053930642892 0.00219814176459928 0 0.38613049153758783 0.01913604262662081 0 0.37222212860729698 0.018394403589772929 0 0.38406053930642892 0.00219814176459928 0 0.38613049153758783 0.01913604262662081 0 0.39638310702745388 0.027303717444472041 0 0.38613049153758783 0.01913604262662081 0 0.38529042595188212 0.03571150644070363 0 0.37222212860729698 0.018394403589772929 0 0.38613049153758783 0.01913604262662081 0 0.37568361593246041 0.030004370030681089 0 0.38613049153758783 0.01913604262662081 0 0.37568361593246041 0.030004370030681089 0 0.38529042595188212 0.03571150644070363 0 0.37439131565737671 0.042189232081366462 0 0.37568361593246041 0.030004370030681089 0 0.38529042595188212 0.03571150644070363 0 0.37439131565737671 0.042189232081366462 0 0.38279750157638209 0.044499629428211347 0 0.37912232165233101 0.049646341710085293 0 0.37439131565737671 0.042189232081366462 0 0.38279750157638209 0.044499629428211347 0 0.38529042595188212 0.03571150644070363 0 0.38279750157638209 0.044499629428211347 0 0.38529042595188212 0.03571150644070363 0 0.39173106688047998 0.047078741740910049 0 0.37430426914389958 0.063334596227678119 0 0.38285138047958012 0.064826070970039854 0 0.37963290883164819 0.057434749195846978 0 0.37430426914389958 0.063334596227678119 0 0.3737480526492859 0.05788784112570268 0 0.37963290883164819 0.057434749195846978 0 0.3737480526492859 0.05788784112570268 0 0.3729480631216312 0.051988243496014608 0 0.37963290883164819 0.057434749195846978 0 0.3729480631216312 0.051988243496014608 0 0.37439131565737671 0.042189232081366462 0 0.37912232165233101 0.049646341710085293 0 0.37963290883164819 0.057434749195846978 0 0.37912232165233101 0.049646341710085293 0 0.38584181907461651 0.052119854348987048 0 0.3729480631216312 0.051988243496014608 0 0.37963290883164819 0.057434749195846978 0 0.37912232165233101 0.049646341710085293 0 0.38279750157638209 0.044499629428211347 0 0.37912232165233101 0.049646341710085293 0 0.38584181907461651 0.052119854348987048 0 0.38279750157638209 0.044499629428211347 0 0.38584181907461651 0.052119854348987048 0 0.39173106688047998 0.047078741740910049 0 0.38584181907461651 0.052119854348987048 0 0.39218265659954882 0.055958183078100958 0 0.39173106688047998 0.047078741740910049 0 0.39205963512034281 0.064396530719830633 0 0.38623503078378851 0.058881050045639871 0 0.39218265659954882 0.055958183078100958 0 0.37963290883164819 0.057434749195846978 0 0.38584181907461651 0.052119854348987048 0 0.38623503078378851 0.058881050045639871 0 0.38584181907461651 0.052119854348987048 0 0.38623503078378851 0.058881050045639871 0 0.39218265659954882 0.055958183078100958 0 0.38285138047958012 0.064826070970039854 0 0.37963290883164819 0.057434749195846978 0 0.38623503078378851 0.058881050045639871 0 0.39205963512034281 0.064396530719830633 0 0.39761192618451652 0.059179510500637841 0 0.39218265659954882 0.055958183078100958 0 0.39761192618451652 0.059179510500637841 0 0.39218265659954882 0.055958183078100958 0 0.39816299433594332 0.052856501653037187 0 0.39173106688047998 0.047078741740910049 0 0.39816299433594332 0.052856501653037187 0 0.39965698057453242 0.046500063617347147 0 0.39218265659954882 0.055958183078100958 0 0.39173106688047998 0.047078741740910049 0 0.39816299433594332 0.052856501653037187 0 0.39816299433594332 0.052856501653037187 0 0.40461919214507819 0.05079488683074318 0 0.39965698057453242 0.046500063617347147 0 0.39816299433594332 0.052856501653037187 0 0.40461919214507819 0.05079488683074318 0 0.40317614363150428 0.057627624150484023 0 0.39761192618451652 0.059179510500637841 0 0.39816299433594332 0.052856501653037187 0 0.40317614363150428 0.057627624150484023 0 0.40461919214507819 0.05079488683074318 0 0.40317614363150428 0.057627624150484023 0 0.40923733446080918 0.056571713279947103 0 0.40125640210940239 0.064755775293438761 0 0.40317614363150428 0.057627624150484023 0 0.4065485570109747 0.061955092477960452 0 0.40125640210940239 0.064755775293438761 0 0.39761192618451652 0.059179510500637841 0 0.40317614363150428 0.057627624150484023 0 0.39638310702745388 0.027303717444472041 0 0.38529042595188212 0.03571150644070363 0 0.39727731302467773 0.037915788204356898 0 0.38529042595188212 0.03571150644070363 0 0.39173106688047998 0.047078741740910049 0 0.39727731302467773 0.037915788204356898 0 0.39173106688047998 0.047078741740910049 0 0.39727731302467773 0.037915788204356898 0 0.39965698057453242 0.046500063617347147 0 0.40461919214507819 0.05079488683074318 0 0.4056071451751686 0.041426521841722103 0 0.39965698057453242 0.046500063617347147 0 0.39727731302467773 0.037915788204356898 0 0.4056071451751686 0.041426521841722103 0 0.39965698057453242 0.046500063617347147 0 0.39638310702745388 0.027303717444472041 0 0.40452313107728738 0.031190532349047031 0 0.39727731302467773 0.037915788204356898 0 0.40452313107728738 0.031190532349047031 0 0.39727731302467773 0.037915788204356898 0 0.4056071451751686 0.041426521841722103 0 0.4056071451751686 0.041426521841722103 0 0.41246464123396931 0.033622370958989359 0 0.41353398389953261 0.041601388229601202 0 0.40452313107728738 0.031190532349047031 0 0.4056071451751686 0.041426521841722103 0 0.41246464123396931 0.033622370958989359 0 0.4056071451751686 0.041426521841722103 0 0.41353398389953261 0.041601388229601202 0 0.41152346375849458 0.049138976495766741 0 0.41985466654403908 0.036462252566968271 0 0.41822000278599131 0.04735681928455953 0 0.42573190237442671 0.045071766646175723 0 0.41353398389953261 0.041601388229601202 0 0.41985466654403908 0.036462252566968271 0 0.41822000278599131 0.04735681928455953 0 0.41353398389953261 0.041601388229601202 0 0.41152346375849458 0.049138976495766741 0 0.41822000278599131 0.04735681928455953 0 0.41246464123396931 0.033622370958989359 0 0.41353398389953261 0.041601388229601202 0 0.41985466654403908 0.036462252566968271 0 0.41246464123396931 0.033622370958989359 0 0.41985466654403908 0.036462252566968271 0 0.41851653257142929 0.027413342838880309 0 0.41273336420835771 0.062938565899922444 0 0.40923733446080918 0.056571713279947103 0 0.41612156716949311 0.057366633251899113 0 0.40317614363150428 0.057627624150484023 0 0.4065485570109747 0.061955092477960452 0 0.40923733446080918 0.056571713279947103 0 0.41273336420835771 0.062938565899922444 0 0.4065485570109747 0.061955092477960452 0 0.40923733446080918 0.056571713279947103 0 0.40923733446080918 0.056571713279947103 0 0.41152346375849458 0.049138976495766741 0 0.41612156716949311 0.057366633251899113 0 0.40461919214507819 0.05079488683074318 0 0.4056071451751686 0.041426521841722103 0 0.41152346375849458 0.049138976495766741 0 0.40461919214507819 0.05079488683074318 0 0.40923733446080918 0.056571713279947103 0 0.41152346375849458 0.049138976495766741 0 0.41152346375849458 0.049138976495766741 0 0.41822000278599131 0.04735681928455953 0 0.41612156716949311 0.057366633251899113 0 0.41822000278599131 0.04735681928455953 0 0.41612156716949311 0.057366633251899113 0 0.42265317315921591 0.052657613940720417 0 0.41612156716949311 0.057366633251899113 0 0.42314945219179378 0.058615370306796297 0 0.42265317315921591 0.052657613940720417 0 0.41949637270552431 0.065160716478935593 0 0.41612156716949311 0.057366633251899113 0 0.42314945219179378 0.058615370306796297 0 0.41949637270552431 0.065160716478935593 0 0.41273336420835771 0.062938565899922444 0 0.41612156716949311 0.057366633251899113 0 0.42715333146494738 0.063626847317074867 0 0.42314945219179378 0.058615370306796297 0 0.43032281645978843 0.054265040545351542 0 0.42715333146494738 0.063626847317074867 0 0.41949637270552431 0.065160716478935593 0 0.42314945219179378 0.058615370306796297 0 0.42314945219179378 0.058615370306796297 0 0.42265317315921591 0.052657613940720417 0 0.43032281645978843 0.054265040545351542 0 0.42265317315921591 0.052657613940720417 0 0.43032281645978843 0.054265040545351542 0 0.42573190237442671 0.045071766646175723 0 0.41822000278599131 0.04735681928455953 0 0.42265317315921591 0.052657613940720417 0 0.42573190237442671 0.045071766646175723 0 0.43032281645978843 0.054265040545351542 0 0.42573190237442671 0.045071766646175723 0 0.43637888413878112 0.042579829466778983 0 0.43032281645978843 0.054265040545351542 0 0.43637888413878112 0.042579829466778983 0 0.44237663948810318 0.053768368295334393 0 0.43596298062074867 0.062954294952025217 0 0.43032281645978843 0.054265040545351542 0 0.44237663948810318 0.053768368295334393 0 0.43596298062074867 0.062954294952025217 0 0.42715333146494738 0.063626847317074867 0 0.43032281645978843 0.054265040545351542 0 0.41985466654403908 0.036462252566968271 0 0.42809257117816052 0.036855121484709027 0 0.42613806025394779 0.02918038889643693 0 0.42809257117816052 0.036855121484709027 0 0.43462074261844008 0.030473524671252049 0 0.42613806025394779 0.02918038889643693 0 0.41985466654403908 0.036462252566968271 0 0.42809257117816052 0.036855121484709027 0 0.42573190237442671 0.045071766646175723 0 0.42809257117816052 0.036855121484709027 0 0.42573190237442671 0.045071766646175723 0 0.43637888413878112 0.042579829466778983 0 0.42809257117816052 0.036855121484709027 0 0.43637888413878112 0.042579829466778983 0 0.43462074261844008 0.030473524671252049 0 0.43134877460494558 0.02520547613397995 0 0.43462074261844008 0.030473524671252049 0 0.44019273871331449 0.02014305461738642 0 0.43134877460494558 0.02520547613397995 0 0.43462074261844008 0.030473524671252049 0 0.42613806025394779 0.02918038889643693 0 0.42444355683408019 0.0210249363508444 0 0.41348807575856911 0.01105908223383395 0 0.44019273871331449 0.02014305461738642 0 0.43134877460494558 0.02520547613397995 0 0.42444355683408019 0.0210249363508444 0 0.44019273871331449 0.02014305461738642 0 0.42444355683408019 0.0210249363508444 0 0.42613806025394779 0.02918038889643693 0 0.41851653257142929 0.027413342838880309 0 0.43134877460494558 0.02520547613397995 0 0.42444355683408019 0.0210249363508444 0 0.42613806025394779 0.02918038889643693 0 0.41985466654403908 0.036462252566968271 0 0.42613806025394779 0.02918038889643693 0 0.41851653257142929 0.027413342838880309 0 0.41851653257142929 0.027413342838880309 0 0.41591252635073223 0.02141338214369835 0 0.41112492484776092 0.025047253469952121 0 0.42444355683408019 0.0210249363508444 0 0.41490966374334037 0.017217437998509191 0 0.41348807575856911 0.01105908223383395 0 0.42444355683408019 0.0210249363508444 0 0.41851653257142929 0.027413342838880309 0 0.41591252635073223 0.02141338214369835 0 0.42444355683408019 0.0210249363508444 0 0.41490966374334037 0.017217437998509191 0 0.41591252635073223 0.02141338214369835 0 0.41591252635073223 0.02141338214369835 0 0.41042859936547432 0.01778787385099424 0 0.41112492484776092 0.025047253469952121 0 0.40428165515469427 0.021827542174789681 0 0.40548909399233152 0.01313639105720397 0 0.41042859936547432 0.01778787385099424 0 0.41490966374334037 0.017217437998509191 0 0.41042859936547432 0.01778787385099424 0 0.4115951724048188 0.014673450603013789 0 0.41490966374334037 0.017217437998509191 0 0.41591252635073223 0.02141338214369835 0 0.41042859936547432 0.01778787385099424 0 0.40428165515469427 0.021827542174789681 0 0.41042859936547432 0.01778787385099424 0 0.41112492484776092 0.025047253469952121 0 0.40452313107728738 0.031190532349047031 0 0.41246464123396931 0.033622370958989359 0 0.41112492484776092 0.025047253469952121 0 0.41246464123396931 0.033622370958989359 0 0.41851653257142929 0.027413342838880309 0 0.41112492484776092 0.025047253469952121 0 0.40452313107728738 0.031190532349047031 0 0.40428165515469427 0.021827542174789681 0 0.41112492484776092 0.025047253469952121 0 0.40548909399233152 0.01313639105720397 0 0.40990987619312419 0.0141920784255509 0 0.41348807575856911 0.01105908223383395 0 0.40548909399233152 0.01313639105720397 0 0.41042859936547432 0.01778787385099424 0 0.40990987619312419 0.0141920784255509 0 0.41490966374334037 0.017217437998509191 0 0.4115951724048188 0.014673450603013789 0 0.41348807575856911 0.01105908223383395 0 0.41042859936547432 0.01778787385099424 0 0.40990987619312419 0.0141920784255509 0 0.4115951724048188 0.014673450603013789 0 0.40990987619312419 0.0141920784255509 0 0.4115951724048188 0.014673450603013789 0 0.41348807575856911 0.01105908223383395 0 0.41348807575856911 0.01105908223383395 0 0.41924870906263112 0.002055308071119775 0 0.42637033136440727 0.0081814413947953173 0 0.41348807575856911 0.01105908223383395 0 0.44019273871331449 0.02014305461738642 0 0.42637033136440727 0.0081814413947953173 0 0.43554751887629201 0.0060276177581980589 0 0.42416907869527332 -0.0015223182305388119 0 0.41924870906263112 0.002055308071119775 0 0.42637033136440727 0.0081814413947953173 0 0.42416907869527332 -0.0015223182305388119 0 0.41348807575856911 0.01105908223383395 0 0.42637033136440727 0.0081814413947953173 0 0.44019273871331449 0.02014305461738642 0 0.42637033136440727 0.0081814413947953173 0 0.43554751887629201 0.0060276177581980589 0 0.44019273871331449 0.02014305461738642 0 0.43554751887629201 0.0060276177581980589 0 0.44953976827696829 0.0093891902059344244 0 0.45087287017043348 -0.0044504339851984863 0 0.43554751887629201 0.0060276177581980589 0 0.44953976827696829 0.0093891902059344244 0 0.44019273871331449 0.02014305461738642 0 0.44953976827696829 0.0093891902059344244 0 0.44019273871331449 0.02014305461738642 0 0.45793516176535981 0.021486386051234201 0 0.44019273871331449 0.02014305461738642 0 0.45793516176535981 0.021486386051234201 0 0.4474160804991093 0.032630910655933487 0 0.43462074261844008 0.030473524671252049 0 0.44019273871331449 0.02014305461738642 0 0.4474160804991093 0.032630910655933487 0 0.45793516176535981 0.021486386051234201 0 0.46705047980962672 0.0037132570029095552 0 0.47613493786830119 0.024320945668823951 0 0.45793516176535981 0.021486386051234201 0 0.4474160804991093 0.032630910655933487 0 0.46452000600579307 0.039009166729101319 0 0.45793516176535981 0.021486386051234201 0 0.46452000600579307 0.039009166729101319 0 0.47613493786830119 0.024320945668823951 0 0.44953976827696829 0.0093891902059344244 0 0.45793516176535981 0.021486386051234201 0 0.46705047980962672 0.0037132570029095552 0 0.44953976827696829 0.0093891902059344244 0 0.46705047980962672 0.0037132570029095552 0 0.45087287017043348 -0.0044504339851984863 0 0.44263166221290362 0.065231664759476643 0 0.44237663948810318 0.053768368295334393 0 0.45374224333647428 0.059227760358941749 0 0.44263166221290362 0.065231664759476643 0 0.43596298062074867 0.062954294952025217 0 0.44237663948810318 0.053768368295334393 0 0.43637888413878112 0.042579829466778983 0 0.44237663948810318 0.053768368295334393 0 0.44944324425029741 0.044776531878304049 0 0.44237663948810318 0.053768368295334393 0 0.44944324425029741 0.044776531878304049 0 0.45374224333647428 0.059227760358941749 0 0.43637888413878112 0.042579829466778983 0 0.44944324425029741 0.044776531878304049 0 0.4474160804991093 0.032630910655933487 0 0.43637888413878112 0.042579829466778983 0 0.43462074261844008 0.030473524671252049 0 0.4474160804991093 0.032630910655933487 0 0.44944324425029741 0.044776531878304049 0 0.4474160804991093 0.032630910655933487 0 0.46452000600579307 0.039009166729101319 0 0.46452000600579307 0.039009166729101319 0 0.45374224333647428 0.059227760358941749 0 0.46452000600579307 0.039009166729101319 0 0.46502909575050749 0.052262447427756077 0 0.45374224333647428 0.059227760358941749 0 0.44944324425029741 0.044776531878304049 0 0.46452000600579307 0.039009166729101319 0 0.45374224333647428 0.059227760358941749 0 0.45888371984118098 0.06466152543846318 0 0.46633874461458419 0.06546068373031988 0 0.46502909575050749 0.052262447427756077 0 0.45888371984118098 0.06466152543846318 0 0.46502909575050749 0.052262447427756077 0 0.45374224333647428 0.059227760358941749 0 0.46633874461458419 0.06546068373031988 0 0.46502909575050749 0.052262447427756077 0 0.48295800990714399 0.045921043933355749 0 0.46633874461458419 0.06546068373031988 0 0.4837361467113922 0.062243702727651277 0 0.48295800990714399 0.045921043933355749 0 0.46633874461458419 0.06546068373031988 0 0.48295800990714399 0.045921043933355749 0 0.46452000600579307 0.039009166729101319 0 0.48295800990714399 0.045921043933355749 0 0.47613493786830119 0.024320945668823951 0 0.46452000600579307 0.039009166729101319 0 0.46502909575050749 0.052262447427756077 0 0.48295800990714399 0.045921043933355749 0 0.48295800990714399 0.045921043933355749 0 0.50000000000000011 0.055706876131161751 0 0.5 0.02816718216981462 0 0.48295800990714399 0.045921043933355749 0 0.47613493786830119 0.024320945668823951 0 0.5 0.02816718216981462 0 0.4837361467113922 0.062243702727651277 0 0.48295800990714399 0.045921043933355749 0 0.50000000000000011 0.055706876131161751 0 0.46705047980962672 0.0037132570029095552 0 0.47613493786830119 0.024320945668823951 0 0.48504372522202938 0.009117406037543475 0 0.46705047980962672 0.0037132570029095552 0 0.48504372522202938 0.009117406037543475 0 0.4820332084322192 -0.011241842862298341 0 0.47613493786830119 0.024320945668823951 0 0.5 0.02816718216981462 0 0.48504372522202938 0.009117406037543475 0 0.5 0.02816718216981462 0 0.48504372522202938 0.009117406037543475 0 0.5 0.00062748820846758591 0 0.5 0.00062748820846758591 0 0.4820332084322192 -0.011241842862298341 0 0.5 -0.026912205752879559 0 0.48504372522202938 0.009117406037543475 0 0.5 0.00062748820846758591 0 0.4820332084322192 -0.011241842862298341 0 0.46705047980962672 0.0037132570029095552 0 0.4820332084322192 -0.011241842862298341 0 0.46310458061984738 -0.016197789344762618 0 0.4820332084322192 -0.011241842862298341 0 0.47526897115533479 -0.03071747675098923 0 0.46310458061984738 -0.016197789344762618 0 0.4820332084322192 -0.011241842862298341 0 0.47526897115533479 -0.03071747675098923 0 0.5 -0.026912205752879559 0 0.47526897115533479 -0.03071747675098923 0 0.5 -0.026912205752879559 0 0.48267731405631609 -0.047270210071581657 0 0.5 -0.026912205752879559 0 0.5 -0.054451899714226648 0 0.48267731405631609 -0.047270210071581657 0 0.5 -0.054451899714226648 0 0.48540663423086478 -0.062305567590001637 0 0.48267731405631609 -0.047270210071581657 0 0.48267731405631609 -0.047270210071581657 0 0.47474757713630422 -0.060599735291506918 0 0.46499848727111021 -0.047155436259808968 0 0.48540663423086478 -0.062305567590001637 0 0.48267731405631609 -0.047270210071581657 0 0.47474757713630422 -0.060599735291506918 0 0.47526897115533479 -0.03071747675098923 0 0.48267731405631609 -0.047270210071581657 0 0.46499848727111021 -0.047155436259808968 0 0.45702827329369428 -0.031729195240127017 0 0.46499848727111021 -0.047155436259808968 0 0.44486013926438989 -0.04531450373890282 0 0.47526897115533479 -0.03071747675098923 0 0.45702827329369428 -0.031729195240127017 0 0.46499848727111021 -0.047155436259808968 0 0.46499848727111021 -0.047155436259808968 0 0.45783033363474762 -0.05454021773560537 0 0.44486013926438989 -0.04531450373890282 0 0.47474757713630422 -0.060599735291506918 0 0.46422412281326081 -0.060108051432040288 0 0.46499848727111021 -0.047155436259808968 0 0.46422412281326081 -0.060108051432040288 0 0.46499848727111021 -0.047155436259808968 0 0.45783033363474762 -0.05454021773560537 0 0.46422412281326081 -0.060108051432040288 0 0.45783033363474762 -0.05454021773560537 0 0.45542826114979151 -0.062607056932089622 0 0.44486013926438989 -0.04531450373890282 0 0.45542826114979151 -0.062607056932089622 0 0.44951644945843872 -0.070985564487453384 0 0.44486013926438989 -0.04531450373890282 0 0.44060077597125458 -0.06417817716541635 0 0.44951644945843872 -0.070985564487453384 0 0.45783033363474762 -0.05454021773560537 0 0.44486013926438989 -0.04531450373890282 0 0.45542826114979151 -0.062607056932089622 0 0.44486013926438989 -0.04531450373890282 0 0.44060077597125458 -0.06417817716541635 0 0.43539485400082067 -0.051125290775130242 0 0.44486013926438989 -0.04531450373890282 0 0.44951644945843872 -0.070985564487453384 0 0.45702827329369428 -0.031729195240127017 0 0.44486013926438989 -0.04531450373890282 0 0.44020382907034089 -0.019643442990352349 0 0.44486013926438989 -0.04531450373890282 0 0.44020382907034089 -0.019643442990352349 0 0.43036755889348471 -0.040169518833800148 0 0.44486013926438989 -0.04531450373890282 0 0.44020382907034089 -0.019643442990352349 0 0.43554751887629201 0.0060276177581980589 0 0.44020382907034089 -0.019643442990352349 0 0.45087287017043348 -0.0044504339851984863 0 0.43554751887629201 0.0060276177581980589 0 0.44020382907034089 -0.019643442990352349 0 0.44020382907034089 -0.019643442990352349 0 0.45087287017043348 -0.0044504339851984863 0 0.46310458061984738 -0.016197789344762618 0 0.46705047980962672 0.0037132570029095552 0 0.45087287017043348 -0.0044504339851984863 0 0.46310458061984738 -0.016197789344762618 0 0.45702827329369428 -0.031729195240127017 0 0.44020382907034089 -0.019643442990352349 0 0.46310458061984738 -0.016197789344762618 0 0.47526897115533479 -0.03071747675098923 0 0.45702827329369428 -0.031729195240127017 0 0.46310458061984738 -0.016197789344762618 0 0.48416997141087992 -0.1196754200229202 0 0.46721025886630141 -0.1115599177339497 0 0.47222076375174732 -0.12567577854591219 0 0.48416997141087992 -0.1196754200229202 0 0.48453344905946488 -0.097722106542572643 0 0.46721025886630141 -0.1115599177339497 0 0.48416997141087992 -0.1196754200229202 0 0.4999999999999995 -0.1095312876369206 0 0.5 -0.12981955240891849 0 0.4999999999999995 -0.1095312876369206 0 0.48453344905946488 -0.097722106542572643 0 0.48940382562981449 -0.088255623971737113 0 0.48416997141087992 -0.1196754200229202 0 0.4999999999999995 -0.1095312876369206 0 0.48453344905946488 -0.097722106542572643 0 0.4999999999999995 -0.1095312876369206 0 0.48453344905946488 -0.097722106542572643 0 0.48453344905946488 -0.097722106542572643 0 0.46906689811893099 -0.085912925448223737 0 0.46721025886630141 -0.1115599177339497 0 0.46906689811893099 -0.085912925448223737 0 0.49255451666580619 -0.075853321141042443 0 0.46906689811893099 -0.085912925448223737 0 0.48940382562981449 -0.088255623971737113 0 0.49255451666580619 -0.075853321141042443 0 0.46906689811893099 -0.085912925448223737 0 0.49255451666580619 -0.075853321141042443 0 0.47830863983483002 -0.073320123034283757 0 0.48453344905946488 -0.097722106542572643 0 0.46906689811893099 -0.085912925448223737 0 0.48940382562981449 -0.088255623971737113 0 0.48453344905946488 -0.097722106542572643 0 0.46906689811893099 -0.085912925448223737 0 0.4999999999999995 -0.1095312876369206 0 0.48940382562981449 -0.088255623971737113 0 0.5 -0.081991593675573626 0 0.48940382562981449 -0.088255623971737113 0 0.5 -0.081991593675573626 0 0.49255451666580619 -0.075853321141042443 0 0.5 -0.054451899714226648 0 0.5 -0.081991593675573626 0 0.49255451666580619 -0.075853321141042443 0 0.48540663423086478 -0.062305567590001637 0 0.49255451666580619 -0.075853321141042443 0 0.47830863983483002 -0.073320123034283757 0 0.5 -0.054451899714226648 0 0.48540663423086478 -0.062305567590001637 0 0.49255451666580619 -0.075853321141042443 0 0.48540663423086478 -0.062305567590001637 0 0.47474757713630422 -0.060599735291506918 0 0.47830863983483002 -0.073320123034283757 0 0.46906689811893099 -0.085912925448223737 0 0.47830863983483002 -0.073320123034283757 0 0.47046500251138212 -0.069984768317456911 0 0.47474757713630422 -0.060599735291506918 0 0.47830863983483002 -0.073320123034283757 0 0.47046500251138212 -0.069984768317456911 0 0.47474757713630422 -0.060599735291506918 0 0.46422412281326081 -0.060108051432040288 0 0.47046500251138212 -0.069984768317456911 0 0.46906689811893099 -0.085912925448223737 0 0.47046500251138212 -0.069984768317456911 0 0.4628011295727687 -0.070158116119912753 0 0.46906689811893099 -0.085912925448223737 0 0.45825408687886582 -0.071866629665919307 0 0.44951644945843872 -0.070985564487453384 0 0.46906689811893099 -0.085912925448223737 0 0.4628011295727687 -0.070158116119912753 0 0.45825408687886582 -0.071866629665919307 0 0.46422412281326081 -0.060108051432040288 0 0.47046500251138212 -0.069984768317456911 0 0.4628011295727687 -0.070158116119912753 0 0.45825408687886582 -0.071866629665919307 0 0.45542826114979151 -0.062607056932089622 0 0.44951644945843872 -0.070985564487453384 0 0.4628011295727687 -0.070158116119912753 0 0.45825408687886582 -0.071866629665919307 0 0.45542826114979151 -0.062607056932089622 0 0.46422412281326081 -0.060108051432040288 0 0.4628011295727687 -0.070158116119912753 0 0.45542826114979151 -0.062607056932089622 0 0.44364819155723673 -0.068727248421203382 0 0.44060077597125458 -0.06417817716541635 0 0.44951644945843872 -0.070985564487453384 0 0.44060077597125458 -0.06417817716541635 0 0.44951644945843872 -0.070985564487453384 0 0.44364819155723673 -0.068727248421203382 0 0.43824928300729521 -0.067814791565623755 0 0.44060077597125458 -0.06417817716541635 0 0.44364819155723673 -0.068727248421203382 0 0.43824928300729521 -0.067814791565623755 0 0.43651297293340019 -0.069562618187014549 0 0.44364819155723673 -0.068727248421203382 0 0.44334247740912369 -0.078906139495411726 0 0.43651297293340019 -0.069562618187014549 0 0.44334247740912369 -0.078906139495411726 0 0.43651297293340019 -0.069562618187014549 0 0.44951644945843872 -0.070985564487453384 0 0.4518445864699977 -0.083820995153361402 0 0.44334247740912369 -0.078906139495411726 0 0.44364819155723673 -0.068727248421203382 0 0.44951644945843872 -0.070985564487453384 0 0.44334247740912369 -0.078906139495411726 0 0.44951644945843872 -0.070985564487453384 0 0.44334247740912369 -0.078906139495411726 0 0.44951644945843872 -0.070985564487453384 0 0.4518445864699977 -0.083820995153361402 0 0.44334247740912369 -0.078906139495411726 0 0.45337607126370361 -0.092633211249061528 0 0.43738474545919048 -0.093456795670770629 0 0.44334247740912369 -0.078906139495411726 0 0.45337607126370361 -0.092633211249061528 0 0.4518445864699977 -0.083820995153361402 0 0.44334247740912369 -0.078906139495411726 0 0.45337607126370361 -0.092633211249061528 0 0.46906689811893099 -0.085912925448223737 0 0.44951644945843872 -0.070985564487453384 0 0.46906689811893099 -0.085912925448223737 0 0.44951644945843872 -0.070985564487453384 0 0.4518445864699977 -0.083820995153361402 0 0.46906689811893099 -0.085912925448223737 0 0.45337607126370361 -0.092633211249061528 0 0.46906689811893099 -0.085912925448223737 0 0.4518445864699977 -0.083820995153361402 0 0.45337607126370361 -0.092633211249061528 0 0.45337607126370361 -0.092633211249061528 0 0.44598062492158608 -0.1125580975412114 0 0.46721025886630141 -0.1115599177339497 0 0.45337607126370361 -0.092633211249061528 0 0.46721025886630141 -0.1115599177339497 0 0.46906689811893099 -0.085912925448223737 0 0.45337607126370361 -0.092633211249061528 0 0.46721025886630141 -0.1115599177339497 0 0.45337607126370361 -0.092633211249061528 0 0.44598062492158608 -0.1125580975412114 0 0.42536139301249071 -0.10463172772010219 0 0.45337607126370361 -0.092633211249061528 0 0.42742455322110617 -0.1027141531301231 0 0.43738474545919048 -0.093456795670770629 0 0.45337607126370361 -0.092633211249061528 0 0.42536139301249071 -0.10463172772010219 0 0.44598062492158608 -0.1125580975412114 0 0.45701735952727263 -0.1328123498651278 0 0.44316648776309342 -0.12684051096696669 0 0.44598062492158608 -0.1125580975412114 0 0.43376282856133203 -0.1157138775714215 0 0.44316648776309342 -0.12684051096696669 0 0.46721025886630141 -0.1115599177339497 0 0.45701735952727263 -0.1328123498651278 0 0.47222076375174732 -0.12567577854591219 0 0.44598062492158608 -0.1125580975412114 0 0.46721025886630141 -0.1115599177339497 0 0.45701735952727263 -0.1328123498651278 0 0.4171060655540002 -0.112304523124097 0 0.41727021929411823 -0.1179017189037415 0 0.3968659698649083 -0.13111638903256451 0 0.4171060655540002 -0.112304523124097 0 0.3968659698649083 -0.13111638903256451 0 0.4171060655540002 -0.112304523124097 0 0.41727021929411823 -0.1179017189037415 0 0.42174986482339633 -0.1218575308797169 0 0.41727021929411823 -0.1179017189037415 0 0.42222335057254018 -0.1104934528749415 0 0.4171060655540002 -0.112304523124097 0 0.41727021929411823 -0.1179017189037415 0 0.42222335057254018 -0.1104934528749415 0 0.41727021929411823 -0.1179017189037415 0 0.42222335057254018 -0.1104934528749415 0 0.42174986482339633 -0.1218575308797169 0 0.41727021929411823 -0.1179017189037415 0 0.41763625219026901 -0.1303824444729019 0 0.41727021929411823 -0.1179017189037415 0 0.41763625219026901 -0.1303824444729019 0 0.44598062492158608 -0.1125580975412114 0 0.43376282856133203 -0.1157138775714215 0 0.42536139301249071 -0.10463172772010219 0 0.42222335057254018 -0.1104934528749415 0 0.42986963723665761 -0.12865250726728261 0 0.42174986482339633 -0.1218575308797169 0 0.42222335057254018 -0.1104934528749415 0 0.42986963723665761 -0.12865250726728261 0 0.43376282856133203 -0.1157138775714215 0 0.42222335057254018 -0.1104934528749415 0 0.42986963723665761 -0.12865250726728261 0 0.43376282856133203 -0.1157138775714215 0 0.42986963723665761 -0.12865250726728261 0 0.44316648776309342 -0.12684051096696669 0 0.43376282856133203 -0.1157138775714215 0 0.42222335057254018 -0.1104934528749415 0 0.42536139301249071 -0.10463172772010219 0 0.45337607126370361 -0.092633211249061528 0 0.42536139301249071 -0.10463172772010219 0 0.42742455322110617 -0.1027141531301231 0 0.42222335057254018 -0.1104934528749415 0 0.42536139301249071 -0.10463172772010219 0 0.42536139301249071 -0.10463172772010219 0 0.41953701542864091 -0.107126273248939 0 0.42536139301249071 -0.10463172772010219 0 0.42742455322110617 -0.1027141531301231 0 0.42742455322110617 -0.1027141531301231 0 0.43738474545919048 -0.093456795670770629 0 0.42536139301249071 -0.10463172772010219 0 0.42742455322110617 -0.1027141531301231 0 0.41644499175349342 -0.089763705695217161 0 0.4171060655540002 -0.112304523124097 0 0.41953701542864091 -0.107126273248939 0 0.41644499175349342 -0.089763705695217161 0 0.42536139301249071 -0.10463172772010219 0 0.41953701542864091 -0.107126273248939 0 0.41644499175349342 -0.089763705695217161 0 0.41644499175349342 -0.089763705695217161 0 0.39919049734943263 -0.1071326452134094 0 0.4171060655540002 -0.112304523124097 0 0.41644499175349342 -0.089763705695217161 0 0.39919049734943263 -0.1071326452134094 0 0.4171060655540002 -0.112304523124097 0 0.41644499175349342 -0.089763705695217161 0 0.4171060655540002 -0.112304523124097 0 0.42536139301249071 -0.10463172772010219 0 0.4171060655540002 -0.112304523124097 0 0.42222335057254018 -0.1104934528749415 0 0.42536139301249071 -0.10463172772010219 0 0.4171060655540002 -0.112304523124097 0 0.42536139301249071 -0.10463172772010219 0 0.41953701542864091 -0.107126273248939 0 0.44334247740912369 -0.078906139495411726 0 0.41644499175349342 -0.089763705695217161 0 0.43651297293340019 -0.069562618187014549 0 0.44334247740912369 -0.078906139495411726 0 0.42742455322110617 -0.1027141531301231 0 0.43738474545919048 -0.093456795670770629 0 0.44334247740912369 -0.078906139495411726 0 0.42742455322110617 -0.1027141531301231 0 0.41644499175349342 -0.089763705695217161 0 0.41644499175349342 -0.089763705695217161 0 0.43651297293340019 -0.069562618187014549 0 0.44334247740912369 -0.078906139495411726 0 0.42742455322110617 -0.1027141531301231 0 0.41644499175349342 -0.089763705695217161 0 0.43651297293340019 -0.069562618187014549 0 0.41571695128420688 -0.064939507116500483 0 0.43651297293340019 -0.069562618187014549 0 0.41571695128420688 -0.064939507116500483 0 0.42575094187415352 -0.054838963362401641 0 0.43824928300729521 -0.067814791565623755 0 0.43651297293340019 -0.069562618187014549 0 0.42575094187415352 -0.054838963362401641 0 0.43824928300729521 -0.067814791565623755 0 0.43651297293340019 -0.069562618187014549 0 0.41644499175349342 -0.089763705695217161 0 0.41571695128420688 -0.064939507116500483 0 0.41644499175349342 -0.089763705695217161 0 0.41571695128420688 -0.064939507116500483 0 0.40288042650655997 -0.076136031635400267 0 0.40288042650655997 -0.076136031635400267 0 0.3871555017662871 -0.070643292951665715 0 0.39549873522847229 -0.049324713314158171 0 0.41571695128420688 -0.064939507116500483 0 0.40288042650655997 -0.076136031635400267 0 0.39549873522847229 -0.049324713314158171 0 0.3871555017662871 -0.070643292951665715 0 0.37996153726977389 -0.056720043141302107 0 0.37246515780313749 -0.069141241228585615 0 0.3871555017662871 -0.070643292951665715 0 0.37806678133160121 -0.083397915377897036 0 0.37246515780313749 -0.069141241228585615 0 0.3871555017662871 -0.070643292951665715 0 0.37806678133160121 -0.083397915377897036 0 0.39135060520670623 -0.089764012846530766 0 0.37806678133160121 -0.083397915377897036 0 0.39135060520670623 -0.089764012846530766 0 0.37716231466860273 -0.10111407610363329 0 0.40288042650655997 -0.076136031635400267 0 0.3871555017662871 -0.070643292951665715 0 0.39135060520670623 -0.089764012846530766 0 0.41644499175349342 -0.089763705695217161 0 0.40288042650655997 -0.076136031635400267 0 0.39135060520670623 -0.089764012846530766 0 0.41644499175349342 -0.089763705695217161 0 0.39135060520670623 -0.089764012846530766 0 0.39919049734943263 -0.1071326452134094 0 0.39135060520670623 -0.089764012846530766 0 0.39919049734943263 -0.1071326452134094 0 0.37716231466860273 -0.10111407610363329 0 0.39919049734943263 -0.1071326452134094 0 0.38193600294537122 -0.1245015847316009 0 0.39919049734943263 -0.1071326452134094 0 0.37716231466860273 -0.10111407610363329 0 0.38193600294537122 -0.1245015847316009 0 0.37716231466860273 -0.10111407610363329 0 0.38193600294537122 -0.1245015847316009 0 0.36701684167949489 -0.11721576635914011 0 0.39919049734943263 -0.1071326452134094 0 0.38193600294537122 -0.1245015847316009 0 0.3968659698649083 -0.13111638903256451 0 0.4171060655540002 -0.112304523124097 0 0.39919049734943263 -0.1071326452134094 0 0.3968659698649083 -0.13111638903256451 0 0.41423849328674511 -0.01452811315197486 0 0.4149889108149134 -0.040115308537783889 0 0.4149889108149134 -0.040115308537783889 0 0.39952472506067199 -0.01895858338659169 0 0.41423849328674511 -0.01452811315197486 0 0.4149889108149134 -0.040115308537783889 0 0.39952472506067199 -0.01895858338659169 0 0.41423849328674511 -0.01452811315197486 0 0.42552947490024651 -0.025671476181791941 0 0.4149889108149134 -0.040115308537783889 0 0.41348807575856911 0.01105908223383395 0 0.41423849328674511 -0.01452811315197486 0 0.40468769448445879 -0.0018117748698273481 0 0.41924870906263112 0.002055308071119775 0 0.41423849328674511 -0.01452811315197486 0 0.42416907869527332 -0.0015223182305388119 0 0.41348807575856911 0.01105908223383395 0 0.41924870906263112 0.002055308071119775 0 0.41423849328674511 -0.01452811315197486 0 0.41348807575856911 0.01105908223383395 0 0.41423849328674511 -0.01452811315197486 0 0.43554751887629201 0.0060276177581980589 0 0.44020382907034089 -0.019643442990352349 0 0.42791222281434338 -0.011877103940935619 0 0.41423849328674511 -0.01452811315197486 0 0.42791222281434338 -0.011877103940935619 0 0.42416907869527332 -0.0015223182305388119 0 0.43554751887629201 0.0060276177581980589 0 0.42791222281434338 -0.011877103940935619 0 0.42416907869527332 -0.0015223182305388119 0 0.44020382907034089 -0.019643442990352349 0 0.42791222281434338 -0.011877103940935619 0 0.42552947490024651 -0.025671476181791941 0 0.44020382907034089 -0.019643442990352349 0 0.42552947490024651 -0.025671476181791941 0 0.43036755889348471 -0.040169518833800148 0 0.41423849328674511 -0.01452811315197486 0 0.42791222281434338 -0.011877103940935619 0 0.42552947490024651 -0.025671476181791941 0 0.44486013926438989 -0.04531450373890282 0 0.43036755889348471 -0.040169518833800148 0 0.43539485400082067 -0.051125290775130242 0 0.43036755889348471 -0.040169518833800148 0 0.42575094187415352 -0.054838963362401641 0 0.4149889108149134 -0.040115308537783889 0 0.42552947490024651 -0.025671476181791941 0 0.43036755889348471 -0.040169518833800148 0 0.4149889108149134 -0.040115308537783889 0 0.44060077597125458 -0.06417817716541635 0 0.43539485400082067 -0.051125290775130242 0 0.42575094187415352 -0.054838963362401641 0 0.43824928300729521 -0.067814791565623755 0 0.44060077597125458 -0.06417817716541635 0 0.42575094187415352 -0.054838963362401641 0 0.43651297293340019 -0.069562618187014549 0 0.42575094187415352 -0.054838963362401641 0 0.43036755889348471 -0.040169518833800148 0 0.43539485400082067 -0.051125290775130242 0 0.42575094187415352 -0.054838963362401641 0 0.41571695128420688 -0.064939507116500483 0 0.42575094187415352 -0.054838963362401641 0 0.4149889108149134 -0.040115308537783889 0 0.41571695128420688 -0.064939507116500483 0 0.4149889108149134 -0.040115308537783889 0 0.39549873522847229 -0.049324713314158171 0 0.41571695128420688 -0.064939507116500483 0 0.4149889108149134 -0.040115308537783889 0 0.42575094187415352 -0.054838963362401641 0 0.4149889108149134 -0.040115308537783889 0 0.4149889108149134 -0.040115308537783889 0 0.39549873522847229 -0.049324713314158171 0 0.39952472506067199 -0.01895858338659169 0 0.39549873522847229 -0.049324713314158171 0 0.38406407861759528 -0.0256558862732028 0 0.39952472506067199 -0.01895858338659169 0 0.3871555017662871 -0.070643292951665715 0 0.39549873522847229 -0.049324713314158171 0 0.37996153726977389 -0.056720043141302107 0 0.39549873522847229 -0.049324713314158171 0 0.37996153726977389 -0.056720043141302107 0 0.37673444244801813 -0.04082697351223892 0 0.39549873522847229 -0.049324713314158171 0 0.37673444244801813 -0.04082697351223892 0 0.38406407861759528 -0.0256558862732028 0 0.38406407861759528 -0.0256558862732028 0 0.39952472506067199 -0.01895858338659169 0 0.3814481147941296 -0.01201697704092048 0 0.37673444244801813 -0.04082697351223892 0 0.38406407861759528 -0.0256558862732028 0 0.37110526881669642 -0.01488765972762258 0 0.38406407861759528 -0.0256558862732028 0 0.3814481147941296 -0.01201697704092048 0 0.37110526881669642 -0.01488765972762258 0 0.38406053930642892 0.00219814176459928 0 0.39952472506067199 -0.01895858338659169 0 0.40468769448445879 -0.0018117748698273481 0 0.41423849328674511 -0.01452811315197486 0 0.39952472506067199 -0.01895858338659169 0 0.40468769448445879 -0.0018117748698273481 0 0.38406053930642892 0.00219814176459928 0 0.39952472506067199 -0.01895858338659169 0 0.38406053930642892 0.00219814176459928 0 0.39952472506067199 -0.01895858338659169 0 0.3814481147941296 -0.01201697704092048 0 0.38406053930642892 0.00219814176459928 0 0.36848596216925461 -0.0027808975817818471 0 0.38406053930642892 0.00219814176459928 0 0.3814481147941296 -0.01201697704092048 0 0.36848596216925461 -0.0027808975817818471 0 0.37110526881669642 -0.01488765972762258 0 0.36073978497884301 -0.010533456210826291 0 0.3514293957786977 -0.01639431302024812 0 0.35952598283318982 0.0045837589169943956 0 0.36848596216925461 -0.0027808975817818471 0 0.35193851315072239 -0.0080709545136512795 0 0.36848596216925461 -0.0027808975817818471 0 0.36073978497884301 -0.010533456210826291 0 0.35193851315072239 -0.0080709545136512795 0 0.36848596216925461 -0.0027808975817818471 0 0.35193851315072239 -0.0080709545136512795 0 0.3814481147941296 -0.01201697704092048 0 0.36848596216925461 -0.0027808975817818471 0 0.37110526881669642 -0.01488765972762258 0 0.36848596216925461 -0.0027808975817818471 0 0.37110526881669642 -0.01488765972762258 0 0.36848596216925461 -0.0027808975817818471 0 0.37110526881669642 -0.01488765972762258 0 0.36073978497884301 -0.010533456210826291 0 0.37673444244801813 -0.04082697351223892 0 0.37110526881669642 -0.01488765972762258 0 0.37110526881669642 -0.01488765972762258 0 0.36171254907344708 -0.02145521636096771 0 0.3514293957786977 -0.01639431302024812 0 0.37673444244801813 -0.04082697351223892 0 0.37110526881669642 -0.01488765972762258 0 0.36349032262427461 -0.032877568818634482 0 0.37110526881669642 -0.01488765972762258 0 0.3514293957786977 -0.01639431302024812 0 0.37110526881669642 -0.01488765972762258 0 0.36171254907344708 -0.02145521636096771 0 0.36349032262427461 -0.032877568818634482 0 0.36171254907344708 -0.02145521636096771 0 0.3508892407182278 -0.025225094416721359 0 0.36349032262427461 -0.032877568818634482 0 0.36171254907344708 -0.02145521636096771 0 0.3514293957786977 -0.01639431302024812 0 0.3508892407182278 -0.025225094416721359 0 0.34928489811535518 -0.016558525020358959 0 0.3508892407182278 -0.025225094416721359 0 0.33916548254999318 -0.022913597844845111 0 0.34928489811535518 -0.016558525020358959 0 0.3508892407182278 -0.025225094416721359 0 0.3514293957786977 -0.01639431302024812 0 0.34928489811535518 -0.016558525020358959 0 0.3508892407182278 -0.025225094416721359 0 0.3514293957786977 -0.01639431302024812 0 0.3508892407182278 -0.025225094416721359 0 0.3514293957786977 -0.01639431302024812 0 0.34928489811535518 -0.016558525020358959 0 0.35324461597408152 0.01328200384683483 0 0.35193851315072239 -0.0080709545136512795 0 0.34794974889249652 -0.0093461232717011039 0 0.36073978497884301 -0.010533456210826291 0 0.3514293957786977 -0.01639431302024812 0 0.35193851315072239 -0.0080709545136512795 0 0.3514293957786977 -0.01639431302024812 0 0.35193851315072239 -0.0080709545136512795 0 0.3514293957786977 -0.01639431302024812 0 0.35193851315072239 -0.0080709545136512795 0 0.34794974889249652 -0.0093461232717011039 0 0.35193851315072239 -0.0080709545136512795 0 0.34794974889249652 -0.0093461232717011039 0 0.34928489811535518 -0.016558525020358959 0 0.34794974889249652 -0.0093461232717011039 0 0.3514293957786977 -0.01639431302024812 0 0.34928489811535518 -0.016558525020358959 0 0.34794974889249652 -0.0093461232717011039 0 0.34794974889249652 -0.0093461232717011039 0 0.32491174764931219 -0.01671114600338975 0 0.32532871621050458 -0.018392937159325499 0 0.34928489811535518 -0.016558525020358959 0 0.34794974889249652 -0.0093461232717011039 0 0.32532871621050458 -0.018392937159325499 0 0.3186690037540324 0.0084681899200438338 0 0.34794974889249652 -0.0093461232717011039 0 0.32491174764931219 -0.01671114600338975 0 0.34794974889249652 -0.0093461232717011039 0 0.32491174764931219 -0.01671114600338975 0 0.34928489811535518 -0.016558525020358959 0 0.33916548254999318 -0.022913597844845111 0 0.32532871621050458 -0.018392937159325499 0 0.34928489811535518 -0.016558525020358959 0 0.32532871621050458 -0.018392937159325499 0 0.3508892407182278 -0.025225094416721359 0 0.33916548254999318 -0.022913597844845111 0 0.33963119698096872 -0.033431592087205309 0 0.33916548254999318 -0.022913597844845111 0 0.32532871621050458 -0.018392937159325499 0 0.33963119698096872 -0.033431592087205309 0 0.32532871621050458 -0.018392937159325499 0 0.3156761578566743 -0.038563961958418887 0 0.31244826583176188 -0.02748168245358219 0 0.32491174764931219 -0.01671114600338975 0 0.32532871621050458 -0.018392937159325499 0 0.32491174764931219 -0.01671114600338975 0 0.31786278259553918 -0.018964630900273949 0 0.32491174764931219 -0.01671114600338975 0 0.32532871621050458 -0.018392937159325499 0 0.31786278259553918 -0.018964630900273949 0 0.32532871621050458 -0.018392937159325499 0 0.31786278259553918 -0.018964630900273949 0 0.32532871621050458 -0.018392937159325499 0 0.31786278259553918 -0.018964630900273949 0 0.31244826583176188 -0.02748168245358219 0 0.3186690037540324 0.0084681899200438338 0 0.32491174764931219 -0.01671114600338975 0 0.3186690037540324 0.0084681899200438338 0 0.32491174764931219 -0.01671114600338975 0 0.31099124674179951 -0.0075645759515133174 0 0.32491174764931219 -0.01671114600338975 0 0.31786278259553918 -0.018964630900273949 0 0.31099124674179951 -0.0075645759515133174 0 0.32687842053684141 -0.060683937315934133 0 0.32022640893829629 -0.051039450898977247 0 0.33192482128716572 -0.044997511733828828 0 0.32687842053684141 -0.060683937315934133 0 0.32022640893829629 -0.051039450898977247 0 0.3181535001869264 -0.062841019709355253 0 0.32022640893829629 -0.051039450898977247 0 0.3181535001869264 -0.062841019709355253 0 0.30864413536216362 -0.050824281860079097 0 0.32022640893829629 -0.051039450898977247 0 0.3156761578566743 -0.038563961958418887 0 0.30864413536216362 -0.050824281860079097 0 0.32022640893829629 -0.051039450898977247 0 0.3156761578566743 -0.038563961958418887 0 0.33192482128716572 -0.044997511733828828 0 0.32532871621050458 -0.018392937159325499 0 0.3156761578566743 -0.038563961958418887 0 0.33192482128716572 -0.044997511733828828 0 0.32532871621050458 -0.018392937159325499 0 0.33192482128716572 -0.044997511733828828 0 0.33963119698096872 -0.033431592087205309 0 0.32532871621050458 -0.018392937159325499 0 0.33192482128716572 -0.044997511733828828 0 0.33963119698096872 -0.033431592087205309 0 0.34077112230182133 -0.044502220881531468 0 0.34965813237758142 -0.045351997647358297 0 0.33192482128716572 -0.044997511733828828 0 0.33963119698096872 -0.033431592087205309 0 0.34077112230182133 -0.044502220881531468 0 0.33192482128716572 -0.044997511733828828 0 0.33852092636382491 -0.071602086308332563 0 0.33192482128716572 -0.044997511733828828 0 0.34187033856156929 -0.054227782057733431 0 0.33852092636382491 -0.071602086308332563 0 0.33192482128716572 -0.044997511733828828 0 0.34077112230182133 -0.044502220881531468 0 0.34187033856156929 -0.054227782057733431 0 0.32687842053684141 -0.060683937315934133 0 0.33192482128716572 -0.044997511733828828 0 0.33852092636382491 -0.071602086308332563 0 0.34965813237758142 -0.045351997647358297 0 0.34842702403693421 -0.065478900877995197 0 0.35465960288324222 -0.045592380864171 0 0.35842996504825742 -0.065959667311620437 0 0.34965813237758142 -0.045351997647358297 0 0.35465960288324222 -0.045592380864171 0 0.34842702403693421 -0.065478900877995197 0 0.34187033856156929 -0.054227782057733431 0 0.34965813237758142 -0.045351997647358297 0 0.34842702403693421 -0.065478900877995197 0 0.35465960288324222 -0.045592380864171 0 0.34842702403693421 -0.065478900877995197 0 0.35842996504825742 -0.065959667311620437 0 0.34077112230182133 -0.044502220881531468 0 0.34187033856156929 -0.054227782057733431 0 0.34965813237758142 -0.045351997647358297 0 0.3508892407182278 -0.025225094416721359 0 0.34965813237758142 -0.045351997647358297 0 0.3508892407182278 -0.025225094416721359 0 0.34965813237758142 -0.045351997647358297 0 0.35465960288324222 -0.045592380864171 0 0.3508892407182278 -0.025225094416721359 0 0.35465960288324222 -0.045592380864171 0 0.3508892407182278 -0.025225094416721359 0 0.35465960288324222 -0.045592380864171 0 0.36349032262427461 -0.032877568818634482 0 0.3508892407182278 -0.025225094416721359 0 0.33963119698096872 -0.033431592087205309 0 0.34965813237758142 -0.045351997647358297 0 0.35465960288324222 -0.045592380864171 0 0.36349032262427461 -0.032877568818634482 0 0.36570955426462232 -0.043240229473726612 0 0.37673444244801813 -0.04082697351223892 0 0.36570955426462232 -0.043240229473726612 0 0.36795384910295459 -0.053663994699862071 0 0.37673444244801813 -0.04082697351223892 0 0.36349032262427461 -0.032877568818634482 0 0.36570955426462232 -0.043240229473726612 0 0.37996153726977389 -0.056720043141302107 0 0.37673444244801813 -0.04082697351223892 0 0.36795384910295459 -0.053663994699862071 0 0.35465960288324222 -0.045592380864171 0 0.36795384910295459 -0.053663994699862071 0 0.35842996504825742 -0.065959667311620437 0 0.35465960288324222 -0.045592380864171 0 0.36570955426462232 -0.043240229473726612 0 0.36795384910295459 -0.053663994699862071 0 0.37996153726977389 -0.056720043141302107 0 0.36795384910295459 -0.053663994699862071 0 0.37246515780313749 -0.069141241228585615 0 0.36220032721327261 -0.086326953759069833 0 0.35842996504825742 -0.065959667311620437 0 0.37246515780313749 -0.069141241228585615 0 0.36220032721327261 -0.086326953759069833 0 0.35842996504825742 -0.065959667311620437 0 0.36795384910295459 -0.053663994699862071 0 0.37246515780313749 -0.069141241228585615 0 0.35842996504825742 -0.065959667311620437 0 0.37806678133160121 -0.083397915377897036 0 0.37246515780313749 -0.069141241228585615 0 0.36220032721327261 -0.086326953759069833 0 0.37806678133160121 -0.083397915377897036 0 0.37716231466860273 -0.10111407610363329 0 0.36220032721327261 -0.086326953759069833 0 0.35013830050485278 -0.079322048086745728 0 0.34511703144048422 -0.098206660882836375 0 0.33852092636382491 -0.071602086308332563 0 0.36220032721327261 -0.086326953759069833 0 0.35013830050485278 -0.079322048086745728 0 0.34511703144048422 -0.098206660882836375 0 0.36220032721327261 -0.086326953759069833 0 0.35013830050485278 -0.079322048086745728 0 0.35842996504825742 -0.065959667311620437 0 0.35013830050485278 -0.079322048086745728 0 0.34842702403693421 -0.065478900877995197 0 0.33852092636382491 -0.071602086308332563 0 0.35013830050485278 -0.079322048086745728 0 0.34842702403693421 -0.065478900877995197 0 0.35842996504825742 -0.065959667311620437 0 0.36701684167949489 -0.11721576635914011 0 0.36064193030379949 -0.10553493851240391 0 0.35171313651714342 -0.1248112354573402 0 0.37716231466860273 -0.10111407610363329 0 0.36220032721327261 -0.086326953759069833 0 0.36064193030379949 -0.10553493851240391 0 0.37716231466860273 -0.10111407610363329 0 0.36701684167949489 -0.11721576635914011 0 0.36064193030379949 -0.10553493851240391 0 0.36220032721327261 -0.086326953759069833 0 0.36064193030379949 -0.10553493851240391 0 0.34511703144048422 -0.098206660882836375 0 0.36064193030379949 -0.10553493851240391 0 0.34511703144048422 -0.098206660882836375 0 0.35171313651714342 -0.1248112354573402 0 0.34511703144048422 -0.098206660882836375 0 0.35171313651714342 -0.1248112354573402 0 0.33862942206341418 -0.1205749071506725 0 0.34511703144048422 -0.098206660882836375 0 0.35171313651714342 -0.1248112354573402 0 0.33862942206341418 -0.1205749071506725 0 0.32763735519508319 -0.1123422952132405 0 0.32912094955366727 -0.13318060914500651 0 0.34511703144048422 -0.098206660882836375 0 0.33862942206341418 -0.1205749071506725 0 0.32763735519508319 -0.1123422952132405 0 0.34511703144048422 -0.098206660882836375 0 0.32877099989919839 -0.097584820287421215 0 0.32763735519508319 -0.1123422952132405 0 0.34511703144048422 -0.098206660882836375 0 0.32877099989919839 -0.097584820287421215 0 0.33209336560446839 -0.08585921826852444 0 0.32877099989919839 -0.097584820287421215 0 0.32763735519508319 -0.1123422952132405 0 0.31133360981373692 -0.101001531667467 0 0.32877099989919839 -0.097584820287421215 0 0.32103611116787439 -0.086840856232556593 0 0.31133360981373692 -0.101001531667467 0 0.32763735519508319 -0.1123422952132405 0 0.31196060856518459 -0.1193993086832003 0 0.31133360981373692 -0.101001531667467 0 0.32763735519508319 -0.1123422952132405 0 0.31196060856518459 -0.1193993086832003 0 0.32912094955366727 -0.13318060914500651 0 0.34187033856156929 -0.054227782057733431 0 0.34842702403693421 -0.065478900877995197 0 0.33852092636382491 -0.071602086308332563 0 0.33852092636382491 -0.071602086308332563 0 0.33209336560446839 -0.08585921826852444 0 0.3256389411771381 -0.074296346970541799 0 0.32687842053684141 -0.060683937315934133 0 0.33852092636382491 -0.071602086308332563 0 0.3256389411771381 -0.074296346970541799 0 0.34511703144048422 -0.098206660882836375 0 0.33852092636382491 -0.071602086308332563 0 0.34511703144048422 -0.098206660882836375 0 0.33852092636382491 -0.071602086308332563 0 0.33209336560446839 -0.08585921826852444 0 0.33209336560446839 -0.08585921826852444 0 0.32103611116787439 -0.086840856232556593 0 0.3256389411771381 -0.074296346970541799 0 0.32877099989919839 -0.097584820287421215 0 0.33209336560446839 -0.08585921826852444 0 0.32103611116787439 -0.086840856232556593 0 0.32103611116787439 -0.086840856232556593 0 0.30950014916042151 -0.088088184547063395 0 0.31133360981373692 -0.101001531667467 0 0.32103611116787439 -0.086840856232556593 0 0.31376445065676822 -0.07505687052479379 0 0.30950014916042151 -0.088088184547063395 0 0.32103611116787439 -0.086840856232556593 0 0.31376445065676822 -0.07505687052479379 0 0.3256389411771381 -0.074296346970541799 0 0.31376445065676822 -0.07505687052479379 0 0.3256389411771381 -0.074296346970541799 0 0.3181535001869264 -0.062841019709355253 0 0.32687842053684141 -0.060683937315934133 0 0.3256389411771381 -0.074296346970541799 0 0.3181535001869264 -0.062841019709355253 0 0.31376445065676822 -0.07505687052479379 0 0.3181535001869264 -0.062841019709355253 0 0.30365508843261191 -0.063723992311550251 0 0.30365508843261191 -0.063723992311550251 0 0.30134553818676418 -0.074584420905938975 0 0.29101078879983849 -0.067834566514401562 0 0.31376445065676822 -0.07505687052479379 0 0.30365508843261191 -0.063723992311550251 0 0.30134553818676418 -0.074584420905938975 0 0.31376445065676822 -0.07505687052479379 0 0.30134553818676418 -0.074584420905938975 0 0.30950014916042151 -0.088088184547063395 0 0.30950014916042151 -0.088088184547063395 0 0.29807290288173249 -0.09010121456366682 0 0.31133360981373692 -0.101001531667467 0 0.30134553818676418 -0.074584420905938975 0 0.30950014916042151 -0.088088184547063395 0 0.29807290288173249 -0.09010121456366682 0 0.30134553818676418 -0.074584420905938975 0 0.29807290288173249 -0.09010121456366682 0 0.29807290288173249 -0.09010121456366682 0 0.28523961125175862 -0.079752724549368312 0 0.28158413016310802 -0.095004258718193679 0 0.30134553818676418 -0.074584420905938975 0 0.29807290288173249 -0.09010121456366682 0 0.28523961125175862 -0.079752724549368312 0 0.28523961125175862 -0.079752724549368312 0 0.29101078879983849 -0.067834566514401562 0 0.27565462292917531 -0.068255785965498653 0 0.30134553818676418 -0.074584420905938975 0 0.28523961125175862 -0.079752724549368312 0 0.29101078879983849 -0.067834566514401562 0 0.29101078879983849 -0.067834566514401562 0 0.27565462292917531 -0.068255785965498653 0 0.28915908319888262 -0.052855908839651647 0 0.30208933869391591 -0.1244642726722754 0 0.31196060856518459 -0.1193993086832003 0 0.29480026757670119 -0.10561800822139469 0 0.31196060856518459 -0.1193993086832003 0 0.29480026757670119 -0.10561800822139469 0 0.30208933869391591 -0.1244642726722754 0 0.31196060856518459 -0.1193993086832003 0 0.31374200214725911 -0.13044269146654491 0 0.31196060856518459 -0.1193993086832003 0 0.31133360981373692 -0.101001531667467 0 0.29480026757670119 -0.10561800822139469 0 0.29807290288173249 -0.09010121456366682 0 0.31133360981373692 -0.101001531667467 0 0.29480026757670119 -0.10561800822139469 0 0.29807290288173249 -0.09010121456366682 0 0.28158413016310802 -0.095004258718193679 0 0.29480026757670119 -0.10561800822139469 0 0.29807290288173249 -0.09010121456366682 0 0.29480026757670119 -0.10561800822139469 0 0.28158413016310802 -0.095004258718193679 0 0.29480026757670119 -0.10561800822139469 0 0.28158413016310802 -0.095004258718193679 0 0.28360986525358678 -0.1074129042026226 0 0.29480026757670119 -0.10561800822139469 0 0.30208933869391591 -0.1244642726722754 0 0.29480026757670119 -0.10561800822139469 0 0.29104219417489491 -0.1234364462969041 0 0.29480026757670119 -0.10561800822139469 0 0.28772133534069261 -0.1204322158073665 0 0.29104219417489491 -0.1234364462969041 0 0.28772133534069261 -0.1204322158073665 0 0.27033372793384552 -0.1085971340635353 0 0.29023180654125258 -0.12727879856715499 0 0.29480026757670119 -0.10561800822139469 0 0.29104219417489491 -0.1234364462969041 0 0.28360986525358678 -0.1074129042026226 0 0.29480026757670119 -0.10561800822139469 0 0.28772133534069261 -0.1204322158073665 0 0.28772133534069261 -0.1204322158073665 0 0.29104219417489491 -0.1234364462969041 0 0.29023180654125258 -0.12727879856715499 0 0.28772133534069261 -0.1204322158073665 0 0.29104219417489491 -0.1234364462969041 0 0.27033372793384552 -0.1085971340635353 0 0.29023180654125258 -0.12727879856715499 0 0.28360986525358678 -0.1074129042026226 0 0.28772133534069261 -0.1204322158073665 0 0.27033372793384552 -0.1085971340635353 0 0.27433971198647261 -0.12462332112512189 0 0.27033372793384552 -0.1085971340635353 0 0.26368548756318189 -0.12029982168681951 0 0.27433971198647261 -0.12462332112512189 0 0.27033372793384552 -0.1085971340635353 0 0.29023180654125258 -0.12727879856715499 0 0.28158413016310802 -0.095004258718193679 0 0.27033372793384552 -0.1085971340635353 0 0.26836799274951417 -0.084390509214993428 0 0.28158413016310802 -0.095004258718193679 0 0.28360986525358678 -0.1074129042026226 0 0.27033372793384552 -0.1085971340635353 0 0.27033372793384552 -0.1085971340635353 0 0.25437630068290218 -0.1056559122776352 0 0.25043564932643791 -0.089915469559916056 0 0.27033372793384552 -0.1085971340635353 0 0.25043564932643791 -0.089915469559916056 0 0.27033372793384552 -0.1085971340635353 0 0.26836799274951417 -0.084390509214993428 0 0.25043564932643791 -0.089915469559916056 0 0.27033372793384552 -0.1085971340635353 0 0.25437630068290218 -0.1056559122776352 0 0.26368548756318189 -0.12029982168681951 0 0.25437630068290218 -0.1056559122776352 0 0.26368548756318189 -0.12029982168681951 0 0.24871169776137431 -0.12938914125831641 0 0.27565462292917531 -0.068255785965498653 0 0.26836799274951417 -0.084390509214993428 0 0.25427398504605331 -0.073642380563128537 0 0.28523961125175862 -0.079752724549368312 0 0.27565462292917531 -0.068255785965498653 0 0.26836799274951417 -0.084390509214993428 0 0.28523961125175862 -0.079752724549368312 0 0.28158413016310802 -0.095004258718193679 0 0.26836799274951417 -0.084390509214993428 0 0.28158413016310802 -0.095004258718193679 0 0.26836799274951417 -0.084390509214993428 0 0.26836799274951417 -0.084390509214993428 0 0.25043564932643791 -0.089915469559916056 0 0.25427398504605331 -0.073642380563128537 0 0.25427398504605331 -0.073642380563128537 0 0.26602324232467678 -0.052711740596367233 0 0.27565462292917531 -0.068255785965498653 0 0.25427398504605331 -0.073642380563128537 0 0.26602324232467678 -0.052711740596367233 0 0.26602324232467678 -0.052711740596367233 0 0.25251581769765369 -0.039855413778506391 0 0.24726356955260159 -0.056848548658191063 0 0.25427398504605331 -0.073642380563128537 0 0.26602324232467678 -0.052711740596367233 0 0.24726356955260159 -0.056848548658191063 0 0.27565462292917531 -0.068255785965498653 0 0.26602324232467678 -0.052711740596367233 0 0.28915908319888262 -0.052855908839651647 0 0.26602324232467678 -0.052711740596367233 0 0.27777249960330291 -0.031781100629607317 0 0.26602324232467678 -0.052711740596367233 0 0.27777249960330291 -0.031781100629607317 0 0.28915908319888262 -0.052855908839651647 0 0.26602324232467678 -0.052711740596367233 0 0.27777249960330291 -0.031781100629607317 0 0.25251581769765369 -0.039855413778506391 0 0.27777249960330291 -0.031781100629607317 0 0.25251581769765369 -0.039855413778506391 0 0.26113304870986359 -0.024702439488897408 0 0.27777249960330291 -0.031781100629607317 0 0.25251581769765369 -0.039855413778506391 0 0.25251581769765369 -0.039855413778506391 0 0.26113304870986359 -0.024702439488897408 0 0.2485222146256075 -0.023577916995893629 0 0.26113304870986359 -0.024702439488897408 0 0.25641752230442932 -0.012112608048959811 0 0.2485222146256075 -0.023577916995893629 0 0.26113304870986359 -0.024702439488897408 0 0.25641752230442932 -0.012112608048959811 0 0.26519704778373659 -0.0153591824094764 0 0.25641752230442932 -0.012112608048959811 0 0.25856925482875243 -0.0020804629474657828 0 0.24853671956149301 -0.00016400905018209389 0 0.25641752230442932 -0.012112608048959811 0 0.26519704778373659 -0.0153591824094764 0 0.26503721766676508 -0.0070549875674509989 0 0.2657252734336269 0.0024632726037020292 0 0.25856925482875243 -0.0020804629474657828 0 0.26503721766676508 -0.0070549875674509989 0 0.25641752230442932 -0.012112608048959811 0 0.25856925482875243 -0.0020804629474657828 0 0.26503721766676508 -0.0070549875674509989 0 0.27964016863840641 0.0045184138826110803 0 0.27578872563072782 -0.01053052480882154 0 0.28386260683288678 -0.020931917676280699 0 0.2657252734336269 0.0024632726037020292 0 0.26503721766676508 -0.0070549875674509989 0 0.27204340244472158 -0.0033132433083641558 0 0.26503721766676508 -0.0070549875674509989 0 0.27204340244472158 -0.0033132433083641558 0 0.27120758116008148 -0.01175244067682232 0 0.26519704778373659 -0.0153591824094764 0 0.26503721766676508 -0.0070549875674509989 0 0.27120758116008148 -0.01175244067682232 0 0.27204340244472158 -0.0033132433083641558 0 0.27120758116008148 -0.01175244067682232 0 0.27578872563072782 -0.01053052480882154 0 0.27120758116008148 -0.01175244067682232 0 0.27578872563072782 -0.01053052480882154 0 0.27218986907754372 -0.021173436265251491 0 0.27964016863840641 0.0045184138826110803 0 0.27204340244472158 -0.0033132433083641558 0 0.27578872563072782 -0.01053052480882154 0 0.27777249960330291 -0.031781100629607317 0 0.26113304870986359 -0.024702439488897408 0 0.27218986907754372 -0.021173436265251491 0 0.26519704778373659 -0.0153591824094764 0 0.27120758116008148 -0.01175244067682232 0 0.27218986907754372 -0.021173436265251491 0 0.26113304870986359 -0.024702439488897408 0 0.26519704778373659 -0.0153591824094764 0 0.27218986907754372 -0.021173436265251491 0 0.27578872563072782 -0.01053052480882154 0 0.27218986907754372 -0.021173436265251491 0 0.28386260683288678 -0.020931917676280699 0 0.27777249960330291 -0.031781100629607317 0 0.28386260683288678 -0.020931917676280699 0 0.27777249960330291 -0.031781100629607317 0 0.27218986907754372 -0.021173436265251491 0 0.28386260683288678 -0.020931917676280699 0 0.28526517599691947 -0.029385765575250949 0 0.2880896147130047 -0.023254822638883059 0 0.3015639792962293 -0.024175198237762228 0 0.27777249960330291 -0.031781100629607317 0 0.28526517599691947 -0.029385765575250949 0 0.28386260683288678 -0.020931917676280699 0 0.28526517599691947 -0.029385765575250949 0 0.28386260683288678 -0.020931917676280699 0 0.2880896147130047 -0.023254822638883059 0 0.28526517599691947 -0.029385765575250949 0 0.3015639792962293 -0.024175198237762228 0 0.30180969319986217 -0.037311684012129823 0 0.28526517599691947 -0.029385765575250949 0 0.28386260683288678 -0.020931917676280699 0 0.28526517599691947 -0.029385765575250949 0 0.3015639792962293 -0.024175198237762228 0 0.27777249960330291 -0.031781100629607317 0 0.28526517599691947 -0.029385765575250949 0 0.28386260683288678 -0.020931917676280699 0 0.28891473138946538 -0.01896710183053834 0 0.28843673418122678 -0.014557055401336391 0 0.28386260683288678 -0.020931917676280699 0 0.28891473138946538 -0.01896710183053834 0 0.2880896147130047 -0.023254822638883059 0 0.2880896147130047 -0.023254822638883059 0 0.29231073939754798 -0.0209212439533875 0 0.3015639792962293 -0.024175198237762228 0 0.28891473138946538 -0.01896710183053834 0 0.2880896147130047 -0.023254822638883059 0 0.29231073939754798 -0.0209212439533875 0 0.29231073939754798 -0.0209212439533875 0 0.29522961920033408 -0.01593558648526916 0 0.30134596654435258 -0.01390403077500116 0 0.29122295604214349 -0.01759524691763285 0 0.29522961920033408 -0.01593558648526916 0 0.28843673418122678 -0.014557055401336391 0 0.28891473138946538 -0.01896710183053834 0 0.29122295604214349 -0.01759524691763285 0 0.28843673418122678 -0.014557055401336391 0 0.29231073939754798 -0.0209212439533875 0 0.29122295604214349 -0.01759524691763285 0 0.29522961920033408 -0.01593558648526916 0 0.28891473138946538 -0.01896710183053834 0 0.29231073939754798 -0.0209212439533875 0 0.29122295604214349 -0.01759524691763285 0 0.27964016863840641 0.0045184138826110803 0 0.28386260683288678 -0.020931917676280699 0 0.28647542284004301 0.0055395812586009497 0 0.29522961920033408 -0.01593558648526916 0 0.28684033492735211 -0.0042431203533897077 0 0.28987089682263317 0.01312831311812623 0 0.29522961920033408 -0.01593558648526916 0 0.28987089682263317 0.01312831311812623 0 0.29522961920033408 -0.01593558648526916 0 0.30029053096928288 -0.0041408854862211106 0 0.27964016863840641 0.0045184138826110803 0 0.28386260683288678 -0.020931917676280699 0 0.28601612903062501 -0.011094890069501699 0 0.27964016863840641 0.0045184138826110803 0 0.28684033492735211 -0.0042431203533897077 0 0.28601612903062501 -0.011094890069501699 0 0.28386260683288678 -0.020931917676280699 0 0.28601612903062501 -0.011094890069501699 0 0.28843673418122678 -0.014557055401336391 0 0.29522961920033408 -0.01593558648526916 0 0.28684033492735211 -0.0042431203533897077 0 0.28601612903062501 -0.011094890069501699 0 0.29522961920033408 -0.01593558648526916 0 0.28601612903062501 -0.011094890069501699 0 0.28843673418122678 -0.014557055401336391 0 0.31786278259553918 -0.018964630900273949 0 0.30134596654435258 -0.01390403077500116 0 0.31099124674179951 -0.0075645759515133174 0 0.30029053096928288 -0.0041408854862211106 0 0.30134596654435258 -0.01390403077500116 0 0.31099124674179951 -0.0075645759515133174 0 0.29522961920033408 -0.01593558648526916 0 0.30029053096928288 -0.0041408854862211106 0 0.30134596654435258 -0.01390403077500116 0 0.30401492553729509 0.0035714526625518629 0 0.30029053096928288 -0.0041408854862211106 0 0.31099124674179951 -0.0075645759515133174 0 0.31786278259553918 -0.018964630900273949 0 0.29231073939754798 -0.0209212439533875 0 0.30134596654435258 -0.01390403077500116 0 0.31786278259553918 -0.018964630900273949 0 0.29231073939754798 -0.0209212439533875 0 0.3015639792962293 -0.024175198237762228 0 0.31786278259553918 -0.018964630900273949 0 0.3015639792962293 -0.024175198237762228 0 0.31244826583176188 -0.02748168245358219 0 0.31786278259553918 -0.018964630900273949 0 0.3015639792962293 -0.024175198237762228 0 0.31786278259553918 -0.018964630900273949 0 0.29231073939754798 -0.0209212439533875 0 0.3015639792962293 -0.024175198237762228 0 0.31244826583176188 -0.02748168245358219 0 0.30180969319986217 -0.037311684012129823 0 0.3156761578566743 -0.038563961958418887 0 0.31244826583176188 -0.02748168245358219 0 0.30180969319986217 -0.037311684012129823 0 0.3156761578566743 -0.038563961958418887 0 0.30180969319986217 -0.037311684012129823 0 0.30864413536216362 -0.050824281860079097 0 0.30180969319986217 -0.037311684012129823 0 0.30864413536216362 -0.050824281860079097 0 0.28915908319888262 -0.052855908839651647 0 0.30365508843261191 -0.063723992311550251 0 0.30864413536216362 -0.050824281860079097 0 0.28915908319888262 -0.052855908839651647 0 0.3181535001869264 -0.062841019709355253 0 0.30365508843261191 -0.063723992311550251 0 0.30864413536216362 -0.050824281860079097 0 0.30365508843261191 -0.063723992311550251 0 0.29101078879983849 -0.067834566514401562 0 0.28915908319888262 -0.052855908839651647 0 0.28526517599691947 -0.029385765575250949 0 0.28915908319888262 -0.052855908839651647 0 0.28526517599691947 -0.029385765575250949 0 0.30180969319986217 -0.037311684012129823 0 0.28915908319888262 -0.052855908839651647 0 0.27777249960330291 -0.031781100629607317 0 0.28526517599691947 -0.029385765575250949 0 0.28915908319888262 -0.052855908839651647 0 0.28887434386913802 -0.2112687505925811 0 0.29120930151664892 -0.1968614517038641 0 0.27825330717676477 -0.22140389413345771 0 0.29120930151664892 -0.1968614517038641 0 0.27825330717676477 -0.22140389413345771 0 0.27950845975650151 -0.20275260604884809 0 0.29120930151664892 -0.1968614517038641 0 0.27825330717676477 -0.22140389413345771 0 0.29640949739396261 -0.2038671366104593 0 0.28887434386913802 -0.2112687505925811 0 0.29120930151664892 -0.1968614517038641 0 0.29640949739396261 -0.2038671366104593 0 0.28887434386913802 -0.2112687505925811 0 0.29728217360075332 -0.21043711412885421 0 0.29298813022709702 -0.21631889503932081 0 0.28887434386913802 -0.2112687505925811 0 0.28631060568995959 -0.21933387520052511 0 0.29298813022709702 -0.21631889503932081 0 0.29728217360075332 -0.21043711412885421 0 0.29785326832762149 -0.21579054684233009 0 0.29298813022709702 -0.21631889503932081 0 0.28887434386913802 -0.2112687505925811 0 0.29728217360075332 -0.21043711412885421 0 0.29298813022709702 -0.21631889503932081 0 0.29785326832762149 -0.21579054684233009 0 0.29667785957682458 -0.22065396262284559 0 0.28887434386913802 -0.2112687505925811 0 0.28631060568995959 -0.21933387520052511 0 0.27825330717676477 -0.22140389413345771 0 0.28517089784791888 -0.18770151801780419 0 0.29120930151664892 -0.1968614517038641 0 0.27950845975650151 -0.20275260604884809 0 0.28517089784791888 -0.18770151801780419 0 0.27950845975650151 -0.20275260604884809 0 0.29640949739396261 -0.2038671366104593 0 0.29120930151664892 -0.1968614517038641 0 0.30173327883519041 -0.19837460113694161 0 0.29640949739396261 -0.2038671366104593 0 0.30173327883519041 -0.19837460113694161 0 0.30467080056462092 -0.20493175152966761 0 0.29120930151664892 -0.1968614517038641 0 0.30173327883519041 -0.19837460113694161 0 0.30410162303165589 -0.18797636249883959 0 0.30173327883519041 -0.19837460113694161 0 0.30410162303165589 -0.18797636249883959 0 0.31227517166906338 -0.19823630334187711 0 0.30173327883519041 -0.19837460113694161 0 0.31227517166906338 -0.19823630334187711 0 0.30467080056462092 -0.20493175152966761 0 0.30467080056462092 -0.20493175152966761 0 0.30926038009183238 -0.21268389738754601 0 0.31742141688531977 -0.21003111689635851 0 0.30467080056462092 -0.20493175152966761 0 0.30304644789996221 -0.2134675802564982 0 0.30926038009183238 -0.21268389738754601 0 0.31227517166906338 -0.19823630334187711 0 0.30467080056462092 -0.20493175152966761 0 0.31742141688531977 -0.21003111689635851 0 0.29640949739396261 -0.2038671366104593 0 0.30467080056462092 -0.20493175152966761 0 0.29728217360075332 -0.21043711412885421 0 0.30467080056462092 -0.20493175152966761 0 0.29728217360075332 -0.21043711412885421 0 0.30304644789996221 -0.2134675802564982 0 0.29785326832762149 -0.21579054684233009 0 0.30170854406384878 -0.2180037854482465 0 0.29667785957682458 -0.22065396262284559 0 0.29728217360075332 -0.21043711412885421 0 0.29785326832762149 -0.21579054684233009 0 0.30304644789996221 -0.2134675802564982 0 0.29785326832762149 -0.21579054684233009 0 0.30304644789996221 -0.2134675802564982 0 0.30170854406384878 -0.2180037854482465 0 0.30304644789996221 -0.2134675802564982 0 0.30170854406384878 -0.2180037854482465 0 0.30750352075109638 -0.21895838620234501 0 0.30304644789996221 -0.2134675802564982 0 0.30926038009183238 -0.21268389738754601 0 0.30750352075109638 -0.21895838620234501 0 0.30926038009183238 -0.21268389738754601 0 0.30750352075109638 -0.21895838620234501 0 0.31314183386784677 -0.21616999861332331 0 0.30750352075109638 -0.21895838620234501 0 0.31314183386784677 -0.21616999861332331 0 0.31369802657545243 -0.22125622176332641 0 0.30750352075109638 -0.21895838620234501 0 0.31039074830367458 -0.2242248113449648 0 0.31369802657545243 -0.22125622176332641 0 0.30750352075109638 -0.21895838620234501 0 0.30636040967811751 -0.2241895220091096 0 0.30208929444239591 -0.2225056916496167 0 0.30750352075109638 -0.21895838620234501 0 0.30636040967811751 -0.2241895220091096 0 0.31039074830367458 -0.2242248113449648 0 0.31039074830367458 -0.2242248113449648 0 0.30976086623202032 -0.22925253551953331 0 0.31388533290757148 -0.22554273094182761 0 0.30636040967811751 -0.2241895220091096 0 0.31039074830367458 -0.2242248113449648 0 0.30976086623202032 -0.22925253551953331 0 0.30976086623202032 -0.22925253551953331 0 0.30424403172505382 -0.23370477533690109 0 0.31493616917986639 -0.24016655488394609 0 0.30636040967811751 -0.2241895220091096 0 0.30976086623202032 -0.22925253551953331 0 0.30281164718370063 -0.22777323806827501 0 0.30976086623202032 -0.22925253551953331 0 0.30281164718370063 -0.22777323806827501 0 0.30424403172505382 -0.23370477533690109 0 0.30281164718370063 -0.22777323806827501 0 0.30424403172505382 -0.23370477533690109 0 0.29656758478400619 -0.23147808599778119 0 0.30424403172505382 -0.23370477533690109 0 0.29842376471469689 -0.23701732209133469 0 0.29656758478400619 -0.23147808599778119 0 0.30281164718370063 -0.22777323806827501 0 0.29784769624061042 -0.22550881789670851 0 0.29656758478400619 -0.23147808599778119 0 0.29784769624061042 -0.22550881789670851 0 0.30208929444239591 -0.2225056916496167 0 0.29667785957682458 -0.22065396262284559 0 0.30170854406384878 -0.2180037854482465 0 0.30208929444239591 -0.2225056916496167 0 0.29667785957682458 -0.22065396262284559 0 0.30170854406384878 -0.2180037854482465 0 0.30750352075109638 -0.21895838620234501 0 0.30208929444239591 -0.2225056916496167 0 0.30281164718370063 -0.22777323806827501 0 0.29784769624061042 -0.22550881789670851 0 0.30208929444239591 -0.2225056916496167 0 0.30636040967811751 -0.2241895220091096 0 0.30281164718370063 -0.22777323806827501 0 0.30208929444239591 -0.2225056916496167 0 0.30127959374666219 -0.24342378128850289 0 0.31493616917986639 -0.24016655488394609 0 0.29904458937835138 -0.26029113475088628 0 0.31493616917986639 -0.24016655488394609 0 0.3024592275180531 -0.25940025187227 0 0.30424403172505382 -0.23370477533690109 0 0.30127959374666219 -0.24342378128850289 0 0.31493616917986639 -0.24016655488394609 0 0.30424403172505382 -0.23370477533690109 0 0.29842376471469689 -0.23701732209133469 0 0.30127959374666219 -0.24342378128850289 0 0.29842376471469689 -0.23701732209133469 0 0.30127959374666219 -0.24342378128850289 0 0.29160384860306532 -0.23946264574215351 0 0.30127959374666219 -0.24342378128850289 0 0.29160384860306532 -0.23946264574215351 0 0.29234565902932352 -0.25064597840384373 0 0.29842376471469689 -0.23701732209133469 0 0.29160384860306532 -0.23946264574215351 0 0.29656758478400619 -0.23147808599778119 0 0.29160384860306532 -0.23946264574215351 0 0.28949724576980901 -0.2311846454510384 0 0.28124416646820699 -0.23349277169913871 0 0.29160384860306532 -0.23946264574215351 0 0.28124416646820699 -0.23349277169913871 0 0.281198677095716 -0.248984737450825 0 0.29160384860306532 -0.23946264574215351 0 0.281198677095716 -0.248984737450825 0 0.29234565902932352 -0.25064597840384373 0 0.29208466702857327 -0.22601530492097241 0 0.29062820032967618 -0.22137833896261749 0 0.28598596196519321 -0.22547441889514619 0 0.29298813022709702 -0.21631889503932081 0 0.29062820032967618 -0.22137833896261749 0 0.28631060568995959 -0.21933387520052511 0 0.29298813022709702 -0.21631889503932081 0 0.29062820032967618 -0.22137833896261749 0 0.29667785957682458 -0.22065396262284559 0 0.29208466702857327 -0.22601530492097241 0 0.29062820032967618 -0.22137833896261749 0 0.29667785957682458 -0.22065396262284559 0 0.29784769624061042 -0.22550881789670851 0 0.29208466702857327 -0.22601530492097241 0 0.29667785957682458 -0.22065396262284559 0 0.29784769624061042 -0.22550881789670851 0 0.29208466702857327 -0.22601530492097241 0 0.29656758478400619 -0.23147808599778119 0 0.29160384860306532 -0.23946264574215351 0 0.29656758478400619 -0.23147808599778119 0 0.28949724576980901 -0.2311846454510384 0 0.29208466702857327 -0.22601530492097241 0 0.29656758478400619 -0.23147808599778119 0 0.28949724576980901 -0.2311846454510384 0 0.29208466702857327 -0.22601530492097241 0 0.28949724576980901 -0.2311846454510384 0 0.28598596196519321 -0.22547441889514619 0 0.28598596196519321 -0.22547441889514619 0 0.27825330717676477 -0.22140389413345771 0 0.28124416646820699 -0.23349277169913871 0 0.28949724576980901 -0.2311846454510384 0 0.28598596196519321 -0.22547441889514619 0 0.28124416646820699 -0.23349277169913871 0 0.28598596196519321 -0.22547441889514619 0 0.28631060568995959 -0.21933387520052511 0 0.27825330717676477 -0.22140389413345771 0 0.29062820032967618 -0.22137833896261749 0 0.28598596196519321 -0.22547441889514619 0 0.28631060568995959 -0.21933387520052511 0 0.27825330717676477 -0.22140389413345771 0 0.28124416646820699 -0.23349277169913871 0 0.26600057710482999 -0.238657339596658 0 0.26600057710482999 -0.238657339596658 0 0.27384602166508393 -0.21780369407989189 0 0.27825330717676477 -0.22140389413345771 0 0.26600057710482999 -0.238657339596658 0 0.27384602166508393 -0.21780369407989189 0 0.26600057710482999 -0.238657339596658 0 0.25817817176016322 -0.22577149429774979 0 0.27384602166508393 -0.21780369407989189 0 0.28124416646820699 -0.23349277169913871 0 0.281198677095716 -0.248984737450825 0 0.26600057710482999 -0.238657339596658 0 0.281198677095716 -0.248984737450825 0 0.26600057710482999 -0.238657339596658 0 0.26650826402721789 -0.25353368589760811 0 0.26600057710482999 -0.238657339596658 0 0.25341282203674043 -0.24662775844995141 0 0.2476018070020008 -0.23329042390658089 0 0.26600057710482999 -0.238657339596658 0 0.25341282203674043 -0.24662775844995141 0 0.26650826402721789 -0.25353368589760811 0 0.25817817176016322 -0.22577149429774979 0 0.27384602166508393 -0.21780369407989189 0 0.24526428126873789 -0.21333451960786959 0 0.26600057710482999 -0.238657339596658 0 0.25817817176016322 -0.22577149429774979 0 0.2476018070020008 -0.23329042390658089 0 0.25817817176016322 -0.22577149429774979 0 0.24526428126873789 -0.21333451960786959 0 0.2476018070020008 -0.23329042390658089 0 0.26521758955832903 -0.20051801881283751 0 0.24526428126873789 -0.21333451960786959 0 0.27384602166508393 -0.21780369407989189 0 0.26521758955832903 -0.20051801881283751 0 0.24526428126873789 -0.21333451960786959 0 0.27384602166508393 -0.21780369407989189 0 0.24526428126873789 -0.21333451960786959 0 0.27384602166508393 -0.21780369407989189 0 0.27950845975650151 -0.20275260604884809 0 0.26521758955832903 -0.20051801881283751 0 0.27825330717676477 -0.22140389413345771 0 0.27384602166508393 -0.21780369407989189 0 0.27950845975650151 -0.20275260604884809 0 0.27384602166508393 -0.21780369407989189 0 0.27950845975650151 -0.20275260604884809 0 0.28517089784791888 -0.18770151801780419 0 0.27950845975650151 -0.20275260604884809 0 0.26521758955832903 -0.20051801881283751 0 0.28517089784791888 -0.18770151801780419 0 0.26521758955832903 -0.20051801881283751 0 0.26521758955832903 -0.20051801881283751 0 0.2626082625206923 -0.18097649364436949 0 0.27222677972184572 -0.1852105896374085 0 0.28517089784791888 -0.18770151801780419 0 0.26521758955832903 -0.20051801881283751 0 0.27222677972184572 -0.1852105896374085 0 0.26521758955832903 -0.20051801881283751 0 0.2626082625206923 -0.18097649364436949 0 0.24855855152693609 -0.19141787187995979 0 0.26521758955832903 -0.20051801881283751 0 0.24855855152693609 -0.19141787187995979 0 0.24526428126873789 -0.21333451960786959 0 0.2626082625206923 -0.18097649364436949 0 0.24351114197824131 -0.17442380090664231 0 0.24855855152693609 -0.19141787187995979 0 0.2626082625206923 -0.18097649364436949 0 0.26608465653603852 -0.1591395312950569 0 0.24351114197824131 -0.17442380090664231 0 0.26608465653603852 -0.1591395312950569 0 0.24101776206028519 -0.15655513463752671 0 0.24351114197824131 -0.17442380090664231 0 0.2626082625206923 -0.18097649364436949 0 0.26608465653603852 -0.1591395312950569 0 0.27698839009273729 -0.1740110593786236 0 0.26608465653603852 -0.1591395312950569 0 0.28120901940345411 -0.16349377757814471 0 0.28182117746992053 -0.15704799439492301 0 0.26608465653603852 -0.1591395312950569 0 0.28120901940345411 -0.16349377757814471 0 0.27698839009273729 -0.1740110593786236 0 0.28517089784791888 -0.18770151801780419 0 0.27698839009273729 -0.1740110593786236 0 0.27222677972184572 -0.1852105896374085 0 0.2626082625206923 -0.18097649364436949 0 0.27698839009273729 -0.1740110593786236 0 0.27222677972184572 -0.1852105896374085 0 0.26664792503393958 -0.14327462201998059 0 0.24871169776137431 -0.12938914125831641 0 0.26664792503393958 -0.14327462201998059 0 0.2663457717927159 -0.13081102550602769 0 0.24871169776137431 -0.12938914125831641 0 0.26368548756318189 -0.12029982168681951 0 0.2663457717927159 -0.13081102550602769 0 0.24871169776137431 -0.12938914125831641 0 0.25115911538310842 -0.14475482987549321 0 0.26664792503393958 -0.14327462201998059 0 0.24871169776137431 -0.12938914125831641 0 0.26608465653603852 -0.1591395312950569 0 0.25115911538310842 -0.14475482987549321 0 0.24101776206028519 -0.15655513463752671 0 0.26608465653603852 -0.1591395312950569 0 0.25115911538310842 -0.14475482987549321 0 0.26664792503393958 -0.14327462201998059 0 0.26664792503393958 -0.14327462201998059 0 0.28458415230650458 -0.15716010278164519 0 0.26664792503393958 -0.14327462201998059 0 0.28458415230650458 -0.15716010278164519 0 0.28182117746992053 -0.15704799439492301 0 0.26608465653603852 -0.1591395312950569 0 0.26664792503393958 -0.14327462201998059 0 0.28182117746992053 -0.15704799439492301 0 0.26664792503393958 -0.14327462201998059 0 0.27834403661861112 -0.13646822143990009 0 0.28502922538447528 -0.151946190675641 0 0.26664792503393958 -0.14327462201998059 0 0.28502922538447528 -0.151946190675641 0 0.28458415230650458 -0.15716010278164519 0 0.27433971198647261 -0.12462332112512189 0 0.27834403661861112 -0.13646822143990009 0 0.29023180654125258 -0.12727879856715499 0 0.26664792503393958 -0.14327462201998059 0 0.27834403661861112 -0.13646822143990009 0 0.2663457717927159 -0.13081102550602769 0 0.27433971198647261 -0.12462332112512189 0 0.26368548756318189 -0.12029982168681951 0 0.2663457717927159 -0.13081102550602769 0 0.27433971198647261 -0.12462332112512189 0 0.27834403661861112 -0.13646822143990009 0 0.2663457717927159 -0.13081102550602769 0 0.29023180654125258 -0.12727879856715499 0 0.2966266577862165 -0.14120573229756669 0 0.29252130162778239 -0.14343249926168991 0 0.29023180654125258 -0.12727879856715499 0 0.2966266577862165 -0.14120573229756669 0 0.30283052700002328 -0.1451208228905467 0 0.29023180654125258 -0.12727879856715499 0 0.28502922538447528 -0.151946190675641 0 0.27834403661861112 -0.13646822143990009 0 0.29023180654125258 -0.12727879856715499 0 0.28502922538447528 -0.151946190675641 0 0.29104219417489491 -0.1234364462969041 0 0.29023180654125258 -0.12727879856715499 0 0.30421528244478319 -0.1353535422644104 0 0.29104219417489491 -0.1234364462969041 0 0.29023180654125258 -0.12727879856715499 0 0.29023180654125258 -0.12727879856715499 0 0.29252130162778239 -0.14343249926168991 0 0.28502922538447528 -0.151946190675641 0 0.29252130162778239 -0.14343249926168991 0 0.28502922538447528 -0.151946190675641 0 0.29273304300355291 -0.14988214214772461 0 0.2966266577862165 -0.14120573229756669 0 0.29252130162778239 -0.14343249926168991 0 0.29798577542341459 -0.1468496326203623 0 0.29252130162778239 -0.14343249926168991 0 0.29273304300355291 -0.14988214214772461 0 0.29798577542341459 -0.1468496326203623 0 0.28502922538447528 -0.151946190675641 0 0.29273304300355291 -0.14988214214772461 0 0.28458415230650458 -0.15716010278164519 0 0.29273304300355291 -0.14988214214772461 0 0.2996261970373626 -0.1513196806912975 0 0.28458415230650458 -0.15716010278164519 0 0.29273304300355291 -0.14988214214772461 0 0.2996261970373626 -0.1513196806912975 0 0.29798577542341459 -0.1468496326203623 0 0.2996261970373626 -0.1513196806912975 0 0.28458415230650458 -0.15716010278164519 0 0.31158926426487699 -0.15825584187229139 0 0.2996261970373626 -0.1513196806912975 0 0.30636626563985198 -0.1504667966540657 0 0.30283052700002328 -0.1451208228905467 0 0.2996261970373626 -0.1513196806912975 0 0.30636626563985198 -0.1504667966540657 0 0.31158926426487699 -0.15825584187229139 0 0.30636626563985198 -0.1504667966540657 0 0.31141907425714588 -0.1471708411621275 0 0.31158926426487699 -0.15825584187229139 0 0.30421528244478319 -0.1353535422644104 0 0.31738837071467002 -0.14727063823191869 0 0.30636626563985198 -0.1504667966540657 0 0.31141907425714588 -0.1471708411621275 0 0.30283052700002328 -0.1451208228905467 0 0.31141907425714588 -0.1471708411621275 0 0.30421528244478319 -0.1353535422644104 0 0.31738837071467002 -0.14727063823191869 0 0.2996261970373626 -0.1513196806912975 0 0.30283052700002328 -0.1451208228905467 0 0.29798577542341459 -0.1468496326203623 0 0.2966266577862165 -0.14120573229756669 0 0.30283052700002328 -0.1451208228905467 0 0.29798577542341459 -0.1468496326203623 0 0.29023180654125258 -0.12727879856715499 0 0.31141907425714588 -0.1471708411621275 0 0.30421528244478319 -0.1353535422644104 0 0.29023180654125258 -0.12727879856715499 0 0.31141907425714588 -0.1471708411621275 0 0.29023180654125258 -0.12727879856715499 0 0.31141907425714588 -0.1471708411621275 0 0.30283052700002328 -0.1451208228905467 0 0.30208933869391591 -0.1244642726722754 0 0.30421528244478319 -0.1353535422644104 0 0.31374200214725911 -0.13044269146654491 0 0.30208933869391591 -0.1244642726722754 0 0.29104219417489491 -0.1234364462969041 0 0.30421528244478319 -0.1353535422644104 0 0.29104219417489491 -0.1234364462969041 0 0.30421528244478319 -0.1353535422644104 0 0.28517089784791888 -0.18770151801780419 0 0.29120930151664892 -0.1968614517038641 0 0.29386881924892938 -0.17791154385977909 0 0.28517089784791888 -0.18770151801780419 0 0.27698839009273729 -0.1740110593786236 0 0.2932561977806164 -0.16621032304494099 0 0.29120930151664892 -0.1968614517038641 0 0.29386881924892938 -0.17791154385977909 0 0.30416529585653312 -0.17231900927427049 0 0.28517089784791888 -0.18770151801780419 0 0.29386881924892938 -0.17791154385977909 0 0.2932561977806164 -0.16621032304494099 0 0.28517089784791888 -0.18770151801780419 0 0.2932561977806164 -0.16621032304494099 0 0.28458415230650458 -0.15716010278164519 0 0.30416529585653312 -0.17231900927427049 0 0.28458415230650458 -0.15716010278164519 0 0.2932561977806164 -0.16621032304494099 0 0.30416529585653312 -0.17231900927427049 0 0.28120901940345411 -0.16349377757814471 0 0.27698839009273729 -0.1740110593786236 0 0.2932561977806164 -0.16621032304494099 0 0.28120901940345411 -0.16349377757814471 0 0.28458415230650458 -0.15716010278164519 0 0.2932561977806164 -0.16621032304494099 0 0.28120901940345411 -0.16349377757814471 0 0.28458415230650458 -0.15716010278164519 0 0.28182117746992053 -0.15704799439492301 0 0.28458415230650458 -0.15716010278164519 0 0.28182117746992053 -0.15704799439492301 0 0.31158926426487699 -0.15825584187229139 0 0.30416529585653312 -0.17231900927427049 0 0.32052244044859379 -0.16991157546335531 0 0.28458415230650458 -0.15716010278164519 0 0.31158926426487699 -0.15825584187229139 0 0.28458415230650458 -0.15716010278164519 0 0.31158926426487699 -0.15825584187229139 0 0.30416529585653312 -0.17231900927427049 0 0.31158926426487699 -0.15825584187229139 0 0.30416529585653312 -0.17231900927427049 0 0.29120930151664892 -0.1968614517038641 0 0.30416529585653312 -0.17231900927427049 0 0.30410162303165589 -0.18797636249883959 0 0.30416529585653312 -0.17231900927427049 0 0.32212079130587162 -0.18621940665657261 0 0.29120930151664892 -0.1968614517038641 0 0.30410162303165589 -0.18797636249883959 0 0.30416529585653312 -0.17231900927427049 0 0.29386881924892938 -0.17791154385977909 0 0.2932561977806164 -0.16621032304494099 0 0.30416529585653312 -0.17231900927427049 0 0.30416529585653312 -0.17231900927427049 0 0.32212079130587162 -0.18621940665657261 0 0.32052244044859379 -0.16991157546335531 0 0.30416529585653312 -0.17231900927427049 0 0.32212079130587162 -0.18621940665657261 0 0.32212079130587162 -0.18621940665657261 0 0.32052244044859379 -0.16991157546335531 0 0.33341336574345642 -0.17607056948738681 0 0.31158926426487699 -0.15825584187229139 0 0.32052244044859379 -0.16991157546335531 0 0.33037387109391769 -0.15901803193604139 0 0.31158926426487699 -0.15825584187229139 0 0.33037387109391769 -0.15901803193604139 0 0.32052244044859379 -0.16991157546335531 0 0.33037387109391769 -0.15901803193604139 0 0.33341336574345642 -0.17607056948738681 0 0.33037387109391769 -0.15901803193604139 0 0.33341336574345642 -0.17607056948738681 0 0.34941529201778249 -0.1762439425090529 0 0.33037387109391769 -0.15901803193604139 0 0.34941529201778249 -0.1762439425090529 0 0.32212079130587162 -0.18621940665657261 0 0.33341336574345642 -0.17607056948738681 0 0.34007628675521012 -0.20011980403887461 0 0.33341336574345642 -0.17607056948738681 0 0.34941529201778249 -0.1762439425090529 0 0.34007628675521012 -0.20011980403887461 0 0.30421528244478319 -0.1353535422644104 0 0.31374200214725911 -0.13044269146654491 0 0.32132383147874449 -0.13981572456783231 0 0.31196060856518459 -0.1193993086832003 0 0.32912094955366727 -0.13318060914500651 0 0.31196060856518459 -0.1193993086832003 0 0.31374200214725911 -0.13044269146654491 0 0.32912094955366727 -0.13318060914500651 0 0.31374200214725911 -0.13044269146654491 0 0.32132383147874449 -0.13981572456783231 0 0.32912094955366727 -0.13318060914500651 0 0.32132383147874449 -0.13981572456783231 0 0.33256138626071369 -0.14512243527146909 0 0.32912094955366727 -0.13318060914500651 0 0.31158926426487699 -0.15825584187229139 0 0.33037387109391769 -0.15901803193604139 0 0.31738837071467002 -0.14727063823191869 0 0.30421528244478319 -0.1353535422644104 0 0.32132383147874449 -0.13981572456783231 0 0.31738837071467002 -0.14727063823191869 0 0.32132383147874449 -0.13981572456783231 0 0.32502274316978652 -0.1465346107507069 0 0.33256138626071369 -0.14512243527146909 0 0.32132383147874449 -0.13981572456783231 0 0.32502274316978652 -0.1465346107507069 0 0.31738837071467002 -0.14727063823191869 0 0.32132383147874449 -0.13981572456783231 0 0.31738837071467002 -0.14727063823191869 0 0.31158926426487699 -0.15825584187229139 0 0.31738837071467002 -0.14727063823191869 0 0.31141907425714588 -0.1471708411621275 0 0.31158926426487699 -0.15825584187229139 0 0.31738837071467002 -0.14727063823191869 0 0.33037387109391769 -0.15901803193604139 0 0.31738837071467002 -0.14727063823191869 0 0.33037387109391769 -0.15901803193604139 0 0.32502274316978652 -0.1465346107507069 0 0.31738837071467002 -0.14727063823191869 0 0.33037387109391769 -0.15901803193604139 0 0.33256138626071369 -0.14512243527146909 0 0.3462596017975339 -0.14463887544830009 0 0.33037387109391769 -0.15901803193604139 0 0.32502274316978652 -0.1465346107507069 0 0.33256138626071369 -0.14512243527146909 0 0.33256138626071369 -0.14512243527146909 0 0.33955863761069288 -0.13433373505493881 0 0.3462596017975339 -0.14463887544830009 0 0.33256138626071369 -0.14512243527146909 0 0.32912094955366727 -0.13318060914500651 0 0.33955863761069288 -0.13433373505493881 0 0.35171313651714342 -0.1248112354573402 0 0.33862942206341418 -0.1205749071506725 0 0.33955863761069288 -0.13433373505493881 0 0.33862942206341418 -0.1205749071506725 0 0.32912094955366727 -0.13318060914500651 0 0.33955863761069288 -0.13433373505493881 0 0.35171313651714342 -0.1248112354573402 0 0.33955863761069288 -0.13433373505493881 0 0.3462596017975339 -0.14463887544830009 0 0.35171313651714342 -0.1248112354573402 0 0.3462596017975339 -0.14463887544830009 0 0.36468150854130982 -0.14187052424979241 0 0.3462596017975339 -0.14463887544830009 0 0.36468150854130982 -0.14187052424979241 0 0.35929244484132739 -0.16019141021159081 0 0.33037387109391769 -0.15901803193604139 0 0.3462596017975339 -0.14463887544830009 0 0.35929244484132739 -0.16019141021159081 0 0.36468150854130982 -0.14187052424979241 0 0.35929244484132739 -0.16019141021159081 0 0.37662587417581739 -0.14992825494103301 0 0.36701684167949489 -0.11721576635914011 0 0.35171313651714342 -0.1248112354573402 0 0.36468150854130982 -0.14187052424979241 0 0.38193600294537122 -0.1245015847316009 0 0.36468150854130982 -0.14187052424979241 0 0.37662587417581739 -0.14992825494103301 0 0.38193600294537122 -0.1245015847316009 0 0.36701684167949489 -0.11721576635914011 0 0.36468150854130982 -0.14187052424979241 0 0.38193600294537122 -0.1245015847316009 0 0.36468150854130982 -0.14187052424979241 0 0.34941529201778249 -0.1762439425090529 0 0.36845671294164939 -0.1934698530820618 0 0.34941529201778249 -0.1762439425090529 0 0.36845671294164939 -0.1934698530820618 0 0.35326297828188968 -0.19259721794609291 0 0.33037387109391769 -0.15901803193604139 0 0.35929244484132739 -0.16019141021159081 0 0.34941529201778249 -0.1762439425090529 0 0.35929244484132739 -0.16019141021159081 0 0.36532110849339439 -0.17698478250776459 0 0.33037387109391769 -0.15901803193604139 0 0.34941529201778249 -0.1762439425090529 0 0.35929244484132739 -0.16019141021159081 0 0.35929244484132739 -0.16019141021159081 0 0.36973884940064022 -0.16677603649823991 0 0.36532110849339439 -0.17698478250776459 0 0.35929244484132739 -0.16019141021159081 0 0.36973884940064022 -0.16677603649823991 0 0.38821101858873708 -0.1613647884871435 0 0.35929244484132739 -0.16019141021159081 0 0.38821101858873708 -0.1613647884871435 0 0.35929244484132739 -0.16019141021159081 0 0.37662587417581739 -0.14992825494103301 0 0.38821101858873708 -0.1613647884871435 0 0.36973884940064022 -0.16677603649823991 0 0.37257337146259439 -0.17413535434692021 0 0.37763137978965888 -0.16897963977520039 0 0.34941529201778249 -0.1762439425090529 0 0.36532110849339439 -0.17698478250776459 0 0.36845671294164939 -0.1934698530820618 0 0.36532110849339439 -0.17698478250776459 0 0.37478429399965102 -0.18266238922420491 0 0.36845671294164939 -0.1934698530820618 0 0.37257337146259439 -0.17413535434692021 0 0.36532110849339439 -0.17698478250776459 0 0.37478429399965102 -0.18266238922420491 0 0.36973884940064022 -0.16677603649823991 0 0.37257337146259439 -0.17413535434692021 0 0.36532110849339439 -0.17698478250776459 0 0.36845671294164939 -0.1934698530820618 0 0.35803178220454862 -0.2140202014211765 0 0.35326297828188968 -0.19259721794609291 0 0.36845671294164939 -0.1934698530820618 0 0.35803178220454862 -0.2140202014211765 0 0.38173201810935642 -0.208215472145234 0 0.35803178220454862 -0.2140202014211765 0 0.37602728630530491 -0.22786891861486899 0 0.38173201810935642 -0.208215472145234 0 0.35803178220454862 -0.2140202014211765 0 0.33409739026052993 -0.21590140762972621 0 0.34706744951435148 -0.22423357115225179 0 0.35803178220454862 -0.2140202014211765 0 0.34007628675521012 -0.20011980403887461 0 0.35803178220454862 -0.2140202014211765 0 0.34007628675521012 -0.20011980403887461 0 0.33409739026052993 -0.21590140762972621 0 0.35803178220454862 -0.2140202014211765 0 0.35326297828188968 -0.19259721794609291 0 0.34007628675521012 -0.20011980403887461 0 0.34941529201778249 -0.1762439425090529 0 0.35326297828188968 -0.19259721794609291 0 0.34007628675521012 -0.20011980403887461 0 0.32212079130587162 -0.18621940665657261 0 0.34007628675521012 -0.20011980403887461 0 0.32212079130587162 -0.18621940665657261 0 0.34007628675521012 -0.20011980403887461 0 0.32532553080826082 -0.20442256737249551 0 0.34007628675521012 -0.20011980403887461 0 0.33409739026052993 -0.21590140762972621 0 0.32532553080826082 -0.20442256737249551 0 0.32532553080826082 -0.20442256737249551 0 0.32278294999784168 -0.21699034291239019 0 0.31742141688531977 -0.21003111689635851 0 0.33409739026052993 -0.21590140762972621 0 0.32532553080826082 -0.20442256737249551 0 0.32278294999784168 -0.21699034291239019 0 0.30926038009183238 -0.21268389738754601 0 0.31314183386784677 -0.21616999861332331 0 0.31742141688531977 -0.21003111689635851 0 0.31314183386784677 -0.21616999861332331 0 0.31742141688531977 -0.21003111689635851 0 0.31715438342061769 -0.21910939256960071 0 0.32278294999784168 -0.21699034291239019 0 0.31742141688531977 -0.21003111689635851 0 0.31715438342061769 -0.21910939256960071 0 0.31227517166906338 -0.19823630334187711 0 0.32532553080826082 -0.20442256737249551 0 0.31742141688531977 -0.21003111689635851 0 0.31227517166906338 -0.19823630334187711 0 0.32212079130587162 -0.18621940665657261 0 0.32532553080826082 -0.20442256737249551 0 0.30410162303165589 -0.18797636249883959 0 0.31227517166906338 -0.19823630334187711 0 0.32212079130587162 -0.18621940665657261 0 0.32604145548930308 -0.23628726023832261 0 0.32474306607040571 -0.24478609134352419 0 0.33206292461970982 -0.24043863476810229 0 0.32604145548930308 -0.23628726023832261 0 0.32474306607040571 -0.24478609134352419 0 0.31493616917986639 -0.24016655488394609 0 0.32604145548930308 -0.23628726023832261 0 0.31493616917986639 -0.24016655488394609 0 0.32451677972019821 -0.2280339812568361 0 0.32474306607040571 -0.24478609134352419 0 0.31493616917986639 -0.24016655488394609 0 0.32110243366205232 -0.25453621870780069 0 0.31493616917986639 -0.24016655488394609 0 0.32378550283513929 -0.22652495851461979 0 0.30976086623202032 -0.22925253551953331 0 0.31493616917986639 -0.24016655488394609 0 0.31572851990061113 -0.22969992108435131 0 0.31493616917986639 -0.24016655488394609 0 0.32451677972019821 -0.2280339812568361 0 0.31493616917986639 -0.24016655488394609 0 0.31572851990061113 -0.22969992108435131 0 0.32378550283513929 -0.22652495851461979 0 0.30976086623202032 -0.22925253551953331 0 0.31572851990061113 -0.22969992108435131 0 0.31388533290757148 -0.22554273094182761 0 0.31572851990061113 -0.22969992108435131 0 0.31835372884520552 -0.22324971625395609 0 0.32378550283513929 -0.22652495851461979 0 0.31369802657545243 -0.22125622176332641 0 0.31835372884520552 -0.22324971625395609 0 0.31715438342061769 -0.21910939256960071 0 0.31314183386784677 -0.21616999861332331 0 0.31369802657545243 -0.22125622176332641 0 0.31715438342061769 -0.21910939256960071 0 0.31572851990061113 -0.22969992108435131 0 0.31388533290757148 -0.22554273094182761 0 0.31835372884520552 -0.22324971625395609 0 0.31369802657545243 -0.22125622176332641 0 0.31388533290757148 -0.22554273094182761 0 0.31835372884520552 -0.22324971625395609 0 0.31039074830367458 -0.2242248113449648 0 0.31369802657545243 -0.22125622176332641 0 0.31388533290757148 -0.22554273094182761 0 0.32278294999784168 -0.21699034291239019 0 0.31835372884520552 -0.22324971625395609 0 0.31715438342061769 -0.21910939256960071 0 0.32278294999784168 -0.21699034291239019 0 0.31835372884520552 -0.22324971625395609 0 0.32378550283513929 -0.22652495851461979 0 0.33409739026052993 -0.21590140762972621 0 0.32378550283513929 -0.22652495851461979 0 0.32451677972019821 -0.2280339812568361 0 0.33409739026052993 -0.21590140762972621 0 0.32278294999784168 -0.21699034291239019 0 0.32378550283513929 -0.22652495851461979 0 0.32604145548930308 -0.23628726023832261 0 0.32451677972019821 -0.2280339812568361 0 0.33051061163768353 -0.2304282870419688 0 0.31493616917986639 -0.24016655488394609 0 0.32378550283513929 -0.22652495851461979 0 0.32451677972019821 -0.2280339812568361 0 0.32604145548930308 -0.23628726023832261 0 0.33051061163768353 -0.2304282870419688 0 0.33389676858638873 -0.2331887596270931 0 0.32451677972019821 -0.2280339812568361 0 0.33051061163768353 -0.2304282870419688 0 0.33635974051711087 -0.22641974228410769 0 0.33051061163768353 -0.2304282870419688 0 0.33389676858638873 -0.2331887596270931 0 0.33635974051711087 -0.22641974228410769 0 0.33409739026052993 -0.21590140762972621 0 0.32451677972019821 -0.2280339812568361 0 0.33635974051711087 -0.22641974228410769 0 0.33409739026052993 -0.21590140762972621 0 0.32451677972019821 -0.2280339812568361 0 0.33409739026052993 -0.21590140762972621 0 0.33635974051711087 -0.22641974228410769 0 0.34706744951435148 -0.22423357115225179 0 0.33389676858638873 -0.2331887596270931 0 0.33635974051711087 -0.22641974228410769 0 0.34339499545724961 -0.23217053473024649 0 0.33635974051711087 -0.22641974228410769 0 0.34339499545724961 -0.23217053473024649 0 0.34706744951435148 -0.22423357115225179 0 0.33389676858638873 -0.2331887596270931 0 0.34339499545724961 -0.23217053473024649 0 0.33963092213601248 -0.24071051980322999 0 0.32474306607040571 -0.24478609134352419 0 0.33974563980605121 -0.24967218554333101 0 0.32110243366205232 -0.25453621870780069 0 0.34339499545724961 -0.23217053473024649 0 0.33963092213601248 -0.24071051980322999 0 0.34749180139503782 -0.2384973928971659 0 0.33389676858638873 -0.2331887596270931 0 0.33963092213601248 -0.24071051980322999 0 0.33206292461970982 -0.24043863476810229 0 0.32604145548930308 -0.23628726023832261 0 0.33389676858638873 -0.2331887596270931 0 0.33206292461970982 -0.24043863476810229 0 0.32474306607040571 -0.24478609134352419 0 0.33206292461970982 -0.24043863476810229 0 0.33974563980605121 -0.24967218554333101 0 0.33963092213601248 -0.24071051980322999 0 0.33206292461970982 -0.24043863476810229 0 0.33974563980605121 -0.24967218554333101 0 0.33963092213601248 -0.24071051980322999 0 0.33974563980605121 -0.24967218554333101 0 0.35113025285737481 -0.24665810117115311 0 0.34339499545724961 -0.23217053473024649 0 0.34749180139503782 -0.2384973928971659 0 0.35515911886493978 -0.23322361366935099 0 0.35113025285737481 -0.24665810117115311 0 0.34749180139503782 -0.2384973928971659 0 0.35515911886493978 -0.23322361366935099 0 0.33963092213601248 -0.24071051980322999 0 0.35113025285737481 -0.24665810117115311 0 0.34749180139503782 -0.2384973928971659 0 0.35113025285737481 -0.24665810117115311 0 0.35515911886493978 -0.23322361366935099 0 0.36585895378638011 -0.24257588745130651 0 0.35803178220454862 -0.2140202014211765 0 0.34706744951435148 -0.22423357115225179 0 0.35515911886493978 -0.23322361366935099 0 0.34339499545724961 -0.23217053473024649 0 0.34706744951435148 -0.22423357115225179 0 0.35515911886493978 -0.23322361366935099 0 0.35803178220454862 -0.2140202014211765 0 0.35515911886493978 -0.23322361366935099 0 0.37027499227882837 -0.23151675141063671 0 0.35803178220454862 -0.2140202014211765 0 0.37027499227882837 -0.23151675141063671 0 0.37602728630530491 -0.22786891861486899 0 0.35803178220454862 -0.2140202014211765 0 0.37602728630530491 -0.22786891861486899 0 0.35113025285737481 -0.24665810117115311 0 0.36585895378638011 -0.24257588745130651 0 0.3620822404171461 -0.25123661234496703 0 0.35515911886493978 -0.23322361366935099 0 0.37027499227882837 -0.23151675141063671 0 0.36585895378638011 -0.24257588745130651 0 0.37027499227882837 -0.23151675141063671 0 0.36585895378638011 -0.24257588745130651 0 0.37925285268072478 -0.24087703866845361 0 0.36585895378638011 -0.24257588745130651 0 0.37925285268072478 -0.24087703866845361 0 0.37584018395849278 -0.25365090056906742 0 0.36585895378638011 -0.24257588745130651 0 0.37584018395849278 -0.25365090056906742 0 0.3620822404171461 -0.25123661234496703 0 0.37925285268072478 -0.24087703866845361 0 0.39136548062033399 -0.24609591735807471 0 0.37584018395849278 -0.25365090056906742 0 0.37027499227882837 -0.23151675141063671 0 0.37925285268072478 -0.24087703866845361 0 0.38065089981834399 -0.2333577428726929 0 0.37925285268072478 -0.24087703866845361 0 0.38845860087992251 -0.23274256736149659 0 0.38065089981834399 -0.2333577428726929 0 0.37925285268072478 -0.24087703866845361 0 0.39136548062033399 -0.24609591735807471 0 0.38845860087992251 -0.23274256736149659 0 0.40118797261057892 -0.2317261636972848 0 0.40806358395916381 -0.25330823270812758 0 0.39136548062033399 -0.24609591735807471 0 0.40118797261057892 -0.2317261636972848 0 0.40806358395916381 -0.25330823270812758 0 0.39136548062033399 -0.24609591735807471 0 0.40118797261057892 -0.2317261636972848 0 0.38845860087992251 -0.23274256736149659 0 0.40118797261057892 -0.2317261636972848 0 0.39431236126199409 -0.21014409468644199 0 0.41573128176106122 -0.21666085148857431 0 0.40118797261057892 -0.2317261636972848 0 0.39431236126199409 -0.21014409468644199 0 0.40118797261057892 -0.2317261636972848 0 0.38634047219771778 -0.220149572802954 0 0.39431236126199409 -0.21014409468644199 0 0.40118797261057892 -0.2317261636972848 0 0.38634047219771778 -0.220149572802954 0 0.38845860087992251 -0.23274256736149659 0 0.38634047219771778 -0.220149572802954 0 0.38845860087992251 -0.23274256736149659 0 0.38168426229856922 -0.228562531765724 0 0.38845860087992251 -0.23274256736149659 0 0.38065089981834399 -0.2333577428726929 0 0.38168426229856922 -0.228562531765724 0 0.37027499227882837 -0.23151675141063671 0 0.38065089981834399 -0.2333577428726929 0 0.37602728630530491 -0.22786891861486899 0 0.38065089981834399 -0.2333577428726929 0 0.38168426229856922 -0.228562531765724 0 0.37602728630530491 -0.22786891861486899 0 0.38634047219771778 -0.220149572802954 0 0.38168426229856922 -0.228562531765724 0 0.37602728630530491 -0.22786891861486899 0 0.38634047219771778 -0.220149572802954 0 0.37602728630530491 -0.22786891861486899 0 0.38173201810935642 -0.208215472145234 0 0.37602728630530491 -0.22786891861486899 0 0.38173201810935642 -0.208215472145234 0 0.38634047219771778 -0.220149572802954 0 0.38173201810935642 -0.208215472145234 0 0.39431236126199409 -0.21014409468644199 0 0.38173201810935642 -0.208215472145234 0 0.3874367499134086 -0.18856202567559921 0 0.38173201810935642 -0.208215472145234 0 0.3874367499134086 -0.18856202567559921 0 0.39431236126199409 -0.21014409468644199 0 0.36845671294164939 -0.1934698530820618 0 0.38173201810935642 -0.208215472145234 0 0.3874367499134086 -0.18856202567559921 0 0.37478429399965102 -0.18266238922420491 0 0.36845671294164939 -0.1934698530820618 0 0.3874367499134086 -0.18856202567559921 0 0.3874367499134086 -0.18856202567559921 0 0.40739400562905309 -0.19902988053014481 0 0.40935677571709039 -0.18193793762741389 0 0.3874367499134086 -0.18856202567559921 0 0.39431236126199409 -0.21014409468644199 0 0.40739400562905309 -0.19902988053014481 0 0.3874367499134086 -0.18856202567559921 0 0.39431236126199409 -0.21014409468644199 0 0.39431236126199409 -0.21014409468644199 0 0.41573128176106122 -0.21666085148857431 0 0.40739400562905309 -0.19902988053014481 0 0.41573128176106122 -0.21666085148857431 0 0.40739400562905309 -0.19902988053014481 0 0.42541315043559569 -0.20040751003619389 0 0.40739400562905309 -0.19902988053014481 0 0.42541315043559569 -0.20040751003619389 0 0.40935677571709039 -0.18193793762741389 0 0.42541315043559569 -0.20040751003619389 0 0.43169903639828788 -0.17971558601874321 0 0.44088111107648431 -0.19662055395548539 0 0.42541315043559569 -0.20040751003619389 0 0.43005847786061779 -0.21819011245938399 0 0.44343310680516318 -0.2128304027855554 0 0.41573128176106122 -0.21666085148857431 0 0.42541315043559569 -0.20040751003619389 0 0.43005847786061779 -0.21819011245938399 0 0.42541315043559569 -0.20040751003619389 0 0.44343310680516318 -0.2128304027855554 0 0.44088111107648431 -0.19662055395548539 0 0.41573128176106122 -0.21666085148857431 0 0.43005847786061779 -0.21819011245938399 0 0.42933411644671549 -0.23258047339071741 0 0.43005847786061779 -0.21819011245938399 0 0.42933411644671549 -0.23258047339071741 0 0.44732135371919679 -0.22875792949369819 0 0.42933411644671549 -0.23258047339071741 0 0.43637459654886879 -0.2487720423358421 0 0.42012879376752288 -0.24563249643089871 0 0.42933411644671549 -0.23258047339071741 0 0.43637459654886879 -0.2487720423358421 0 0.40118797261057892 -0.2317261636972848 0 0.42012879376752288 -0.24563249643089871 0 0.40806358395916381 -0.25330823270812758 0 0.40118797261057892 -0.2317261636972848 0 0.42933411644671549 -0.23258047339071741 0 0.42012879376752288 -0.24563249643089871 0 0.40118797261057892 -0.2317261636972848 0 0.41573128176106122 -0.21666085148857431 0 0.42933411644671549 -0.23258047339071741 0 0.3968659698649083 -0.13111638903256451 0 0.40591584149631671 -0.1348841582111939 0 0.3970634300425262 -0.1481244733491682 0 0.3968659698649083 -0.13111638903256451 0 0.37662587417581739 -0.14992825494103301 0 0.38193600294537122 -0.1245015847316009 0 0.3968659698649083 -0.13111638903256451 0 0.37662587417581739 -0.14992825494103301 0 0.37662587417581739 -0.14992825494103301 0 0.3970634300425262 -0.1481244733491682 0 0.38821101858873708 -0.1613647884871435 0 0.3968659698649083 -0.13111638903256451 0 0.37662587417581739 -0.14992825494103301 0 0.3970634300425262 -0.1481244733491682 0 0.3983573948946138 -0.15093916820847289 0 0.3970634300425262 -0.1481244733491682 0 0.38821101858873708 -0.1613647884871435 0 0.3970634300425262 -0.1481244733491682 0 0.38821101858873708 -0.1613647884871435 0 0.40591584149631671 -0.1348841582111939 0 0.3970634300425262 -0.1481244733491682 0 0.40706444544642661 -0.14523160690000381 0 0.3983573948946138 -0.15093916820847289 0 0.3970634300425262 -0.1481244733491682 0 0.40706444544642661 -0.14523160690000381 0 0.40591584149631671 -0.1348841582111939 0 0.3970634300425262 -0.1481244733491682 0 0.3983573948946138 -0.15093916820847289 0 0.39524830687051038 -0.16165032819808359 0 0.40776363753312722 -0.15420360114036499 0 0.3983573948946138 -0.15093916820847289 0 0.40776363753312722 -0.15420360114036499 0 0.40706444544642661 -0.14523160690000381 0 0.3983573948946138 -0.15093916820847289 0 0.39524830687051038 -0.16165032819808359 0 0.38821101858873708 -0.1613647884871435 0 0.3983573948946138 -0.15093916820847289 0 0.39524830687051038 -0.16165032819808359 0 0.39524830687051038 -0.16165032819808359 0 0.38821101858873708 -0.1613647884871435 0 0.36973884940064022 -0.16677603649823991 0 0.38821101858873708 -0.1613647884871435 0 0.37763137978965888 -0.16897963977520039 0 0.38821101858873708 -0.1613647884871435 0 0.37763137978965888 -0.16897963977520039 0 0.380002279706664 -0.17364237976849881 0 0.38821101858873708 -0.1613647884871435 0 0.380002279706664 -0.17364237976849881 0 0.38214939836881379 -0.17196539446206599 0 0.39524830687051038 -0.16165032819808359 0 0.38821101858873708 -0.1613647884871435 0 0.38214939836881379 -0.17196539446206599 0 0.38821101858873708 -0.1613647884871435 0 0.380002279706664 -0.17364237976849881 0 0.3874367499134086 -0.18856202567559921 0 0.38214939836881379 -0.17196539446206599 0 0.3874367499134086 -0.18856202567559921 0 0.39524830687051038 -0.16165032819808359 0 0.38214939836881379 -0.17196539446206599 0 0.3874367499134086 -0.18856202567559921 0 0.380002279706664 -0.17364237976849881 0 0.38214939836881379 -0.17196539446206599 0 0.37257337146259439 -0.17413535434692021 0 0.37478429399965102 -0.18266238922420491 0 0.380002279706664 -0.17364237976849881 0 0.37257337146259439 -0.17413535434692021 0 0.37763137978965888 -0.16897963977520039 0 0.380002279706664 -0.17364237976849881 0 0.37478429399965102 -0.18266238922420491 0 0.3874367499134086 -0.18856202567559921 0 0.380002279706664 -0.17364237976849881 0 0.3874367499134086 -0.18856202567559921 0 0.39524830687051038 -0.16165032819808359 0 0.3874367499134086 -0.18856202567559921 0 0.39524830687051038 -0.16165032819808359 0 0.40935677571709039 -0.18193793762741389 0 0.40935677571709039 -0.18193793762741389 0 0.43169903639828788 -0.17971558601874321 0 0.41992787079464272 -0.16265170760259989 0 0.42541315043559569 -0.20040751003619389 0 0.40935677571709039 -0.18193793762741389 0 0.43169903639828788 -0.17971558601874321 0 0.43169903639828788 -0.17971558601874321 0 0.41992787079464272 -0.16265170760259989 0 0.44460743471877512 -0.16365308700711781 0 0.41992787079464272 -0.16265170760259989 0 0.43751592390077648 -0.14681156165962289 0 0.44460743471877512 -0.16365308700711781 0 0.41992787079464272 -0.16265170760259989 0 0.44460743471877512 -0.16365308700711781 0 0.39524830687051038 -0.16165032819808359 0 0.41992787079464272 -0.16265170760259989 0 0.40776363753312722 -0.15420360114036499 0 0.39524830687051038 -0.16165032819808359 0 0.40935677571709039 -0.18193793762741389 0 0.41992787079464272 -0.16265170760259989 0 0.39524830687051038 -0.16165032819808359 0 0.41992787079464272 -0.16265170760259989 0 0.40776363753312722 -0.15420360114036499 0 0.40706444544642661 -0.14523160690000381 0 0.41822016965944281 -0.1505451947926657 0 0.40706444544642661 -0.14523160690000381 0 0.42171588269854671 -0.14084785993540799 0 0.41822016965944281 -0.1505451947926657 0 0.41992787079464272 -0.16265170760259989 0 0.40776363753312722 -0.15420360114036499 0 0.41822016965944281 -0.1505451947926657 0 0.42171588269854671 -0.14084785993540799 0 0.43751592390077648 -0.14681156165962289 0 0.42171588269854671 -0.14084785993540799 0 0.41822016965944281 -0.1505451947926657 0 0.43751592390077648 -0.14681156165962289 0 0.41992787079464272 -0.16265170760259989 0 0.41822016965944281 -0.1505451947926657 0 0.43751592390077648 -0.14681156165962289 0 0.42986963723665761 -0.12865250726728261 0 0.43751592390077648 -0.14681156165962289 0 0.42986963723665761 -0.12865250726728261 0 0.44316648776309342 -0.12684051096696669 0 0.43751592390077648 -0.14681156165962289 0 0.42171588269854671 -0.14084785993540799 0 0.42986963723665761 -0.12865250726728261 0 0.43751592390077648 -0.14681156165962289 0 0.42171588269854671 -0.14084785993540799 0 0.42986963723665761 -0.12865250726728261 0 0.41763625219026901 -0.1303824444729019 0 0.42174986482339633 -0.1218575308797169 0 0.42986963723665761 -0.12865250726728261 0 0.41763625219026901 -0.1303824444729019 0 0.40591584149631671 -0.1348841582111939 0 0.40706444544642661 -0.14523160690000381 0 0.42171588269854671 -0.14084785993540799 0 0.41727021929411823 -0.1179017189037415 0 0.3968659698649083 -0.13111638903256451 0 0.40591584149631671 -0.1348841582111939 0 0.41727021929411823 -0.1179017189037415 0 0.40591584149631671 -0.1348841582111939 0 0.41727021929411823 -0.1179017189037415 0 0.40591584149631671 -0.1348841582111939 0 0.41763625219026901 -0.1303824444729019 0 0.40591584149631671 -0.1348841582111939 0 0.42171588269854671 -0.14084785993540799 0 0.40591584149631671 -0.1348841582111939 0 0.42171588269854671 -0.14084785993540799 0 0.41763625219026901 -0.1303824444729019 0 0.45701735952727263 -0.1328123498651278 0 0.44316648776309342 -0.12684051096696669 0 0.43751592390077648 -0.14681156165962289 0 0.45701735952727263 -0.1328123498651278 0 0.43751592390077648 -0.14681156165962289 0 0.46208567795182193 -0.1560853782732797 0 0.43751592390077648 -0.14681156165962289 0 0.44460743471877512 -0.16365308700711781 0 0.43751592390077648 -0.14681156165962289 0 0.46208567795182193 -0.1560853782732797 0 0.43751592390077648 -0.14681156165962289 0 0.46208567795182193 -0.1560853782732797 0 0.44460743471877512 -0.16365308700711781 0 0.45701735952727263 -0.1328123498651278 0 0.46208567795182193 -0.1560853782732797 0 0.48048546520253499 -0.1386554265616512 0 0.4656314333608208 -0.1645061409470274 0 0.44460743471877512 -0.16365308700711781 0 0.46208567795182193 -0.1560853782732797 0 0.4656314333608208 -0.1645061409470274 0 0.44460743471877512 -0.16365308700711781 0 0.4656314333608208 -0.1645061409470274 0 0.44460743471877512 -0.16365308700711781 0 0.45069457817735448 -0.17810935499888161 0 0.44460743471877512 -0.16365308700711781 0 0.45069457817735448 -0.17810935499888161 0 0.43169903639828788 -0.17971558601874321 0 0.44460743471877512 -0.16365308700711781 0 0.45069457817735448 -0.17810935499888161 0 0.43169903639828788 -0.17971558601874321 0 0.45069457817735448 -0.17810935499888161 0 0.44088111107648431 -0.19662055395548539 0 0.45069457817735448 -0.17810935499888161 0 0.46647177015257119 -0.18205741498990219 0 0.45678172163593389 -0.19256562299064531 0 0.45069457817735448 -0.17810935499888161 0 0.45678172163593389 -0.19256562299064531 0 0.4656314333608208 -0.1645061409470274 0 0.45069457817735448 -0.17810935499888161 0 0.46647177015257119 -0.18205741498990219 0 0.4656314333608208 -0.1645061409470274 0 0.46647177015257119 -0.18205741498990219 0 0.4778885646054476 -0.17553937847279741 0 0.46647177015257119 -0.18205741498990219 0 0.4778885646054476 -0.17553937847279741 0 0.48140539997577769 -0.18808492957115311 0 0.4778885646054476 -0.17553937847279741 0 0.48927878753520132 -0.17768921196896689 0 0.48140539997577769 -0.18808492957115311 0 0.48927878753520132 -0.17768921196896689 0 0.48140539997577769 -0.18808492957115311 0 0.50000000000001299 -0.18897861099614671 0 0.48927878753520132 -0.17768921196896689 0 0.50000000000000178 -0.17039608195291431 0 0.50000000000001299 -0.18897861099614671 0 0.4778885646054476 -0.17553937847279741 0 0.48927878753520132 -0.17768921196896689 0 0.48665543200286671 -0.16535919488693759 0 0.48927878753520132 -0.17768921196896689 0 0.48665543200286671 -0.16535919488693759 0 0.50000000000000178 -0.17039608195291431 0 0.50000000000000178 -0.17039608195291431 0 0.49274489690467832 -0.16560627643002929 0 0.5 -0.1501078171809164 0 0.48665543200286671 -0.16535919488693759 0 0.49274489690467832 -0.16560627643002929 0 0.48665543200286671 -0.16535919488693759 0 0.50000000000000178 -0.17039608195291431 0 0.48665543200286671 -0.16535919488693759 0 0.50000000000000178 -0.17039608195291431 0 0.49274489690467832 -0.16560627643002929 0 0.49274489690467832 -0.16560627643002929 0 0.48439429441238041 -0.1551628186665629 0 0.5 -0.1501078171809164 0 0.48665543200286671 -0.16535919488693759 0 0.49274489690467832 -0.16560627643002929 0 0.48439429441238041 -0.1551628186665629 0 0.46208567795182193 -0.1560853782732797 0 0.48665543200286671 -0.16535919488693759 0 0.46208567795182193 -0.1560853782732797 0 0.48665543200286671 -0.16535919488693759 0 0.48439429441238041 -0.1551628186665629 0 0.4656314333608208 -0.1645061409470274 0 0.4778885646054476 -0.17553937847279741 0 0.48665543200286671 -0.16535919488693759 0 0.4656314333608208 -0.1645061409470274 0 0.48665543200286671 -0.16535919488693759 0 0.46208567795182193 -0.1560853782732797 0 0.4656314333608208 -0.1645061409470274 0 0.48665543200286671 -0.16535919488693759 0 0.46208567795182193 -0.1560853782732797 0 0.48439429441238041 -0.1551628186665629 0 0.48048546520253499 -0.1386554265616512 0 0.48439429441238041 -0.1551628186665629 0 0.5 -0.1501078171809164 0 0.48048546520253499 -0.1386554265616512 0 0.5 -0.1501078171809164 0 0.5 -0.12981955240891849 0 0.48048546520253499 -0.1386554265616512 0 0.48416997141087992 -0.1196754200229202 0 0.5 -0.12981955240891849 0 0.48048546520253499 -0.1386554265616512 0 0.48416997141087992 -0.1196754200229202 0 0.48048546520253499 -0.1386554265616512 0 0.47222076375174732 -0.12567577854591219 0 0.45701735952727263 -0.1328123498651278 0 0.48048546520253499 -0.1386554265616512 0 0.47222076375174732 -0.12567577854591219 0 0.44732135371919679 -0.22875792949369819 0 0.46219253933750359 -0.21065860668682579 0 0.47170753832552359 -0.22697111113856039 0 0.45756130748827478 -0.24596736120976431 0 0.44732135371919679 -0.22875792949369819 0 0.47170753832552359 -0.22697111113856039 0 0.45756130748827478 -0.24596736120976431 0 0.47170753832552359 -0.22697111113856039 0 0.42933411644671549 -0.23258047339071741 0 0.43637459654886879 -0.2487720423358421 0 0.44732135371919679 -0.22875792949369819 0 0.43637459654886879 -0.2487720423358421 0 0.45756130748827478 -0.24596736120976431 0 0.44732135371919679 -0.22875792949369819 0 0.43005847786061779 -0.21819011245938399 0 0.44732135371919679 -0.22875792949369819 0 0.44343310680516318 -0.2128304027855554 0 0.44343310680516318 -0.2128304027855554 0 0.45082211971377129 -0.20316879660462789 0 0.46219253933750359 -0.21065860668682579 0 0.44343310680516318 -0.2128304027855554 0 0.45082211971377129 -0.20316879660462789 0 0.44088111107648431 -0.19662055395548539 0 0.44732135371919679 -0.22875792949369819 0 0.44343310680516318 -0.2128304027855554 0 0.46219253933750359 -0.21065860668682579 0 0.45082211971377129 -0.20316879660462789 0 0.44088111107648431 -0.19662055395548539 0 0.45678172163593389 -0.19256562299064531 0 0.45069457817735448 -0.17810935499888161 0 0.44088111107648431 -0.19662055395548539 0 0.45678172163593389 -0.19256562299064531 0 0.45678172163593389 -0.19256562299064531 0 0.46219253933750359 -0.21065860668682579 0 0.47047034147108402 -0.19687174086289111 0 0.45082211971377129 -0.20316879660462789 0 0.45678172163593389 -0.19256562299064531 0 0.46219253933750359 -0.21065860668682579 0 0.46647177015257119 -0.18205741498990219 0 0.45678172163593389 -0.19256562299064531 0 0.47047034147108402 -0.19687174086289111 0 0.48585376916277251 -0.2079748610673566 0 0.47170753832552359 -0.22697111113856039 0 0.46219253933750359 -0.21065860668682579 0 0.47047034147108402 -0.19687174086289111 0 0.48585376916277251 -0.2079748610673566 0 0.46219253933750359 -0.21065860668682579 0 0.48585376916277251 -0.2079748610673566 0 0.47170753832552359 -0.22697111113856039 0 0.47047034147108402 -0.19687174086289111 0 0.48140539997577769 -0.18808492957115311 0 0.48585376916277251 -0.2079748610673566 0 0.46647177015257119 -0.18205741498990219 0 0.47047034147108402 -0.19687174086289111 0 0.48140539997577769 -0.18808492957115311 0 0.50000000000001299 -0.18897861099614671 0 0.48585376916277251 -0.2079748610673566 0 0.48140539997577769 -0.18808492957115311 0 0.50000000000001299 -0.18897861099614671 0 0.48585376916277251 -0.2079748610673566 0 0.50000000000001299 -0.18897861099614671 0 0.5 -0.21229880833826939 0 0.48585376916277251 -0.2079748610673566 0 0.5 -0.21229880833826939 0 0.48585376916277251 -0.2079748610673566 0 0.48870201984421202 -0.2239589070093313 0 0.5 -0.21229880833826939 0 0.48870201984421202 -0.2239589070093313 0 0.50000000000000067 -0.2356190056803921 0 0.48870201984421202 -0.2239589070093313 0 0.47170753832552359 -0.22697111113856039 0 0.48350581266097581 -0.25084516830703391 0 0.48585376916277251 -0.2079748610673566 0 0.48870201984421202 -0.2239589070093313 0 0.47170753832552359 -0.22697111113856039 0 0.45756130748827478 -0.24596736120976431 0 0.47170753832552359 -0.22697111113856039 0 0.48350581266097581 -0.25084516830703391 0 0.48870201984421202 -0.2239589070093313 0 0.50000000000000067 -0.2356190056803921 0 0.48350581266097581 -0.25084516830703391 0 0.50000000000000067 -0.2356190056803921 0 0.48350581266097581 -0.25084516830703391 0 0.50000000000000067 -0.2356190056803921 0 0.5 -0.25892120690306902 0 0.48350581266097581 -0.25084516830703391 0 0.5 -0.25892120690306902 0 0.48469918575292259 -0.27152811135192212 0 0.48350581266097581 -0.25084516830703391 0 0.5 -0.25892120690306902 0 0.48469918575292259 -0.27152811135192212 0 0.5 -0.28222340812574592 0 0.48469918575292259 -0.27152811135192212 0 0.46701162532195062 -0.26607133093367541 0 0.47049125528015151 -0.28425818225899341 0 0.48350581266097581 -0.25084516830703391 0 0.46701162532195062 -0.26607133093367541 0 0.45756130748827478 -0.24596736120976431 0 0.48350581266097581 -0.25084516830703391 0 0.46701162532195062 -0.26607133093367541 0 0.48469918575292259 -0.27152811135192212 0 0.48350581266097581 -0.25084516830703391 0 0.46701162532195062 -0.26607133093367541 0 0.45756130748827478 -0.24596736120976431 0 0.46701162532195062 -0.26607133093367541 0 0.44341507665102342 -0.26496361128096618 0 0.46701162532195062 -0.26607133093367541 0 0.4505174379829241 -0.28129749356031553 0 0.47049125528015151 -0.28425818225899341 0 0.46701162532195062 -0.26607133093367541 0 0.4505174379829241 -0.28129749356031553 0 0.46701162532195062 -0.26607133093367541 0 0.44341507665102342 -0.26496361128096618 0 0.4505174379829241 -0.28129749356031553 0 0.44341507665102342 -0.26496361128096618 0 0.43937492885671098 -0.28363092792553252 0 0.42995036545863041 -0.28304468346831979 0 0.44341507665102342 -0.26496361128096618 0 0.4505174379829241 -0.28129749356031553 0 0.44341507665102342 -0.26496361128096618 0 0.43937492885671098 -0.28363092792553252 0 0.4505174379829241 -0.28129749356031553 0 0.43637459654886879 -0.2487720423358421 0 0.45756130748827478 -0.24596736120976431 0 0.44341507665102342 -0.26496361128096618 0 0.45756130748827478 -0.24596736120976431 0 0.44341507665102342 -0.26496361128096618 0 0.43637459654886879 -0.2487720423358421 0 0.44341507665102342 -0.26496361128096618 0 0.44544242498934578 -0.29146029439187521 0 0.4575733650180982 -0.29752458708293789 0 0.44373781935113338 -0.31880961414711262 0 0.44025988551716327 -0.29076647549830342 0 0.44373781935113338 -0.31880961414711262 0 0.4346477099464785 -0.30923364199773368 0 0.44025988551716327 -0.29076647549830342 0 0.44373781935113338 -0.31880961414711262 0 0.44025988551716327 -0.29076647549830342 0 0.44544242498934578 -0.29146029439187521 0 0.44373781935113338 -0.31880961414711262 0 0.4505174379829241 -0.28129749356031553 0 0.44544242498934578 -0.29146029439187521 0 0.4575733650180982 -0.29752458708293789 0 0.44025988551716327 -0.29076647549830342 0 0.44170664371207752 -0.28943093982719342 0 0.43997777620210371 -0.28849178281753418 0 0.44025988551716327 -0.29076647549830342 0 0.43997777620210371 -0.28849178281753418 0 0.44025988551716327 -0.29076647549830342 0 0.44170664371207752 -0.28943093982719342 0 0.44025988551716327 -0.29076647549830342 0 0.44170664371207752 -0.28943093982719342 0 0.44544242498934578 -0.29146029439187521 0 0.44170664371207752 -0.28943093982719342 0 0.44544242498934578 -0.29146029439187521 0 0.44170664371207752 -0.28943093982719342 0 0.43937492885671098 -0.28363092792553252 0 0.4505174379829241 -0.28129749356031553 0 0.44170664371207752 -0.28943093982719342 0 0.43937492885671098 -0.28363092792553252 0 0.43997777620210371 -0.28849178281753418 0 0.43937492885671098 -0.28363092792553252 0 0.43997777620210371 -0.28849178281753418 0 0.44170664371207752 -0.28943093982719342 0 0.43997777620210371 -0.28849178281753418 0 0.44170664371207752 -0.28943093982719342 0 0.4505174379829241 -0.28129749356031553 0 0.44170664371207752 -0.28943093982719342 0 0.4505174379829241 -0.28129749356031553 0 0.44544242498934578 -0.29146029439187521 0 0.4505174379829241 -0.28129749356031553 0 0.4575733650180982 -0.29752458708293789 0 0.4575733650180982 -0.29752458708293789 0 0.47418221594276672 -0.29977767068856143 0 0.47049125528015151 -0.28425818225899341 0 0.4505174379829241 -0.28129749356031553 0 0.4575733650180982 -0.29752458708293789 0 0.47049125528015151 -0.28425818225899341 0 0.4575733650180982 -0.29752458708293789 0 0.47418221594276672 -0.29977767068856143 0 0.4646292920532733 -0.31375168060555991 0 0.4575733650180982 -0.29752458708293789 0 0.4646292920532733 -0.31375168060555991 0 0.4575733650180982 -0.29752458708293789 0 0.4646292920532733 -0.31375168060555991 0 0.44373781935113338 -0.31880961414711262 0 0.47418221594276672 -0.29977767068856143 0 0.48168039739226282 -0.30962351985574682 0 0.4646292920532733 -0.31375168060555991 0 0.48168039739226282 -0.30962351985574682 0 0.4646292920532733 -0.31375168060555991 0 0.47418221594276672 -0.29977767068856143 0 0.48672224489480997 -0.29317021692589462 0 0.48907557686444009 -0.30289050490489788 0 0.47418221594276672 -0.29977767068856143 0 0.48168039739226282 -0.30962351985574682 0 0.48907557686444009 -0.30289050490489788 0 0.47418221594276672 -0.29977767068856143 0 0.47049125528015151 -0.28425818225899341 0 0.48672224489480997 -0.29317021692589462 0 0.48469918575292259 -0.27152811135192212 0 0.47049125528015151 -0.28425818225899341 0 0.48672224489480997 -0.29317021692589462 0 0.5 -0.28222340812574592 0 0.48672224489480997 -0.29317021692589462 0 0.49873150273125277 -0.30549535910593628 0 0.48469918575292259 -0.27152811135192212 0 0.5 -0.28222340812574592 0 0.48672224489480997 -0.29317021692589462 0 0.48168039739226282 -0.30962351985574682 0 0.49873150273125277 -0.30549535910593628 0 0.48168039739226282 -0.30962351985574682 0 0.49873150273125277 -0.30549535910593628 0 0.49261947588877442 -0.31752835435817911 0 0.48168039739226282 -0.30962351985574682 0 0.48907557686444009 -0.30289050490489788 0 0.49873150273125277 -0.30549535910593628 0 0.48672224489480997 -0.29317021692589462 0 0.48907557686444009 -0.30289050490489788 0 0.49873150273125277 -0.30549535910593628 0 0.49261947588877442 -0.31752835435817911 0 0.49999999999998079 -0.32882781057109961 0 0.47427020823268412 -0.33592368546150081 0 0.49999999999998079 -0.32882781057109961 0 0.48978760437621771 -0.37161031277403328 0 0.5 -0.3918199720076061 0 0.49873150273125277 -0.30549535910593628 0 0.49261947588877442 -0.31752835435817911 0 0.49999999999998079 -0.32882781057109961 0 0.49999999999998079 -0.32882781057109961 0 0.47427020823268412 -0.33592368546150081 0 0.49999999999998079 -0.32882781057109961 0 0.47522024495917042 -0.33810856276164181 0 0.48250392466769348 -0.35485943776783779 0 0.49999999999998079 -0.32882781057109961 0 0.47522024495917042 -0.33810856276164181 0 0.47427020823268412 -0.33592368546150081 0 0.47427020823268412 -0.33592368546150081 0 0.46546890483602388 -0.33835094753730482 0 0.47522024495917042 -0.33810856276164181 0 0.46836255994289289 -0.34624650262902679 0 0.47522024495917042 -0.33810856276164181 0 0.46836255994289289 -0.34624650262902679 0 0.46546890483602388 -0.33835094753730482 0 0.47522024495917042 -0.33810856276164181 0 0.47427020823268412 -0.33592368546150081 0 0.46546890483602388 -0.33835094753730482 0 0.47522024495917042 -0.33810856276164181 0 0.47427020823268412 -0.33592368546150081 0 0.47427020823268412 -0.33592368546150081 0 0.4646292920532733 -0.31375168060555991 0 0.48168039739226282 -0.30962351985574682 0 0.49261947588877442 -0.31752835435817911 0 0.47427020823268412 -0.33592368546150081 0 0.48168039739226282 -0.30962351985574682 0 0.47427020823268412 -0.33592368546150081 0 0.4646292920532733 -0.31375168060555991 0 0.49999999999998079 -0.32882781057109961 0 0.48978760437621771 -0.37161031277403328 0 0.48250392466769348 -0.35485943776783779 0 0.48978760437621771 -0.37161031277403328 0 0.48250392466769348 -0.35485943776783779 0 0.48250392466769348 -0.35485943776783779 0 0.47643609205605819 -0.36827574081741649 0 0.46836255994289289 -0.34624650262902679 0 0.47522024495917042 -0.33810856276164181 0 0.48250392466769348 -0.35485943776783779 0 0.46836255994289289 -0.34624650262902679 0 0.47643609205605819 -0.36827574081741649 0 0.46836255994289289 -0.34624650262902679 0 0.47522024495917042 -0.33810856276164181 0 0.48250392466769348 -0.35485943776783779 0 0.47643609205605819 -0.36827574081741649 0 0.4630604167753738 -0.37231027715989762 0 0.46836255994289289 -0.34624650262902679 0 0.47643609205605819 -0.36827574081741649 0 0.4630604167753738 -0.37231027715989762 0 0.46746386963241771 -0.3839155008013449 0 0.48978760437621771 -0.37161031277403328 0 0.48250392466769348 -0.35485943776783779 0 0.47643609205605819 -0.36827574081741649 0 0.4630604167753738 -0.37231027715989762 0 0.46836255994289289 -0.34624650262902679 0 0.44986319454895968 -0.36819949737917101 0 0.46836255994289289 -0.34624650262902679 0 0.44986319454895968 -0.36819949737917101 0 0.4467998887028366 -0.34349957073667481 0 0.46836255994289289 -0.34624650262902679 0 0.44986319454895968 -0.36819949737917101 0 0.43760461365742681 -0.3460354840427432 0 0.44609152130116098 -0.37267530080513223 0 0.44986319454895968 -0.36819949737917101 0 0.4467998887028366 -0.34349957073667481 0 0.43760461365742681 -0.3460354840427432 0 0.44986319454895968 -0.36819949737917101 0 0.4467998887028366 -0.34349957073667481 0 0.43760461365742681 -0.3460354840427432 0 0.4467998887028366 -0.34349957073667481 0 0.43760461365742681 -0.3460354840427432 0 0.44609152130116098 -0.37267530080513223 0 0.43081654770943117 -0.3668004803593653 0 0.43760461365742681 -0.3460354840427432 0 0.44609152130116098 -0.37267530080513223 0 0.44986319454895968 -0.36819949737917101 0 0.44609152130116098 -0.37267530080513223 0 0.44986319454895968 -0.36819949737917101 0 0.47427020823268412 -0.33592368546150081 0 0.4646292920532733 -0.31375168060555991 0 0.463690249050694 -0.3334977517611587 0 0.4646292920532733 -0.31375168060555991 0 0.44373781935113338 -0.31880961414711262 0 0.4646292920532733 -0.31375168060555991 0 0.463690249050694 -0.3334977517611587 0 0.44373781935113338 -0.31880961414711262 0 0.47427020823268412 -0.33592368546150081 0 0.463690249050694 -0.3334977517611587 0 0.46546890483602388 -0.33835094753730482 0 0.463690249050694 -0.3334977517611587 0 0.46546890483602388 -0.33835094753730482 0 0.4467998887028366 -0.34349957073667481 0 0.46546890483602388 -0.33835094753730482 0 0.4467998887028366 -0.34349957073667481 0 0.46836255994289289 -0.34624650262902679 0 0.46546890483602388 -0.33835094753730482 0 0.4467998887028366 -0.34349957073667481 0 0.463690249050694 -0.3334977517611587 0 0.46546890483602388 -0.33835094753730482 0 0.46836255994289289 -0.34624650262902679 0 0.46546890483602388 -0.33835094753730482 0 0.463690249050694 -0.3334977517611587 0 0.4467998887028366 -0.34349957073667481 0 0.44373781935113338 -0.31880961414711262 0 0.4467998887028366 -0.34349957073667481 0 0.43962006253642338 -0.33185516035235829 0 0.44373781935113338 -0.31880961414711262 0 0.4467998887028366 -0.34349957073667481 0 0.44373781935113338 -0.31880961414711262 0 0.43760461365742681 -0.3460354840427432 0 0.4467998887028366 -0.34349957073667481 0 0.43962006253642338 -0.33185516035235829 0 0.43962006253642338 -0.33185516035235829 0 0.44373781935113338 -0.31880961414711262 0 0.42999127015594069 -0.32213772477130809 0 0.42999127015594069 -0.32213772477130809 0 0.42132024737634732 -0.31775192417023101 0 0.42460186476167622 -0.30522075357420969 0 0.42999127015594069 -0.32213772477130809 0 0.42460186476167622 -0.30522075357420969 0 0.44373781935113338 -0.31880961414711262 0 0.42999127015594069 -0.32213772477130809 0 0.4346477099464785 -0.30923364199773368 0 0.42999127015594069 -0.32213772477130809 0 0.41614216997681452 -0.32549066351885841 0 0.42999127015594069 -0.32213772477130809 0 0.42132024737634732 -0.31775192417023101 0 0.41614216997681452 -0.32549066351885841 0 0.42999127015594069 -0.32213772477130809 0 0.42614406576740732 -0.33652497477908772 0 0.41614216997681452 -0.32549066351885841 0 0.44373781935113338 -0.31880961414711262 0 0.42999127015594069 -0.32213772477130809 0 0.43760461365742681 -0.3460354840427432 0 0.43962006253642338 -0.33185516035235829 0 0.42999127015594069 -0.32213772477130809 0 0.43760461365742681 -0.3460354840427432 0 0.42999127015594069 -0.32213772477130809 0 0.42614406576740732 -0.33652497477908772 0 0.43760461365742681 -0.3460354840427432 0 0.42999127015594069 -0.32213772477130809 0 0.42614406576740732 -0.33652497477908772 0 0.41348186304536821 -0.33673825983944461 0 0.41614216997681452 -0.32549066351885841 0 0.42614406576740732 -0.33652497477908772 0 0.41348186304536821 -0.33673825983944461 0 0.41154378076242681 -0.35322265490813998 0 0.41348186304536821 -0.33673825983944461 0 0.41154378076242681 -0.35322265490813998 0 0.40208366094629028 -0.33504762814279559 0 0.41348186304536821 -0.33673825983944461 0 0.40969458309026052 -0.32627852392331469 0 0.40208366094629028 -0.33504762814279559 0 0.41348186304536821 -0.33673825983944461 0 0.40969458309026052 -0.32627852392331469 0 0.41614216997681452 -0.32549066351885841 0 0.40969458309026052 -0.32627852392331469 0 0.41294756737456262 -0.31597910278342511 0 0.41614216997681452 -0.32549066351885841 0 0.40969458309026052 -0.32627852392331469 0 0.41294756737456262 -0.31597910278342511 0 0.40381765410826731 -0.31813696533204988 0 0.41294756737456262 -0.31597910278342511 0 0.42132024737634732 -0.31775192417023101 0 0.41614216997681452 -0.32549066351885841 0 0.41294756737456262 -0.31597910278342511 0 0.42132024737634732 -0.31775192417023101 0 0.42460186476167622 -0.30522075357420969 0 0.44609152130116098 -0.37267530080513223 0 0.43081654770943117 -0.3668004803593653 0 0.43529617377440932 -0.38548602174253632 0 0.43081654770943117 -0.3668004803593653 0 0.4180389528833508 -0.37117968205262519 0 0.42555051541710359 -0.37889722187975811 0 0.43760461365742681 -0.3460354840427432 0 0.43081654770943117 -0.3668004803593653 0 0.41154378076242681 -0.35322265490813998 0 0.43760461365742681 -0.3460354840427432 0 0.42614406576740732 -0.33652497477908772 0 0.41154378076242681 -0.35322265490813998 0 0.43760461365742681 -0.3460354840427432 0 0.41154378076242681 -0.35322265490813998 0 0.43081654770943117 -0.3668004803593653 0 0.41154378076242681 -0.35322265490813998 0 0.4180389528833508 -0.37117968205262519 0 0.41154378076242681 -0.35322265490813998 0 0.4180389528833508 -0.37117968205262519 0 0.40061488522017358 -0.37510315295882152 0 0.41154378076242681 -0.35322265490813998 0 0.38548294786742648 -0.36040982577353542 0 0.40061488522017358 -0.37510315295882152 0 0.38548294786742648 -0.36040982577353542 0 0.40061488522017358 -0.37510315295882152 0 0.41154378076242681 -0.35322265490813998 0 0.38548294786742648 -0.36040982577353542 0 0.41154378076242681 -0.35322265490813998 0 0.38548294786742648 -0.36040982577353542 0 0.38637895410634809 -0.34155450389510539 0 0.38637895410634809 -0.34155450389510539 0 0.36894025410442649 -0.36497204245815901 0 0.38637895410634809 -0.34155450389510539 0 0.37692571126343072 -0.33987807519850372 0 0.36894025410442649 -0.36497204245815901 0 0.38286653460254177 -0.3578692511427588 0 0.38637895410634809 -0.34155450389510539 0 0.36894025410442649 -0.36497204245815901 0 0.38286653460254177 -0.3578692511427588 0 0.38548294786742648 -0.36040982577353542 0 0.38637895410634809 -0.34155450389510539 0 0.38286653460254177 -0.3578692511427588 0 0.38548294786742648 -0.36040982577353542 0 0.38548294786742648 -0.36040982577353542 0 0.38095696074420982 -0.37701943257773612 0 0.36894025410442649 -0.36497204245815901 0 0.38548294786742648 -0.36040982577353542 0 0.36894025410442649 -0.36497204245815901 0 0.38548294786742648 -0.36040982577353542 0 0.40061488522017358 -0.37510315295882152 0 0.38095696074420982 -0.37701943257773612 0 0.38286653460254177 -0.3578692511427588 0 0.38548294786742648 -0.36040982577353542 0 0.36894025410442649 -0.36497204245815901 0 0.40969458309026052 -0.32627852392331469 0 0.40381765410826731 -0.31813696533204988 0 0.40208366094629028 -0.33504762814279559 0 0.40381765410826731 -0.31813696533204988 0 0.38438275322787419 -0.32324503618679201 0 0.38481696096339529 -0.30761447498030892 0 0.40381765410826731 -0.31813696533204988 0 0.38637895410634809 -0.34155450389510539 0 0.38438275322787419 -0.32324503618679201 0 0.41154378076242681 -0.35322265490813998 0 0.40208366094629028 -0.33504762814279559 0 0.38637895410634809 -0.34155450389510539 0 0.40381765410826731 -0.31813696533204988 0 0.40208366094629028 -0.33504762814279559 0 0.38637895410634809 -0.34155450389510539 0 0.40381765410826731 -0.31813696533204988 0 0.38637895410634809 -0.34155450389510539 0 0.38637895410634809 -0.34155450389510539 0 0.376025220087704 -0.33225825256939812 0 0.38438275322787419 -0.32324503618679201 0 0.38637895410634809 -0.34155450389510539 0 0.37692571126343072 -0.33987807519850372 0 0.376025220087704 -0.33225825256939812 0 0.38438275322787419 -0.32324503618679201 0 0.37832160070080501 -0.31602670513921283 0 0.38481696096339529 -0.30761447498030892 0 0.376025220087704 -0.33225825256939812 0 0.38438275322787419 -0.32324503618679201 0 0.37168495220229308 -0.3225073171861001 0 0.38438275322787419 -0.32324503618679201 0 0.37832160070080501 -0.31602670513921283 0 0.37168495220229308 -0.3225073171861001 0 0.37832160070080501 -0.31602670513921283 0 0.38481696096339529 -0.30761447498030892 0 0.36980470318797282 -0.3119888431028443 0 0.38481696096339529 -0.30761447498030892 0 0.37618451026962602 -0.29209478490374308 0 0.36913946469633457 -0.30150630789773197 0 0.38481696096339529 -0.30761447498030892 0 0.38867052247403711 -0.29201525594599359 0 0.37618451026962602 -0.29209478490374308 0 0.40381765410826731 -0.31813696533204988 0 0.38481696096339529 -0.30761447498030892 0 0.39990484876598942 -0.3001765600009767 0 0.38481696096339529 -0.30761447498030892 0 0.39990484876598942 -0.3001765600009767 0 0.38867052247403711 -0.29201525594599359 0 0.39990484876598942 -0.3001765600009767 0 0.40051112383172832 -0.28454138998041728 0 0.38867052247403711 -0.29201525594599359 0 0.38867052247403711 -0.29201525594599359 0 0.37618451026962602 -0.29209478490374308 0 0.38193516853944648 -0.27564906986452209 0 0.40051112383172832 -0.28454138998041728 0 0.38867052247403711 -0.29201525594599359 0 0.38193516853944648 -0.27564906986452209 0 0.38193516853944648 -0.27564906986452209 0 0.37584018395849278 -0.25365090056906742 0 0.37063035463472233 -0.26796163047783239 0 0.37584018395849278 -0.25365090056906742 0 0.39538968963312121 -0.26427060114401862 0 0.39136548062033399 -0.24609591735807471 0 0.37584018395849278 -0.25365090056906742 0 0.39538968963312121 -0.26427060114401862 0 0.38193516853944648 -0.27564906986452209 0 0.37584018395849278 -0.25365090056906742 0 0.39538968963312121 -0.26427060114401862 0 0.39136548062033399 -0.24609591735807471 0 0.39538968963312121 -0.26427060114401862 0 0.40806358395916381 -0.25330823270812758 0 0.39538968963312121 -0.26427060114401862 0 0.41493919530774931 -0.27489030171897022 0 0.40806358395916381 -0.25330823270812758 0 0.40051112383172832 -0.28454138998041728 0 0.38193516853944648 -0.27564906986452209 0 0.39538968963312121 -0.26427060114401862 0 0.39538968963312121 -0.26427060114401862 0 0.41493919530774931 -0.27489030171897022 0 0.40051112383172832 -0.28454138998041728 0 0.39538968963312121 -0.26427060114401862 0 0.41493919530774931 -0.27489030171897022 0 0.42012879376752288 -0.24563249643089871 0 0.40806358395916381 -0.25330823270812758 0 0.42568369927228772 -0.26177557002252128 0 0.41493919530774931 -0.27489030171897022 0 0.40806358395916381 -0.25330823270812758 0 0.42568369927228772 -0.26177557002252128 0 0.41493919530774931 -0.27489030171897022 0 0.40806358395916381 -0.25330823270812758 0 0.43637459654886879 -0.2487720423358421 0 0.42012879376752288 -0.24563249643089871 0 0.42568369927228772 -0.26177557002252128 0 0.43637459654886879 -0.2487720423358421 0 0.44341507665102342 -0.26496361128096618 0 0.42568369927228772 -0.26177557002252128 0 0.44341507665102342 -0.26496361128096618 0 0.42568369927228772 -0.26177557002252128 0 0.42995036545863041 -0.28304468346831979 0 0.41493919530774931 -0.27489030171897022 0 0.42568369927228772 -0.26177557002252128 0 0.42995036545863041 -0.28304468346831979 0 0.44341507665102342 -0.26496361128096618 0 0.42995036545863041 -0.28304468346831979 0 0.41493919530774931 -0.27489030171897022 0 0.42995036545863041 -0.28304468346831979 0 0.43997777620210371 -0.28849178281753418 0 0.42995036545863041 -0.28304468346831979 0 0.43937492885671098 -0.28363092792553252 0 0.43997777620210371 -0.28849178281753418 0 0.42995036545863041 -0.28304468346831979 0 0.44025988551716327 -0.29076647549830342 0 0.43120924920995218 -0.29244862442547243 0 0.42460186476167622 -0.30522075357420969 0 0.41493919530774931 -0.27489030171897022 0 0.42995036545863041 -0.28304468346831979 0 0.4212563541101832 -0.29471942676899188 0 0.43997777620210371 -0.28849178281753418 0 0.42995036545863041 -0.28304468346831979 0 0.43120924920995218 -0.29244862442547243 0 0.42995036545863041 -0.28304468346831979 0 0.4212563541101832 -0.29471942676899188 0 0.42995036545863041 -0.28304468346831979 0 0.43120924920995218 -0.29244862442547243 0 0.4212563541101832 -0.29471942676899188 0 0.44025988551716327 -0.29076647549830342 0 0.43997777620210371 -0.28849178281753418 0 0.43120924920995218 -0.29244862442547243 0 0.44025988551716327 -0.29076647549830342 0 0.42460186476167622 -0.30522075357420969 0 0.42999127015594069 -0.32213772477130809 0 0.4346477099464785 -0.30923364199773368 0 0.42460186476167622 -0.30522075357420969 0 0.44025988551716327 -0.29076647549830342 0 0.4346477099464785 -0.30923364199773368 0 0.42460186476167622 -0.30522075357420969 0 0.43120924920995218 -0.29244862442547243 0 0.42460186476167622 -0.30522075357420969 0 0.4212563541101832 -0.29471942676899188 0 0.42460186476167622 -0.30522075357420969 0 0.4212563541101832 -0.29471942676899188 0 0.41294756737456262 -0.31597910278342511 0 0.42460186476167622 -0.30522075357420969 0 0.4212563541101832 -0.29471942676899188 0 0.40381765410826731 -0.31813696533204988 0 0.39990484876598942 -0.3001765600009767 0 0.4212563541101832 -0.29471942676899188 0 0.40381765410826731 -0.31813696533204988 0 0.4212563541101832 -0.29471942676899188 0 0.41294756737456262 -0.31597910278342511 0 0.40381765410826731 -0.31813696533204988 0 0.4212563541101832 -0.29471942676899188 0 0.41294756737456262 -0.31597910278342511 0 0.42460186476167622 -0.30522075357420969 0 0.39990484876598942 -0.3001765600009767 0 0.40051112383172832 -0.28454138998041728 0 0.4212563541101832 -0.29471942676899188 0 0.41493919530774931 -0.27489030171897022 0 0.4212563541101832 -0.29471942676899188 0 0.40051112383172832 -0.28454138998041728 0 0.41493919530774931 -0.27489030171897022 0 0.4212563541101832 -0.29471942676899188 0 0.5 -0.5 0 0.47917334572663672 -0.46932071183553081 0 0.41095859832749182 -0.5 0 0.47917334572663672 -0.46932071183553081 0 0.44153508549671178 -0.46093826651573039 0 0.41095859832749182 -0.5 0 0.5 -0.5 0 0.47917334572663672 -0.46932071183553081 0 0.5 -0.43864142367106168 0 0.47917334572663672 -0.46932071183553081 0 0.46318812630722278 -0.43586266331781348 0 0.48244122207561407 -0.43295592035168401 0 0.47917334572663672 -0.46932071183553081 0 0.5 -0.43864142367106168 0 0.48244122207561407 -0.43295592035168401 0 0.47917334572663672 -0.46932071183553081 0 0.44153508549671178 -0.46093826651573039 0 0.46318812630722278 -0.43586266331781348 0 0.44153508549671178 -0.46093826651573039 0 0.46318812630722278 -0.43586266331781348 0 0.43550692642380828 -0.43758590869202918 0 0.44384447627743989 -0.41707970299887681 0 0.46318812630722278 -0.43586266331781348 0 0.43550692642380828 -0.43758590869202918 0 0.44384447627743989 -0.41707970299887681 0 0.44878381055497002 -0.40314881322601742 0 0.43909826247045752 -0.39928614077511909 0 0.44384447627743989 -0.41707970299887681 0 0.4550548897622857 -0.41006096905745298 0 0.44878381055497002 -0.40314881322601742 0 0.4550548897622857 -0.41006096905745298 0 0.46318812630722278 -0.43586266331781348 0 0.47128906336608711 -0.41743088403826101 0 0.4550548897622857 -0.41006096905745298 0 0.47128906336608711 -0.41743088403826101 0 0.46341471799275757 -0.40431079162262479 0 0.44384447627743989 -0.41707970299887681 0 0.4550548897622857 -0.41006096905745298 0 0.46318812630722278 -0.43586266331781348 0 0.44384447627743989 -0.41707970299887681 0 0.46318812630722278 -0.43586266331781348 0 0.5 -0.43864142367106168 0 0.49258315628238769 -0.41233421719419627 0 0.5 -0.3918199720076061 0 0.46318812630722278 -0.43586266331781348 0 0.48244122207561407 -0.43295592035168401 0 0.47128906336608711 -0.41743088403826101 0 0.5 -0.43864142367106168 0 0.48244122207561407 -0.43295592035168401 0 0.49258315628238769 -0.41233421719419627 0 0.48244122207561407 -0.43295592035168401 0 0.49258315628238769 -0.41233421719419627 0 0.47128906336608711 -0.41743088403826101 0 0.49258315628238769 -0.41233421719419627 0 0.47128906336608711 -0.41743088403826101 0 0.47430165935375102 -0.4017344331787554 0 0.47128906336608711 -0.41743088403826101 0 0.47430165935375102 -0.4017344331787554 0 0.46341471799275757 -0.40431079162262479 0 0.49258315628238769 -0.41233421719419627 0 0.47430165935375102 -0.4017344331787554 0 0.48450962416922289 -0.39030497900580641 0 0.47430165935375102 -0.4017344331787554 0 0.47252381208683308 -0.39242951357442002 0 0.46382009519194078 -0.39376314131177348 0 0.47430165935375102 -0.4017344331787554 0 0.47252381208683308 -0.39242951357442002 0 0.48450962416922289 -0.39030497900580641 0 0.49258315628238769 -0.41233421719419627 0 0.48450962416922289 -0.39030497900580641 0 0.49258315628238769 -0.41233421719419627 0 0.5 -0.3918199720076061 0 0.48450962416922289 -0.39030497900580641 0 0.48978760437621771 -0.37161031277403328 0 0.5 -0.3918199720076061 0 0.48450962416922289 -0.39030497900580641 0 0.48978760437621771 -0.37161031277403328 0 0.47643609205605819 -0.36827574081741649 0 0.48450962416922289 -0.39030497900580641 0 0.47643609205605819 -0.36827574081741649 0 0.48450962416922289 -0.39030497900580641 0 0.46746386963241771 -0.3839155008013449 0 0.47252381208683308 -0.39242951357442002 0 0.48450962416922289 -0.39030497900580641 0 0.46746386963241771 -0.3839155008013449 0 0.47643609205605819 -0.36827574081741649 0 0.48450962416922289 -0.39030497900580641 0 0.4630604167753738 -0.37231027715989762 0 0.44986319454895968 -0.36819949737917101 0 0.45317636769654229 -0.39491414417252918 0 0.4630604167753738 -0.37231027715989762 0 0.46746386963241771 -0.3839155008013449 0 0.45317636769654229 -0.39491414417252918 0 0.47252381208683308 -0.39242951357442002 0 0.46746386963241771 -0.3839155008013449 0 0.46382009519194078 -0.39376314131177348 0 0.46746386963241771 -0.3839155008013449 0 0.46382009519194078 -0.39376314131177348 0 0.45317636769654229 -0.39491414417252918 0 0.47430165935375102 -0.4017344331787554 0 0.46382009519194078 -0.39376314131177348 0 0.46341471799275757 -0.40431079162262479 0 0.4550548897622857 -0.41006096905745298 0 0.46341471799275757 -0.40431079162262479 0 0.45338125285453279 -0.39656616608177059 0 0.4550548897622857 -0.41006096905745298 0 0.45338125285453279 -0.39656616608177059 0 0.46382009519194078 -0.39376314131177348 0 0.46341471799275757 -0.40431079162262479 0 0.45338125285453279 -0.39656616608177059 0 0.46382009519194078 -0.39376314131177348 0 0.45338125285453279 -0.39656616608177059 0 0.45317636769654229 -0.39491414417252918 0 0.45338125285453279 -0.39656616608177059 0 0.45317636769654229 -0.39491414417252918 0 0.45317636769654229 -0.39491414417252918 0 0.44878381055497002 -0.40314881322601742 0 0.44306602549781132 -0.39241942322822498 0 0.45338125285453279 -0.39656616608177059 0 0.45317636769654229 -0.39491414417252918 0 0.44878381055497002 -0.40314881322601742 0 0.4550548897622857 -0.41006096905745298 0 0.45338125285453279 -0.39656616608177059 0 0.44878381055497002 -0.40314881322601742 0 0.44878381055497002 -0.40314881322601742 0 0.43909826247045752 -0.39928614077511909 0 0.44306602549781132 -0.39241942322822498 0 0.43909826247045752 -0.39928614077511909 0 0.44306602549781132 -0.39241942322822498 0 0.43529617377440932 -0.38548602174253632 0 0.44609152130116098 -0.37267530080513223 0 0.44986319454895968 -0.36819949737917101 0 0.45317636769654229 -0.39491414417252918 0 0.44609152130116098 -0.37267530080513223 0 0.44306602549781132 -0.39241942322822498 0 0.43529617377440932 -0.38548602174253632 0 0.44986319454895968 -0.36819949737917101 0 0.45317636769654229 -0.39491414417252918 0 0.44609152130116098 -0.37267530080513223 0 0.45317636769654229 -0.39491414417252918 0 0.44609152130116098 -0.37267530080513223 0 0.45317636769654229 -0.39491414417252918 0 0.44306602549781132 -0.39241942322822498 0 0.44609152130116098 -0.37267530080513223 0 0.43529617377440932 -0.38548602174253632 0 0.43081654770943117 -0.3668004803593653 0 0.42555051541710359 -0.37889722187975811 0 0.43529617377440932 -0.38548602174253632 0 0.42269368697315829 -0.3896180482633379 0 0.42555051541710359 -0.37889722187975811 0 0.43529617377440932 -0.38548602174253632 0 0.43909826247045752 -0.39928614077511909 0 0.43529617377440932 -0.38548602174253632 0 0.42450082624765723 -0.39829674267993997 0 0.43529617377440932 -0.38548602174253632 0 0.42450082624765723 -0.39829674267993997 0 0.44384447627743989 -0.41707970299887681 0 0.43909826247045752 -0.39928614077511909 0 0.42450082624765723 -0.39829674267993997 0 0.42269368697315829 -0.3896180482633379 0 0.43529617377440932 -0.38548602174253632 0 0.42450082624765723 -0.39829674267993997 0 0.42269368697315829 -0.3896180482633379 0 0.42450082624765723 -0.39829674267993997 0 0.41574682257292078 -0.3897964801441075 0 0.42450082624765723 -0.39829674267993997 0 0.41574682257292078 -0.3897964801441075 0 0.42450082624765723 -0.39829674267993997 0 0.41574682257292078 -0.3897964801441075 0 0.40486880745520881 -0.40216982559616499 0 0.4180389528833508 -0.37117968205262519 0 0.41652897261334138 -0.38091891705973019 0 0.40061488522017358 -0.37510315295882152 0 0.41574682257292078 -0.3897964801441075 0 0.41652897261334138 -0.38091891705973019 0 0.40061488522017358 -0.37510315295882152 0 0.42269368697315829 -0.3896180482633379 0 0.42555051541710359 -0.37889722187975811 0 0.41652897261334138 -0.38091891705973019 0 0.42269368697315829 -0.3896180482633379 0 0.41574682257292078 -0.3897964801441075 0 0.41652897261334138 -0.38091891705973019 0 0.42269368697315829 -0.3896180482633379 0 0.41574682257292078 -0.3897964801441075 0 0.4180389528833508 -0.37117968205262519 0 0.42555051541710359 -0.37889722187975811 0 0.41652897261334138 -0.38091891705973019 0 0.41574682257292078 -0.3897964801441075 0 0.40061488522017358 -0.37510315295882152 0 0.41574682257292078 -0.3897964801441075 0 0.39355808729571767 -0.39036640313947241 0 0.41574682257292078 -0.3897964801441075 0 0.39355808729571767 -0.39036640313947241 0 0.40061488522017358 -0.37510315295882152 0 0.39355808729571767 -0.39036640313947241 0 0.40061488522017358 -0.37510315295882152 0 0.38095696074420982 -0.37701943257773612 0 0.39355808729571767 -0.39036640313947241 0 0.38095696074420982 -0.37701943257773612 0 0.37136935201851468 -0.39093632613483847 0 0.39355808729571767 -0.39036640313947241 0 0.3816575174428648 -0.41353041209128139 0 0.37136935201851468 -0.39093632613483847 0 0.39355808729571767 -0.39036640313947241 0 0.37136935201851468 -0.39093632613483847 0 0.39355808729571767 -0.39036640313947241 0 0.40486880745520881 -0.40216982559616499 0 0.3816575174428648 -0.41353041209128139 0 0.41574682257292078 -0.3897964801441075 0 0.39355808729571767 -0.39036640313947241 0 0.40486880745520881 -0.40216982559616499 0 0.40486880745520881 -0.40216982559616499 0 0.3816575174428648 -0.41353041209128139 0 0.40753229386504419 -0.41843311462464688 0 0.3816575174428648 -0.41353041209128139 0 0.39056376148242938 -0.43856948656935218 0 0.36819875116934048 -0.437291959503114 0 0.3816575174428648 -0.41353041209128139 0 0.40753229386504419 -0.41843311462464688 0 0.39056376148242938 -0.43856948656935218 0 0.40753229386504419 -0.41843311462464688 0 0.39056376148242938 -0.43856948656935218 0 0.40753229386504419 -0.41843311462464688 0 0.41171347723642621 -0.43917423073729628 0 0.39056376148242938 -0.43856948656935218 0 0.40753229386504419 -0.41843311462464688 0 0.42530438803167259 -0.41778236343239311 0 0.41171347723642621 -0.43917423073729628 0 0.42450082624765723 -0.39829674267993997 0 0.40486880745520881 -0.40216982559616499 0 0.40753229386504419 -0.41843311462464688 0 0.42450082624765723 -0.39829674267993997 0 0.40753229386504419 -0.41843311462464688 0 0.42450082624765723 -0.39829674267993997 0 0.40753229386504419 -0.41843311462464688 0 0.42530438803167259 -0.41778236343239311 0 0.44384447627743989 -0.41707970299887681 0 0.42450082624765723 -0.39829674267993997 0 0.44384447627743989 -0.41707970299887681 0 0.42450082624765723 -0.39829674267993997 0 0.42530438803167259 -0.41778236343239311 0 0.44384447627743989 -0.41707970299887681 0 0.42530438803167259 -0.41778236343239311 0 0.43550692642380828 -0.43758590869202918 0 0.42530438803167259 -0.41778236343239311 0 0.43550692642380828 -0.43758590869202918 0 0.41171347723642621 -0.43917423073729628 0 0.38540853808961051 -0.46201060132141519 0 0.41095859832749182 -0.5 0 0.34658346325390887 -0.5 0 0.43550692642380828 -0.43758590869202918 0 0.41884843069839961 -0.46192204873327852 0 0.41171347723642621 -0.43917423073729628 0 0.44153508549671178 -0.46093826651573039 0 0.43550692642380828 -0.43758590869202918 0 0.41884843069839961 -0.46192204873327852 0 0.41171347723642621 -0.43917423073729628 0 0.39056376148242938 -0.43856948656935218 0 0.38540853808961051 -0.46201060132141519 0 0.41884843069839961 -0.46192204873327852 0 0.41171347723642621 -0.43917423073729628 0 0.38540853808961051 -0.46201060132141519 0 0.39056376148242938 -0.43856948656935218 0 0.38540853808961051 -0.46201060132141519 0 0.36819875116934048 -0.437291959503114 0 0.41884843069839961 -0.46192204873327852 0 0.38540853808961051 -0.46201060132141519 0 0.41095859832749182 -0.5 0 0.44153508549671178 -0.46093826651573039 0 0.41884843069839961 -0.46192204873327852 0 0.41095859832749182 -0.5 0 0.32242542588419842 -0.4735541458955807 0 0.34658346325390887 -0.5 0 0.29574619246442319 -0.48903750566983362 0 0.32242542588419842 -0.4735541458955807 0 0.34658346325390887 -0.5 0 0.35119411177591348 -0.45617475320917911 0 0.32242542588419842 -0.4735541458955807 0 0.31066231220331608 -0.46378019143833421 0 0.30521861875062389 -0.47365214338674477 0 0.38540853808961051 -0.46201060132141519 0 0.34658346325390887 -0.5 0 0.35119411177591348 -0.45617475320917911 0 0.38540853808961051 -0.46201060132141519 0 0.35119411177591348 -0.45617475320917911 0 0.36819875116934048 -0.437291959503114 0 0.35119411177591348 -0.45617475320917911 0 0.34487375248456897 -0.43402116992470458 0 0.36819875116934048 -0.437291959503114 0 0.35119411177591348 -0.45617475320917911 0 0.33475476128188292 -0.44265598066333472 0 0.3265414888132821 -0.45424936328424459 0 0.33475476128188292 -0.44265598066333472 0 0.3265414888132821 -0.45424936328424459 0 0.32359269916810912 -0.43473215945440202 0 0.35119411177591348 -0.45617475320917911 0 0.33475476128188292 -0.44265598066333472 0 0.34487375248456897 -0.43402116992470458 0 0.32242542588419842 -0.4735541458955807 0 0.35119411177591348 -0.45617475320917911 0 0.3265414888132821 -0.45424936328424459 0 0.32242542588419842 -0.4735541458955807 0 0.3265414888132821 -0.45424936328424459 0 0.31066231220331608 -0.46378019143833421 0 0.3265414888132821 -0.45424936328424459 0 0.30862447638588131 -0.44596701631110441 0 0.31066231220331608 -0.46378019143833421 0 0.3265414888132821 -0.45424936328424459 0 0.32359269916810912 -0.43473215945440202 0 0.30862447638588131 -0.44596701631110441 0 0.32520840832120668 -0.42369730207897988 0 0.30862447638588131 -0.44596701631110441 0 0.32520840832120668 -0.42369730207897988 0 0.30919806308703329 -0.42606485236559472 0 0.30862447638588131 -0.44596701631110441 0 0.32520840832120668 -0.42369730207897988 0 0.32359269916810912 -0.43473215945440202 0 0.30862447638588131 -0.44596701631110441 0 0.32520840832120668 -0.42369730207897988 0 0.32359269916810912 -0.43473215945440202 0 0.32520840832120668 -0.42369730207897988 0 0.32359269916810912 -0.43473215945440202 0 0.33283447701140428 -0.43134562697126583 0 0.31401746803774938 -0.41425678610104472 0 0.32737331794035651 -0.40891155377018429 0 0.30633084570166319 -0.40102944525800921 0 0.32520840832120668 -0.42369730207897988 0 0.31401746803774938 -0.41425678610104472 0 0.30919806308703329 -0.42606485236559472 0 0.32520840832120668 -0.42369730207897988 0 0.31401746803774938 -0.41425678610104472 0 0.32737331794035651 -0.40891155377018429 0 0.32520840832120668 -0.42369730207897988 0 0.32737331794035651 -0.40891155377018429 0 0.32520840832120668 -0.42369730207897988 0 0.33428981722869772 -0.41150234240454309 0 0.32520840832120668 -0.42369730207897988 0 0.32737331794035651 -0.40891155377018429 0 0.33428981722869772 -0.41150234240454309 0 0.32520840832120668 -0.42369730207897988 0 0.33428981722869772 -0.41150234240454309 0 0.33828593867039208 -0.42378591575449009 0 0.33428981722869772 -0.41150234240454309 0 0.33828593867039208 -0.42378591575449009 0 0.35549482574065622 -0.4194453339027519 0 0.32737331794035651 -0.40891155377018429 0 0.33428981722869772 -0.41150234240454309 0 0.32520840832120668 -0.42369730207897988 0 0.33828593867039208 -0.42378591575449009 0 0.33283447701140428 -0.43134562697126583 0 0.33475476128188292 -0.44265598066333472 0 0.32359269916810912 -0.43473215945440202 0 0.33283447701140428 -0.43134562697126583 0 0.33475476128188292 -0.44265598066333472 0 0.33283447701140428 -0.43134562697126583 0 0.34487375248456897 -0.43402116992470458 0 0.33828593867039208 -0.42378591575449009 0 0.33283447701140428 -0.43134562697126583 0 0.34487375248456897 -0.43402116992470458 0 0.34487375248456897 -0.43402116992470458 0 0.36819875116934048 -0.437291959503114 0 0.35549482574065622 -0.4194453339027519 0 0.33828593867039208 -0.42378591575449009 0 0.34487375248456897 -0.43402116992470458 0 0.35549482574065622 -0.4194453339027519 0 0.3816575174428648 -0.41353041209128139 0 0.36819875116934048 -0.437291959503114 0 0.35549482574065622 -0.4194453339027519 0 0.3816575174428648 -0.41353041209128139 0 0.35549482574065622 -0.4194453339027519 0 0.36157263329328859 -0.40446056912931228 0 0.33428981722869772 -0.41150234240454309 0 0.35549482574065622 -0.4194453339027519 0 0.33428981722869772 -0.41150234240454309 0 0.35549482574065622 -0.4194453339027519 0 0.35016085452309559 -0.40688452438748512 0 0.35549482574065622 -0.4194453339027519 0 0.35016085452309559 -0.40688452438748512 0 0.36157263329328859 -0.40446056912931228 0 0.33428981722869772 -0.41150234240454309 0 0.35016085452309559 -0.40688452438748512 0 0.34918061674131168 -0.39150624913020599 0 0.35016085452309559 -0.40688452438748512 0 0.34918061674131168 -0.39150624913020599 0 0.36157263329328859 -0.40446056912931228 0 0.34918061674131168 -0.39150624913020599 0 0.37136935201851468 -0.39093632613483847 0 0.36157263329328859 -0.40446056912931228 0 0.3816575174428648 -0.41353041209128139 0 0.37136935201851468 -0.39093632613483847 0 0.36157263329328859 -0.40446056912931228 0 0.34918061674131168 -0.39150624913020599 0 0.37136935201851468 -0.39093632613483847 0 0.38095696074420982 -0.37701943257773612 0 0.37136935201851468 -0.39093632613483847 0 0.35906043542287142 -0.37823914579418422 0 0.34918061674131168 -0.39150624913020599 0 0.37136935201851468 -0.39093632613483847 0 0.35906043542287142 -0.37823914579418422 0 0.34918061674131168 -0.39150624913020599 0 0.35906043542287142 -0.37823914579418422 0 0.34918061674131168 -0.39150624913020599 0 0.35906043542287142 -0.37823914579418422 0 0.34363088674333558 -0.3803386972909259 0 0.35906043542287142 -0.37823914579418422 0 0.34363088674333558 -0.3803386972909259 0 0.35063437744994652 -0.37002051745842479 0 0.33232850079546811 -0.37506899245869663 0 0.32984907748805592 -0.39200278435939218 0 0.32313289697127512 -0.38553278932670798 0 0.33232850079546811 -0.37506899245869663 0 0.32984907748805592 -0.39200278435939218 0 0.34918061674131168 -0.39150624913020599 0 0.34363088674333558 -0.3803386972909259 0 0.32984907748805592 -0.39200278435939218 0 0.34363088674333558 -0.3803386972909259 0 0.33232850079546811 -0.37506899245869663 0 0.32984907748805592 -0.39200278435939218 0 0.34363088674333558 -0.3803386972909259 0 0.33232850079546811 -0.37506899245869663 0 0.35063437744994652 -0.37002051745842479 0 0.34918061674131168 -0.39150624913020599 0 0.32984907748805592 -0.39200278435939218 0 0.32737331794035651 -0.40891155377018429 0 0.33428981722869772 -0.41150234240454309 0 0.32984907748805592 -0.39200278435939218 0 0.33428981722869772 -0.41150234240454309 0 0.34918061674131168 -0.39150624913020599 0 0.32737331794035651 -0.40891155377018429 0 0.32984907748805592 -0.39200278435939218 0 0.33428981722869772 -0.41150234240454309 0 0.34918061674131168 -0.39150624913020599 0 0.32984907748805592 -0.39200278435939218 0 0.32737331794035651 -0.40891155377018429 0 0.31886965569092479 -0.39854754444582691 0 0.30633084570166319 -0.40102944525800921 0 0.32737331794035651 -0.40891155377018429 0 0.30633084570166319 -0.40102944525800921 0 0.32984907748805592 -0.39200278435939218 0 0.31886965569092479 -0.39854754444582691 0 0.30756872547551339 -0.39257506055261199 0 0.32984907748805592 -0.39200278435939218 0 0.30756872547551339 -0.39257506055261199 0 0.32737331794035651 -0.40891155377018429 0 0.32984907748805592 -0.39200278435939218 0 0.31886965569092479 -0.39854754444582691 0 0.32984907748805592 -0.39200278435939218 0 0.31593403806254361 -0.38675390230744888 0 0.30756872547551339 -0.39257506055261199 0 0.32372591154252112 -0.37744145227588088 0 0.30759598899942259 -0.38188983310200009 0 0.31593403806254361 -0.38675390230744888 0 0.32372591154252112 -0.37744145227588088 0 0.30759598899942259 -0.38188983310200009 0 0.33232850079546811 -0.37506899245869663 0 0.32372591154252112 -0.37744145227588088 0 0.32313289697127512 -0.38553278932670798 0 0.33232850079546811 -0.37506899245869663 0 0.32372591154252112 -0.37744145227588088 0 0.32372591154252112 -0.37744145227588088 0 0.32313289697127512 -0.38553278932670798 0 0.31593403806254361 -0.38675390230744888 0 0.32372591154252112 -0.37744145227588088 0 0.32313289697127512 -0.38553278932670798 0 0.32984907748805592 -0.39200278435939218 0 0.31593403806254361 -0.38675390230744888 0 0.32313289697127512 -0.38553278932670798 0 0.30759598899942259 -0.38188983310200009 0 0.29146606645632461 -0.38633821392812129 0 0.30013272425729071 -0.38718538293189142 0 0.30759598899942259 -0.38188983310200009 0 0.29146606645632461 -0.38633821392812129 0 0.30759598899942259 -0.38188983310200009 0 0.29146606645632461 -0.38633821392812129 0 0.2946431056585368 -0.37455380180448922 0 0.30013272425729071 -0.38718538293189142 0 0.30756872547551339 -0.39257506055261199 0 0.2939001160979019 -0.38793842414483187 0 0.30013272425729071 -0.38718538293189142 0 0.30759598899942259 -0.38188983310200009 0 0.30756872547551339 -0.39257506055261199 0 0.31593403806254361 -0.38675390230744888 0 0.30759598899942259 -0.38188983310200009 0 0.30756872547551339 -0.39257506055261199 0 0.30756872547551339 -0.39257506055261199 0 0.30633084570166319 -0.40102944525800921 0 0.28528837346297092 -0.39314733674583202 0 0.31886965569092479 -0.39854754444582691 0 0.30756872547551339 -0.39257506055261199 0 0.30633084570166319 -0.40102944525800921 0 0.30633084570166319 -0.40102944525800921 0 0.29506857196361902 -0.40422353587240528 0 0.30197670513848929 -0.41158077703245699 0 0.30756872547551339 -0.39257506055261199 0 0.28528837346297092 -0.39314733674583202 0 0.30633084570166319 -0.40102944525800921 0 0.28528837346297092 -0.39314733674583202 0 0.30633084570166319 -0.40102944525800921 0 0.29506857196361902 -0.40422353587240528 0 0.28528837346297092 -0.39314733674583202 0 0.30756872547551339 -0.39257506055261199 0 0.28528837346297092 -0.39314733674583202 0 0.2939001160979019 -0.38793842414483187 0 0.29506857196361902 -0.40422353587240528 0 0.28820717704939569 -0.40450529027021509 0 0.28528837346297092 -0.39314733674583202 0 0.28820717704939569 -0.40450529027021509 0 0.27953316241518023 -0.40195331916022869 0 0.28820717704939569 -0.40450529027021509 0 0.28528837346297092 -0.39314733674583202 0 0.27953316241518023 -0.40195331916022869 0 0.28528837346297092 -0.39314733674583202 0 0.28160380994825229 -0.39324197564474561 0 0.27953316241518023 -0.40195331916022869 0 0.28160380994825229 -0.39324197564474561 0 0.28266807079521272 -0.38876456378209889 0 0.28528837346297092 -0.39314733674583202 0 0.28160380994825229 -0.39324197564474561 0 0.28266807079521272 -0.38876456378209889 0 0.28528837346297092 -0.39314733674583202 0 0.28160380994825229 -0.39324197564474561 0 0.28266807079521272 -0.38876456378209889 0 0.29146606645632461 -0.38633821392812129 0 0.28528837346297092 -0.39314733674583202 0 0.28266807079521272 -0.38876456378209889 0 0.29146606645632461 -0.38633821392812129 0 0.28266807079521272 -0.38876456378209889 0 0.29146606645632461 -0.38633821392812129 0 0.28435589242050291 -0.38166379277402929 0 0.28266807079521272 -0.38876456378209889 0 0.28435589242050291 -0.38166379277402929 0 0.29146606645632461 -0.38633821392812129 0 0.28435589242050291 -0.38166379277402929 0 0.28528837346297092 -0.39314733674583202 0 0.29146606645632461 -0.38633821392812129 0 0.2939001160979019 -0.38793842414483187 0 0.30013272425729071 -0.38718538293189142 0 0.29146606645632461 -0.38633821392812129 0 0.2939001160979019 -0.38793842414483187 0 0.29146606645632461 -0.38633821392812129 0 0.2939001160979019 -0.38793842414483187 0 0.29146606645632461 -0.38633821392812129 0 0.28435589242050291 -0.38166379277402929 0 0.2946431056585368 -0.37455380180448922 0 0.28266807079521272 -0.38876456378209889 0 0.28435589242050291 -0.38166379277402929 0 0.26951845753492509 -0.37190926086633003 0 0.28435589242050291 -0.38166379277402929 0 0.26951845753492509 -0.37190926086633003 0 0.27761954194076582 -0.39015686922536802 0 0.26381002411536902 -0.39396531865520268 0 0.26951845753492509 -0.37190926086633003 0 0.28266807079521272 -0.38876456378209889 0 0.27761954194076582 -0.39015686922536802 0 0.26951845753492509 -0.37190926086633003 0 0.26381002411536902 -0.39396531865520268 0 0.26951845753492509 -0.37190926086633003 0 0.28266807079521272 -0.38876456378209889 0 0.27761954194076582 -0.39015686922536802 0 0.25683298514440223 -0.38074033110139821 0 0.26381002411536902 -0.39396531865520268 0 0.26951845753492509 -0.37190926086633003 0 0.25523654392981482 -0.38833463284871489 0 0.25683298514440223 -0.38074033110139821 0 0.26381002411536902 -0.39396531865520268 0 0.25523654392981482 -0.38833463284871489 0 0.25683298514440223 -0.38074033110139821 0 0.2470775265958858 -0.38035131127527161 0 0.25683298514440223 -0.38074033110139821 0 0.25160212449738772 -0.37188527872020077 0 0.2470775265958858 -0.38035131127527161 0 0.25975695928564868 -0.40962541758882293 0 0.24633614840484841 -0.39218646675513258 0 0.25523654392981482 -0.38833463284871489 0 0.26212603538856788 -0.39442973645656909 0 0.24633614840484841 -0.39218646675513258 0 0.26212603538856788 -0.39442973645656909 0 0.26300142986679792 -0.39708953858797102 0 0.24633614840484841 -0.39218646675513258 0 0.26300142986679792 -0.39708953858797102 0 0.25975695928564868 -0.40962541758882293 0 0.24633614840484841 -0.39218646675513258 0 0.26300142986679792 -0.39708953858797102 0 0.24633614840484841 -0.39218646675513258 0 0.25523654392981482 -0.38833463284871489 0 0.26212603538856788 -0.39442973645656909 0 0.26381002411536902 -0.39396531865520268 0 0.26212603538856788 -0.39442973645656909 0 0.26381002411536902 -0.39396531865520268 0 0.26212603538856788 -0.39442973645656909 0 0.26381002411536902 -0.39396531865520268 0 0.26300142986679792 -0.39708953858797102 0 0.26381002411536902 -0.39396531865520268 0 0.26300142986679792 -0.39708953858797102 0 0.26300142986679792 -0.39708953858797102 0 0.26922413964177622 -0.40728301048115828 0 0.25975695928564868 -0.40962541758882293 0 0.26300142986679792 -0.39708953858797102 0 0.25975695928564868 -0.40962541758882293 0 0.26300142986679792 -0.39708953858797102 0 0.27953316241518023 -0.40195331916022869 0 0.26922413964177622 -0.40728301048115828 0 0.26300142986679792 -0.39708953858797102 0 0.2763661854032155 -0.39671387732525099 0 0.27953316241518023 -0.40195331916022869 0 0.26300142986679792 -0.39708953858797102 0 0.27953316241518023 -0.40195331916022869 0 0.26381002411536902 -0.39396531865520268 0 0.26300142986679792 -0.39708953858797102 0 0.27326008027006782 -0.39345628634570751 0 0.27761954194076582 -0.39015686922536802 0 0.26381002411536902 -0.39396531865520268 0 0.27326008027006782 -0.39345628634570751 0 0.26300142986679792 -0.39708953858797102 0 0.27326008027006782 -0.39345628634570751 0 0.2763661854032155 -0.39671387732525099 0 0.27761954194076582 -0.39015686922536802 0 0.26381002411536902 -0.39396531865520268 0 0.28160380994825229 -0.39324197564474561 0 0.27953316241518023 -0.40195331916022869 0 0.28160380994825229 -0.39324197564474561 0 0.27326008027006782 -0.39345628634570751 0 0.2763661854032155 -0.39671387732525099 0 0.28160380994825229 -0.39324197564474561 0 0.27761954194076582 -0.39015686922536802 0 0.27326008027006782 -0.39345628634570751 0 0.28160380994825229 -0.39324197564474561 0 0.2763661854032155 -0.39671387732525099 0 0.27953316241518023 -0.40195331916022869 0 0.28160380994825229 -0.39324197564474561 0 0.27326008027006782 -0.39345628634570751 0 0.28160380994825229 -0.39324197564474561 0 0.28266807079521272 -0.38876456378209889 0 0.27761954194076582 -0.39015686922536802 0 0.28160380994825229 -0.39324197564474561 0 0.27761954194076582 -0.39015686922536802 0 0.27953316241518023 -0.40195331916022869 0 0.27347314747067919 -0.42744818057306522 0 0.28520382529703941 -0.41480306739878853 0 0.27953316241518023 -0.40195331916022869 0 0.27347314747067919 -0.42744818057306522 0 0.25975695928564868 -0.40962541758882293 0 0.27347314747067919 -0.42744818057306522 0 0.26922413964177622 -0.40728301048115828 0 0.25975695928564868 -0.40962541758882293 0 0.27347314747067919 -0.42744818057306522 0 0.27953316241518023 -0.40195331916022869 0 0.26922413964177622 -0.40728301048115828 0 0.27347314747067919 -0.42744818057306522 0 0.25975695928564868 -0.40962541758882293 0 0.25525183191841749 -0.42703218092561618 0 0.27347314747067919 -0.42744818057306522 0 0.25975695928564868 -0.40962541758882293 0 0.25525183191841749 -0.42703218092561618 0 0.25975695928564868 -0.40962541758882293 0 0.25525183191841749 -0.42703218092561618 0 0.24503117862720539 -0.42320363242817988 0 0.25525183191841749 -0.42703218092561618 0 0.25074670455117909 -0.44443894426240771 0 0.25525183191841749 -0.42703218092561618 0 0.27347314747067919 -0.42744818057306522 0 0.26967230470698589 -0.44343856350113608 0 0.27347314747067919 -0.42744818057306522 0 0.26967230470698589 -0.44343856350113608 0 0.27347314747067919 -0.42744818057306522 0 0.28347732250867919 -0.44044756773149252 0 0.26967230470698589 -0.44343856350113608 0 0.27347314747067919 -0.42744818057306522 0 0.28347732250867919 -0.44044756773149252 0 0.27347314747067919 -0.42744818057306522 0 0.28565534718455982 -0.42593061571442481 0 0.28347732250867919 -0.44044756773149252 0 0.29395703328707212 -0.43150980043823117 0 0.28565534718455982 -0.42593061571442481 0 0.28347732250867919 -0.44044756773149252 0 0.29395703328707212 -0.43150980043823117 0 0.28565534718455982 -0.42593061571442481 0 0.29133243118868207 -0.41850545609613571 0 0.27347314747067919 -0.42744818057306522 0 0.28565534718455982 -0.42593061571442481 0 0.28520382529703941 -0.41480306739878853 0 0.28565534718455982 -0.42593061571442481 0 0.28520382529703941 -0.41480306739878853 0 0.29133243118868207 -0.41850545609613571 0 0.29395703328707212 -0.43150980043823117 0 0.29133243118868207 -0.41850545609613571 0 0.30197670513848929 -0.41158077703245699 0 0.28820717704939569 -0.40450529027021509 0 0.28520382529703941 -0.41480306739878853 0 0.29302168647373822 -0.41047554257866092 0 0.28820717704939569 -0.40450529027021509 0 0.27953316241518023 -0.40195331916022869 0 0.28520382529703941 -0.41480306739878853 0 0.29302168647373822 -0.41047554257866092 0 0.29133243118868207 -0.41850545609613571 0 0.30197670513848929 -0.41158077703245699 0 0.29506857196361902 -0.40422353587240528 0 0.29302168647373822 -0.41047554257866092 0 0.30197670513848929 -0.41158077703245699 0 0.29506857196361902 -0.40422353587240528 0 0.28820717704939569 -0.40450529027021509 0 0.29302168647373822 -0.41047554257866092 0 0.28520382529703941 -0.41480306739878853 0 0.29302168647373822 -0.41047554257866092 0 0.29133243118868207 -0.41850545609613571 0 0.29395703328707212 -0.43150980043823117 0 0.30197670513848929 -0.41158077703245699 0 0.31401746803774938 -0.41425678610104472 0 0.30633084570166319 -0.40102944525800921 0 0.30197670513848929 -0.41158077703245699 0 0.31401746803774938 -0.41425678610104472 0 0.30197670513848929 -0.41158077703245699 0 0.30919806308703329 -0.42606485236559472 0 0.29395703328707212 -0.43150980043823117 0 0.30197670513848929 -0.41158077703245699 0 0.30919806308703329 -0.42606485236559472 0 0.30919806308703329 -0.42606485236559472 0 0.30197948629419208 -0.43687684560762902 0 0.30862447638588131 -0.44596701631110441 0 0.29395703328707212 -0.43150980043823117 0 0.30919806308703329 -0.42606485236559472 0 0.30197948629419208 -0.43687684560762902 0 0.29395703328707212 -0.43150980043823117 0 0.30197948629419208 -0.43687684560762902 0 0.2961383724167817 -0.4439657133155856 0 0.34658346325390887 -0.5 0 0.26639577680501852 -0.49999999999999539 0 0.29574619246442319 -0.48903750566983362 0 0.30862447638588131 -0.44596701631110441 0 0.29204054445055788 -0.46823673054323078 0 0.2961383724167817 -0.4439657133155856 0 0.30197948629419208 -0.43687684560762902 0 0.30862447638588131 -0.44596701631110441 0 0.2961383724167817 -0.4439657133155856 0 0.30862447638588131 -0.44596701631110441 0 0.29204054445055788 -0.46823673054323078 0 0.31066231220331608 -0.46378019143833421 0 0.29204054445055788 -0.46823673054323078 0 0.30521861875062389 -0.47365214338674477 0 0.30862447638588131 -0.44596701631110441 0 0.31066231220331608 -0.46378019143833421 0 0.29204054445055788 -0.46823673054323078 0 0.29204054445055788 -0.46823673054323078 0 0.28593736143565479 -0.45143882384400541 0 0.2961383724167817 -0.4439657133155856 0 0.28593736143565479 -0.45143882384400541 0 0.27791768958423863 -0.47136784724978009 0 0.29204054445055788 -0.46823673054323078 0 0.28593736143565479 -0.45143882384400541 0 0.27791768958423863 -0.47136784724978009 0 0.29395703328707212 -0.43150980043823117 0 0.28593736143565479 -0.45143882384400541 0 0.28347732250867919 -0.44044756773149252 0 0.29395703328707212 -0.43150980043823117 0 0.28593736143565479 -0.45143882384400541 0 0.2961383724167817 -0.4439657133155856 0 0.28593736143565479 -0.45143882384400541 0 0.28347732250867919 -0.44044756773149252 0 0.2749952694896266 -0.45315072166673209 0 0.29395703328707212 -0.43150980043823117 0 0.28593736143565479 -0.45143882384400541 0 0.26967230470698589 -0.44343856350113608 0 0.2658714619432887 -0.45942894642920618 0 0.26967230470698589 -0.44343856350113608 0 0.2658714619432887 -0.45942894642920618 0 0.2749952694896266 -0.45315072166673209 0 0.28347732250867919 -0.44044756773149252 0 0.26967230470698589 -0.44343856350113608 0 0.2749952694896266 -0.45315072166673209 0 0.25074670455117909 -0.44443894426240771 0 0.2658714619432887 -0.45942894642920618 0 0.24814475947036341 -0.45449225431229118 0 0.26967230470698589 -0.44343856350113608 0 0.25074670455117909 -0.44443894426240771 0 0.2658714619432887 -0.45942894642920618 0 0.25525183191841749 -0.42703218092561618 0 0.26967230470698589 -0.44343856350113608 0 0.25074670455117909 -0.44443894426240771 0 0.25074670455117909 -0.44443894426240771 0 0.2658714619432887 -0.45942894642920618 0 0.26420722391744422 -0.46643049976126 0 0.25494064146824691 -0.47530725931368673 0 0.24814475947036341 -0.45449225431229118 0 0.26420722391744422 -0.46643049976126 0 0.2658714619432887 -0.45942894642920618 0 0.24814475947036341 -0.45449225431229118 0 0.26420722391744422 -0.46643049976126 0 0.24814475947036341 -0.45449225431229118 0 0.26420722391744422 -0.46643049976126 0 0.2658714619432887 -0.45942894642920618 0 0.2658714619432887 -0.45942894642920618 0 0.27791768958423863 -0.47136784724978009 0 0.2658714619432887 -0.45942894642920618 0 0.27791768958423863 -0.47136784724978009 0 0.27310123095724642 -0.47304087013224039 0 0.28593736143565479 -0.45143882384400541 0 0.2749952694896266 -0.45315072166673209 0 0.27791768958423863 -0.47136784724978009 0 0.2658714619432887 -0.45942894642920618 0 0.2749952694896266 -0.45315072166673209 0 0.27791768958423863 -0.47136784724978009 0 0.26420722391744422 -0.46643049976126 0 0.2658714619432887 -0.45942894642920618 0 0.27310123095724642 -0.47304087013224039 0 0.27791768958423863 -0.47136784724978009 0 0.27215673319462719 -0.48568392362488733 0 0.27791768958423863 -0.47136784724978009 0 0.27310123095724642 -0.47304087013224039 0 0.27215673319462719 -0.48568392362488733 0 0.27310123095724642 -0.47304087013224039 0 0.25922185243802331 -0.48740426898846217 0 0.27215673319462719 -0.48568392362488733 0 0.26420722391744422 -0.46643049976126 0 0.27310123095724642 -0.47304087013224039 0 0.26420722391744422 -0.46643049976126 0 0.27310123095724642 -0.47304087013224039 0 0.25922185243802331 -0.48740426898846217 0 0.25494064146824691 -0.47530725931368673 0 0.25922185243802331 -0.48740426898846217 0 0.2422557212111513 -0.47724612715613651 0 0.26420722391744422 -0.46643049976126 0 0.25494064146824691 -0.47530725931368673 0 0.25922185243802331 -0.48740426898846217 0 0.26420722391744422 -0.46643049976126 0 0.25922185243802331 -0.48740426898846217 0 0.25922185243802331 -0.48740426898846217 0 0.26639577680501852 -0.49999999999999539 0 0.2363666829519413 -0.49999999999998218 0 0.26639577680501852 -0.49999999999999539 0 0.27215673319462719 -0.48568392362488733 0 0.29574619246442319 -0.48903750566983362 0 0.26639577680501852 -0.49999999999999539 0 0.27215673319462719 -0.48568392362488733 0 0.25922185243802331 -0.48740426898846217 0 0.26639577680501852 -0.49999999999999539 0 0.27215673319462719 -0.48568392362488733 0 0.27791768958423863 -0.47136784724978009 0 0.29574619246442319 -0.48903750566983362 0 0.29204054445055788 -0.46823673054323078 0 0.27791768958423863 -0.47136784724978009 0 0.29574619246442319 -0.48903750566983362 0 0.27791768958423863 -0.47136784724978009 0 0.27215673319462719 -0.48568392362488733 0 0.29574619246442319 -0.48903750566983362 0 0.32242542588419842 -0.4735541458955807 0 0.29574619246442319 -0.48903750566983362 0 0.30521861875062389 -0.47365214338674477 0 0.29204054445055788 -0.46823673054323078 0 0.29574619246442319 -0.48903750566983362 0 0.30521861875062389 -0.47365214338674477 0 0.34275392446958958 -0.30386616297578722 0 0.32900992010608637 -0.30534424532633409 0 0.33104335751198039 -0.27759918100479147 0 0.34275392446958958 -0.30386616297578722 0 0.33104335751198039 -0.27759918100479147 0 0.34694208866348208 -0.27526213207347022 0 0.32900992010608637 -0.30534424532633409 0 0.33104335751198039 -0.27759918100479147 0 0.34275392446958958 -0.30386616297578722 0 0.32900992010608637 -0.30534424532633409 0 0.33577836774057429 -0.31554707258993081 0 0.32900992010608637 -0.30534424532633409 0 0.3235287535230455 -0.29913320956981759 0 0.31834038425697209 -0.30784650227817828 0 0.32900992010608637 -0.30534424532633409 0 0.31834038425697209 -0.30784650227817828 0 0.31788755126385487 -0.31853632372016139 0 0.3235287535230455 -0.29913320956981759 0 0.31834038425697209 -0.30784650227817828 0 0.31212135369472788 -0.30080470968006451 0 0.32900992010608637 -0.30534424532633409 0 0.3235287535230455 -0.29913320956981759 0 0.33104335751198039 -0.27759918100479147 0 0.3235287535230455 -0.29913320956981759 0 0.30629178093020187 -0.28937813957941788 0 0.31212135369472788 -0.30080470968006451 0 0.3235287535230455 -0.29913320956981759 0 0.31973468851404002 -0.28573103891445711 0 0.30629178093020187 -0.28937813957941788 0 0.3235287535230455 -0.29913320956981759 0 0.31973468851404002 -0.28573103891445711 0 0.33104335751198039 -0.27759918100479147 0 0.3235287535230455 -0.29913320956981759 0 0.30629178093020187 -0.28937813957941788 0 0.31973468851404002 -0.28573103891445711 0 0.32431643101153967 -0.27027499567735092 0 0.31009087593995671 -0.27339510956134871 0 0.32431643101153967 -0.27027499567735092 0 0.3200893256194921 -0.26329796091770702 0 0.31009087593995671 -0.27339510956134871 0 0.31973468851404002 -0.28573103891445711 0 0.32431643101153967 -0.27027499567735092 0 0.33104335751198039 -0.27759918100479147 0 0.31388997094971111 -0.25741207954327922 0 0.3200893256194921 -0.26329796091770702 0 0.31009087593995671 -0.27339510956134871 0 0.31493616917986639 -0.24016655488394609 0 0.32110243366205232 -0.25453621870780069 0 0.3024592275180531 -0.25940025187227 0 0.31388997094971111 -0.25741207954327922 0 0.3200893256194921 -0.26329796091770702 0 0.32110243366205232 -0.25453621870780069 0 0.3200893256194921 -0.26329796091770702 0 0.32110243366205232 -0.25453621870780069 0 0.33104691653420049 -0.26087140109875551 0 0.32431643101153967 -0.27027499567735092 0 0.3200893256194921 -0.26329796091770702 0 0.33104691653420049 -0.26087140109875551 0 0.33974563980605121 -0.24967218554333101 0 0.32110243366205232 -0.25453621870780069 0 0.33104691653420049 -0.26087140109875551 0 0.33974563980605121 -0.24967218554333101 0 0.32110243366205232 -0.25453621870780069 0 0.33104691653420049 -0.26087140109875551 0 0.34136646595735859 -0.26038390279537182 0 0.33796743192568429 -0.26945569409014908 0 0.33974563980605121 -0.24967218554333101 0 0.33104691653420049 -0.26087140109875551 0 0.34136646595735859 -0.26038390279537182 0 0.33104335751198039 -0.27759918100479147 0 0.33796743192568429 -0.26945569409014908 0 0.34694208866348208 -0.27526213207347022 0 0.32431643101153967 -0.27027499567735092 0 0.33104335751198039 -0.27759918100479147 0 0.33796743192568429 -0.26945569409014908 0 0.32431643101153967 -0.27027499567735092 0 0.33104691653420049 -0.26087140109875551 0 0.33796743192568429 -0.26945569409014908 0 0.34136646595735859 -0.26038390279537182 0 0.33796743192568429 -0.26945569409014908 0 0.34694208866348208 -0.27526213207347022 0 0.34694208866348208 -0.27526213207347022 0 0.35988669831768721 -0.262548836448386 0 0.36485936772326272 -0.27999771502935411 0 0.35113025285737481 -0.24665810117115311 0 0.34136646595735859 -0.26038390279537182 0 0.34694208866348208 -0.27526213207347022 0 0.35113025285737481 -0.24665810117115311 0 0.34694208866348208 -0.27526213207347022 0 0.35988669831768721 -0.262548836448386 0 0.35113025285737481 -0.24665810117115311 0 0.35988669831768721 -0.262548836448386 0 0.3620822404171461 -0.25123661234496703 0 0.35113025285737481 -0.24665810117115311 0 0.34694208866348208 -0.27526213207347022 0 0.33974563980605121 -0.24967218554333101 0 0.35113025285737481 -0.24665810117115311 0 0.34136646595735859 -0.26038390279537182 0 0.37584018395849278 -0.25365090056906742 0 0.35988669831768721 -0.262548836448386 0 0.3620822404171461 -0.25123661234496703 0 0.37584018395849278 -0.25365090056906742 0 0.35988669831768721 -0.262548836448386 0 0.37063035463472233 -0.26796163047783239 0 0.35988669831768721 -0.262548836448386 0 0.37063035463472233 -0.26796163047783239 0 0.36485936772326272 -0.27999771502935411 0 0.38193516853944648 -0.27564906986452209 0 0.37063035463472233 -0.26796163047783239 0 0.36485936772326272 -0.27999771502935411 0 0.37618451026962602 -0.29209478490374308 0 0.36485936772326272 -0.27999771502935411 0 0.36530760885648778 -0.29267174951797698 0 0.37618451026962602 -0.29209478490374308 0 0.38193516853944648 -0.27564906986452209 0 0.36485936772326272 -0.27999771502935411 0 0.37618451026962602 -0.29209478490374308 0 0.36530760885648778 -0.29267174951797698 0 0.36913946469633457 -0.30150630789773197 0 0.36485936772326272 -0.27999771502935411 0 0.36530760885648778 -0.29267174951797698 0 0.35571522521392968 -0.29038314169436541 0 0.34694208866348208 -0.27526213207347022 0 0.36485936772326272 -0.27999771502935411 0 0.35571522521392968 -0.29038314169436541 0 0.34275392446958958 -0.30386616297578722 0 0.34694208866348208 -0.27526213207347022 0 0.34275392446958958 -0.30386616297578722 0 0.34694208866348208 -0.27526213207347022 0 0.35571522521392968 -0.29038314169436541 0 0.36530760885648778 -0.29267174951797698 0 0.35571522521392968 -0.29038314169436541 0 0.35678679633436627 -0.30085909968578689 0 0.34275392446958958 -0.30386616297578722 0 0.3497755674246058 -0.3117506468400999 0 0.35678679633436627 -0.30085909968578689 0 0.34275392446958958 -0.30386616297578722 0 0.35571522521392968 -0.29038314169436541 0 0.35678679633436627 -0.30085909968578689 0 0.3497755674246058 -0.3117506468400999 0 0.35678679633436627 -0.30085909968578689 0 0.36119103897940941 -0.30948292347712147 0 0.38481696096339529 -0.30761447498030892 0 0.36913946469633457 -0.30150630789773197 0 0.36980470318797282 -0.3119888431028443 0 0.36119103897940941 -0.30948292347712147 0 0.36980470318797282 -0.3119888431028443 0 0.36439701599858981 -0.31550104454903249 0 0.36119103897940941 -0.30948292347712147 0 0.36913946469633457 -0.30150630789773197 0 0.36980470318797282 -0.3119888431028443 0 0.35678679633436627 -0.30085909968578689 0 0.36119103897940941 -0.30948292347712147 0 0.36913946469633457 -0.30150630789773197 0 0.36530760885648778 -0.29267174951797698 0 0.35678679633436627 -0.30085909968578689 0 0.36913946469633457 -0.30150630789773197 0 0.36980470318797282 -0.3119888431028443 0 0.36439701599858981 -0.31550104454903249 0 0.37168495220229308 -0.3225073171861001 0 0.37832160070080501 -0.31602670513921283 0 0.36980470318797282 -0.3119888431028443 0 0.37168495220229308 -0.3225073171861001 0 0.36439701599858981 -0.31550104454903249 0 0.36336279001797089 -0.32127637060184622 0 0.37168495220229308 -0.3225073171861001 0 0.36439701599858981 -0.31550104454903249 0 0.36336279001797089 -0.32127637060184622 0 0.35782003906952392 -0.31687238221713648 0 0.36119103897940941 -0.30948292347712147 0 0.36439701599858981 -0.31550104454903249 0 0.35782003906952392 -0.31687238221713648 0 0.35947685860584688 -0.32732223891163731 0 0.36663550487772401 -0.32546102829331069 0 0.36763876080305519 -0.33091707264307918 0 0.35947685860584688 -0.32732223891163731 0 0.36336279001797089 -0.32127637060184622 0 0.36663550487772401 -0.32546102829331069 0 0.35947685860584688 -0.32732223891163731 0 0.36336279001797089 -0.32127637060184622 0 0.35767306024330381 -0.3232539850966738 0 0.36336279001797089 -0.32127637060184622 0 0.35782003906952392 -0.31687238221713648 0 0.35767306024330381 -0.3232539850966738 0 0.36663550487772401 -0.32546102829331069 0 0.37168495220229308 -0.3225073171861001 0 0.36763876080305519 -0.33091707264307918 0 0.36336279001797089 -0.32127637060184622 0 0.36663550487772401 -0.32546102829331069 0 0.37168495220229308 -0.3225073171861001 0 0.376025220087704 -0.33225825256939812 0 0.36874022594081363 -0.33486090035052701 0 0.36763876080305519 -0.33091707264307918 0 0.376025220087704 -0.33225825256939812 0 0.37168495220229308 -0.3225073171861001 0 0.36763876080305519 -0.33091707264307918 0 0.37692571126343072 -0.33987807519850372 0 0.376025220087704 -0.33225825256939812 0 0.36874022594081363 -0.33486090035052701 0 0.37692571126343072 -0.33987807519850372 0 0.36874022594081363 -0.33486090035052701 0 0.36539329140502069 -0.34575353030828249 0 0.36874022594081363 -0.33486090035052701 0 0.35317789994409221 -0.33691030518015502 0 0.36539329140502069 -0.34575353030828249 0 0.36874022594081363 -0.33486090035052701 0 0.36763876080305519 -0.33091707264307918 0 0.35317789994409221 -0.33691030518015502 0 0.36874022594081363 -0.33486090035052701 0 0.35317789994409221 -0.33691030518015502 0 0.35947685860584688 -0.32732223891163731 0 0.36763876080305519 -0.33091707264307918 0 0.33856576027569613 -0.33247019387810389 0 0.36763876080305519 -0.33091707264307918 0 0.33856576027569613 -0.33247019387810389 0 0.36763876080305519 -0.33091707264307918 0 0.35317789994409221 -0.33691030518015502 0 0.33856576027569613 -0.33247019387810389 0 0.35317789994409221 -0.33691030518015502 0 0.33761557394737091 -0.3389597100097842 0 0.35317789994409221 -0.33691030518015502 0 0.34711645089703408 -0.3510102424473342 0 0.33761557394737091 -0.3389597100097842 0 0.3497755674246058 -0.3117506468400999 0 0.35091210414164292 -0.32093236728802188 0 0.33856576027569613 -0.33247019387810389 0 0.35091210414164292 -0.32093236728802188 0 0.35767306024330381 -0.3232539850966738 0 0.33856576027569613 -0.33247019387810389 0 0.35947685860584688 -0.32732223891163731 0 0.35767306024330381 -0.3232539850966738 0 0.33856576027569613 -0.33247019387810389 0 0.3497755674246058 -0.3117506468400999 0 0.36119103897940941 -0.30948292347712147 0 0.35782003906952392 -0.31687238221713648 0 0.3497755674246058 -0.3117506468400999 0 0.35091210414164292 -0.32093236728802188 0 0.35782003906952392 -0.31687238221713648 0 0.35091210414164292 -0.32093236728802188 0 0.35782003906952392 -0.31687238221713648 0 0.35767306024330381 -0.3232539850966738 0 0.36894025410442649 -0.36497204245815901 0 0.35918236577233831 -0.35214632835406612 0 0.35063437744994652 -0.37002051745842479 0 0.38095696074420982 -0.37701943257773612 0 0.35906043542287142 -0.37823914579418422 0 0.36894025410442649 -0.36497204245815901 0 0.35906043542287142 -0.37823914579418422 0 0.36894025410442649 -0.36497204245815901 0 0.35063437744994652 -0.37002051745842479 0 0.36894025410442649 -0.36497204245815901 0 0.35063437744994652 -0.37002051745842479 0 0.35906043542287142 -0.37823914579418422 0 0.36894025410442649 -0.36497204245815901 0 0.37692571126343072 -0.33987807519850372 0 0.36894025410442649 -0.36497204245815901 0 0.36539329140502069 -0.34575353030828249 0 0.36894025410442649 -0.36497204245815901 0 0.36539329140502069 -0.34575353030828249 0 0.35918236577233831 -0.35214632835406612 0 0.34711645089703408 -0.3510102424473342 0 0.35063437744994652 -0.37002051745842479 0 0.33497203737142228 -0.3570143512342408 0 0.34711645089703408 -0.3510102424473342 0 0.35918236577233831 -0.35214632835406612 0 0.35063437744994652 -0.37002051745842479 0 0.35317789994409221 -0.33691030518015502 0 0.34711645089703408 -0.3510102424473342 0 0.35918236577233831 -0.35214632835406612 0 0.35317789994409221 -0.33691030518015502 0 0.36539329140502069 -0.34575353030828249 0 0.35918236577233831 -0.35214632835406612 0 0.33232850079546811 -0.37506899245869663 0 0.35063437744994652 -0.37002051745842479 0 0.33232850079546811 -0.37506899245869663 0 0.33497203737142228 -0.3570143512342408 0 0.32508213726542551 -0.35893654535942959 0 0.33232850079546811 -0.37506899245869663 0 0.35063437744994652 -0.37002051745842479 0 0.33497203737142228 -0.3570143512342408 0 0.33232850079546811 -0.37506899245869663 0 0.33497203737142228 -0.3570143512342408 0 0.33497203737142228 -0.3570143512342408 0 0.33761557394737091 -0.3389597100097842 0 0.33497203737142228 -0.3570143512342408 0 0.32508213726542551 -0.35893654535942959 0 0.32643836298832929 -0.34043163844297841 0 0.33497203737142228 -0.3570143512342408 0 0.33761557394737091 -0.3389597100097842 0 0.32643836298832929 -0.34043163844297841 0 0.34711645089703408 -0.3510102424473342 0 0.33497203737142228 -0.3570143512342408 0 0.33761557394737091 -0.3389597100097842 0 0.32508213726542551 -0.35893654535942959 0 0.32643836298832929 -0.34043163844297841 0 0.32508213726542551 -0.35893654535942959 0 0.30977590652120601 -0.34262591960405819 0 0.30604578034864821 -0.36332147105110901 0 0.32508213726542551 -0.35893654535942959 0 0.32643836298832929 -0.34043163844297841 0 0.30977590652120601 -0.34262591960405819 0 0.33232850079546811 -0.37506899245869663 0 0.32372591154252112 -0.37744145227588088 0 0.32508213726542551 -0.35893654535942959 0 0.32372591154252112 -0.37744145227588088 0 0.32508213726542551 -0.35893654535942959 0 0.32372591154252112 -0.37744145227588088 0 0.32508213726542551 -0.35893654535942959 0 0.30604578034864821 -0.36332147105110901 0 0.34275392446958958 -0.30386616297578722 0 0.33856576027569613 -0.33247019387810389 0 0.33278386611092509 -0.32050768817949821 0 0.33577836774057429 -0.31554707258993081 0 0.33856576027569613 -0.33247019387810389 0 0.32900992010608637 -0.30534424532633409 0 0.33278386611092509 -0.32050768817949821 0 0.32697648270019258 -0.33308930964787681 0 0.34275392446958958 -0.30386616297578722 0 0.33577836774057429 -0.31554707258993081 0 0.33856576027569613 -0.33247019387810389 0 0.34275392446958958 -0.30386616297578722 0 0.3497755674246058 -0.3117506468400999 0 0.33856576027569613 -0.33247019387810389 0 0.32900992010608637 -0.30534424532633409 0 0.33278386611092509 -0.32050768817949821 0 0.33577836774057429 -0.31554707258993081 0 0.33856576027569613 -0.33247019387810389 0 0.33761557394737091 -0.3389597100097842 0 0.35317789994409221 -0.33691030518015502 0 0.33856576027569613 -0.33247019387810389 0 0.33761557394737091 -0.3389597100097842 0 0.33761557394737091 -0.3389597100097842 0 0.32643836298832929 -0.34043163844297841 0 0.33761557394737091 -0.3389597100097842 0 0.32697648270019258 -0.33308930964787681 0 0.32643836298832929 -0.34043163844297841 0 0.33856576027569613 -0.33247019387810389 0 0.33761557394737091 -0.3389597100097842 0 0.32697648270019258 -0.33308930964787681 0 0.33856576027569613 -0.33247019387810389 0 0.32697648270019258 -0.33308930964787681 0 0.33278386611092509 -0.32050768817949821 0 0.33856576027569613 -0.33247019387810389 0 0.32697648270019258 -0.33308930964787681 0 0.32643836298832929 -0.34043163844297841 0 0.31123932566749868 -0.33393001106579179 0 0.30977590652120601 -0.34262591960405819 0 0.32697648270019258 -0.33308930964787681 0 0.31123932566749868 -0.33393001106579179 0 0.32697648270019258 -0.33308930964787681 0 0.31788755126385487 -0.31853632372016139 0 0.31123932566749868 -0.33393001106579179 0 0.32697648270019258 -0.33308930964787681 0 0.32643836298832929 -0.34043163844297841 0 0.31123932566749868 -0.33393001106579179 0 0.32643836298832929 -0.34043163844297841 0 0.30977590652120601 -0.34262591960405819 0 0.32697648270019258 -0.33308930964787681 0 0.32643836298832929 -0.34043163844297841 0 0.32900992010608637 -0.30534424532633409 0 0.32697648270019258 -0.33308930964787681 0 0.31788755126385487 -0.31853632372016139 0 0.32900992010608637 -0.30534424532633409 0 0.32697648270019258 -0.33308930964787681 0 0.31834038425697209 -0.30784650227817828 0 0.31788755126385487 -0.31853632372016139 0 0.3008969747825056 -0.31207442603156338 0 0.29550216863480477 -0.33477071248370788 0 0.3008969747825056 -0.31207442603156338 0 0.31788755126385487 -0.31853632372016139 0 0.31123932566749868 -0.33393001106579179 0 0.3008969747825056 -0.31207442603156338 0 0.31123932566749868 -0.33393001106579179 0 0.29550216863480477 -0.33477071248370788 0 0.3008969747825056 -0.31207442603156338 0 0.30977590652120601 -0.34262591960405819 0 0.29550216863480477 -0.33477071248370788 0 0.29311345005408163 -0.34482020076512998 0 0.30977590652120601 -0.34262591960405819 0 0.29311345005408163 -0.34482020076512998 0 0.31123932566749868 -0.33393001106579179 0 0.30977590652120601 -0.34262591960405819 0 0.29550216863480477 -0.33477071248370788 0 0.31123932566749868 -0.33393001106579179 0 0.29550216863480477 -0.33477071248370788 0 0.29550216863480477 -0.33477071248370788 0 0.2789009292545942 -0.33565757441544508 0 0.29550216863480477 -0.33477071248370788 0 0.28566531726936101 -0.3458010463857692 0 0.2789009292545942 -0.33565757441544508 0 0.29550216863480477 -0.33477071248370788 0 0.29029362180728391 -0.32280409089744683 0 0.2789009292545942 -0.33565757441544508 0 0.29550216863480477 -0.33477071248370788 0 0.29311345005408163 -0.34482020076512998 0 0.28566531726936101 -0.3458010463857692 0 0.29550216863480477 -0.33477071248370788 0 0.29311345005408163 -0.34482020076512998 0 0.28566531726936101 -0.3458010463857692 0 0.28104909198147848 -0.34871319285775249 0 0.2789009292545942 -0.33565757441544508 0 0.29550216863480477 -0.33477071248370788 0 0.29029362180728391 -0.32280409089744683 0 0.3008969747825056 -0.31207442603156338 0 0.2789009292545942 -0.33565757441544508 0 0.28587441455723112 -0.3087136506590718 0 0.29029362180728391 -0.32280409089744683 0 0.2789009292545942 -0.33565757441544508 0 0.28587441455723112 -0.3087136506590718 0 0.29029362180728391 -0.32280409089744683 0 0.28587441455723112 -0.3087136506590718 0 0.3008969747825056 -0.31207442603156338 0 0.32372591154252112 -0.37744145227588088 0 0.30759598899942259 -0.38188983310200009 0 0.30604578034864821 -0.36332147105110901 0 0.30759598899942259 -0.38188983310200009 0 0.30604578034864821 -0.36332147105110901 0 0.2946431056585368 -0.37455380180448922 0 0.30977590652120601 -0.34262591960405819 0 0.30604578034864821 -0.36332147105110901 0 0.29311345005408163 -0.34482020076512998 0 0.29311345005408163 -0.34482020076512998 0 0.28873467123729007 -0.36324199676957908 0 0.29311345005408163 -0.34482020076512998 0 0.28567363740724061 -0.35617706303636743 0 0.28873467123729007 -0.36324199676957908 0 0.30604578034864821 -0.36332147105110901 0 0.29311345005408163 -0.34482020076512998 0 0.28873467123729007 -0.36324199676957908 0 0.29311345005408163 -0.34482020076512998 0 0.28566531726936101 -0.3458010463857692 0 0.29311345005408163 -0.34482020076512998 0 0.28566531726936101 -0.3458010463857692 0 0.28567363740724061 -0.35617706303636743 0 0.28566531726936101 -0.3458010463857692 0 0.28567363740724061 -0.35617706303636743 0 0.28104909198147848 -0.34871319285775249 0 0.28435589242050291 -0.38166379277402929 0 0.28873467123729007 -0.36324199676957908 0 0.27861426859542759 -0.36413469061955273 0 0.28435589242050291 -0.38166379277402929 0 0.28873467123729007 -0.36324199676957908 0 0.30604578034864821 -0.36332147105110901 0 0.28873467123729007 -0.36324199676957908 0 0.2946431056585368 -0.37455380180448922 0 0.28435589242050291 -0.38166379277402929 0 0.28873467123729007 -0.36324199676957908 0 0.2946431056585368 -0.37455380180448922 0 0.28567363740724061 -0.35617706303636743 0 0.28873467123729007 -0.36324199676957908 0 0.27861426859542759 -0.36413469061955273 0 0.26951845753492509 -0.37190926086633003 0 0.27861426859542759 -0.36413469061955273 0 0.27426504981006189 -0.35356953333933422 0 0.26951845753492509 -0.37190926086633003 0 0.27426504981006189 -0.35356953333933422 0 0.28435589242050291 -0.38166379277402929 0 0.26951845753492509 -0.37190926086633003 0 0.27861426859542759 -0.36413469061955273 0 0.27426504981006189 -0.35356953333933422 0 0.28104909198147848 -0.34871319285775249 0 0.2789009292545942 -0.33565757441544508 0 0.27426504981006189 -0.35356953333933422 0 0.2789009292545942 -0.33565757441544508 0 0.26951845753492509 -0.37190926086633003 0 0.27426504981006189 -0.35356953333933422 0 0.25369137727855212 -0.3523165257464157 0 0.28567363740724061 -0.35617706303636743 0 0.27426504981006189 -0.35356953333933422 0 0.28104909198147848 -0.34871319285775249 0 0.28567363740724061 -0.35617706303636743 0 0.27426504981006189 -0.35356953333933422 0 0.28567363740724061 -0.35617706303636743 0 0.27861426859542759 -0.36413469061955273 0 0.27426504981006189 -0.35356953333933422 0 0.27426504981006189 -0.35356953333933422 0 0.24924542179033449 -0.34785108462561692 0 0.27426504981006189 -0.35356953333933422 0 0.2526697410387454 -0.33705888197568917 0 0.24924542179033449 -0.34785108462561692 0 0.27426504981006189 -0.35356953333933422 0 0.25369137727855212 -0.3523165257464157 0 0.24924542179033449 -0.34785108462561692 0 0.25369137727855212 -0.3523165257464157 0 0.24933402445149699 -0.35863946739667663 0 0.24924542179033449 -0.34785108462561692 0 0.25369137727855212 -0.3523165257464157 0 0.24933402445149699 -0.35863946739667663 0 0.26951845753492509 -0.37190926086633003 0 0.24933402445149699 -0.35863946739667663 0 0.26951845753492509 -0.37190926086633003 0 0.25369137727855212 -0.3523165257464157 0 0.24933402445149699 -0.35863946739667663 0 0.26951845753492509 -0.37190926086633003 0 0.25160212449738772 -0.37188527872020077 0 0.24933402445149699 -0.35863946739667663 0 0.25683298514440223 -0.38074033110139821 0 0.26951845753492509 -0.37190926086633003 0 0.25160212449738772 -0.37188527872020077 0 0.2789009292545942 -0.33565757441544508 0 0.27057893574078912 -0.30854497728361729 0 0.28587441455723112 -0.3087136506590718 0 0.2789009292545942 -0.33565757441544508 0 0.26181184773137428 -0.32202597951098311 0 0.27057893574078912 -0.30854497728361729 0 0.27426504981006189 -0.35356953333933422 0 0.2789009292545942 -0.33565757441544508 0 0.2526697410387454 -0.33705888197568917 0 0.2789009292545942 -0.33565757441544508 0 0.2526697410387454 -0.33705888197568917 0 0.2789009292545942 -0.33565757441544508 0 0.2526697410387454 -0.33705888197568917 0 0.26181184773137428 -0.32202597951098311 0 0.2526697410387454 -0.33705888197568917 0 0.26181184773137428 -0.32202597951098311 0 0.247817453740384 -0.32225863955356682 0 0.26181184773137428 -0.32202597951098311 0 0.25211992593748012 -0.30975187206972138 0 0.26140731354726532 -0.30632219619272022 0 0.26181184773137428 -0.32202597951098311 0 0.25211992593748012 -0.30975187206972138 0 0.247817453740384 -0.32225863955356682 0 0.26181184773137428 -0.32202597951098311 0 0.26140731354726532 -0.30632219619272022 0 0.27057893574078912 -0.30854497728361729 0 0.25211992593748012 -0.30975187206972138 0 0.25703896930142822 -0.29795697186885117 0 0.26140731354726532 -0.30632219619272022 0 0.25703896930142822 -0.29795697186885117 0 0.24574364859242551 -0.29302519913323732 0 0.24897705561654959 -0.30121859219767683 0 0.25211992593748012 -0.30975187206972138 0 0.25703896930142822 -0.29795697186885117 0 0.24897705561654959 -0.30121859219767683 0 0.25703896930142822 -0.29795697186885117 0 0.26140731354726532 -0.30632219619272022 0 0.26779662445295033 -0.29665055494058251 0 0.25703896930142822 -0.29795697186885117 0 0.25260855503435592 -0.28574268745687309 0 0.24574364859242551 -0.29302519913323732 0 0.25703896930142822 -0.29795697186885117 0 0.25260855503435592 -0.28574268745687309 0 0.26258469135200468 -0.28700998995347521 0 0.25703896930142822 -0.29795697186885117 0 0.26258469135200468 -0.28700998995347521 0 0.26779662445295033 -0.29665055494058251 0 0.25260855503435592 -0.28574268745687309 0 0.26258469135200468 -0.28700998995347521 0 0.25968848845117121 -0.27773996343395879 0 0.26258469135200468 -0.28700998995347521 0 0.2711749904166279 -0.28752307051646631 0 0.26928618134162952 -0.27894253230867289 0 0.2711749904166279 -0.28752307051646631 0 0.27946390640635083 -0.28508747490340952 0 0.26928618134162952 -0.27894253230867289 0 0.26258469135200468 -0.28700998995347521 0 0.2711749904166279 -0.28752307051646631 0 0.26779662445295033 -0.29665055494058251 0 0.2711749904166279 -0.28752307051646631 0 0.26779662445295033 -0.29665055494058251 0 0.2799214098745807 -0.29414318544383089 0 0.2711749904166279 -0.28752307051646631 0 0.2799214098745807 -0.29414318544383089 0 0.27946390640635083 -0.28508747490340952 0 0.26140731354726532 -0.30632219619272022 0 0.26779662445295033 -0.29665055494058251 0 0.27057893574078912 -0.30854497728361729 0 0.26779662445295033 -0.29665055494058251 0 0.2799214098745807 -0.29414318544383089 0 0.27057893574078912 -0.30854497728361729 0 0.2799214098745807 -0.29414318544383089 0 0.27057893574078912 -0.30854497728361729 0 0.2799214098745807 -0.29414318544383089 0 0.27057893574078912 -0.30854497728361729 0 0.28587441455723112 -0.3087136506590718 0 0.28587441455723112 -0.3087136506590718 0 0.29647776753245192 -0.29798398579318802 0 0.3008969747825056 -0.31207442603156338 0 0.28587441455723112 -0.3087136506590718 0 0.29647776753245192 -0.29798398579318802 0 0.29284789985986881 -0.28176972690269853 0 0.28587441455723112 -0.3087136506590718 0 0.29284789985986881 -0.28176972690269853 0 0.2799214098745807 -0.29414318544383089 0 0.28587441455723112 -0.3087136506590718 0 0.29284789985986881 -0.28176972690269853 0 0.2799214098745807 -0.29414318544383089 0 0.29284789985986881 -0.28176972690269853 0 0.28926388400837227 -0.27974139360404449 0 0.2799214098745807 -0.29414318544383089 0 0.27946390640635083 -0.28508747490340952 0 0.28926388400837227 -0.27974139360404449 0 0.2799214098745807 -0.29414318544383089 0 0.28926388400837227 -0.27974139360404449 0 0.27946390640635083 -0.28508747490340952 0 0.28540847398523272 -0.27755946783866869 0 0.31973468851404002 -0.28573103891445711 0 0.30629178093020187 -0.28937813957941788 0 0.31009087593995671 -0.27339510956134871 0 0.29647776753245192 -0.29798398579318802 0 0.29284789985986881 -0.28176972690269853 0 0.30629178093020187 -0.28937813957941788 0 0.30629178093020187 -0.28937813957941788 0 0.31009087593995671 -0.27339510956134871 0 0.29284789985986881 -0.28176972690269853 0 0.30629178093020187 -0.28937813957941788 0 0.30132642840188528 -0.27809897451890342 0 0.29284789985986881 -0.28176972690269853 0 0.30629178093020187 -0.28937813957941788 0 0.31834038425697209 -0.30784650227817828 0 0.31212135369472788 -0.30080470968006451 0 0.3008969747825056 -0.31207442603156338 0 0.30629178093020187 -0.28937813957941788 0 0.3008969747825056 -0.31207442603156338 0 0.30629178093020187 -0.28937813957941788 0 0.31212135369472788 -0.30080470968006451 0 0.3008969747825056 -0.31207442603156338 0 0.29647776753245192 -0.29798398579318802 0 0.30629178093020187 -0.28937813957941788 0 0.3008969747825056 -0.31207442603156338 0 0.31493616917986639 -0.24016655488394609 0 0.3024592275180531 -0.25940025187227 0 0.29904458937835138 -0.26029113475088628 0 0.31493616917986639 -0.24016655488394609 0 0.29904458937835138 -0.26029113475088628 0 0.31388997094971111 -0.25741207954327922 0 0.32110243366205232 -0.25453621870780069 0 0.3024592275180531 -0.25940025187227 0 0.30127959374666219 -0.24342378128850289 0 0.29904458937835138 -0.26029113475088628 0 0.29234565902932352 -0.25064597840384373 0 0.31388997094971111 -0.25741207954327922 0 0.3024592275180531 -0.25940025187227 0 0.31009087593995671 -0.27339510956134871 0 0.31388997094971111 -0.25741207954327922 0 0.31009087593995671 -0.27339510956134871 0 0.32110243366205232 -0.25453621870780069 0 0.3024592275180531 -0.25940025187227 0 0.3024592275180531 -0.25940025187227 0 0.29610048122165339 -0.26920250973365789 0 0.3024592275180531 -0.25940025187227 0 0.29722967581345527 -0.26483956471159248 0 0.29610048122165339 -0.26920250973365789 0 0.3024592275180531 -0.25940025187227 0 0.29722967581345527 -0.26483956471159248 0 0.29904458937835138 -0.26029113475088628 0 0.3024592275180531 -0.25940025187227 0 0.29904458937835138 -0.26029113475088628 0 0.30629178093020187 -0.28937813957941788 0 0.31009087593995671 -0.27339510956134871 0 0.30132642840188528 -0.27809897451890342 0 0.31009087593995671 -0.27339510956134871 0 0.30132642840188528 -0.27809897451890342 0 0.29610048122165339 -0.26920250973365789 0 0.3024592275180531 -0.25940025187227 0 0.31009087593995671 -0.27339510956134871 0 0.29610048122165339 -0.26920250973365789 0 0.29722967581345527 -0.26483956471159248 0 0.29610048122165339 -0.26920250973365789 0 0.29722967581345527 -0.26483956471159248 0 0.29610048122165339 -0.26920250973365789 0 0.28540847398523272 -0.27755946783866869 0 0.29722967581345527 -0.26483956471159248 0 0.29904458937835138 -0.26029113475088628 0 0.28540847398523272 -0.27755946783866869 0 0.29904458937835138 -0.26029113475088628 0 0.28540847398523272 -0.27755946783866869 0 0.29904458937835138 -0.26029113475088628 0 0.28540847398523272 -0.27755946783866869 0 0.2839355331258146 -0.26423310428812791 0 0.29610048122165339 -0.26920250973365789 0 0.28926388400837227 -0.27974139360404449 0 0.29284789985986881 -0.28176972690269853 0 0.29610048122165339 -0.26920250973365789 0 0.28926388400837227 -0.27974139360404449 0 0.29284789985986881 -0.28176972690269853 0 0.30132642840188528 -0.27809897451890342 0 0.29610048122165339 -0.26920250973365789 0 0.29610048122165339 -0.26920250973365789 0 0.28926388400837227 -0.27974139360404449 0 0.28540847398523272 -0.27755946783866869 0 0.29284789985986881 -0.28176972690269853 0 0.29610048122165339 -0.26920250973365789 0 0.29284789985986881 -0.28176972690269853 0 0.28926388400837227 -0.27974139360404449 0 0.27946390640635083 -0.28508747490340952 0 0.28926388400837227 -0.27974139360404449 0 0.28540847398523272 -0.27755946783866869 0 0.28926388400837227 -0.27974139360404449 0 0.28540847398523272 -0.27755946783866869 0 0.29904458937835138 -0.26029113475088628 0 0.2839355331258146 -0.26423310428812791 0 0.29904458937835138 -0.26029113475088628 0 0.2839355331258146 -0.26423310428812791 0 0.29234565902932352 -0.25064597840384373 0 0.281198677095716 -0.248984737450825 0 0.2839355331258146 -0.26423310428812791 0 0.29234565902932352 -0.25064597840384373 0 0.281198677095716 -0.248984737450825 0 0.27501531608489149 -0.25909202159810768 0 0.26650826402721789 -0.25353368589760811 0 0.281198677095716 -0.248984737450825 0 0.2839355331258146 -0.26423310428812791 0 0.27501531608489149 -0.25909202159810768 0 0.2839355331258146 -0.26423310428812791 0 0.27501531608489149 -0.25909202159810768 0 0.26882647687327771 -0.26817507382536909 0 0.27501531608489149 -0.25909202159810768 0 0.26650826402721789 -0.25353368589760811 0 0.26882647687327771 -0.26817507382536909 0 0.28540847398523272 -0.27755946783866869 0 0.26882647687327771 -0.26817507382536909 0 0.27946390640635083 -0.28508747490340952 0 0.28540847398523272 -0.27755946783866869 0 0.26928618134162952 -0.27894253230867289 0 0.28540847398523272 -0.27755946783866869 0 0.2839355331258146 -0.26423310428812791 0 0.26882647687327771 -0.26817507382536909 0 0.28540847398523272 -0.27755946783866869 0 0.26882647687327771 -0.26817507382536909 0 0.26928618134162952 -0.27894253230867289 0 0.2839355331258146 -0.26423310428812791 0 0.26882647687327771 -0.26817507382536909 0 0.26882647687327771 -0.26817507382536909 0 0.26393790447987692 -0.26945050778585738 0 0.26882647687327771 -0.26817507382536909 0 0.26464283563491853 -0.27504579093613479 0 0.26393790447987692 -0.26945050778585738 0 0.26882647687327771 -0.26817507382536909 0 0.26928618134162952 -0.27894253230867289 0 0.26464283563491853 -0.27504579093613479 0 0.26928618134162952 -0.27894253230867289 0 0.25968848845117121 -0.27773996343395879 0 0.26464283563491853 -0.27504579093613479 0 0.26258469135200468 -0.28700998995347521 0 0.26928618134162952 -0.27894253230867289 0 0.25968848845117121 -0.27773996343395879 0 0.25968848845117121 -0.27773996343395879 0 0.26464283563491853 -0.27504579093613479 0 0.26393790447987692 -0.26945050778585738 0 0.25968848845117121 -0.27773996343395879 0 0.26393790447987692 -0.26945050778585738 0 0.25452320423773772 -0.2701654418338002 0 0.26393790447987692 -0.26945050778585738 0 0.25452320423773772 -0.2701654418338002 0 0.25192664630764389 -0.25861080555809279 0 0.25260855503435592 -0.28574268745687309 0 0.25968848845117121 -0.27773996343395879 0 0.2485279035590286 -0.27640246736262569 0 0.25968848845117121 -0.27773996343395879 0 0.25452320423773772 -0.2701654418338002 0 0.2485279035590286 -0.27640246736262569 0 0.26882647687327771 -0.26817507382536909 0 0.25192664630764389 -0.25861080555809279 0 0.26650826402721789 -0.25353368589760811 0 0.26882647687327771 -0.26817507382536909 0 0.25192664630764389 -0.25861080555809279 0 0.26882647687327771 -0.26817507382536909 0 0.26393790447987692 -0.26945050778585738 0 0.25192664630764389 -0.25861080555809279 0 0.25341282203674043 -0.24662775844995141 0 0.26650826402721789 -0.25353368589760811 0 0.25192664630764389 -0.25861080555809279 0 0.25341282203674043 -0.24662775844995141 0 0.25192664630764389 -0.25861080555809279 0 0.2350268157420097 -0.24904653729081719 0 0.25192664630764389 -0.25861080555809279 0 0.2350268157420097 -0.24904653729081719 0 0.25192664630764389 -0.25861080555809279 0 0.23869171166516021 -0.26794313612094961 0 0.2350268157420097 -0.24904653729081719 0 0.25452320423773772 -0.2701654418338002 0 0.25192664630764389 -0.25861080555809279 0 0.23869171166516021 -0.26794313612094961 0 0.25452320423773772 -0.2701654418338002 0 0.2485279035590286 -0.27640246736262569 0 0.23869171166516021 -0.26794313612094961 0 0.2485279035590286 -0.27640246736262569 0 0.23869171166516021 -0.26794313612094961 0 0.24043977053826729 -0.28269202206275812 0 0.23869171166516021 -0.26794313612094961 0 0.22270149560854541 -0.27954275617250368 0 0.24043977053826729 -0.28269202206275812 0 0.23869171166516021 -0.26794313612094961 0 0.22270149560854541 -0.27954275617250368 0 0.2190985368162951 -0.25912799282139543 0 0.2190985368162951 -0.25912799282139543 0 0.2350268157420097 -0.24904653729081719 0 0.21996486111888541 -0.2436093550118559 0 0.23869171166516021 -0.26794313612094961 0 0.2190985368162951 -0.25912799282139543 0 0.2350268157420097 -0.24904653729081719 0 0.2190985368162951 -0.25912799282139543 0 0.2025172860866353 -0.26809504023905439 0 0.20113454675344511 -0.24168013374319541 0 0.22270149560854541 -0.27954275617250368 0 0.2190985368162951 -0.25912799282139543 0 0.2025172860866353 -0.26809504023905439 0 0.22270149560854541 -0.27954275617250368 0 0.2025172860866353 -0.26809504023905439 0 0.2065420739497523 -0.29551704326203432 0 0.2025172860866353 -0.26809504023905439 0 0.17906967949579819 -0.25585294081085752 0 0.18430153976103031 -0.27440817528834172 0 0.2025172860866353 -0.26809504023905439 0 0.2065420739497523 -0.29551704326203432 0 0.18430153976103031 -0.27440817528834172 0 0.2025172860866353 -0.26809504023905439 0 0.17906967949579819 -0.25585294081085752 0 0.20113454675344511 -0.24168013374319541 0 0.2065420739497523 -0.29551704326203432 0 0.20560894544430899 -0.31285677440353071 0 0.18696348394591361 -0.31730994122669448 0 0.2065420739497523 -0.29551704326203432 0 0.18696348394591361 -0.31730994122669448 0 0.17778689638097189 -0.29255283042366981 0 0.2065420739497523 -0.29551704326203432 0 0.18430153976103031 -0.27440817528834172 0 0.17778689638097189 -0.29255283042366981 0 0.2065420739497523 -0.29551704326203432 0 0.17778689638097189 -0.29255283042366981 0 0.22270149560854541 -0.27954275617250368 0 0.2065420739497523 -0.29551704326203432 0 0.22170120739069821 -0.295653551047173 0 0.2065420739497523 -0.29551704326203432 0 0.21742788490679529 -0.3068809021787422 0 0.22170120739069821 -0.295653551047173 0 0.2065420739497523 -0.29551704326203432 0 0.21742788490679529 -0.3068809021787422 0 0.20560894544430899 -0.31285677440353071 0 0.21742788490679529 -0.3068809021787422 0 0.228550871923383 -0.30375929263887241 0 0.2264239252980719 -0.31712673164433808 0 0.21742788490679529 -0.3068809021787422 0 0.228550871923383 -0.30375929263887241 0 0.22170120739069821 -0.295653551047173 0 0.228550871923383 -0.30375929263887241 0 0.22170120739069821 -0.295653551047173 0 0.23328371056501501 -0.2925677609837124 0 0.228550871923383 -0.30375929263887241 0 0.23328371056501501 -0.2925677609837124 0 0.24100567863486491 -0.30414032571889749 0 0.228550871923383 -0.30375929263887241 0 0.2353275297534094 -0.31194314904896803 0 0.2264239252980719 -0.31712673164433808 0 0.22270149560854541 -0.27954275617250368 0 0.22170120739069821 -0.295653551047173 0 0.23328371056501501 -0.2925677609837124 0 0.22270149560854541 -0.27954275617250368 0 0.23328371056501501 -0.2925677609837124 0 0.24043977053826729 -0.28269202206275812 0 0.23328371056501501 -0.2925677609837124 0 0.24043977053826729 -0.28269202206275812 0 0.24574364859242551 -0.29302519913323732 0 0.23328371056501501 -0.2925677609837124 0 0.24574364859242551 -0.29302519913323732 0 0.24100567863486491 -0.30414032571889749 0 0.25260855503435592 -0.28574268745687309 0 0.24043977053826729 -0.28269202206275812 0 0.24574364859242551 -0.29302519913323732 0 0.25260855503435592 -0.28574268745687309 0 0.2485279035590286 -0.27640246736262569 0 0.24043977053826729 -0.28269202206275812 0 0.2353275297534094 -0.31194314904896803 0 0.24100567863486491 -0.30414032571889749 0 0.24322753330784311 -0.31371279145540037 0 0.228550871923383 -0.30375929263887241 0 0.2353275297534094 -0.31194314904896803 0 0.24100567863486491 -0.30414032571889749 0 0.24574364859242551 -0.29302519913323732 0 0.24100567863486491 -0.30414032571889749 0 0.24897705561654959 -0.30121859219767683 0 0.25211992593748012 -0.30975187206972138 0 0.24100567863486491 -0.30414032571889749 0 0.24897705561654959 -0.30121859219767683 0 0.25211992593748012 -0.30975187206972138 0 0.24100567863486491 -0.30414032571889749 0 0.24322753330784311 -0.31371279145540037 0 0.24322753330784311 -0.31371279145540037 0 0.23857027804613981 -0.32138224810125993 0 0.247817453740384 -0.32225863955356682 0 0.25211992593748012 -0.30975187206972138 0 0.24322753330784311 -0.31371279145540037 0 0.247817453740384 -0.32225863955356682 0 0.2353275297534094 -0.31194314904896803 0 0.24322753330784311 -0.31371279145540037 0 0.23857027804613981 -0.32138224810125993 0 0.23857027804613981 -0.32138224810125993 0 0.247817453740384 -0.32225863955356682 0 0.23785699616725281 -0.33007620281605271 0 0.23857027804613981 -0.32138224810125993 0 0.23785699616725281 -0.33007620281605271 0 0.2306858680886256 -0.3276710668335921 0 0.2526697410387454 -0.33705888197568917 0 0.2264385528228966 -0.33846018953593299 0 0.24924542179033449 -0.34785108462561692 0 0.2526697410387454 -0.33705888197568917 0 0.23785699616725281 -0.33007620281605271 0 0.2264385528228966 -0.33846018953593299 0 0.2526697410387454 -0.33705888197568917 0 0.2264385528228966 -0.33846018953593299 0 0.2526697410387454 -0.33705888197568917 0 0.247817453740384 -0.32225863955356682 0 0.23785699616725281 -0.33007620281605271 0 0.2242257937706055 -0.34213263591190662 0 0.2264385528228966 -0.33846018953593299 0 0.24924542179033449 -0.34785108462561692 0 0.23785699616725281 -0.33007620281605271 0 0.22858955416578389 -0.3328383909461603 0 0.2264385528228966 -0.33846018953593299 0 0.23785699616725281 -0.33007620281605271 0 0.22858955416578389 -0.3328383909461603 0 0.2306858680886256 -0.3276710668335921 0 0.22858955416578389 -0.3328383909461603 0 0.2242784909847812 -0.33183526782394968 0 0.2306858680886256 -0.3276710668335921 0 0.2242257937706055 -0.34213263591190662 0 0.2264385528228966 -0.33846018953593299 0 0.2226341433841576 -0.34108624180132041 0 0.2242257937706055 -0.34213263591190662 0 0.2226341433841576 -0.34108624180132041 0 0.22368786276536309 -0.33614922772127381 0 0.2226341433841576 -0.34108624180132041 0 0.22368786276536309 -0.33614922772127381 0 0.2264385528228966 -0.33846018953593299 0 0.2226341433841576 -0.34108624180132041 0 0.2226341433841576 -0.34108624180132041 0 0.21671485914699609 -0.33719474388356052 0 0.22368786276536309 -0.33614922772127381 0 0.2226341433841576 -0.34108624180132041 0 0.21671485914699609 -0.33719474388356052 0 0.2242784909847812 -0.33183526782394968 0 0.2207052671381102 -0.32745053199879071 0 0.21671485914699609 -0.33719474388356052 0 0.2242784909847812 -0.33183526782394968 0 0.2207052671381102 -0.32745053199879071 0 0.2306858680886256 -0.3276710668335921 0 0.22858955416578389 -0.3328383909461603 0 0.22368786276536309 -0.33614922772127381 0 0.2264385528228966 -0.33846018953593299 0 0.22858955416578389 -0.3328383909461603 0 0.22368786276536309 -0.33614922772127381 0 0.2242784909847812 -0.33183526782394968 0 0.22368786276536309 -0.33614922772127381 0 0.2242784909847812 -0.33183526782394968 0 0.21671485914699609 -0.33719474388356052 0 0.2207052671381102 -0.32745053199879071 0 0.2264239252980719 -0.31712673164433808 0 0.21618069473265181 -0.31977860094767219 0 0.2207052671381102 -0.32745053199879071 0 0.2264239252980719 -0.31712673164433808 0 0.2306858680886256 -0.3276710668335921 0 0.21742788490679529 -0.3068809021787422 0 0.2264239252980719 -0.31712673164433808 0 0.21618069473265181 -0.31977860094767219 0 0.2353275297534094 -0.31194314904896803 0 0.23857027804613981 -0.32138224810125993 0 0.2264239252980719 -0.31712673164433808 0 0.23857027804613981 -0.32138224810125993 0 0.2264239252980719 -0.31712673164433808 0 0.2306858680886256 -0.3276710668335921 0 0.2394707095686647 -0.37295209411238989 0 0.24933402445149699 -0.35863946739667663 0 0.2311977199034719 -0.36203556637696782 0 0.25160212449738772 -0.37188527872020077 0 0.2394707095686647 -0.37295209411238989 0 0.24933402445149699 -0.35863946739667663 0 0.2394707095686647 -0.37295209411238989 0 0.24933402445149699 -0.35863946739667663 0 0.2242257937706055 -0.34213263591190662 0 0.24933402445149699 -0.35863946739667663 0 0.24924542179033449 -0.34785108462561692 0 0.2242257937706055 -0.34213263591190662 0 0.24933402445149699 -0.35863946739667663 0 0.2242257937706055 -0.34213263591190662 0 0.24924542179033449 -0.34785108462561692 0 0.2242257937706055 -0.34213263591190662 0 0.24933402445149699 -0.35863946739667663 0 0.2311977199034719 -0.36203556637696782 0 0.2242257937706055 -0.34213263591190662 0 0.2311977199034719 -0.36203556637696782 0 0.21813385785414091 -0.36217152638668482 0 0.2226341433841576 -0.34108624180132041 0 0.21813385785414091 -0.36217152638668482 0 0.2242257937706055 -0.34213263591190662 0 0.2226341433841576 -0.34108624180132041 0 0.21813385785414091 -0.36217152638668482 0 0.22643643375491601 -0.37340597197409481 0 0.21813385785414091 -0.36217152638668482 0 0.2137724867624701 -0.38260595216632759 0 0.2311977199034719 -0.36203556637696782 0 0.22643643375491601 -0.37340597197409481 0 0.21813385785414091 -0.36217152638668482 0 0.2394707095686647 -0.37295209411238989 0 0.2311977199034719 -0.36203556637696782 0 0.22643643375491601 -0.37340597197409481 0 0.20534424777090701 -0.36933827040323258 0 0.21813385785414091 -0.36217152638668482 0 0.2137724867624701 -0.38260595216632759 0 0.20534424777090701 -0.36933827040323258 0 0.21813385785414091 -0.36217152638668482 0 0.19846068577501461 -0.35666658551633251 0 0.21813385785414091 -0.36217152638668482 0 0.2137724867624701 -0.38260595216632759 0 0.21813385785414091 -0.36217152638668482 0 0.20958350403355769 -0.3492495256787797 0 0.19846068577501461 -0.35666658551633251 0 0.2226341433841576 -0.34108624180132041 0 0.21813385785414091 -0.36217152638668482 0 0.20958350403355769 -0.3492495256787797 0 0.20958350403355769 -0.3492495256787797 0 0.19846068577501461 -0.35666658551633251 0 0.1992442435592639 -0.33642289020505972 0 0.19846068577501461 -0.35666658551633251 0 0.1992442435592639 -0.33642289020505972 0 0.18350878839487489 -0.33913325103471559 0 0.20534424777090701 -0.36933827040323258 0 0.19846068577501461 -0.35666658551633251 0 0.1910099606920023 -0.37590901754358558 0 0.19846068577501461 -0.35666658551633251 0 0.1798042651453228 -0.35466473881119609 0 0.1910099606920023 -0.37590901754358558 0 0.20718092121501311 -0.32506371285519581 0 0.20560894544430899 -0.31285677440353071 0 0.21618069473265181 -0.31977860094767219 0 0.21742788490679529 -0.3068809021787422 0 0.20560894544430899 -0.31285677440353071 0 0.21618069473265181 -0.31977860094767219 0 0.2207052671381102 -0.32745053199879071 0 0.20718092121501311 -0.32506371285519581 0 0.21618069473265181 -0.31977860094767219 0 0.2226341433841576 -0.34108624180132041 0 0.1992442435592639 -0.33642289020505972 0 0.2207052671381102 -0.32745053199879071 0 0.20718092121501311 -0.32506371285519581 0 0.21671485914699609 -0.33719474388356052 0 0.2226341433841576 -0.34108624180132041 0 0.20958350403355769 -0.3492495256787797 0 0.1992442435592639 -0.33642289020505972 0 0.2226341433841576 -0.34108624180132041 0 0.21671485914699609 -0.33719474388356052 0 0.1992442435592639 -0.33642289020505972 0 0.20718092121501311 -0.32506371285519581 0 0.21671485914699609 -0.33719474388356052 0 0.1992442435592639 -0.33642289020505972 0 0.1992442435592639 -0.33642289020505972 0 0.18696348394591361 -0.31730994122669448 0 0.18350878839487489 -0.33913325103471559 0 0.20718092121501311 -0.32506371285519581 0 0.1992442435592639 -0.33642289020505972 0 0.18696348394591361 -0.31730994122669448 0 0.20718092121501311 -0.32506371285519581 0 0.20560894544430899 -0.31285677440353071 0 0.18696348394591361 -0.31730994122669448 0 0.18696348394591361 -0.31730994122669448 0 0.18350878839487489 -0.33913325103471559 0 0.16859856959864319 -0.33342046007880671 0 0.18350878839487489 -0.33913325103471559 0 0.16859856959864319 -0.33342046007880671 0 0.1798042651453228 -0.35466473881119609 0 0.16859856959864319 -0.33342046007880671 0 0.15926593149683119 -0.35201440307888621 0 0.14515046190247721 -0.33144520688047641 0 0.16859856959864319 -0.33342046007880671 0 0.1573928740519637 -0.31217618134641711 0 0.16859856959864319 -0.33342046007880671 0 0.14515046190247721 -0.33144520688047641 0 0.1573928740519637 -0.31217618134641711 0 0.18696348394591361 -0.31730994122669448 0 0.16859856959864319 -0.33342046007880671 0 0.1573928740519637 -0.31217618134641711 0 0.16839352932999899 -0.36925506526420282 0 0.1910099606920023 -0.37590901754358558 0 0.1798042651453228 -0.35466473881119609 0 0.16839352932999899 -0.36925506526420282 0 0.1910099606920023 -0.37590901754358558 0 0.1798042651453228 -0.35466473881119609 0 0.1910099606920023 -0.37590901754358558 0 0.16859856959864319 -0.33342046007880671 0 0.1798042651453228 -0.35466473881119609 0 0.19846068577501461 -0.35666658551633251 0 0.18350878839487489 -0.33913325103471559 0 0.1798042651453228 -0.35466473881119609 0 0.1798042651453228 -0.35466473881119609 0 0.15926593149683119 -0.35201440307888621 0 0.16839352932999899 -0.36925506526420282 0 0.16859856959864319 -0.33342046007880671 0 0.1798042651453228 -0.35466473881119609 0 0.15926593149683119 -0.35201440307888621 0 0.15926593149683119 -0.35201440307888621 0 0.16839352932999899 -0.36925506526420282 0 0.15168346844988659 -0.36895485848159792 0 0.16839352932999899 -0.36925506526420282 0 0.15168346844988659 -0.36895485848159792 0 0.15857276673975301 -0.38629126931327179 0 0.15168346844988659 -0.36895485848159792 0 0.1322343534773614 -0.35704188139671222 0 0.14001575917173131 -0.38283585435835371 0 0.15926593149683119 -0.35201440307888621 0 0.1322343534773614 -0.35704188139671222 0 0.14515046190247721 -0.33144520688047641 0 0.15926593149683119 -0.35201440307888621 0 0.15168346844988659 -0.36895485848159792 0 0.1322343534773614 -0.35704188139671222 0 0.15926593149683119 -0.35201440307888621 0 0.1322343534773614 -0.35704188139671222 0 0.1322343534773614 -0.35704188139671222 0 0.14001575917173131 -0.38283585435835371 0 0.1178893376837227 -0.38219934245992337 0 0.14515046190247721 -0.33144520688047641 0 0.13377124657916459 -0.30898211655826191 0 0.1573928740519637 -0.31217618134641711 0 0.1322343534773614 -0.35704188139671222 0 0.14515046190247721 -0.33144520688047641 0 0.1206838177123966 -0.32721932259578912 0 0.14515046190247721 -0.33144520688047641 0 0.13377124657916459 -0.30898211655826191 0 0.1206838177123966 -0.32721932259578912 0 0.13377124657916459 -0.30898211655826191 0 0.1490317188121914 -0.28958861758530519 0 0.1573928740519637 -0.31217618134641711 0 0.13377124657916459 -0.30898211655826191 0 0.1490317188121914 -0.28958861758530519 0 0.12027654124341081 -0.28662440474694062 0 0.1490317188121914 -0.28958861758530519 0 0.12027654124341081 -0.28662440474694062 0 0.1490317188121914 -0.28958861758530519 0 0.13757032913019701 -0.2743013946703049 0 0.12027654124341081 -0.28662440474694062 0 0.13757032913019701 -0.2743013946703049 0 0.1204670496634643 -0.26707045659413992 0 0.12027654124341081 -0.28662440474694062 0 0.13757032913019701 -0.2743013946703049 0 0.13540154809883059 -0.25586479827743031 0 0.1204670496634643 -0.26707045659413992 0 0.13540154809883059 -0.25586479827743031 0 0.120200565350322 -0.25179215276921502 0 0.1204670496634643 -0.26707045659413992 0 0.13540154809883059 -0.25586479827743031 0 0.1204670496634643 -0.26707045659413992 0 0.13540154809883059 -0.25586479827743031 0 0.1602664144573781 -0.2690240519380126 0 0.15033604653419669 -0.2446591399607205 0 0.1602664144573781 -0.2690240519380126 0 0.15033604653419669 -0.2446591399607205 0 0.13540154809883059 -0.25586479827743031 0 0.15033604653419669 -0.2446591399607205 0 0.13757032913019701 -0.2743013946703049 0 0.13540154809883059 -0.25586479827743031 0 0.1602664144573781 -0.2690240519380126 0 0.1490317188121914 -0.28958861758530519 0 0.13757032913019701 -0.2743013946703049 0 0.1602664144573781 -0.2690240519380126 0 0.1602664144573781 -0.2690240519380126 0 0.1634275993753225 -0.2535295448765581 0 0.15033604653419669 -0.2446591399607205 0 0.1602664144573781 -0.2690240519380126 0 0.1634275993753225 -0.2535295448765581 0 0.17906967949579819 -0.25585294081085752 0 0.1602664144573781 -0.2690240519380126 0 0.17906967949579819 -0.25585294081085752 0 0.18430153976103031 -0.27440817528834172 0 0.1602664144573781 -0.2690240519380126 0 0.18430153976103031 -0.27440817528834172 0 0.17778689638097189 -0.29255283042366981 0 0.18696348394591361 -0.31730994122669448 0 0.17778689638097189 -0.29255283042366981 0 0.1573928740519637 -0.31217618134641711 0 0.1490317188121914 -0.28958861758530519 0 0.17778689638097189 -0.29255283042366981 0 0.1573928740519637 -0.31217618134641711 0 0.1490317188121914 -0.28958861758530519 0 0.17778689638097189 -0.29255283042366981 0 0.1490317188121914 -0.28958861758530519 0 0.1602664144573781 -0.2690240519380126 0 0.17778689638097189 -0.29255283042366981 0 0.2113296567640332 -0.48189921580558343 0 0.20660606429748499 -0.5 0 0.18717000751583951 -0.48330008135221791 0 0.20660606429748499 -0.5 0 0.18717000751583951 -0.48330008135221791 0 0.17684544564302859 -0.5 0 0.2113296567640332 -0.48189921580558343 0 0.19587027472354901 -0.46648357127088141 0 0.18717000751583951 -0.48330008135221791 0 0.2113296567640332 -0.48189921580558343 0 0.22864337089741321 -0.47561085133869602 0 0.214914300256067 -0.46650218342920369 0 0.2113296567640332 -0.48189921580558343 0 0.214914300256067 -0.46650218342920369 0 0.19587027472354901 -0.46648357127088141 0 0.2113296567640332 -0.48189921580558343 0 0.20660606429748499 -0.5 0 0.2363666829519413 -0.49999999999998218 0 0.2113296567640332 -0.48189921580558343 0 0.2363666829519413 -0.49999999999998218 0 0.22864337089741321 -0.47561085133869602 0 0.2363666829519413 -0.49999999999998218 0 0.2422557212111513 -0.47724612715613651 0 0.25922185243802331 -0.48740426898846217 0 0.2363666829519413 -0.49999999999998218 0 0.2422557212111513 -0.47724612715613651 0 0.25494064146824691 -0.47530725931368673 0 0.2422557212111513 -0.47724612715613651 0 0.24814475947036341 -0.45449225431229118 0 0.2363666829519413 -0.49999999999998218 0 0.2422557212111513 -0.47724612715613651 0 0.22864337089741321 -0.47561085133869602 0 0.2422557212111513 -0.47724612715613651 0 0.22864337089741321 -0.47561085133869602 0 0.2359129883315656 -0.46151113046198572 0 0.22538519789621231 -0.45538285900800179 0 0.2359129883315656 -0.46151113046198572 0 0.23513589218268499 -0.44482356049480221 0 0.22864337089741321 -0.47561085133869602 0 0.22538519789621231 -0.45538285900800179 0 0.2359129883315656 -0.46151113046198572 0 0.22864337089741321 -0.47561085133869602 0 0.22538519789621231 -0.45538285900800179 0 0.214914300256067 -0.46650218342920369 0 0.22864337089741321 -0.47561085133869602 0 0.22538519789621231 -0.45538285900800179 0 0.2359129883315656 -0.46151113046198572 0 0.24814475947036341 -0.45449225431229118 0 0.23513589218268499 -0.44482356049480221 0 0.2422557212111513 -0.47724612715613651 0 0.24814475947036341 -0.45449225431229118 0 0.2422557212111513 -0.47724612715613651 0 0.2359129883315656 -0.46151113046198572 0 0.24814475947036341 -0.45449225431229118 0 0.25074670455117909 -0.44443894426240771 0 0.23513589218268499 -0.44482356049480221 0 0.24109491352166151 -0.43487314663041132 0 0.25074670455117909 -0.44443894426240771 0 0.24109491352166151 -0.43487314663041132 0 0.25074670455117909 -0.44443894426240771 0 0.24814475947036341 -0.45449225431229118 0 0.25074670455117909 -0.44443894426240771 0 0.24814475947036341 -0.45449225431229118 0 0.23513589218268499 -0.44482356049480221 0 0.24814475947036341 -0.45449225431229118 0 0.23513589218268499 -0.44482356049480221 0 0.22538519789621231 -0.45538285900800179 0 0.22212702489501079 -0.43515486667730757 0 0.22538519789621231 -0.45538285900800179 0 0.23513589218268499 -0.44482356049480221 0 0.22212702489501079 -0.43515486667730757 0 0.22538519789621231 -0.45538285900800179 0 0.21155054960256739 -0.45093534091906112 0 0.22212702489501079 -0.43515486667730757 0 0.23513589218268499 -0.44482356049480221 0 0.22212702489501079 -0.43515486667730757 0 0.24109491352166151 -0.43487314663041132 0 0.23513589218268499 -0.44482356049480221 0 0.22212702489501079 -0.43515486667730757 0 0.21045495052703539 -0.43753827039755422 0 0.21155054960256739 -0.45093534091906112 0 0.22212702489501079 -0.43515486667730757 0 0.21045495052703539 -0.43753827039755422 0 0.21155054960256739 -0.45093534091906112 0 0.2005515493175303 -0.44455029473141688 0 0.22538519789621231 -0.45538285900800179 0 0.21155054960256739 -0.45093534091906112 0 0.214914300256067 -0.46650218342920369 0 0.21155054960256739 -0.45093534091906112 0 0.214914300256067 -0.46650218342920369 0 0.19587027472354901 -0.46648357127088141 0 0.19587027472354901 -0.46648357127088141 0 0.2005515493175303 -0.44455029473141688 0 0.1814809234827337 -0.45310290042056872 0 0.21155054960256739 -0.45093534091906112 0 0.19587027472354901 -0.46648357127088141 0 0.2005515493175303 -0.44455029473141688 0 0.19587027472354901 -0.46648357127088141 0 0.2005515493175303 -0.44455029473141688 0 0.2005515493175303 -0.44455029473141688 0 0.18745630103394931 -0.43674974347997658 0 0.1814809234827337 -0.45310290042056872 0 0.2005515493175303 -0.44455029473141688 0 0.20523764442525899 -0.4226180470463734 0 0.2005515493175303 -0.44455029473141688 0 0.20075466858465721 -0.42913282534696251 0 0.20523764442525899 -0.4226180470463734 0 0.20075466858465721 -0.42913282534696251 0 0.19536947353427669 -0.41526761856479089 0 0.20523764442525899 -0.4226180470463734 0 0.20075466858465721 -0.42913282534696251 0 0.20523764442525899 -0.4226180470463734 0 0.2005515493175303 -0.44455029473141688 0 0.20075466858465721 -0.42913282534696251 0 0.18745630103394931 -0.43674974347997658 0 0.20075466858465721 -0.42913282534696251 0 0.18853450790576731 -0.42484096194272392 0 0.18745630103394931 -0.43674974347997658 0 0.20075466858465721 -0.42913282534696251 0 0.18853450790576731 -0.42484096194272392 0 0.19536947353427669 -0.41526761856479089 0 0.19536947353427669 -0.41526761856479089 0 0.20950265533699089 -0.40261148517914003 0 0.1931833753369884 -0.4022328678670718 0 0.18853450790576731 -0.42484096194272392 0 0.19536947353427669 -0.41526761856479089 0 0.18171642553161771 -0.41427598398546239 0 0.19536947353427669 -0.41526761856479089 0 0.1931833753369884 -0.4022328678670718 0 0.18171642553161771 -0.41427598398546239 0 0.19536947353427669 -0.41526761856479089 0 0.20523764442525899 -0.4226180470463734 0 0.20523764442525899 -0.4226180470463734 0 0.21970940685810519 -0.4201453631638159 0 0.21729178882119829 -0.4051358596503245 0 0.20523764442525899 -0.4226180470463734 0 0.20950265533699089 -0.40261148517914003 0 0.19536947353427669 -0.41526761856479089 0 0.20523764442525899 -0.4226180470463734 0 0.20950265533699089 -0.40261148517914003 0 0.20523764442525899 -0.4226180470463734 0 0.21729178882119829 -0.4051358596503245 0 0.20523764442525899 -0.4226180470463734 0 0.21729178882119829 -0.4051358596503245 0 0.20950265533699089 -0.40261148517914003 0 0.21970940685810519 -0.4201453631638159 0 0.21729178882119829 -0.4051358596503245 0 0.20523764442525899 -0.4226180470463734 0 0.22212702489501079 -0.43515486667730757 0 0.20523764442525899 -0.4226180470463734 0 0.22212702489501079 -0.43515486667730757 0 0.21970940685810519 -0.4201453631638159 0 0.21045495052703539 -0.43753827039755422 0 0.20523764442525899 -0.4226180470463734 0 0.22212702489501079 -0.43515486667730757 0 0.21045495052703539 -0.43753827039755422 0 0.2005515493175303 -0.44455029473141688 0 0.20523764442525899 -0.4226180470463734 0 0.22212702489501079 -0.43515486667730757 0 0.2324043945106356 -0.42573182301954221 0 0.24109491352166151 -0.43487314663041132 0 0.22212702489501079 -0.43515486667730757 0 0.21970940685810519 -0.4201453631638159 0 0.22212702489501079 -0.43515486667730757 0 0.2324043945106356 -0.42573182301954221 0 0.21970940685810519 -0.4201453631638159 0 0.25525183191841749 -0.42703218092561618 0 0.25074670455117909 -0.44443894426240771 0 0.24109491352166151 -0.43487314663041132 0 0.2324043945106356 -0.42573182301954221 0 0.24109491352166151 -0.43487314663041132 0 0.24503117862720539 -0.42320363242817988 0 0.25525183191841749 -0.42703218092561618 0 0.24109491352166151 -0.43487314663041132 0 0.24503117862720539 -0.42320363242817988 0 0.25975695928564868 -0.40962541758882293 0 0.24503117862720539 -0.42320363242817988 0 0.23900525377743331 -0.41304827011698919 0 0.2324043945106356 -0.42573182301954221 0 0.24503117862720539 -0.42320363242817988 0 0.23900525377743331 -0.41304827011698919 0 0.23900525377743331 -0.41304827011698919 0 0.21970940685810519 -0.4201453631638159 0 0.23140163590389221 -0.40235007968175701 0 0.21970940685810519 -0.4201453631638159 0 0.23140163590389221 -0.40235007968175701 0 0.21729178882119829 -0.4051358596503245 0 0.2324043945106356 -0.42573182301954221 0 0.23900525377743331 -0.41304827011698919 0 0.21970940685810519 -0.4201453631638159 0 0.22960739468583249 -0.38726472082810343 0 0.21729178882119829 -0.4051358596503245 0 0.23140163590389221 -0.40235007968175701 0 0.22960739468583249 -0.38726472082810343 0 0.21729178882119829 -0.4051358596503245 0 0.22960739468583249 -0.38726472082810343 0 0.2154403475500021 -0.39364139946644328 0 0.21729178882119829 -0.4051358596503245 0 0.25975695928564868 -0.40962541758882293 0 0.23900525377743331 -0.41304827011698919 0 0.24633614840484841 -0.39218646675513258 0 0.23900525377743331 -0.41304827011698919 0 0.23140163590389221 -0.40235007968175701 0 0.24633614840484841 -0.39218646675513258 0 0.23140163590389221 -0.40235007968175701 0 0.24633614840484841 -0.39218646675513258 0 0.22960739468583249 -0.38726472082810343 0 0.24633614840484841 -0.39218646675513258 0 0.23687384646039289 -0.37989118744237937 0 0.22960739468583249 -0.38726472082810343 0 0.24633614840484841 -0.39218646675513258 0 0.22960739468583249 -0.38726472082810343 0 0.25160212449738772 -0.37188527872020077 0 0.2394707095686647 -0.37295209411238989 0 0.2470775265958858 -0.38035131127527161 0 0.25523654392981482 -0.38833463284871489 0 0.24633614840484841 -0.39218646675513258 0 0.2470775265958858 -0.38035131127527161 0 0.24633614840484841 -0.39218646675513258 0 0.2470775265958858 -0.38035131127527161 0 0.23687384646039289 -0.37989118744237937 0 0.24633614840484841 -0.39218646675513258 0 0.23687384646039289 -0.37989118744237937 0 0.2394707095686647 -0.37295209411238989 0 0.23687384646039289 -0.37989118744237937 0 0.22960739468583249 -0.38726472082810343 0 0.2394707095686647 -0.37295209411238989 0 0.2470775265958858 -0.38035131127527161 0 0.23687384646039289 -0.37989118744237937 0 0.2394707095686647 -0.37295209411238989 0 0.22960739468583249 -0.38726472082810343 0 0.22643643375491601 -0.37340597197409481 0 0.22960739468583249 -0.38726472082810343 0 0.2137724867624701 -0.38260595216632759 0 0.22960739468583249 -0.38726472082810343 0 0.2137724867624701 -0.38260595216632759 0 0.22960739468583249 -0.38726472082810343 0 0.2137724867624701 -0.38260595216632759 0 0.2154403475500021 -0.39364139946644328 0 0.2394707095686647 -0.37295209411238989 0 0.22643643375491601 -0.37340597197409481 0 0.22960739468583249 -0.38726472082810343 0 0.20534424777090701 -0.36933827040323258 0 0.2137724867624701 -0.38260595216632759 0 0.1910099606920023 -0.37590901754358558 0 0.2137724867624701 -0.38260595216632759 0 0.20950265533699089 -0.40261148517914003 0 0.19872373531966031 -0.39053315020774287 0 0.2137724867624701 -0.38260595216632759 0 0.20950265533699089 -0.40261148517914003 0 0.2137724867624701 -0.38260595216632759 0 0.2154403475500021 -0.39364139946644328 0 0.20950265533699089 -0.40261148517914003 0 0.2154403475500021 -0.39364139946644328 0 0.21729178882119829 -0.4051358596503245 0 0.2154403475500021 -0.39364139946644328 0 0.21729178882119829 -0.4051358596503245 0 0.20950265533699089 -0.40261148517914003 0 0.20950265533699089 -0.40261148517914003 0 0.1931833753369884 -0.4022328678670718 0 0.19872373531966031 -0.39053315020774287 0 0.1931833753369884 -0.4022328678670718 0 0.19872373531966031 -0.39053315020774287 0 0.1872030212917532 -0.39003273704757713 0 0.1910099606920023 -0.37590901754358558 0 0.19872373531966031 -0.39053315020774287 0 0.1872030212917532 -0.39003273704757713 0 0.2137724867624701 -0.38260595216632759 0 0.1910099606920023 -0.37590901754358558 0 0.19872373531966031 -0.39053315020774287 0 0.1910099606920023 -0.37590901754358558 0 0.19872373531966031 -0.39053315020774287 0 0.2137724867624701 -0.38260595216632759 0 0.1910099606920023 -0.37590901754358558 0 0.16839352932999899 -0.36925506526420282 0 0.1910099606920023 -0.37590901754358558 0 0.17606663636488101 -0.38493758315358828 0 0.1910099606920023 -0.37590901754358558 0 0.17606663636488101 -0.38493758315358828 0 0.1872030212917532 -0.39003273704757713 0 0.17606663636488101 -0.38493758315358828 0 0.1815508801008901 -0.39983700596882937 0 0.16530900891721759 -0.4045063309988885 0 0.1815508801008901 -0.39983700596882937 0 0.16530900891721759 -0.4045063309988885 0 0.18171642553161771 -0.41427598398546239 0 0.17606663636488101 -0.38493758315358828 0 0.1872030212917532 -0.39003273704757713 0 0.1815508801008901 -0.39983700596882937 0 0.1931833753369884 -0.4022328678670718 0 0.1872030212917532 -0.39003273704757713 0 0.1815508801008901 -0.39983700596882937 0 0.1931833753369884 -0.4022328678670718 0 0.1815508801008901 -0.39983700596882937 0 0.18171642553161771 -0.41427598398546239 0 0.17606663636488101 -0.38493758315358828 0 0.16530900891721759 -0.4045063309988885 0 0.15857276673975301 -0.38629126931327179 0 0.16839352932999899 -0.36925506526420282 0 0.17606663636488101 -0.38493758315358828 0 0.15857276673975301 -0.38629126931327179 0 0.15168346844988659 -0.36895485848159792 0 0.15857276673975301 -0.38629126931327179 0 0.14001575917173131 -0.38283585435835371 0 0.14001575917173131 -0.38283585435835371 0 0.12460696543640019 -0.40230114758403968 0 0.1178893376837227 -0.38219934245992337 0 0.14001575917173131 -0.38283585435835371 0 0.14366961319943061 -0.40436803529378579 0 0.12460696543640019 -0.40230114758403968 0 0.16530900891721759 -0.4045063309988885 0 0.15857276673975301 -0.38629126931327179 0 0.14366961319943061 -0.40436803529378579 0 0.15857276673975301 -0.38629126931327179 0 0.14001575917173131 -0.38283585435835371 0 0.14366961319943061 -0.40436803529378579 0 0.14366961319943061 -0.40436803529378579 0 0.1354651031297574 -0.42460660209803208 0 0.1524209015359195 -0.4233301224349949 0 0.16530900891721759 -0.4045063309988885 0 0.14366961319943061 -0.40436803529378579 0 0.1524209015359195 -0.4233301224349949 0 0.14366961319943061 -0.40436803529378579 0 0.1354651031297574 -0.42460660209803208 0 0.12460696543640019 -0.40230114758403968 0 0.1354651031297574 -0.42460660209803208 0 0.1161040092150928 -0.42192261445329549 0 0.12460696543640019 -0.40230114758403968 0 0.1524209015359195 -0.4233301224349949 0 0.16168692185845621 -0.43632819541574752 0 0.14258344162035441 -0.44475428665539529 0 0.1354651031297574 -0.42460660209803208 0 0.1524209015359195 -0.4233301224349949 0 0.14258344162035441 -0.44475428665539529 0 0.16168692185845621 -0.43632819541574752 0 0.16748031264235061 -0.42187584129403283 0 0.1773756708443357 -0.42877863833642721 0 0.16168692185845621 -0.43632819541574752 0 0.1773756708443357 -0.42877863833642721 0 0.1739915063446569 -0.44112578915873518 0 0.1524209015359195 -0.4233301224349949 0 0.16168692185845621 -0.43632819541574752 0 0.16748031264235061 -0.42187584129403283 0 0.16530900891721759 -0.4045063309988885 0 0.1524209015359195 -0.4233301224349949 0 0.16748031264235061 -0.42187584129403283 0 0.16530900891721759 -0.4045063309988885 0 0.16748031264235061 -0.42187584129403283 0 0.18171642553161771 -0.41427598398546239 0 0.16748031264235061 -0.42187584129403283 0 0.18171642553161771 -0.41427598398546239 0 0.1773756708443357 -0.42877863833642721 0 0.18853450790576731 -0.42484096194272392 0 0.18171642553161771 -0.41427598398546239 0 0.1773756708443357 -0.42877863833642721 0 0.18853450790576731 -0.42484096194272392 0 0.18745630103394931 -0.43674974347997658 0 0.1773756708443357 -0.42877863833642721 0 0.18745630103394931 -0.43674974347997658 0 0.1773756708443357 -0.42877863833642721 0 0.1739915063446569 -0.44112578915873518 0 0.18745630103394931 -0.43674974347997658 0 0.1814809234827337 -0.45310290042056872 0 0.1739915063446569 -0.44112578915873518 0 0.1814809234827337 -0.45310290042056872 0 0.1739915063446569 -0.44112578915873518 0 0.1621300563830303 -0.45319625763958232 0 0.19587027472354901 -0.46648357127088141 0 0.1814809234827337 -0.45310290042056872 0 0.1678285310564662 -0.47524140514129198 0 0.1814809234827337 -0.45310290042056872 0 0.1621300563830303 -0.45319625763958232 0 0.1678285310564662 -0.47524140514129198 0 0.1621300563830303 -0.45319625763958232 0 0.14529518487512499 -0.46988836379506799 0 0.1678285310564662 -0.47524140514129198 0 0.16168692185845621 -0.43632819541574752 0 0.1739915063446569 -0.44112578915873518 0 0.1621300563830303 -0.45319625763958232 0 0.16168692185845621 -0.43632819541574752 0 0.1621300563830303 -0.45319625763958232 0 0.14258344162035441 -0.44475428665539529 0 0.14258344162035441 -0.44475428665539529 0 0.12496800267793939 -0.46184219749973537 0 0.1164051801059061 -0.44387245065085351 0 0.1354651031297574 -0.42460660209803208 0 0.14258344162035441 -0.44475428665539529 0 0.1164051801059061 -0.44387245065085351 0 0.14258344162035441 -0.44475428665539529 0 0.14529518487512499 -0.46988836379506799 0 0.12496800267793939 -0.46184219749973537 0 0.1621300563830303 -0.45319625763958232 0 0.14258344162035441 -0.44475428665539529 0 0.14529518487512499 -0.46988836379506799 0 0.14529518487512499 -0.46988836379506799 0 0.1295890766028302 -0.4822651250737503 0 0.14708482698857231 -0.5 0 0.14529518487512499 -0.46988836379506799 0 0.14708482698857231 -0.5 0 0.1678285310564662 -0.47524140514129198 0 0.14529518487512499 -0.46988836379506799 0 0.1295890766028302 -0.4822651250737503 0 0.12496800267793939 -0.46184219749973537 0 0.1295890766028302 -0.4822651250737503 0 0.14708482698857231 -0.5 0 0.1173242083341161 -0.5 0 0.14708482698857231 -0.5 0 0.1678285310564662 -0.47524140514129198 0 0.17684544564302859 -0.5 0 0.19587027472354901 -0.46648357127088141 0 0.1678285310564662 -0.47524140514129198 0 0.18717000751583951 -0.48330008135221791 0 0.1678285310564662 -0.47524140514129198 0 0.18717000751583951 -0.48330008135221791 0 0.17684544564302859 -0.5 0 0.075477076362246071 -0.49999999999999012 0 0.074292586678457645 -0.47956371700446843 0 0.053675528067542937 -0.5 0 0.075477076362246071 -0.49999999999999012 0 0.074292586678457645 -0.47956371700446843 0 0.075477076362246071 -0.49999999999999012 0 0.074292586678457645 -0.47956371700446843 0 0.080335843337164453 -0.47956371700447348 0 0.074292586678457645 -0.47956371700446843 0 0.062782350376610924 -0.47023537011986571 0 0.073108096994668956 -0.45912743400894679 0 0.080335843337164453 -0.47956371700447348 0 0.073108096994668956 -0.45912743400894679 0 0.074292586678457645 -0.47956371700446843 0 0.073108096994668956 -0.45912743400894679 0 0.074292586678457645 -0.47956371700446843 0 0.080335843337164453 -0.47956371700447348 0 0.073108096994668956 -0.45912743400894679 0 0.080335843337164453 -0.47956371700447348 0 0.097406343227820727 -0.48466766186339372 0 0.093148637933016087 -0.46656676092465321 0 0.075477076362246071 -0.49999999999999012 0 0.080335843337164453 -0.47956371700447348 0 0.087563589679659715 -0.50000000000000022 0 0.080335843337164453 -0.47956371700447348 0 0.087563589679659715 -0.50000000000000022 0 0.097406343227820727 -0.48466766186339372 0 0.080335843337164453 -0.47956371700447348 0 0.087563589679659715 -0.50000000000000022 0 0.097406343227820727 -0.48466766186339372 0 0.1173242083341161 -0.5 0 0.110818653980936 -0.47474036296869287 0 0.087563589679659715 -0.50000000000000022 0 0.097406343227820727 -0.48466766186339372 0 0.1173242083341161 -0.5 0 0.1295890766028302 -0.4822651250737503 0 0.1173242083341161 -0.5 0 0.110818653980936 -0.47474036296869287 0 0.1295890766028302 -0.4822651250737503 0 0.110818653980936 -0.47474036296869287 0 0.12496800267793939 -0.46184219749973537 0 0.097406343227820727 -0.48466766186339372 0 0.110818653980936 -0.47474036296869287 0 0.093148637933016087 -0.46656676092465321 0 0.107579344554805 -0.45845530199420759 0 0.092556248076227324 -0.44525473792710341 0 0.093148637933016087 -0.46656676092465321 0 0.110818653980936 -0.47474036296869287 0 0.107579344554805 -0.45845530199420759 0 0.093148637933016087 -0.46656676092465321 0 0.110818653980936 -0.47474036296869287 0 0.107579344554805 -0.45845530199420759 0 0.12496800267793939 -0.46184219749973537 0 0.107579344554805 -0.45845530199420759 0 0.12496800267793939 -0.46184219749973537 0 0.1164051801059061 -0.44387245065085351 0 0.1164051801059061 -0.44387245065085351 0 0.092556248076227324 -0.44525473792710341 0 0.094394577370425961 -0.42338773954861447 0 0.107579344554805 -0.45845530199420759 0 0.1164051801059061 -0.44387245065085351 0 0.092556248076227324 -0.44525473792710341 0 0.092556248076227324 -0.44525473792710341 0 0.073108096994668956 -0.45912743400894679 0 0.071635584439335168 -0.43372182372199802 0 0.092556248076227324 -0.44525473792710341 0 0.093148637933016087 -0.46656676092465321 0 0.073108096994668956 -0.45912743400894679 0 0.080335843337164453 -0.47956371700447348 0 0.093148637933016087 -0.46656676092465321 0 0.073108096994668956 -0.45912743400894679 0 0.062782350376610924 -0.47023537011986571 0 0.073108096994668956 -0.45912743400894679 0 0.05203069298600415 -0.46433786981816999 0 0.073108096994668956 -0.45912743400894679 0 0.068299085686032865 -0.44553006750285362 0 0.05203069298600415 -0.46433786981816999 0 0.073108096994668956 -0.45912743400894679 0 0.071635584439335168 -0.43372182372199802 0 0.073108096994668956 -0.45912743400894679 0 0.068299085686032865 -0.44553006750285362 0 0.071635584439335168 -0.43372182372199802 0 0.068299085686032865 -0.44553006750285362 0 0.071635584439335168 -0.43372182372199802 0 0.059206114331283539 -0.43749168440462771 0 0.073108096994668956 -0.45912743400894679 0 0.068299085686032865 -0.44553006750285362 0 0.071635584439335168 -0.43372182372199802 0 0.057696364084092608 -0.42075585809185612 0 0.059206114331283539 -0.43749168440462771 0 0.071635584439335168 -0.43372182372199802 0 0.070163071884001671 -0.4083162134350492 0 0.071635584439335168 -0.43372182372199802 0 0.070163071884001671 -0.4083162134350492 0 0.057696364084092608 -0.42075585809185612 0 0.071635584439335168 -0.43372182372199802 0 0.070163071884001671 -0.4083162134350492 0 0.094394577370425961 -0.42338773954861447 0 0.070163071884001671 -0.4083162134350492 0 0.094394577370425961 -0.42338773954861447 0 0.087715743278813735 -0.39956436543808332 0 0.092556248076227324 -0.44525473792710341 0 0.071635584439335168 -0.43372182372199802 0 0.094394577370425961 -0.42338773954861447 0 0.1164051801059061 -0.44387245065085351 0 0.094394577370425961 -0.42338773954861447 0 0.1161040092150928 -0.42192261445329549 0 0.1354651031297574 -0.42460660209803208 0 0.1164051801059061 -0.44387245065085351 0 0.1161040092150928 -0.42192261445329549 0 0.1161040092150928 -0.42192261445329549 0 0.1068718685139062 -0.40255208020413941 0 0.12460696543640019 -0.40230114758403968 0 0.094394577370425961 -0.42338773954861447 0 0.1068718685139062 -0.40255208020413941 0 0.087715743278813735 -0.39956436543808332 0 0.094394577370425961 -0.42338773954861447 0 0.1161040092150928 -0.42192261445329549 0 0.1068718685139062 -0.40255208020413941 0 0.1068718685139062 -0.40255208020413941 0 0.10052057809898191 -0.38593727174087999 0 0.087715743278813735 -0.39956436543808332 0 0.1068718685139062 -0.40255208020413941 0 0.12460696543640019 -0.40230114758403968 0 0.1178893376837227 -0.38219934245992337 0 0.1068718685139062 -0.40255208020413941 0 0.1178893376837227 -0.38219934245992337 0 0.10052057809898191 -0.38593727174087999 0 0.1178893376837227 -0.38219934245992337 0 0.10052057809898191 -0.38593727174087999 0 0.10520277545789181 -0.36206935971453819 0 0.10052057809898191 -0.38593727174087999 0 0.086792526996612177 -0.38071768600343431 0 0.10520277545789181 -0.36206935971453819 0 0.086792526996612177 -0.38071768600343431 0 0.087715743278813735 -0.39956436543808332 0 0.06869055932866816 -0.38291060314810021 0 0.10052057809898191 -0.38593727174087999 0 0.086792526996612177 -0.38071768600343431 0 0.087715743278813735 -0.39956436543808332 0 0.070163071884001671 -0.4083162134350492 0 0.06869055932866816 -0.38291060314810021 0 0.070163071884001671 -0.4083162134350492 0 0.087715743278813735 -0.39956436543808332 0 0.06869055932866816 -0.38291060314810021 0 0.070163071884001671 -0.4083162134350492 0 0.06869055932866816 -0.38291060314810021 0 0.055526288474499627 -0.39635100251273281 0 0.086792526996612177 -0.38071768600343431 0 0.06869055932866816 -0.38291060314810021 0 0.078171197438422241 -0.36709683803236409 0 0.052204443503682363 -0.3791495103376965 0 0.055526288474499627 -0.39635100251273281 0 0.035296155257874107 -0.37936773664220252 0 0.06869055932866816 -0.38291060314810021 0 0.052204443503682363 -0.3791495103376965 0 0.055526288474499627 -0.39635100251273281 0 0.035296155257874107 -0.37936773664220252 0 0.02312424382488602 -0.39196563466953233 0 0.040874334500584163 -0.40769111436752509 0 0.035296155257874107 -0.37936773664220252 0 0.040874334500584163 -0.40769111436752509 0 0.055526288474499627 -0.39635100251273281 0 0.035296155257874107 -0.37936773664220252 0 0.040874334500584163 -0.40769111436752509 0 0.052204443503682363 -0.3791495103376965 0 0.035296155257874107 -0.37936773664220252 0 0.039250009889776193 -0.36828118554193229 0 0.035296155257874107 -0.37936773664220252 0 0.01128197300621782 -0.37905737822271368 0 0.02312424382488602 -0.39196563466953233 0 0.035296155257874107 -0.37936773664220252 0 0.01128197300621782 -0.37905737822271368 0 0.039250009889776193 -0.36828118554193229 0 -0.0038223116369915742 -0.40294489873934719 0 0.01128197300621782 -0.37905737822271368 0 0.0133651383510528 -0.40651287918490742 0 0.02312424382488602 -0.39196563466953233 0 0.0133651383510528 -0.40651287918490742 0 0.040874334500584163 -0.40769111436752509 0 0.01128197300621782 -0.37905737822271368 0 0.02312424382488602 -0.39196563466953233 0 0.0133651383510528 -0.40651287918490742 0 0.0133651383510528 -0.40651287918490742 0 0.022150694192696069 -0.42749070354768898 0 0.040874334500584163 -0.40769111436752509 0 -0.0038223116369915742 -0.40294489873934719 0 -0.0016411534123649131 -0.42461349891051081 0 0.0133651383510528 -0.40651287918490742 0 -0.0016411534123649131 -0.42461349891051081 0 0.0133651383510528 -0.40651287918490742 0 0.022150694192696069 -0.42749070354768898 0 -0.0016411534123649131 -0.42461349891051081 0 0.022150694192696069 -0.42749070354768898 0 0.0089465215249001015 -0.44053456490377751 0 0.022150694192696069 -0.42749070354768898 0 0.046452513743294149 -0.43601449209284759 0 0.040874334500584163 -0.40769111436752509 0 0.046452513743294149 -0.43601449209284759 0 0.040874334500584163 -0.40769111436752509 0 0.046452513743294149 -0.43601449209284759 0 0.040874334500584163 -0.40769111436752509 0 0.057696364084092608 -0.42075585809185612 0 0.070163071884001671 -0.4083162134350492 0 0.055526288474499627 -0.39635100251273281 0 0.057696364084092608 -0.42075585809185612 0 0.055526288474499627 -0.39635100251273281 0 0.040874334500584163 -0.40769111436752509 0 0.057696364084092608 -0.42075585809185612 0 0.046452513743294149 -0.43601449209284759 0 0.057696364084092608 -0.42075585809185612 0 0.059206114331283539 -0.43749168440462771 0 0.046452513743294149 -0.43601449209284759 0 0.05203069298600415 -0.46433786981816999 0 0.046452513743294149 -0.43601449209284759 0 0.059206114331283539 -0.43749168440462771 0 0.05203069298600415 -0.46433786981816999 0 0.068299085686032865 -0.44553006750285362 0 0.059206114331283539 -0.43749168440462771 0 0.05203069298600415 -0.46433786981816999 0 0.046452513743294149 -0.43601449209284759 0 0.05203069298600415 -0.46433786981816999 0 0.036603292057455869 -0.46107010050074948 0 0.05203069298600415 -0.46433786981816999 0 0.036603292057455869 -0.46107010050074948 0 0.04881859460043568 -0.47849053000723829 0 0.046452513743294149 -0.43601449209284759 0 0.036603292057455869 -0.46107010050074948 0 0.024907866437792529 -0.45049181919909409 0 0.022150694192696069 -0.42749070354768898 0 0.024907866437792529 -0.45049181919909409 0 0.0089465215249001015 -0.44053456490377751 0 0.022150694192696069 -0.42749070354768898 0 0.046452513743294149 -0.43601449209284759 0 0.024907866437792529 -0.45049181919909409 0 -0.0081227538624583772 -0.44865709299024997 0 0.0089465215249001015 -0.44053456490377751 0 0.0074529577617175029 -0.46440791574023388 0 0.024907866437792529 -0.45049181919909409 0 0.0089465215249001015 -0.44053456490377751 0 0.0074529577617175029 -0.46440791574023388 0 0.024907866437792529 -0.45049181919909409 0 0.0074529577617175029 -0.46440791574023388 0 0.036603292057455869 -0.46107010050074948 0 0.024907866437792529 -0.45049181919909409 0 0.02867208835984001 -0.47458794658201547 0 0.024907866437792529 -0.45049181919909409 0 0.0074529577617175029 -0.46440791574023388 0 0.02867208835984001 -0.47458794658201547 0 0.0074529577617175029 -0.46440791574023388 0 0.02867208835984001 -0.47458794658201547 0 0.01272460784937835 -0.48191237259808167 0 -0.010001950914357439 -0.47832401228137361 0 0.0074529577617175029 -0.46440791574023388 0 0.01272460784937835 -0.48191237259808167 0 -0.010001950914357439 -0.47832401228137361 0 0.01007243147813665 -0.50000000000000344 0 -0.010001950914357439 -0.47832401228137361 0 0.01272460784937835 -0.48191237259808167 0 0.01007243147813665 -0.50000000000000344 0 0.02867208835984001 -0.47458794658201547 0 0.01272460784937835 -0.48191237259808167 0 0.031873979772839789 -0.5 0 0.01272460784937835 -0.48191237259808167 0 0.01007243147813665 -0.50000000000000344 0 0.031873979772839789 -0.5 0 0.031873979772839789 -0.5 0 0.04881859460043568 -0.47849053000723829 0 0.053675528067542937 -0.5 0 0.02867208835984001 -0.47458794658201547 0 0.031873979772839789 -0.5 0 0.04881859460043568 -0.47849053000723829 0 0.036603292057455869 -0.46107010050074948 0 0.02867208835984001 -0.47458794658201547 0 0.04881859460043568 -0.47849053000723829 0 0.074292586678457645 -0.47956371700446843 0 0.062782350376610924 -0.47023537011986571 0 0.04881859460043568 -0.47849053000723829 0 0.062782350376610924 -0.47023537011986571 0 0.05203069298600415 -0.46433786981816999 0 0.04881859460043568 -0.47849053000723829 0 0.074292586678457645 -0.47956371700446843 0 0.04881859460043568 -0.47849053000723829 0 0.053675528067542937 -0.5 0 0.091521363674630235 -0.28366019190857611 0 0.086621054180491444 -0.30963913828360379 0 0.063941265214754295 -0.30096989917300399 0 0.063941265214754295 -0.30096989917300399 0 0.065116344323659703 -0.32124381927579349 0 0.086621054180491444 -0.30963913828360379 0 0.063941265214754295 -0.30096989917300399 0 0.065116344323659703 -0.32124381927579349 0 0.091521363674630235 -0.28366019190857611 0 0.063941265214754295 -0.30096989917300399 0 0.062766186105849359 -0.28069597907021437 0 0.091521363674630235 -0.28366019190857611 0 0.062766186105849359 -0.28069597907021437 0 0.063941265214754295 -0.30096989917300399 0 0.062766186105849359 -0.28069597907021437 0 0.062766186105849359 -0.28069597907021437 0 0.074729863359196347 -0.26957666691430698 0 0.061725775992182833 -0.26274553525860728 0 0.091521363674630235 -0.28366019190857611 0 0.062766186105849359 -0.28069597907021437 0 0.074729863359196347 -0.26957666691430698 0 0.076078867513334952 -0.25728225283718598 0 0.061725775992182833 -0.26274553525860728 0 0.065492266362943738 -0.2490423968951446 0 0.074729863359196347 -0.26957666691430698 0 0.076078867513334952 -0.25728225283718598 0 0.061725775992182833 -0.26274553525860728 0 0.076078867513334952 -0.25728225283718598 0 0.085614495760797507 -0.26257538153770338 0 0.092831936091554337 -0.24247128358016809 0 0.085614495760797507 -0.26257538153770338 0 0.097801593043388702 -0.25750051227823628 0 0.092831936091554337 -0.24247128358016809 0 0.074729863359196347 -0.26957666691430698 0 0.076078867513334952 -0.25728225283718598 0 0.085614495760797507 -0.26257538153770338 0 0.091521363674630235 -0.28366019190857611 0 0.074729863359196347 -0.26957666691430698 0 0.085614495760797507 -0.26257538153770338 0 0.091521363674630235 -0.28366019190857611 0 0.085614495760797507 -0.26257538153770338 0 0.1040354614898043 -0.26937819261459739 0 0.091521363674630235 -0.28366019190857611 0 0.1040354614898043 -0.26937819261459739 0 0.12027654124341081 -0.28662440474694062 0 0.085614495760797507 -0.26257538153770338 0 0.1040354614898043 -0.26937819261459739 0 0.097801593043388702 -0.25750051227823628 0 0.097801593043388702 -0.25750051227823628 0 0.1088621597444446 -0.25324789335082509 0 0.092831936091554337 -0.24247128358016809 0 0.1040354614898043 -0.26937819261459739 0 0.097801593043388702 -0.25750051227823628 0 0.1088621597444446 -0.25324789335082509 0 0.1040354614898043 -0.26937819261459739 0 0.1088621597444446 -0.25324789335082509 0 0.1204670496634643 -0.26707045659413992 0 0.1088621597444446 -0.25324789335082509 0 0.120200565350322 -0.25179215276921502 0 0.1204670496634643 -0.26707045659413992 0 0.1040354614898043 -0.26937819261459739 0 0.1204670496634643 -0.26707045659413992 0 0.12027654124341081 -0.28662440474694062 0 0.091521363674630235 -0.28366019190857611 0 0.12027654124341081 -0.28662440474694062 0 0.091521363674630235 -0.28366019190857611 0 0.12027654124341081 -0.28662440474694062 0 0.1088853692769771 -0.30764338013278092 0 0.091521363674630235 -0.28366019190857611 0 0.086621054180491444 -0.30963913828360379 0 0.1088853692769771 -0.30764338013278092 0 0.13377124657916459 -0.30898211655826191 0 0.12027654124341081 -0.28662440474694062 0 0.1088853692769771 -0.30764338013278092 0 0.13377124657916459 -0.30898211655826191 0 0.1088853692769771 -0.30764338013278092 0 0.1206838177123966 -0.32721932259578912 0 0.1206838177123966 -0.32721932259578912 0 0.10520277545789181 -0.36206935971453819 0 0.093487620572482458 -0.33436853098718933 0 0.1206838177123966 -0.32721932259578912 0 0.093487620572482458 -0.33436853098718933 0 0.086621054180491444 -0.30963913828360379 0 0.1088853692769771 -0.30764338013278092 0 0.093487620572482458 -0.33436853098718933 0 0.1088853692769771 -0.30764338013278092 0 0.1206838177123966 -0.32721932259578912 0 0.093487620572482458 -0.33436853098718933 0 0.1322343534773614 -0.35704188139671222 0 0.1206838177123966 -0.32721932259578912 0 0.10520277545789181 -0.36206935971453819 0 0.1322343534773614 -0.35704188139671222 0 0.10520277545789181 -0.36206935971453819 0 0.1322343534773614 -0.35704188139671222 0 0.1178893376837227 -0.38219934245992337 0 0.10520277545789181 -0.36206935971453819 0 0.10520277545789181 -0.36206935971453819 0 0.087044121999285545 -0.35235019603324741 0 0.093487620572482458 -0.33436853098718933 0 0.10520277545789181 -0.36206935971453819 0 0.078171197438422241 -0.36709683803236409 0 0.087044121999285545 -0.35235019603324741 0 0.086792526996612177 -0.38071768600343431 0 0.10520277545789181 -0.36206935971453819 0 0.078171197438422241 -0.36709683803236409 0 0.10520277545789181 -0.36206935971453819 0 0.078171197438422241 -0.36709683803236409 0 0.078171197438422241 -0.36709683803236409 0 0.087044121999285545 -0.35235019603324741 0 0.071279958803855542 -0.35593992246041051 0 0.067218046773334345 -0.35750499286115123 0 0.066291423432566485 -0.34151773937858299 0 0.087044121999285545 -0.35235019603324741 0 0.071279958803855542 -0.35593992246041051 0 0.066291423432566485 -0.34151773937858299 0 0.067218046773334345 -0.35750499286115123 0 0.066291423432566485 -0.34151773937858299 0 0.055696425102720153 -0.3488705997694086 0 0.067218046773334345 -0.35750499286115123 0 0.071279958803855542 -0.35593992246041051 0 0.066291423432566485 -0.34151773937858299 0 0.067218046773334345 -0.35750499286115123 0 0.071279958803855542 -0.35593992246041051 0 0.06869055932866816 -0.38291060314810021 0 0.067218046773334345 -0.35750499286115123 0 0.06869055932866816 -0.38291060314810021 0 0.078171197438422241 -0.36709683803236409 0 0.067218046773334345 -0.35750499286115123 0 0.06869055932866816 -0.38291060314810021 0 0.052204443503682363 -0.3791495103376965 0 0.067218046773334345 -0.35750499286115123 0 0.078171197438422241 -0.36709683803236409 0 0.067218046773334345 -0.35750499286115123 0 0.071279958803855542 -0.35593992246041051 0 0.086621054180491444 -0.30963913828360379 0 0.093487620572482458 -0.33436853098718933 0 0.065116344323659703 -0.32124381927579349 0 0.087044121999285545 -0.35235019603324741 0 0.093487620572482458 -0.33436853098718933 0 0.066291423432566485 -0.34151773937858299 0 0.093487620572482458 -0.33436853098718933 0 0.066291423432566485 -0.34151773937858299 0 0.093487620572482458 -0.33436853098718933 0 0.066291423432566485 -0.34151773937858299 0 0.065116344323659703 -0.32124381927579349 0 0.066291423432566485 -0.34151773937858299 0 0.065116344323659703 -0.32124381927579349 0 0.050904861909419723 -0.31538236236176542 0 0.054594767017784908 -0.33194588132436509 0 0.040695133162804348 -0.32924093290894108 0 0.063941265214754295 -0.30096989917300399 0 0.065116344323659703 -0.32124381927579349 0 0.050904861909419723 -0.31538236236176542 0 0.065116344323659703 -0.32124381927579349 0 0.050904861909419723 -0.31538236236176542 0 0.054594767017784908 -0.33194588132436509 0 0.054594767017784908 -0.33194588132436509 0 0.040695133162804348 -0.32924093290894108 0 0.049075993296060647 -0.3460432506829918 0 0.066291423432566485 -0.34151773937858299 0 0.065116344323659703 -0.32124381927579349 0 0.054594767017784908 -0.33194588132436509 0 0.066291423432566485 -0.34151773937858299 0 0.054594767017784908 -0.33194588132436509 0 0.049075993296060647 -0.3460432506829918 0 0.040695133162804348 -0.32924093290894108 0 0.049075993296060647 -0.3460432506829918 0 0.02518564385819131 -0.33584053889167931 0 0.049075993296060647 -0.3460432506829918 0 0.02518564385819131 -0.33584053889167931 0 0.040695133162804348 -0.32924093290894108 0 0.028701430113061321 -0.3278399530908257 0 0.02518564385819131 -0.33584053889167931 0 0.040695133162804348 -0.32924093290894108 0 0.035260314295334598 -0.31385883765078543 0 0.028701430113061321 -0.3278399530908257 0 0.050904861909419723 -0.31538236236176542 0 0.040695133162804348 -0.32924093290894108 0 0.035260314295334598 -0.31385883765078543 0 0.067218046773334345 -0.35750499286115123 0 0.047104954820257047 -0.35729267798286618 0 0.039250009889776193 -0.36828118554193229 0 0.052204443503682363 -0.3791495103376965 0 0.067218046773334345 -0.35750499286115123 0 0.039250009889776193 -0.36828118554193229 0 0.067218046773334345 -0.35750499286115123 0 0.039250009889776193 -0.36828118554193229 0 0.066291423432566485 -0.34151773937858299 0 0.049075993296060647 -0.3460432506829918 0 0.066291423432566485 -0.34151773937858299 0 0.055696425102720153 -0.3488705997694086 0 0.049075993296060647 -0.3460432506829918 0 0.067218046773334345 -0.35750499286115123 0 0.047104954820257047 -0.35729267798286618 0 0.055696425102720153 -0.3488705997694086 0 0.055696425102720153 -0.3488705997694086 0 0.049075993296060647 -0.3460432506829918 0 0.047104954820257047 -0.35729267798286618 0 0.055696425102720153 -0.3488705997694086 0 0.049075993296060647 -0.3460432506829918 0 0.049075993296060647 -0.3460432506829918 0 0.02001987657792343 -0.35368138598529819 0 0.02518564385819131 -0.33584053889167931 0 0.047104954820257047 -0.35729267798286618 0 0.049075993296060647 -0.3460432506829918 0 0.02001987657792343 -0.35368138598529819 0 0.049075993296060647 -0.3460432506829918 0 0.02001987657792343 -0.35368138598529819 0 0.047104954820257047 -0.35729267798286618 0 0.039250009889776193 -0.36828118554193229 0 0.02001987657792343 -0.35368138598529819 0 0.01128197300621782 -0.37905737822271368 0 0.039250009889776193 -0.36828118554193229 0 0.01128197300621782 -0.37905737822271368 0 0.039250009889776193 -0.36828118554193229 0 0.02001987657792343 -0.35368138598529819 0 0.02001987657792343 -0.35368138598529819 0 0.02518564385819131 -0.33584053889167931 0 0.0044153956648271169 -0.34281893438063937 0 -0.0090362401402142856 -0.36131952128760292 0 0.02001987657792343 -0.35368138598529819 0 -0.0090362401402142856 -0.36131952128760292 0 0.02001987657792343 -0.35368138598529819 0 0.0044153956648271169 -0.34281893438063937 0 -0.0090362401402142856 -0.36131952128760292 0 0.01128197300621782 -0.37905737822271368 0 0.02001987657792343 -0.35368138598529819 0 0.02410718207724542 -0.31966671648898692 0 0.023500915757831971 -0.33512105191643049 0 0.01102611169992323 -0.31420738509803281 0 0.023500915757831971 -0.33512105191643049 0 0.01102611169992323 -0.31420738509803281 0 0.02410718207724542 -0.31966671648898692 0 0.01102611169992323 -0.31420738509803281 0 0.02257182304041774 -0.30688887623315431 0 0.035260314295334598 -0.31385883765078543 0 0.02410718207724542 -0.31966671648898692 0 0.02257182304041774 -0.30688887623315431 0 0.035260314295334598 -0.31385883765078543 0 0.02410718207724542 -0.31966671648898692 0 0.028701430113061321 -0.3278399530908257 0 0.02410718207724542 -0.31966671648898692 0 0.028701430113061321 -0.3278399530908257 0 0.023500915757831971 -0.33512105191643049 0 0.02518564385819131 -0.33584053889167931 0 0.023500915757831971 -0.33512105191643049 0 0.0044153956648271169 -0.34281893438063937 0 0.028701430113061321 -0.3278399530908257 0 0.02518564385819131 -0.33584053889167931 0 0.023500915757831971 -0.33512105191643049 0 0.02518564385819131 -0.33584053889167931 0 0.023500915757831971 -0.33512105191643049 0 0.023500915757831971 -0.33512105191643049 0 0.0044153956648271169 -0.34281893438063937 0 0.0012952944203213699 -0.32563782710036809 0 0.023500915757831971 -0.33512105191643049 0 0.0012952944203213699 -0.32563782710036809 0 -0.0050261169277587229 -0.31027895630002561 0 0.0012952944203213699 -0.32563782710036809 0 0.01102611169992323 -0.31420738509803281 0 0.023500915757831971 -0.33512105191643049 0 0.0012952944203213699 -0.32563782710036809 0 0.01102611169992323 -0.31420738509803281 0 -0.0015326328438671039 -0.29349027068459532 0 0.01102611169992323 -0.31420738509803281 0 0.012255981169152179 -0.29893351218517827 0 -0.0015326328438671039 -0.29349027068459532 0 0.01102611169992323 -0.31420738509803281 0 -0.0050261169277587229 -0.31027895630002561 0 -0.0015326328438671039 -0.29349027068459532 0 0.01102611169992323 -0.31420738509803281 0 0.01102611169992323 -0.31420738509803281 0 0.012255981169152179 -0.29893351218517827 0 0.02257182304041774 -0.30688887623315431 0 0.0084867931462573199 -0.28833540624812132 0 0.020727810803029729 -0.29174562266198761 0 0.01152781044351346 -0.27541409720417359 0 -0.0015326328438671039 -0.29349027068459532 0 0.001097648339562227 -0.28250323260201121 0 0.0084867931462573199 -0.28833540624812132 0 0.001097648339562227 -0.28250323260201121 0 0.0084867931462573199 -0.28833540624812132 0 0.01152781044351346 -0.27541409720417359 0 -0.0015326328438671039 -0.29349027068459532 0 0.012255981169152179 -0.29893351218517827 0 0.0084867931462573199 -0.28833540624812132 0 0.012255981169152179 -0.29893351218517827 0 0.0084867931462573199 -0.28833540624812132 0 0.020727810803029729 -0.29174562266198761 0 0.020727810803029729 -0.29174562266198761 0 0.032633821568243883 -0.29886076536429163 0 0.037146998274681507 -0.27805503813719262 0 0.020727810803029729 -0.29174562266198761 0 0.037146998274681507 -0.27805503813719262 0 0.01152781044351346 -0.27541409720417359 0 0.012255981169152179 -0.29893351218517827 0 0.020727810803029729 -0.29174562266198761 0 0.02257182304041774 -0.30688887623315431 0 0.020727810803029729 -0.29174562266198761 0 0.02257182304041774 -0.30688887623315431 0 0.032633821568243883 -0.29886076536429163 0 0.035260314295334598 -0.31385883765078543 0 0.02257182304041774 -0.30688887623315431 0 0.032633821568243883 -0.29886076536429163 0 0.035260314295334598 -0.31385883765078543 0 0.032633821568243883 -0.29886076536429163 0 0.045821347442180471 -0.29503480383770392 0 0.050904861909419723 -0.31538236236176542 0 0.035260314295334598 -0.31385883765078543 0 0.045821347442180471 -0.29503480383770392 0 0.032633821568243883 -0.29886076536429163 0 0.045821347442180471 -0.29503480383770392 0 0.037146998274681507 -0.27805503813719262 0 0.063941265214754295 -0.30096989917300399 0 0.062766186105849359 -0.28069597907021437 0 0.045821347442180471 -0.29503480383770392 0 0.062766186105849359 -0.28069597907021437 0 0.045821347442180471 -0.29503480383770392 0 0.037146998274681507 -0.27805503813719262 0 0.063941265214754295 -0.30096989917300399 0 0.050904861909419723 -0.31538236236176542 0 0.045821347442180471 -0.29503480383770392 0 0.061725775992182833 -0.26274553525860728 0 0.047489851762581879 -0.26727520415414818 0 0.038152596634333173 -0.25561351021012108 0 0.061725775992182833 -0.26274553525860728 0 0.038152596634333173 -0.25561351021012108 0 0.065492266362943738 -0.2490423968951446 0 0.038152596634333173 -0.25561351021012108 0 0.065492266362943738 -0.2490423968951446 0 0.062766186105849359 -0.28069597907021437 0 0.047489851762581879 -0.26727520415414818 0 0.037146998274681507 -0.27805503813719262 0 0.062766186105849359 -0.28069597907021437 0 0.061725775992182833 -0.26274553525860728 0 0.047489851762581879 -0.26727520415414818 0 0.062766186105849359 -0.28069597907021437 0 0.061725775992182833 -0.26274553525860728 0 0.062766186105849359 -0.28069597907021437 0 0.037146998274681507 -0.27805503813719262 0 0.047489851762581879 -0.26727520415414818 0 0.037146998274681507 -0.27805503813719262 0 0.026220905757406109 -0.26795327398294932 0 0.047489851762581879 -0.26727520415414818 0 0.038152596634333173 -0.25561351021012108 0 0.026220905757406109 -0.26795327398294932 0 0.038152596634333173 -0.25561351021012108 0 0.01081292690572268 -0.26218462352509769 0 0.038152596634333173 -0.25561351021012108 0 0.01081292690572268 -0.26218462352509769 0 0.021241885943602809 -0.2435331197959936 0 0.038152596634333173 -0.25561351021012108 0 0.026220905757406109 -0.26795327398294932 0 0.01081292690572268 -0.26218462352509769 0 0.037146998274681507 -0.27805503813719262 0 0.01152781044351346 -0.27541409720417359 0 0.037146998274681507 -0.27805503813719262 0 0.026220905757406109 -0.26795327398294932 0 0.01152781044351346 -0.27541409720417359 0 0.026220905757406109 -0.26795327398294932 0 0.01152781044351346 -0.27541409720417359 0 0.01081292690572268 -0.26218462352509769 0 -0.001707453102692475 -0.26968603175048911 0 0.01152781044351346 -0.27541409720417359 0 0.01081292690572268 -0.26218462352509769 0 0.01081292690572268 -0.26218462352509769 0 0.00013011639302536529 -0.24575171090548531 0 0.021241885943602809 -0.2435331197959936 0 -0.0070486420729985151 -0.25808618295669072 0 0.01081292690572268 -0.26218462352509769 0 0.00013011639302536529 -0.24575171090548531 0 0.00013011639302536529 -0.24575171090548531 0 0.0100667403970554 -0.22731194806313651 0 0.021241885943602809 -0.2435331197959936 0 -0.0088820735135365318 -0.2228118806243424 0 0.00013011639302536529 -0.24575171090548531 0 0.0100667403970554 -0.22731194806313651 0 -0.0088820735135365318 -0.2228118806243424 0 0.0100667403970554 -0.22731194806313651 0 0.002585600905848094 -0.21109240395839329 0 0.0100667403970554 -0.22731194806313651 0 0.02897737621706907 -0.23005513053843729 0 0.016347536436323619 -0.21062744255616711 0 0.0100667403970554 -0.22731194806313651 0 0.02897737621706907 -0.23005513053843729 0 0.021241885943602809 -0.2435331197959936 0 0.02897737621706907 -0.23005513053843729 0 0.021241885943602809 -0.2435331197959936 0 0.040090175678075962 -0.2385728896484364 0 -0.0068799545627493061 -0.1882443111050015 0 0.0046170987694804516 -0.19695646630880681 0 0.0088916491615415316 -0.18513252301822469 0 0.0046170987694804516 -0.19695646630880681 0 0.016347536436323619 -0.21062744255616711 0 0.01729666768748922 -0.19387209969499999 0 0.0046170987694804516 -0.19695646630880681 0 0.01729666768748922 -0.19387209969499999 0 0.0088916491615415316 -0.18513252301822469 0 0.0100667403970554 -0.22731194806313651 0 0.002585600905848094 -0.21109240395839329 0 0.016347536436323619 -0.21062744255616711 0 0.0046170987694804516 -0.19695646630880681 0 0.002585600905848094 -0.21109240395839329 0 0.016347536436323619 -0.21062744255616711 0 0.02897737621706907 -0.23005513053843729 0 0.016347536436323619 -0.21062744255616711 0 0.035630385473908698 -0.213916591806145 0 0.016347536436323619 -0.21062744255616711 0 0.031280015595181052 -0.19982959589119459 0 0.035630385473908698 -0.213916591806145 0 0.016347536436323619 -0.21062744255616711 0 0.01729666768748922 -0.19387209969499999 0 0.031280015595181052 -0.19982959589119459 0 0.01729666768748922 -0.19387209969499999 0 0.031280015595181052 -0.19982959589119459 0 0.02913111842858334 -0.18701256454825829 0 0.041944991957321577 -0.19093251153785321 0 0.031280015595181052 -0.19982959589119459 0 0.02913111842858334 -0.18701256454825829 0 0.041944991957321577 -0.19093251153785321 0 0.031280015595181052 -0.19982959589119459 0 0.046434949478197422 -0.2037991632383096 0 0.046434949478197422 -0.2037991632383096 0 0.035630385473908698 -0.213916591806145 0 0.052161395379469802 -0.22046292582836879 0 0.031280015595181052 -0.19982959589119459 0 0.046434949478197422 -0.2037991632383096 0 0.035630385473908698 -0.213916591806145 0 0.046434949478197422 -0.2037991632383096 0 0.059817672416071992 -0.20659505293116559 0 0.052161395379469802 -0.22046292582836879 0 0.059817672416071992 -0.20659505293116559 0 0.052161395379469802 -0.22046292582836879 0 0.075345414541870451 -0.21087072111830041 0 0.046434949478197422 -0.2037991632383096 0 0.065328930264750312 -0.19124740153968339 0 0.053716696914216412 -0.18516872343633151 0 0.046434949478197422 -0.2037991632383096 0 0.059817672416071992 -0.20659505293116559 0 0.065328930264750312 -0.19124740153968339 0 0.046434949478197422 -0.2037991632383096 0 0.065328930264750312 -0.19124740153968339 0 0.041944991957321577 -0.19093251153785321 0 0.046434949478197422 -0.2037991632383096 0 0.053716696914216412 -0.18516872343633151 0 0.038152596634333173 -0.25561351021012108 0 0.040090175678075962 -0.2385728896484364 0 0.052637062246273361 -0.24418491889816141 0 0.038152596634333173 -0.25561351021012108 0 0.021241885943602809 -0.2435331197959936 0 0.040090175678075962 -0.2385728896484364 0 0.02897737621706907 -0.23005513053843729 0 0.052161395379469802 -0.22046292582836879 0 0.02897737621706907 -0.23005513053843729 0 0.035630385473908698 -0.213916591806145 0 0.052161395379469802 -0.22046292582836879 0 0.02897737621706907 -0.23005513053843729 0 0.040090175678075962 -0.2385728896484364 0 0.052161395379469802 -0.22046292582836879 0 0.040090175678075962 -0.2385728896484364 0 0.052151656800269827 -0.23388235069502 0 0.052161395379469802 -0.22046292582836879 0 0.052151656800269827 -0.23388235069502 0 0.052161395379469802 -0.22046292582836879 0 0.063998406291249629 -0.2320913388534222 0 0.038152596634333173 -0.25561351021012108 0 0.052637062246273361 -0.24418491889816141 0 0.065492266362943738 -0.2490423968951446 0 0.052151656800269827 -0.23388235069502 0 0.052637062246273361 -0.24418491889816141 0 0.063998406291249629 -0.2320913388534222 0 0.040090175678075962 -0.2385728896484364 0 0.052151656800269827 -0.23388235069502 0 0.052637062246273361 -0.24418491889816141 0 0.052637062246273361 -0.24418491889816141 0 0.065492266362943738 -0.2490423968951446 0 0.079885750135828271 -0.23687956633036561 0 0.052637062246273361 -0.24418491889816141 0 0.079885750135828271 -0.23687956633036561 0 0.063998406291249629 -0.2320913388534222 0 0.052637062246273361 -0.24418491889816141 0 0.079885750135828271 -0.23687956633036561 0 0.092831936091554337 -0.24247128358016809 0 0.079885750135828271 -0.23687956633036561 0 0.10713443802538319 -0.22957421376256981 0 0.065492266362943738 -0.2490423968951446 0 0.092831936091554337 -0.24247128358016809 0 0.079885750135828271 -0.23687956633036561 0 0.076078867513334952 -0.25728225283718598 0 0.065492266362943738 -0.2490423968951446 0 0.092831936091554337 -0.24247128358016809 0 0.065492266362943738 -0.2490423968951446 0 0.092831936091554337 -0.24247128358016809 0 0.079885750135828271 -0.23687956633036561 0 0.090552347696733093 -0.22184206268429091 0 0.10713443802538319 -0.22957421376256981 0 0.079885750135828271 -0.23687956633036561 0 0.10713443802538319 -0.22957421376256981 0 0.090552347696733093 -0.22184206268429091 0 0.072388662809030252 -0.2244293229629496 0 0.075345414541870451 -0.21087072111830041 0 0.079885750135828271 -0.23687956633036561 0 0.090552347696733093 -0.22184206268429091 0 0.072388662809030252 -0.2244293229629496 0 0.052161395379469802 -0.22046292582836879 0 0.072388662809030252 -0.2244293229629496 0 0.063998406291249629 -0.2320913388534222 0 0.079885750135828271 -0.23687956633036561 0 0.072388662809030252 -0.2244293229629496 0 0.063998406291249629 -0.2320913388534222 0 0.052161395379469802 -0.22046292582836879 0 0.075345414541870451 -0.21087072111830041 0 0.052161395379469802 -0.22046292582836879 0 0.072388662809030252 -0.2244293229629496 0 0.075345414541870451 -0.21087072111830041 0 0.065328930264750312 -0.19124740153968339 0 0.080856672390548917 -0.19552306972681849 0 0.084222911051303778 -0.17869563984105821 0 0.075345414541870451 -0.21087072111830041 0 0.065328930264750312 -0.19124740153968339 0 0.080856672390548917 -0.19552306972681849 0 0.059817672416071992 -0.20659505293116559 0 0.075345414541870451 -0.21087072111830041 0 0.065328930264750312 -0.19124740153968339 0 0.098529433704271044 -0.20127851640823169 0 0.084222911051303778 -0.17869563984105821 0 0.080856672390548917 -0.19552306972681849 0 0.098529433704271044 -0.20127851640823169 0 0.084222911051303778 -0.17869563984105821 0 0.075345414541870451 -0.21087072111830041 0 0.080856672390548917 -0.19552306972681849 0 0.098529433704271044 -0.20127851640823169 0 0.090552347696733093 -0.22184206268429091 0 0.075345414541870451 -0.21087072111830041 0 0.093185621542743097 -0.21267920301125021 0 0.075345414541870451 -0.21087072111830041 0 0.098529433704271044 -0.20127851640823169 0 0.075345414541870451 -0.21087072111830041 0 0.093185621542743097 -0.21267920301125021 0 0.098529433704271044 -0.20127851640823169 0 0.090552347696733093 -0.22184206268429091 0 0.093185621542743097 -0.21267920301125021 0 0.1083152902280977 -0.21672551183417779 0 0.093185621542743097 -0.21267920301125021 0 0.1083152902280977 -0.21672551183417779 0 0.098529433704271044 -0.20127851640823169 0 0.1083152902280977 -0.21672551183417779 0 0.098529433704271044 -0.20127851640823169 0 0.1090236896523662 -0.20545350597651779 0 0.1083152902280977 -0.21672551183417779 0 0.098529433704271044 -0.20127851640823169 0 0.098529433704271044 -0.20127851640823169 0 0.1138123432814985 -0.19495533334823961 0 0.102774263735465 -0.18417198695262971 0 0.098529433704271044 -0.20127851640823169 0 0.102774263735465 -0.18417198695262971 0 0.084222911051303778 -0.17869563984105821 0 0.098529433704271044 -0.20127851640823169 0 0.1138123432814985 -0.19495533334823961 0 0.1090236896523662 -0.20545350597651779 0 0.098529433704271044 -0.20127851640823169 0 0.1138123432814985 -0.19495533334823961 0 0.1090236896523662 -0.20545350597651779 0 0.1138123432814985 -0.19495533334823961 0 0.1202985243438196 -0.2073864021523609 0 0.1138123432814985 -0.19495533334823961 0 0.1220628177846047 -0.19894502385889579 0 0.1202985243438196 -0.2073864021523609 0 0.1241760014966011 -0.2030742242222707 0 0.1220628177846047 -0.19894502385889579 0 0.1266640587294153 -0.2002330542948709 0 0.1138123432814985 -0.19495533334823961 0 0.116494423783358 -0.1807655077645092 0 0.1290952528587257 -0.18863215028824681 0 0.1138123432814985 -0.19495533334823961 0 0.1220628177846047 -0.19894502385889579 0 0.1290952528587257 -0.18863215028824681 0 0.1138123432814985 -0.19495533334823961 0 0.1290952528587257 -0.18863215028824681 0 0.1090236896523662 -0.20545350597651779 0 0.1083152902280977 -0.21672551183417779 0 0.1145889893145538 -0.21529956500755121 0 0.1090236896523662 -0.20545350597651779 0 0.1145889893145538 -0.21529956500755121 0 0.1202985243438196 -0.2073864021523609 0 0.1241760014966011 -0.2030742242222707 0 0.1220628177846047 -0.19894502385889579 0 0.1202985243438196 -0.2073864021523609 0 0.1241760014966011 -0.2030742242222707 0 0.1202985243438196 -0.2073864021523609 0 0.12767860512856469 -0.20573241658295541 0 0.1145889893145538 -0.21529956500755121 0 0.1202985243438196 -0.2073864021523609 0 0.1233932733370912 -0.21633192609272259 0 0.1202985243438196 -0.2073864021523609 0 0.1233932733370912 -0.21633192609272259 0 0.12735644208470831 -0.21084544960152471 0 0.10713443802538319 -0.22957421376256981 0 0.13438312591493831 -0.22226886119477399 0 0.1260211116237461 -0.21998411296138751 0 0.1145889893145538 -0.21529956500755121 0 0.1233932733370912 -0.21633192609272259 0 0.10713443802538319 -0.22957421376256981 0 0.1233932733370912 -0.21633192609272259 0 0.10713443802538319 -0.22957421376256981 0 0.1260211116237461 -0.21998411296138751 0 0.12439266497993801 -0.24087206490340091 0 0.10713443802538319 -0.22957421376256981 0 0.12827635907671051 -0.23159782894151629 0 0.10713443802538319 -0.22957421376256981 0 0.13438312591493831 -0.22226886119477399 0 0.12827635907671051 -0.23159782894151629 0 0.10713443802538319 -0.22957421376256981 0 0.13438312591493831 -0.22226886119477399 0 0.1083152902280977 -0.21672551183417779 0 0.1145889893145538 -0.21529956500755121 0 0.10713443802538319 -0.22957421376256981 0 0.12439266497993801 -0.24087206490340091 0 0.11187940426493249 -0.241905550720279 0 0.10713443802538319 -0.22957421376256981 0 0.120200565350322 -0.25179215276921502 0 0.12439266497993801 -0.24087206490340091 0 0.11187940426493249 -0.241905550720279 0 0.1088621597444446 -0.25324789335082509 0 0.120200565350322 -0.25179215276921502 0 0.11187940426493249 -0.241905550720279 0 0.092831936091554337 -0.24247128358016809 0 0.11187940426493249 -0.241905550720279 0 0.10713443802538319 -0.22957421376256981 0 0.1088621597444446 -0.25324789335082509 0 0.092831936091554337 -0.24247128358016809 0 0.11187940426493249 -0.241905550720279 0 0.090552347696733093 -0.22184206268429091 0 0.1083152902280977 -0.21672551183417779 0 0.10713443802538319 -0.22957421376256981 0 0.099867865398827055 -0.14937188106658261 0 0.1221972546687847 -0.1534682980154744 0 0.1050384999924515 -0.16486730398333391 0 0.099867865398827055 -0.14937188106658261 0 0.10379729849759391 -0.1381059169124807 0 0.11107554189126 -0.14449130608981381 0 0.099867865398827055 -0.14937188106658261 0 0.10379729849759391 -0.1381059169124807 0 0.09115018714746155 -0.13848451812452889 0 0.095014765660718661 -0.12763654431768651 0 0.10379729849759391 -0.1381059169124807 0 0.09115018714746155 -0.13848451812452889 0 0.095014765660718661 -0.12763654431768651 0 0.10740551381008839 -0.1287102758538814 0 0.10140611136596139 -0.120479161495475 0 0.095014765660718661 -0.12763654431768651 0 0.10740551381008839 -0.1287102758538814 0 0.10379729849759391 -0.1381059169124807 0 0.10740551381008839 -0.1287102758538814 0 0.10379729849759391 -0.1381059169124807 0 0.1188781015692907 -0.13654828643420031 0 0.10379729849759391 -0.1381059169124807 0 0.1188781015692907 -0.13654828643420031 0 0.11107554189126 -0.14449130608981381 0 0.10740551381008839 -0.1287102758538814 0 0.1188781015692907 -0.13654828643420031 0 0.1157438908342182 -0.1205710535841554 0 0.1188781015692907 -0.13654828643420031 0 0.1157438908342182 -0.1205710535841554 0 0.13045448960996309 -0.1291061186601464 0 0.1188781015692907 -0.13654828643420031 0 0.1157438908342182 -0.1205710535841554 0 0.1188781015692907 -0.13654828643420031 0 0.12383459175348011 -0.14538802333097989 0 0.1311147155567472 -0.13976465251680939 0 0.099867865398827055 -0.14937188106658261 0 0.11107554189126 -0.14449130608981381 0 0.1221972546687847 -0.1534682980154744 0 0.1188781015692907 -0.13654828643420031 0 0.1221972546687847 -0.1534682980154744 0 0.099867865398827055 -0.14937188106658261 0 0.1221972546687847 -0.1534682980154744 0 0.1188781015692907 -0.13654828643420031 0 0.12383459175348011 -0.14538802333097989 0 0.1221972546687847 -0.1534682980154744 0 0.1188781015692907 -0.13654828643420031 0 0.11107554189126 -0.14449130608981381 0 0.1221972546687847 -0.1534682980154744 0 0.1221972546687847 -0.1534682980154744 0 0.12527720016430799 -0.16916890352892461 0 0.1221972546687847 -0.1534682980154744 0 0.1050384999924515 -0.16486730398333391 0 0.12527720016430799 -0.16916890352892461 0 0.1221972546687847 -0.1534682980154744 0 0.1050384999924515 -0.16486730398333391 0 0.1050384999924515 -0.16486730398333391 0 0.12527720016430799 -0.16916890352892461 0 0.116494423783358 -0.1807655077645092 0 0.1050384999924515 -0.16486730398333391 0 0.12527720016430799 -0.16916890352892461 0 0.116494423783358 -0.1807655077645092 0 0.1290952528587257 -0.18863215028824681 0 0.12527720016430799 -0.16916890352892461 0 0.1138123432814985 -0.19495533334823961 0 0.116494423783358 -0.1807655077645092 0 0.102774263735465 -0.18417198695262971 0 0.116494423783358 -0.1807655077645092 0 0.102774263735465 -0.18417198695262971 0 0.1050384999924515 -0.16486730398333391 0 0.102774263735465 -0.18417198695262971 0 0.1050384999924515 -0.16486730398333391 0 0.084222911051303778 -0.17869563984105821 0 0.099867865398827055 -0.14937188106658261 0 0.1050384999924515 -0.16486730398333391 0 0.087949483376971838 -0.16123514848503151 0 0.1050384999924515 -0.16486730398333391 0 0.084222911051303778 -0.17869563984105821 0 0.1050384999924515 -0.16486730398333391 0 0.087949483376971838 -0.16123514848503151 0 0.1050384999924515 -0.16486730398333391 0 0.087949483376971838 -0.16123514848503151 0 0.084222911051303778 -0.17869563984105821 0 0.087949483376971838 -0.16123514848503151 0 0.084222911051303778 -0.17869563984105821 0 0.070860466761492311 -0.15760299298672831 0 0.087949483376971838 -0.16123514848503151 0 0.070860466761492311 -0.15760299298672831 0 0.065328930264750312 -0.19124740153968339 0 0.084222911051303778 -0.17869563984105821 0 0.065328930264750312 -0.19124740153968339 0 0.084222911051303778 -0.17869563984105821 0 0.05785612799071764 -0.1709129768972116 0 0.084222911051303778 -0.17869563984105821 0 0.070860466761492311 -0.15760299298672831 0 0.05785612799071764 -0.1709129768972116 0 0.084222911051303778 -0.17869563984105821 0 0.070860466761492311 -0.15760299298672831 0 0.070860466761492311 -0.15760299298672831 0 0.070277029467901792 -0.13686048446063759 0 0.05836098544199575 -0.13787253502437369 0 0.070860466761492311 -0.15760299298672831 0 0.05836098544199575 -0.13787253502437369 0 0.070860466761492311 -0.15760299298672831 0 0.077723418493291424 -0.14621824284891871 0 0.070277029467901792 -0.13686048446063759 0 0.099867865398827055 -0.14937188106658261 0 0.077723418493291424 -0.14621824284891871 0 0.099867865398827055 -0.14937188106658261 0 0.077723418493291424 -0.14621824284891871 0 0.09115018714746155 -0.13848451812452889 0 0.087949483376971838 -0.16123514848503151 0 0.070860466761492311 -0.15760299298672831 0 0.077723418493291424 -0.14621824284891871 0 0.099867865398827055 -0.14937188106658261 0 0.087949483376971838 -0.16123514848503151 0 0.077723418493291424 -0.14621824284891871 0 0.077723418493291424 -0.14621824284891871 0 0.09115018714746155 -0.13848451812452889 0 0.079600997891911413 -0.12967638481522961 0 0.095014765660718661 -0.12763654431768651 0 0.09115018714746155 -0.13848451812452889 0 0.079600997891911413 -0.12967638481522961 0 0.095014765660718661 -0.12763654431768651 0 0.079600997891911413 -0.12967638481522961 0 0.084580471981521937 -0.11818333146531761 0 0.077723418493291424 -0.14621824284891871 0 0.079600997891911413 -0.12967638481522961 0 0.070277029467901792 -0.13686048446063759 0 0.079600997891911413 -0.12967638481522961 0 0.070277029467901792 -0.13686048446063759 0 0.064324749546530363 -0.12046130818996249 0 0.070277029467901792 -0.13686048446063759 0 0.05836098544199575 -0.13787253502437369 0 0.064324749546530363 -0.12046130818996249 0 0.048973566827871143 -0.1350747986325492 0 0.064324749546530363 -0.12046130818996249 0 0.048973566827871143 -0.1350747986325492 0 0.05836098544199575 -0.13787253502437369 0 0.064324749546530363 -0.12046130818996249 0 0.04956553706751253 -0.1255621726439905 0 0.048973566827871143 -0.1350747986325492 0 0.064324749546530363 -0.12046130818996249 0 0.04956553706751253 -0.1255621726439905 0 0.048973566827871143 -0.1350747986325492 0 0.042433546742047107 -0.12972387802953911 0 0.048973566827871143 -0.1350747986325492 0 0.05836098544199575 -0.13787253502437369 0 0.053029650319986167 -0.14487778298529699 0 0.070860466761492311 -0.15760299298672831 0 0.052241425435352908 -0.15364564103093389 0 0.070860466761492311 -0.15760299298672831 0 0.05836098544199575 -0.13787253502437369 0 0.053029650319986167 -0.14487778298529699 0 0.070860466761492311 -0.15760299298672831 0 0.052241425435352908 -0.15364564103093389 0 0.053029650319986167 -0.14487778298529699 0 0.052241425435352908 -0.15364564103093389 0 0.053029650319986167 -0.14487778298529699 0 0.046966756673105917 -0.14582162793097991 0 0.048973566827871143 -0.1350747986325492 0 0.053029650319986167 -0.14487778298529699 0 0.046966756673105917 -0.14582162793097991 0 0.048973566827871143 -0.1350747986325492 0 0.046966756673105917 -0.14582162793097991 0 0.033622384109213838 -0.1496882890751379 0 0.052241425435352908 -0.15364564103093389 0 0.033622384109213838 -0.1496882890751379 0 0.041344620923294807 -0.15923850370723869 0 0.052241425435352908 -0.15364564103093389 0 0.046966756673105917 -0.14582162793097991 0 0.033622384109213838 -0.1496882890751379 0 0.048973566827871143 -0.1350747986325492 0 0.033622384109213838 -0.1496882890751379 0 0.052241425435352908 -0.15364564103093389 0 0.033622384109213838 -0.1496882890751379 0 0.033622384109213838 -0.1496882890751379 0 0.035877251897834077 -0.13657230011809379 0 0.026743194367761961 -0.12533077836157039 0 0.035877251897834077 -0.13657230011809379 0 0.034806425978572683 -0.12713493418576541 0 0.026743194367761961 -0.12533077836157039 0 0.035877251897834077 -0.13657230011809379 0 0.034806425978572683 -0.12713493418576541 0 0.042433546742047107 -0.12972387802953911 0 0.034806425978572683 -0.12713493418576541 0 0.042433546742047107 -0.12972387802953911 0 0.042944951938445157 -0.1242751845672966 0 0.04956553706751253 -0.1255621726439905 0 0.042433546742047107 -0.12972387802953911 0 0.042944951938445157 -0.1242751845672966 0 0.048973566827871143 -0.1350747986325492 0 0.033622384109213838 -0.1496882890751379 0 0.035877251897834077 -0.13657230011809379 0 0.048973566827871143 -0.1350747986325492 0 0.035877251897834077 -0.13657230011809379 0 0.042433546742047107 -0.12972387802953911 0 0.053716696914216412 -0.18516872343633151 0 0.05785612799071764 -0.1709129768972116 0 0.037277844584612987 -0.17079193573850751 0 0.065328930264750312 -0.19124740153968339 0 0.053716696914216412 -0.18516872343633151 0 0.05785612799071764 -0.1709129768972116 0 0.052241425435352908 -0.15364564103093389 0 0.05785612799071764 -0.1709129768972116 0 0.041344620923294807 -0.15923850370723869 0 0.070860466761492311 -0.15760299298672831 0 0.052241425435352908 -0.15364564103093389 0 0.05785612799071764 -0.1709129768972116 0 0.033622384109213838 -0.1496882890751379 0 0.037277844584612987 -0.17079193573850751 0 0.033622384109213838 -0.1496882890751379 0 0.041344620923294807 -0.15923850370723869 0 0.037277844584612987 -0.17079193573850751 0 0.05785612799071764 -0.1709129768972116 0 0.041344620923294807 -0.15923850370723869 0 0.037277844584612987 -0.17079193573850751 0 0.041944991957321577 -0.19093251153785321 0 0.053716696914216412 -0.18516872343633151 0 0.037277844584612987 -0.17079193573850751 0 0.041944991957321577 -0.19093251153785321 0 0.037277844584612987 -0.17079193573850751 0 0.041944991957321577 -0.19093251153785321 0 0.037277844584612987 -0.17079193573850751 0 0.02913111842858334 -0.18701256454825829 0 0.037277844584612987 -0.17079193573850751 0 0.02016782797477551 -0.1807900454685063 0 0.02913111842858334 -0.18701256454825829 0 0.037277844584612987 -0.17079193573850751 0 0.02016782797477551 -0.1807900454685063 0 0.012865371324577849 -0.1694478355220819 0 0.01729666768748922 -0.19387209969499999 0 0.02016782797477551 -0.1807900454685063 0 0.02913111842858334 -0.18701256454825829 0 0.033622384109213838 -0.1496882890751379 0 0.012865371324577849 -0.1694478355220819 0 0.02258369858879276 -0.15367944273094311 0 0.033622384109213838 -0.1496882890751379 0 0.037277844584612987 -0.17079193573850751 0 0.012865371324577849 -0.1694478355220819 0 0.033622384109213838 -0.1496882890751379 0 0.012865371324577849 -0.1694478355220819 0 -0.003196369143550423 -0.16721314943028681 0 0.012865371324577849 -0.1694478355220819 0 0.012535170018725681 -0.14520634360536341 0 -0.0068799545627493061 -0.1882443111050015 0 0.012865371324577849 -0.1694478355220819 0 0.0088916491615415316 -0.18513252301822469 0 -0.003196369143550423 -0.16721314943028681 0 -0.0068799545627493061 -0.1882443111050015 0 0.012865371324577849 -0.1694478355220819 0 -0.0068799545627493061 -0.1882443111050015 0 0.012865371324577849 -0.1694478355220819 0 0.02016782797477551 -0.1807900454685063 0 0.012865371324577849 -0.1694478355220819 0 0.0088916491615415316 -0.18513252301822469 0 0.01729666768748922 -0.19387209969499999 0 0.02016782797477551 -0.1807900454685063 0 0.0088916491615415316 -0.18513252301822469 0 0.026743194367761961 -0.12533077836157039 0 0.012535170018725681 -0.14520634360536341 0 0.033622384109213838 -0.1496882890751379 0 0.026743194367761961 -0.12533077836157039 0 0.033622384109213838 -0.1496882890751379 0 0.026743194367761961 -0.12533077836157039 0 0.012535170018725681 -0.14520634360536341 0 0.026743194367761961 -0.12533077836157039 0 0.012535170018725681 -0.14520634360536341 0 0.01003917481757423 -0.1284060070449298 0 0.033622384109213838 -0.1496882890751379 0 0.012535170018725681 -0.14520634360536341 0 0.033622384109213838 -0.1496882890751379 0 0.02258369858879276 -0.15367944273094311 0 0.012535170018725681 -0.14520634360536341 0 0.012865371324577849 -0.1694478355220819 0 0.02258369858879276 -0.15367944273094311 0 0.012535170018725681 -0.14520634360536341 0 -0.0058914009887639524 -0.15228858520810309 0 -0.003196369143550423 -0.16721314943028681 0 0.012535170018725681 -0.14520634360536341 0 -0.003196369143550423 -0.16721314943028681 0 0.012535170018725681 -0.14520634360536341 0 -0.0058914009887639524 -0.15228858520810309 0 0.012535170018725681 -0.14520634360536341 0 0.00092602174662574643 -0.14273889725219441 0 0.012535170018725681 -0.14520634360536341 0 0.00092602174662574643 -0.14273889725219441 0 0.012535170018725681 -0.14520634360536341 0 0.00092602174662574643 -0.14273889725219441 0 0.01003917481757423 -0.1284060070449298 0 -1.2070200009860959e-05 -0.132078826353103 0 0.00092602174662574643 -0.14273889725219441 0 0.01003917481757423 -0.1284060070449298 0 -0.002279793015750931 -0.1129239797741082 0 0.01003917481757423 -0.1284060070449298 0 0.01257672264967815 -0.11469623869834859 0 -0.002279793015750931 -0.1129239797741082 0 -1.2070200009860959e-05 -0.132078826353103 0 0.01003917481757423 -0.1284060070449298 0 -0.002279793015750931 -0.1129239797741082 0 0.01257672264967815 -0.11469623869834859 0 0.0062589170789450156 -0.10143140261960169 0 0.026743194367761961 -0.12533077836157039 0 0.01003917481757423 -0.1284060070449298 0 0.01257672264967815 -0.11469623869834859 0 0.029317685184656429 -0.1217293304090807 0 0.022122119999859632 -0.1053890256915332 0 0.037393097821810987 -0.10968909444704621 0 0.026743194367761961 -0.12533077836157039 0 0.022122119999859632 -0.1053890256915332 0 0.026743194367761961 -0.12533077836157039 0 0.029317685184656429 -0.1217293304090807 0 0.022122119999859632 -0.1053890256915332 0 0.026743194367761961 -0.12533077836157039 0 0.01257672264967815 -0.11469623869834859 0 0.022122119999859632 -0.1053890256915332 0 0.034806425978572683 -0.12713493418576541 0 0.026743194367761961 -0.12533077836157039 0 0.029317685184656429 -0.1217293304090807 0 0.026743194367761961 -0.12533077836157039 0 0.029317685184656429 -0.1217293304090807 0 0.022122119999859632 -0.1053890256915332 0 0.017501045631956449 -0.085447273021496239 0 0.026984672740054071 -0.091096877766448037 0 0.022122119999859632 -0.1053890256915332 0 0.017501045631956449 -0.085447273021496239 0 0.022122119999859632 -0.1053890256915332 0 0.026984672740054071 -0.091096877766448037 0 0.035463980534103802 -0.097235701938286928 0 0.01257672264967815 -0.11469623869834859 0 0.022122119999859632 -0.1053890256915332 0 0.0062589170789450156 -0.10143140261960169 0 0.022122119999859632 -0.1053890256915332 0 0.0062589170789450156 -0.10143140261960169 0 0.017501045631956449 -0.085447273021496239 0 -0.0022778045491118372 -0.087462392444144915 0 0.017501045631956449 -0.085447273021496239 0 0.025379485528277009 -0.081949295411044745 0 -0.0022778045491118372 -0.087462392444144915 0 0.0090545243913420573 -0.072776808525734218 0 0.025379485528277009 -0.081949295411044745 0 -0.0022778045491118372 -0.087462392444144915 0 0.0062589170789450156 -0.10143140261960169 0 0.017501045631956449 -0.085447273021496239 0 -0.0022778045491118372 -0.087462392444144915 0 0.025379485528277009 -0.081949295411044745 0 -0.0026473775239512971 -0.060770750801720619 0 0.0090545243913420573 -0.072776808525734218 0 0.01548237052672605 -0.056797466830138879 0 -0.0026473775239512971 -0.060770750801720619 0 -0.0063812297367853267 -0.072804535701982573 0 0.0090545243913420573 -0.072776808525734218 0 -0.0063812297367853267 -0.072804535701982573 0 -0.0022778045491118372 -0.087462392444144915 0 0.0090545243913420573 -0.072776808525734218 0 0.0090545243913420573 -0.072776808525734218 0 0.0231853923366327 -0.069360844429702348 0 0.01548237052672605 -0.056797466830138879 0 0.0090545243913420573 -0.072776808525734218 0 0.0231853923366327 -0.069360844429702348 0 0.025379485528277009 -0.081949295411044745 0 0.0231853923366327 -0.069360844429702348 0 0.025379485528277009 -0.081949295411044745 0 0.03426185509661088 -0.073479134747785516 0 0.0231853923366327 -0.069360844429702348 0 0.03426185509661088 -0.073479134747785516 0 0.03235454721179741 -0.059117817360449312 0 0.017501045631956449 -0.085447273021496239 0 0.025379485528277009 -0.081949295411044745 0 0.026984672740054071 -0.091096877766448037 0 0.025379485528277009 -0.081949295411044745 0 0.026984672740054071 -0.091096877766448037 0 0.034456732006073472 -0.085463092769879012 0 0.034456732006073472 -0.085463092769879012 0 0.04492566625024013 -0.089358863831228555 0 0.035463980534103802 -0.097235701938286928 0 0.026984672740054071 -0.091096877766448037 0 0.034456732006073472 -0.085463092769879012 0 0.035463980534103802 -0.097235701938286928 0 0.034456732006073472 -0.085463092769879012 0 0.03426185509661088 -0.073479134747785516 0 0.04614114809451117 -0.077692407700107491 0 0.025379485528277009 -0.081949295411044745 0 0.034456732006073472 -0.085463092769879012 0 0.03426185509661088 -0.073479134747785516 0 0.034456732006073472 -0.085463092769879012 0 0.04492566625024013 -0.089358863831228555 0 0.04614114809451117 -0.077692407700107491 0 0.03426185509661088 -0.073479134747785516 0 0.044255391184529758 -0.064767541943000106 0 0.03235454721179741 -0.059117817360449312 0 0.03426185509661088 -0.073479134747785516 0 0.04614114809451117 -0.077692407700107491 0 0.044255391184529758 -0.064767541943000106 0 0.04614114809451117 -0.077692407700107491 0 0.044255391184529758 -0.064767541943000106 0 0.060991695862599858 -0.068604636409873077 0 0.04614114809451117 -0.077692407700107491 0 0.060991695862599858 -0.068604636409873077 0 0.058565157000850403 -0.085646659075805584 0 0.04492566625024013 -0.089358863831228555 0 0.058565157000850403 -0.085646659075805584 0 0.050001313615661812 -0.1007564576720637 0 0.04492566625024013 -0.089358863831228555 0 0.04614114809451117 -0.077692407700107491 0 0.058565157000850403 -0.085646659075805584 0 0.058565157000850403 -0.085646659075805584 0 0.050001313615661812 -0.1007564576720637 0 0.072637440996521807 -0.09556076269332478 0 0.050001313615661812 -0.1007564576720637 0 0.072637440996521807 -0.09556076269332478 0 0.050001313615661812 -0.1007564576720637 0 0.049573885651655838 -0.1153085931538861 0 0.065006400172489764 -0.107588606087441 0 0.049573885651655838 -0.1153085931538861 0 0.064324749546530363 -0.12046130818996249 0 0.065006400172489764 -0.107588606087441 0 0.04956553706751253 -0.1255621726439905 0 0.049573885651655838 -0.1153085931538861 0 0.042944951938445157 -0.1242751845672966 0 0.04956553706751253 -0.1255621726439905 0 0.049573885651655838 -0.1153085931538861 0 0.064324749546530363 -0.12046130818996249 0 0.049573885651655838 -0.1153085931538861 0 0.037822318789239147 -0.11909621702209749 0 0.037393097821810987 -0.10968909444704621 0 0.049573885651655838 -0.1153085931538861 0 0.042944951938445157 -0.1242751845672966 0 0.037822318789239147 -0.11909621702209749 0 0.034806425978572683 -0.12713493418576541 0 0.042944951938445157 -0.1242751845672966 0 0.037822318789239147 -0.11909621702209749 0 0.034806425978572683 -0.12713493418576541 0 0.029317685184656429 -0.1217293304090807 0 0.037822318789239147 -0.11909621702209749 0 0.029317685184656429 -0.1217293304090807 0 0.037822318789239147 -0.11909621702209749 0 0.037393097821810987 -0.10968909444704621 0 0.022122119999859632 -0.1053890256915332 0 0.037393097821810987 -0.10968909444704621 0 0.035463980534103802 -0.097235701938286928 0 0.04492566625024013 -0.089358863831228555 0 0.050001313615661812 -0.1007564576720637 0 0.035463980534103802 -0.097235701938286928 0 0.050001313615661812 -0.1007564576720637 0 0.049573885651655838 -0.1153085931538861 0 0.037393097821810987 -0.10968909444704621 0 0.050001313615661812 -0.1007564576720637 0 0.037393097821810987 -0.10968909444704621 0 0.035463980534103802 -0.097235701938286928 0 0.0205997372461885 0.0023781323293908811 0 0.034063723451658992 -0.02128279058369718 0 0.0205997372461885 0.0023781323293908811 0 0.034309101083134827 0.0030038984494899922 0 0.034063723451658992 -0.02128279058369718 0 0.0205997372461885 0.0023781323293908811 0 0.016258104180877229 -0.015397947513795749 0 0.01001885416573191 -0.004476854249576773 0 0.0205997372461885 0.0023781323293908811 0 0.016258104180877229 -0.015397947513795749 0 0.034063723451658992 -0.02128279058369718 0 -0.0028544830176488989 0.002455641577057118 0 0.01001885416573191 -0.004476854249576773 0 0.0030583570175628252 -0.01856170568743179 0 0.016258104180877229 -0.015397947513795749 0 0.01001885416573191 -0.004476854249576773 0 0.0030583570175628252 -0.01856170568743179 0 0.016258104180877229 -0.015397947513795749 0 0.0030583570175628252 -0.01856170568743179 0 0.013483030798370391 -0.03471090606288111 0 -0.0078335196233025421 -0.032589113900727759 0 0.0030583570175628252 -0.01856170568743179 0 0.013483030798370391 -0.03471090606288111 0 0.016258104180877229 -0.015397947513795749 0 0.013483030798370391 -0.03471090606288111 0 0.034063723451658992 -0.02128279058369718 0 0.028582276329136461 -0.043370538866790327 0 0.013483030798370391 -0.03471090606288111 0 0.01548237052672605 -0.056797466830138879 0 0.028582276329136461 -0.043370538866790327 0 0.013483030798370391 -0.03471090606288111 0 0.034063723451658992 -0.02128279058369718 0 0.013483030798370391 -0.03471090606288111 0 0.01548237052672605 -0.056797466830138879 0 0.00050163831282639142 -0.04866532260415745 0 -0.0078335196233025421 -0.032589113900727759 0 0.013483030798370391 -0.03471090606288111 0 0.00050163831282639142 -0.04866532260415745 0 -0.0026473775239512971 -0.060770750801720619 0 0.01548237052672605 -0.056797466830138879 0 0.00050163831282639142 -0.04866532260415745 0 0.0231853923366327 -0.069360844429702348 0 0.01548237052672605 -0.056797466830138879 0 0.03235454721179741 -0.059117817360449312 0 0.028582276329136461 -0.043370538866790327 0 0.01548237052672605 -0.056797466830138879 0 0.03235454721179741 -0.059117817360449312 0 0.044255391184529758 -0.064767541943000106 0 0.03235454721179741 -0.059117817360449312 0 0.047527709657129477 -0.044943713496785213 0 0.028582276329136461 -0.043370538866790327 0 0.03235454721179741 -0.059117817360449312 0 0.047527709657129477 -0.044943713496785213 0 0.044255391184529758 -0.064767541943000106 0 0.060991695862599858 -0.068604636409873077 0 0.047527709657129477 -0.044943713496785213 0 0.060991695862599858 -0.068604636409873077 0 0.047527709657129477 -0.044943713496785213 0 0.068688460007349753 -0.037380063151389711 0 0.060991695862599858 -0.068604636409873077 0 0.047527709657129477 -0.044943713496785213 0 0.047527709657129477 -0.044943713496785213 0 0.060731304471880583 -0.017740648472278579 0 0.068688460007349753 -0.037380063151389711 0 0.028582276329136461 -0.043370538866790327 0 0.047527709657129477 -0.044943713496785213 0 0.034063723451658992 -0.02128279058369718 0 0.047527709657129477 -0.044943713496785213 0 0.034063723451658992 -0.02128279058369718 0 0.047527709657129477 -0.044943713496785213 0 0.034063723451658992 -0.02128279058369718 0 0.060731304471880583 -0.017740648472278579 0 0.034063723451658992 -0.02128279058369718 0 0.060731304471880583 -0.017740648472278579 0 0.04845766104737128 -0.0055885135069849642 0 0.060731304471880583 -0.017740648472278579 0 0.04845766104737128 -0.0055885135069849642 0 0.066363036836788125 -0.00035733683639111032 0 0.034309101083134827 0.0030038984494899922 0 0.034063723451658992 -0.02128279058369718 0 0.04845766104737128 -0.0055885135069849642 0 0.086611589262698324 0.0039548086448320478 0 0.088664312542894003 -0.014491816057906859 0 0.086611589262698324 0.0039548086448320478 0 0.088664312542894003 -0.014491816057906859 0 0.076243510529110908 -0.01040548573051516 0 0.086611589262698324 0.0039548086448320478 0 0.088664312542894003 -0.014491816057906859 0 0.10405589958959451 -0.012593867785812391 0 0.060731304471880583 -0.017740648472278579 0 0.066363036836788125 -0.00035733683639111032 0 0.076243510529110908 -0.01040548573051516 0 0.086611589262698324 0.0039548086448320478 0 0.066363036836788125 -0.00035733683639111032 0 0.076243510529110908 -0.01040548573051516 0 0.060731304471880583 -0.017740648472278579 0 0.075391442458128316 -0.02306898552958082 0 0.068688460007349753 -0.037380063151389711 0 0.060731304471880583 -0.017740648472278579 0 0.076243510529110908 -0.01040548573051516 0 0.075391442458128316 -0.02306898552958082 0 0.075391442458128316 -0.02306898552958082 0 0.090717035823089445 -0.032938440760645837 0 0.068688460007349753 -0.037380063151389711 0 0.088664312542894003 -0.014491816057906859 0 0.075391442458128316 -0.02306898552958082 0 0.090717035823089445 -0.032938440760645837 0 0.088664312542894003 -0.014491816057906859 0 0.090717035823089445 -0.032938440760645837 0 0.088664312542894003 -0.014491816057906859 0 0.076243510529110908 -0.01040548573051516 0 0.075391442458128316 -0.02306898552958082 0 0.090717035823089445 -0.032938440760645837 0 0.068688460007349753 -0.037380063151389711 0 0.086009459050576387 -0.051799122106585292 0 0.060991695862599858 -0.068604636409873077 0 0.068688460007349753 -0.037380063151389711 0 0.086009459050576387 -0.051799122106585292 0 0.086009459050576387 -0.051799122106585292 0 0.1066725732767215 -0.059543669857144668 0 0.089046448778093312 -0.072863127844257511 0 0.086009459050576387 -0.051799122106585292 0 0.1066725732767215 -0.059543669857144668 0 0.10734111513213219 -0.041035502478621533 0 0.1066725732767215 -0.059543669857144668 0 0.1211976092052631 -0.048296713205014483 0 0.10734111513213219 -0.041035502478621533 0 0.1066725732767215 -0.059543669857144668 0 0.1211976092052631 -0.048296713205014483 0 0.1315296274575832 -0.066070628825748559 0 0.1211976092052631 -0.048296713205014483 0 0.10734111513213219 -0.041035502478621533 0 0.12150020991649101 -0.029142544216456689 0 0.10734111513213219 -0.041035502478621533 0 0.10388144581254261 -0.027024568948838829 0 0.12150020991649101 -0.029142544216456689 0 0.090717035823089445 -0.032938440760645837 0 0.10734111513213219 -0.041035502478621533 0 0.10388144581254261 -0.027024568948838829 0 0.090717035823089445 -0.032938440760645837 0 0.086009459050576387 -0.051799122106585292 0 0.10734111513213219 -0.041035502478621533 0 0.088664312542894003 -0.014491816057906859 0 0.090717035823089445 -0.032938440760645837 0 0.10388144581254261 -0.027024568948838829 0 0.088664312542894003 -0.014491816057906859 0 0.10388144581254261 -0.027024568948838829 0 0.10405589958959451 -0.012593867785812391 0 0.12150020991649101 -0.029142544216456689 0 0.10405589958959451 -0.012593867785812391 0 0.12150020991649101 -0.029142544216456689 0 0.1201905565698881 -0.0082580585653695675 0 0.10405589958959451 -0.012593867785812391 0 0.10388144581254261 -0.027024568948838829 0 0.12150020991649101 -0.029142544216456689 0 0.10405589958959451 -0.012593867785812391 0 0.1096290522820639 0.0073486417560512541 0 0.1201905565698881 -0.0082580585653695675 0 0.10405589958959451 -0.012593867785812391 0 0.086611589262698324 0.0039548086448320478 0 0.1096290522820639 0.0073486417560512541 0 0.10405589958959451 -0.012593867785812391 0 0.086611589262698324 0.0039548086448320478 0 0.10405589958959451 -0.012593867785812391 0 0.072637440996521807 -0.09556076269332478 0 0.099156902284790696 -0.089419973392871555 0 0.094190665915369953 -0.1080659081387401 0 0.072637440996521807 -0.09556076269332478 0 0.094190665915369953 -0.1080659081387401 0 0.079675932265189597 -0.1058478177473757 0 0.072637440996521807 -0.09556076269332478 0 0.094190665915369953 -0.1080659081387401 0 0.079675932265189597 -0.1058478177473757 0 0.084580471981521937 -0.11818333146531761 0 0.094190665915369953 -0.1080659081387401 0 0.084580471981521937 -0.11818333146531761 0 0.094190665915369953 -0.1080659081387401 0 0.093798003730892976 -0.1185912363543048 0 0.095014765660718661 -0.12763654431768651 0 0.084580471981521937 -0.11818333146531761 0 0.093798003730892976 -0.1185912363543048 0 0.079675932265189597 -0.1058478177473757 0 0.084580471981521937 -0.11818333146531761 0 0.064324749546530363 -0.12046130818996249 0 0.079600997891911413 -0.12967638481522961 0 0.084580471981521937 -0.11818333146531761 0 0.064324749546530363 -0.12046130818996249 0 0.079675932265189597 -0.1058478177473757 0 0.064324749546530363 -0.12046130818996249 0 0.079675932265189597 -0.1058478177473757 0 0.064324749546530363 -0.12046130818996249 0 0.065006400172489764 -0.107588606087441 0 0.050001313615661812 -0.1007564576720637 0 0.065006400172489764 -0.107588606087441 0 0.072637440996521807 -0.09556076269332478 0 0.079675932265189597 -0.1058478177473757 0 0.065006400172489764 -0.107588606087441 0 0.072637440996521807 -0.09556076269332478 0 0.058565157000850403 -0.085646659075805584 0 0.072637440996521807 -0.09556076269332478 0 0.074455682068070267 -0.092265559322960988 0 0.060991695862599858 -0.068604636409873077 0 0.074455682068070267 -0.092265559322960988 0 0.060991695862599858 -0.068604636409873077 0 0.058565157000850403 -0.085646659075805584 0 0.074455682068070267 -0.092265559322960988 0 0.060991695862599858 -0.068604636409873077 0 0.074455682068070267 -0.092265559322960988 0 0.089046448778093312 -0.072863127844257511 0 0.060991695862599858 -0.068604636409873077 0 0.086009459050576387 -0.051799122106585292 0 0.089046448778093312 -0.072863127844257511 0 0.072637440996521807 -0.09556076269332478 0 0.099156902284790696 -0.089419973392871555 0 0.072637440996521807 -0.09556076269332478 0 0.074455682068070267 -0.092265559322960988 0 0.099156902284790696 -0.089419973392871555 0 0.074455682068070267 -0.092265559322960988 0 0.089046448778093312 -0.072863127844257511 0 0.099156902284790696 -0.089419973392871555 0 0.089046448778093312 -0.072863127844257511 0 0.099156902284790696 -0.089419973392871555 0 0.1102004113927164 -0.075485890563219762 0 0.1066725732767215 -0.059543669857144668 0 0.089046448778093312 -0.072863127844257511 0 0.1102004113927164 -0.075485890563219762 0 0.1066725732767215 -0.059543669857144668 0 0.1102004113927164 -0.075485890563219762 0 0.1315296274575832 -0.066070628825748559 0 0.1102004113927164 -0.075485890563219762 0 0.12568178351917711 -0.083302685262215778 0 0.1315296274575832 -0.066070628825748559 0 0.099156902284790696 -0.089419973392871555 0 0.1089386083707672 -0.10108873105119461 0 0.12568178351917711 -0.083302685262215778 0 0.099156902284790696 -0.089419973392871555 0 0.12568178351917711 -0.083302685262215778 0 0.099156902284790696 -0.089419973392871555 0 0.1102004113927164 -0.075485890563219762 0 0.12568178351917711 -0.083302685262215778 0 0.1227032356473636 -0.10089784599499441 0 0.1089386083707672 -0.10108873105119461 0 0.12568178351917711 -0.083302685262215778 0 0.1227032356473636 -0.10089784599499441 0 0.1089386083707672 -0.10108873105119461 0 0.1165287195334824 -0.1142872876973608 0 0.099156902284790696 -0.089419973392871555 0 0.1089386083707672 -0.10108873105119461 0 0.094190665915369953 -0.1080659081387401 0 0.1089386083707672 -0.10108873105119461 0 0.094190665915369953 -0.1080659081387401 0 0.1165287195334824 -0.1142872876973608 0 0.094190665915369953 -0.1080659081387401 0 0.1157438908342182 -0.1205710535841554 0 0.094190665915369953 -0.1080659081387401 0 0.10140611136596139 -0.120479161495475 0 0.1157438908342182 -0.1205710535841554 0 0.094190665915369953 -0.1080659081387401 0 0.1157438908342182 -0.1205710535841554 0 0.1165287195334824 -0.1142872876973608 0 0.095014765660718661 -0.12763654431768651 0 0.093798003730892976 -0.1185912363543048 0 0.10140611136596139 -0.120479161495475 0 0.094190665915369953 -0.1080659081387401 0 0.093798003730892976 -0.1185912363543048 0 0.10140611136596139 -0.120479161495475 0 0.10740551381008839 -0.1287102758538814 0 0.10140611136596139 -0.120479161495475 0 0.1157438908342182 -0.1205710535841554 0 0.1157438908342182 -0.1205710535841554 0 0.1165287195334824 -0.1142872876973608 0 0.11849479969710409 -0.1179190149832145 0 0.1165287195334824 -0.1142872876973608 0 0.12465068369198121 -0.118084633079831 0 0.11849479969710409 -0.1179190149832145 0 0.1157438908342182 -0.1205710535841554 0 0.13045448960996309 -0.1291061186601464 0 0.1157438908342182 -0.1205710535841554 0 0.12465068369198121 -0.118084633079831 0 0.13045448960996309 -0.1291061186601464 0 0.1157438908342182 -0.1205710535841554 0 0.12465068369198121 -0.118084633079831 0 0.11849479969710409 -0.1179190149832145 0 0.12465068369198121 -0.118084633079831 0 0.13449312968604021 -0.1191150689313466 0 0.13045448960996309 -0.1291061186601464 0 0.1165287195334824 -0.1142872876973608 0 0.13645683582486279 -0.1062120044889748 0 0.1165287195334824 -0.1142872876973608 0 0.12465068369198121 -0.118084633079831 0 0.13645683582486279 -0.1062120044889748 0 0.12465068369198121 -0.118084633079831 0 0.13449312968604021 -0.1191150689313466 0 0.13645683582486279 -0.1062120044889748 0 0.13449312968604021 -0.1191150689313466 0 0.14512859966325309 -0.1209895902220008 0 0.13645683582486279 -0.1062120044889748 0 0.13449312968604021 -0.1191150689313466 0 0.14512859966325309 -0.1209895902220008 0 0.13045448960996309 -0.1291061186601464 0 0.14512859966325309 -0.1209895902220008 0 0.13645683582486279 -0.1062120044889748 0 0.15733859517926549 -0.11269981586254781 0 0.13645683582486279 -0.1062120044889748 0 0.15638495211624309 -0.098136721280588771 0 0.13645683582486279 -0.1062120044889748 0 0.15733859517926549 -0.11269981586254781 0 0.15638495211624309 -0.098136721280588771 0 0.13645683582486279 -0.1062120044889748 0 0.14548464424964899 -0.084186731268264051 0 0.15638495211624309 -0.098136721280588771 0 0.1227032356473636 -0.10089784599499441 0 0.1165287195334824 -0.1142872876973608 0 0.13645683582486279 -0.1062120044889748 0 0.1227032356473636 -0.10089784599499441 0 0.13645683582486279 -0.1062120044889748 0 0.12568178351917711 -0.083302685262215778 0 0.13645683582486279 -0.1062120044889748 0 0.12568178351917711 -0.083302685262215778 0 0.14548464424964899 -0.084186731268264051 0 0.12568178351917711 -0.083302685262215778 0 0.1315296274575832 -0.066070628825748559 0 0.14548464424964899 -0.084186731268264051 0 0.1315296274575832 -0.066070628825748559 0 0.14971891357850109 -0.069602921893376038 0 0.14833928146936981 -0.056481793101974848 0 0.1315296274575832 -0.066070628825748559 0 0.14971891357850109 -0.069602921893376038 0 0.14548464424964899 -0.084186731268264051 0 0.14971891357850109 -0.069602921893376038 0 0.1598539714326645 -0.068539359143197226 0 0.15656090492741451 -0.07752608259838295 0 0.14971891357850109 -0.069602921893376038 0 0.14548464424964899 -0.084186731268264051 0 0.15656090492741451 -0.07752608259838295 0 0.14971891357850109 -0.069602921893376038 0 0.1598539714326645 -0.068539359143197226 0 0.1550185578109757 -0.061874136364584859 0 0.14971891357850109 -0.069602921893376038 0 0.14833928146936981 -0.056481793101974848 0 0.1550185578109757 -0.061874136364584859 0 0.14548464424964899 -0.084186731268264051 0 0.16130019316762589 -0.086841311740266158 0 0.15638495211624309 -0.098136721280588771 0 0.14548464424964899 -0.084186731268264051 0 0.16130019316762589 -0.086841311740266158 0 0.15656090492741451 -0.07752608259838295 0 0.16130019316762589 -0.086841311740266158 0 0.17079549335352071 -0.074264404189555808 0 0.17631306840762531 -0.090061438072207678 0 0.16130019316762589 -0.086841311740266158 0 0.17631306840762531 -0.090061438072207678 0 0.15638495211624309 -0.098136721280588771 0 0.16130019316762589 -0.086841311740266158 0 0.15656090492741451 -0.07752608259838295 0 0.17079549335352071 -0.074264404189555808 0 0.16130019316762589 -0.086841311740266158 0 0.17079549335352071 -0.074264404189555808 0 0.1598539714326645 -0.068539359143197226 0 0.17079549335352071 -0.074264404189555808 0 0.1606041963287895 -0.051377029646317678 0 0.1598539714326645 -0.068539359143197226 0 0.15656090492741451 -0.07752608259838295 0 0.17079549335352071 -0.074264404189555808 0 0.17079549335352071 -0.074264404189555808 0 0.18660219606057249 -0.053327789787049558 0 0.17079549335352071 -0.074264404189555808 0 0.18690611808277599 -0.070919980022384685 0 0.18660219606057249 -0.053327789787049558 0 0.18690611808277599 -0.070919980022384685 0 0.17631306840762531 -0.090061438072207678 0 0.19881737870580821 -0.080942227986809778 0 0.17079549335352071 -0.074264404189555808 0 0.17631306840762531 -0.090061438072207678 0 0.17079549335352071 -0.074264404189555808 0 0.18690611808277599 -0.070919980022384685 0 0.17631306840762531 -0.090061438072207678 0 0.17631306840762531 -0.090061438072207678 0 0.18510227244294261 -0.1152252741026954 0 0.199950805382689 -0.10073259568684149 0 0.17631306840762531 -0.090061438072207678 0 0.18510227244294261 -0.1152252741026954 0 0.16835844925806431 -0.10801164084903821 0 0.17631306840762531 -0.090061438072207678 0 0.18510227244294261 -0.1152252741026954 0 0.18510227244294261 -0.1152252741026954 0 0.1666533581442447 -0.12393495492715149 0 0.16835844925806431 -0.10801164084903821 0 0.1666533581442447 -0.12393495492715149 0 0.15733859517926549 -0.11269981586254781 0 0.16835844925806431 -0.10801164084903821 0 0.14512859966325309 -0.1209895902220008 0 0.1666533581442447 -0.12393495492715149 0 0.15733859517926549 -0.11269981586254781 0 0.17631306840762531 -0.090061438072207678 0 0.15638495211624309 -0.098136721280588771 0 0.17631306840762531 -0.090061438072207678 0 0.15638495211624309 -0.098136721280588771 0 0.16835844925806431 -0.10801164084903821 0 0.15733859517926549 -0.11269981586254781 0 0.15638495211624309 -0.098136721280588771 0 0.16835844925806431 -0.10801164084903821 0 0.1465612794743501 -0.0039847483349544424 0 0.15166925893079411 -0.01950524454777243 0 0.16599996820853161 -0.0081069305139563046 0 0.1465612794743501 -0.0039847483349544424 0 0.1346235407933149 -0.013459646970160831 0 0.15166925893079411 -0.01950524454777243 0 0.13114408026797619 0.0065571243895308053 0 0.1201905565698881 -0.0082580585653695675 0 0.1346235407933149 -0.013459646970160831 0 0.13114408026797619 0.0065571243895308053 0 0.1465612794743501 -0.0039847483349544424 0 0.1346235407933149 -0.013459646970160831 0 0.12150020991649101 -0.029142544216456689 0 0.1346235407933149 -0.013459646970160831 0 0.1421142958433074 -0.03104683268129094 0 0.12150020991649101 -0.029142544216456689 0 0.1201905565698881 -0.0082580585653695675 0 0.1346235407933149 -0.013459646970160831 0 0.1346235407933149 -0.013459646970160831 0 0.1421142958433074 -0.03104683268129094 0 0.15166925893079411 -0.01950524454777243 0 0.1421142958433074 -0.03104683268129094 0 0.15166925893079411 -0.01950524454777243 0 0.15677724474156021 -0.034129608354971447 0 0.15166925893079411 -0.01950524454777243 0 0.15677724474156021 -0.034129608354971447 0 0.1421142958433074 -0.03104683268129094 0 0.15144412819645681 -0.044580076098971057 0 0.15677724474156021 -0.034129608354971447 0 0.1421142958433074 -0.03104683268129094 0 0.15144412819645681 -0.044580076098971057 0 0.13894452024338749 -0.045691220647100968 0 0.1211976092052631 -0.048296713205014483 0 0.12150020991649101 -0.029142544216456689 0 0.13894452024338749 -0.045691220647100968 0 0.12150020991649101 -0.029142544216456689 0 0.1421142958433074 -0.03104683268129094 0 0.13894452024338749 -0.045691220647100968 0 0.12150020991649101 -0.029142544216456689 0 0.13894452024338749 -0.045691220647100968 0 0.1315296274575832 -0.066070628825748559 0 0.13894452024338749 -0.045691220647100968 0 0.14833928146936981 -0.056481793101974848 0 0.1211976092052631 -0.048296713205014483 0 0.1315296274575832 -0.066070628825748559 0 0.13894452024338749 -0.045691220647100968 0 0.15144412819645681 -0.044580076098971057 0 0.13894452024338749 -0.045691220647100968 0 0.14833928146936981 -0.056481793101974848 0 0.15144412819645681 -0.044580076098971057 0 0.14833928146936981 -0.056481793101974848 0 0.1606041963287895 -0.051377029646317678 0 0.14833928146936981 -0.056481793101974848 0 0.1550185578109757 -0.061874136364584859 0 0.1606041963287895 -0.051377029646317678 0 0.17079549335352071 -0.074264404189555808 0 0.16188523055232781 -0.04875397216217002 0 0.1606041963287895 -0.051377029646317678 0 0.1598539714326645 -0.068539359143197226 0 0.1550185578109757 -0.061874136364584859 0 0.1606041963287895 -0.051377029646317678 0 0.17079549335352071 -0.074264404189555808 0 0.16188523055232781 -0.04875397216217002 0 0.1753732591525991 -0.044936801623610058 0 0.17079549335352071 -0.074264404189555808 0 0.16188523055232781 -0.04875397216217002 0 0.15144412819645681 -0.044580076098971057 0 0.16188523055232781 -0.04875397216217002 0 0.1606041963287895 -0.051377029646317678 0 0.16188523055232781 -0.04875397216217002 0 0.1606041963287895 -0.051377029646317678 0 0.17079549335352071 -0.074264404189555808 0 0.18660219606057249 -0.053327789787049558 0 0.1753732591525991 -0.044936801623610058 0 0.18660219606057249 -0.053327789787049558 0 0.18525734663435389 -0.03571070468316806 0 0.1753732591525991 -0.044936801623610058 0 0.18525734663435389 -0.03571070468316806 0 0.1753732591525991 -0.044936801623610058 0 0.17273284764728841 -0.026542291409836109 0 0.16188523055232781 -0.04875397216217002 0 0.1753732591525991 -0.044936801623610058 0 0.17273284764728841 -0.026542291409836109 0 0.16188523055232781 -0.04875397216217002 0 0.15677724474156021 -0.034129608354971447 0 0.17273284764728841 -0.026542291409836109 0 0.16188523055232781 -0.04875397216217002 0 0.17273284764728841 -0.026542291409836109 0 0.15144412819645681 -0.044580076098971057 0 0.16188523055232781 -0.04875397216217002 0 0.15677724474156021 -0.034129608354971447 0 0.16188523055232781 -0.04875397216217002 0 0.15677724474156021 -0.034129608354971447 0 0.15166925893079411 -0.01950524454777243 0 0.15677724474156021 -0.034129608354971447 0 0.17273284764728841 -0.026542291409836109 0 0.15166925893079411 -0.01950524454777243 0 0.17273284764728841 -0.026542291409836109 0 0.16599996820853161 -0.0081069305139563046 0 0.18525734663435389 -0.03571070468316806 0 0.17273284764728841 -0.026542291409836109 0 0.18916953154368599 -0.021355465210801641 0 0.17273284764728841 -0.026542291409836109 0 0.1835804647422471 -0.0043306106575012604 0 0.18916953154368599 -0.021355465210801641 0 0.17273284764728841 -0.026542291409836109 0 0.1835804647422471 -0.0043306106575012604 0 0.16599996820853161 -0.0081069305139563046 0 0.17273284764728841 -0.026542291409836109 0 0.1835804647422471 -0.0043306106575012604 0 0.1589774368007133 0.0093033835460836437 0 0.1465612794743501 -0.0039847483349544424 0 0.16599996820853161 -0.0081069305139563046 0 0.218215601474675 -0.01145456098203616 0 0.21054347779345531 -0.003562521141335906 0 0.20075388687566831 -0.0085933942553703367 0 0.20797441612187789 0.007560915051423687 0 0.21054347779345531 -0.003562521141335906 0 0.20075388687566831 -0.0085933942553703367 0 0.218215601474675 -0.01145456098203616 0 0.21054347779345531 -0.003562521141335906 0 0.2215207504065515 -0.0027592399919864649 0 0.1835804647422471 -0.0043306106575012604 0 0.20075388687566831 -0.0085933942553703367 0 0.18916953154368599 -0.021355465210801641 0 0.20797441612187789 0.007560915051423687 0 0.1835804647422471 -0.0043306106575012604 0 0.20075388687566831 -0.0085933942553703367 0 0.20075388687566831 -0.0085933942553703367 0 0.18916953154368599 -0.021355465210801641 0 0.20240889876762369 -0.03239117538454292 0 0.18525734663435389 -0.03571070468316806 0 0.18916953154368599 -0.021355465210801641 0 0.20240889876762369 -0.03239117538454292 0 0.218215601474675 -0.01145456098203616 0 0.20240889876762369 -0.03239117538454292 0 0.2232662673808565 -0.028440467457457871 0 0.218215601474675 -0.01145456098203616 0 0.20075388687566831 -0.0085933942553703367 0 0.20240889876762369 -0.03239117538454292 0 0.218215601474675 -0.01145456098203616 0 0.20240889876762369 -0.03239117538454292 0 0.20240889876762369 -0.03239117538454292 0 0.20200245388635449 -0.056004040076300228 0 0.2272591357920041 -0.047929726927403313 0 0.20240889876762369 -0.03239117538454292 0 0.2272591357920041 -0.047929726927403313 0 0.2232662673808565 -0.028440467457457871 0 0.18660219606057249 -0.053327789787049558 0 0.20240889876762369 -0.03239117538454292 0 0.18660219606057249 -0.053327789787049558 0 0.18525734663435389 -0.03571070468316806 0 0.20240889876762369 -0.03239117538454292 0 0.18690611808277599 -0.070919980022384685 0 0.18660219606057249 -0.053327789787049558 0 0.20200245388635449 -0.056004040076300228 0 0.18660219606057249 -0.053327789787049558 0 0.20240889876762369 -0.03239117538454292 0 0.20200245388635449 -0.056004040076300228 0 0.20200245388635449 -0.056004040076300228 0 0.2272591357920041 -0.047929726927403313 0 0.2177576535224619 -0.066410176178715502 0 0.20200245388635449 -0.056004040076300228 0 0.2272591357920041 -0.047929726927403313 0 0.2272591357920041 -0.047929726927403313 0 0.2177576535224619 -0.066410176178715502 0 0.23524287448238579 -0.070601366795738613 0 0.25251581769765369 -0.039855413778506391 0 0.2272591357920041 -0.047929726927403313 0 0.24726356955260159 -0.056848548658191063 0 0.2272591357920041 -0.047929726927403313 0 0.24726356955260159 -0.056848548658191063 0 0.23524287448238579 -0.070601366795738613 0 0.25251581769765369 -0.039855413778506391 0 0.2272591357920041 -0.047929726927403313 0 0.25251581769765369 -0.039855413778506391 0 0.2272591357920041 -0.047929726927403313 0 0.2377341047654519 -0.032391038177574223 0 0.25251581769765369 -0.039855413778506391 0 0.2377341047654519 -0.032391038177574223 0 0.2485222146256075 -0.023577916995893629 0 0.2272591357920041 -0.047929726927403313 0 0.2377341047654519 -0.032391038177574223 0 0.2232662673808565 -0.028440467457457871 0 0.218215601474675 -0.01145456098203616 0 0.2232662673808565 -0.028440467457457871 0 0.2283028051370222 -0.017514828453106691 0 0.2232662673808565 -0.028440467457457871 0 0.2283028051370222 -0.017514828453106691 0 0.2371070883311375 -0.022151665728609909 0 0.2283028051370222 -0.017514828453106691 0 0.2371070883311375 -0.022151665728609909 0 0.2346222633614197 -0.0080126196443228038 0 0.2377341047654519 -0.032391038177574223 0 0.2232662673808565 -0.028440467457457871 0 0.2371070883311375 -0.022151665728609909 0 0.2377341047654519 -0.032391038177574223 0 0.2485222146256075 -0.023577916995893629 0 0.2371070883311375 -0.022151665728609909 0 0.2485222146256075 -0.023577916995893629 0 0.2371070883311375 -0.022151665728609909 0 0.24499785099053939 -0.01315585069972287 0 0.25641752230442932 -0.012112608048959811 0 0.2485222146256075 -0.023577916995893629 0 0.24499785099053939 -0.01315585069972287 0 0.2371070883311375 -0.022151665728609909 0 0.2346222633614197 -0.0080126196443228038 0 0.24499785099053939 -0.01315585069972287 0 0.25641752230442932 -0.012112608048959811 0 0.24499785099053939 -0.01315585069972287 0 0.24853671956149301 -0.00016400905018209389 0 0.2346222633614197 -0.0080126196443228038 0 0.24499785099053939 -0.01315585069972287 0 0.24853671956149301 -0.00016400905018209389 0 0.2340223041817264 0.0094820534204706555 0 0.218215601474675 -0.01145456098203616 0 0.2215207504065515 -0.0027592399919864649 0 0.218215601474675 -0.01145456098203616 0 0.2283028051370222 -0.017514828453106691 0 0.2346222633614197 -0.0080126196443228038 0 0.2340223041817264 0.0094820534204706555 0 0.218215601474675 -0.01145456098203616 0 0.2340223041817264 0.0094820534204706555 0 0.218215601474675 -0.01145456098203616 0 0.2346222633614197 -0.0080126196443228038 0 0.199950805382689 -0.10073259568684149 0 0.21997147340520101 -0.085399272805556509 0 0.2189516773003661 -0.1063501718419258 0 0.20541843842005661 -0.1226311088019489 0 0.217968415427606 -0.1212533111176719 0 0.2189516773003661 -0.1063501718419258 0 0.20541843842005661 -0.1226311088019489 0 0.199950805382689 -0.10073259568684149 0 0.2189516773003661 -0.1063501718419258 0 0.18510227244294261 -0.1152252741026954 0 0.20541843842005661 -0.1226311088019489 0 0.199950805382689 -0.10073259568684149 0 0.17631306840762531 -0.090061438072207678 0 0.199950805382689 -0.10073259568684149 0 0.19881737870580821 -0.080942227986809778 0 0.17631306840762531 -0.090061438072207678 0 0.19881737870580821 -0.080942227986809778 0 0.18690611808277599 -0.070919980022384685 0 0.20200245388635449 -0.056004040076300228 0 0.19881737870580821 -0.080942227986809778 0 0.19881737870580821 -0.080942227986809778 0 0.2177576535224619 -0.066410176178715502 0 0.21997147340520101 -0.085399272805556509 0 0.20200245388635449 -0.056004040076300228 0 0.19881737870580821 -0.080942227986809778 0 0.2177576535224619 -0.066410176178715502 0 0.199950805382689 -0.10073259568684149 0 0.19881737870580821 -0.080942227986809778 0 0.21997147340520101 -0.085399272805556509 0 0.21997147340520101 -0.085399272805556509 0 0.23524287448238579 -0.070601366795738613 0 0.24252472776742981 -0.094573020529889806 0 0.2177576535224619 -0.066410176178715502 0 0.21997147340520101 -0.085399272805556509 0 0.23524287448238579 -0.070601366795738613 0 0.25427398504605331 -0.073642380563128537 0 0.24726356955260159 -0.056848548658191063 0 0.23524287448238579 -0.070601366795738613 0 0.25427398504605331 -0.073642380563128537 0 0.23524287448238579 -0.070601366795738613 0 0.24252472776742981 -0.094573020529889806 0 0.25043564932643791 -0.089915469559916056 0 0.25427398504605331 -0.073642380563128537 0 0.24252472776742981 -0.094573020529889806 0 0.25427398504605331 -0.073642380563128537 0 0.24252472776742981 -0.094573020529889806 0 0.25437630068290218 -0.1056559122776352 0 0.25043564932643791 -0.089915469559916056 0 0.24252472776742981 -0.094573020529889806 0 0.25437630068290218 -0.1056559122776352 0 0.24252472776742981 -0.094573020529889806 0 0.23077547048880859 -0.11550366049665239 0 0.24252472776742981 -0.094573020529889806 0 0.23077547048880859 -0.11550366049665239 0 0.21997147340520101 -0.085399272805556509 0 0.24252472776742981 -0.094573020529889806 0 0.2189516773003661 -0.1063501718419258 0 0.24252472776742981 -0.094573020529889806 0 0.2189516773003661 -0.1063501718419258 0 0.23077547048880859 -0.11550366049665239 0 0.2189516773003661 -0.1063501718419258 0 0.23077547048880859 -0.11550366049665239 0 0.217968415427606 -0.1212533111176719 0 0.2189516773003661 -0.1063501718419258 0 0.23077547048880859 -0.11550366049665239 0 0.23077547048880859 -0.11550366049665239 0 0.24871169776137431 -0.12938914125831641 0 0.25437630068290218 -0.1056559122776352 0 0.23077547048880859 -0.11550366049665239 0 0.24871169776137431 -0.12938914125831641 0 0.23077547048880859 -0.11550366049665239 0 0.24871169776137431 -0.12938914125831641 0 0.23569415469929919 -0.13999520100059801 0 0.25115911538310842 -0.14475482987549321 0 0.24871169776137431 -0.12938914125831641 0 0.23569415469929919 -0.13999520100059801 0 0.25115911538310842 -0.14475482987549321 0 0.23569415469929919 -0.13999520100059801 0 0.24101776206028519 -0.15655513463752671 0 0.23569415469929919 -0.13999520100059801 0 0.22387747833921201 -0.15425406761048119 0 0.24101776206028519 -0.15655513463752671 0 0.23569415469929919 -0.13999520100059801 0 0.22387747833921201 -0.15425406761048119 0 0.21672807550119499 -0.14052830333016189 0 0.23077547048880859 -0.11550366049665239 0 0.23569415469929919 -0.13999520100059801 0 0.21672807550119499 -0.14052830333016189 0 0.217968415427606 -0.1212533111176719 0 0.23077547048880859 -0.11550366049665239 0 0.21672807550119499 -0.14052830333016189 0 0.23077547048880859 -0.11550366049665239 0 0.21672807550119499 -0.14052830333016189 0 0.20541843842005661 -0.1226311088019489 0 0.21672807550119499 -0.14052830333016189 0 0.19389147647825961 -0.14038911013318339 0 0.20541843842005661 -0.1226311088019489 0 0.217968415427606 -0.1212533111176719 0 0.21672807550119499 -0.14052830333016189 0 0.21672807550119499 -0.14052830333016189 0 0.2026806805135796 -0.16555294616367019 0 0.21672807550119499 -0.14052830333016189 0 0.19389147647825961 -0.14038911013318339 0 0.2026806805135796 -0.16555294616367019 0 0.22387747833921201 -0.15425406761048119 0 0.21672807550119499 -0.14052830333016189 0 0.2026806805135796 -0.16555294616367019 0 0.19389147647825961 -0.14038911013318339 0 0.2026806805135796 -0.16555294616367019 0 0.19389147647825961 -0.14038911013318339 0 0.18819121100858999 -0.1578798057337856 0 0.2026806805135796 -0.16555294616367019 0 0.18510227244294261 -0.1152252741026954 0 0.19389147647825961 -0.14038911013318339 0 0.18510227244294261 -0.1152252741026954 0 0.20541843842005661 -0.1226311088019489 0 0.19389147647825961 -0.14038911013318339 0 0.19571220057365579 -0.17796690061878509 0 0.2026806805135796 -0.16555294616367019 0 0.20907860254141869 -0.1838704479758429 0 0.19571220057365579 -0.17796690061878509 0 0.1988539406221172 -0.18732416071231389 0 0.20907860254141869 -0.1838704479758429 0 0.19571220057365579 -0.17796690061878509 0 0.18970345095193261 -0.19102515865691061 0 0.18701228019951219 -0.17726035671734591 0 0.19571220057365579 -0.17796690061878509 0 0.1988539406221172 -0.18732416071231389 0 0.18970345095193261 -0.19102515865691061 0 0.19571220057365579 -0.17796690061878509 0 0.1921297930601539 -0.16880082004306801 0 0.18701228019951219 -0.17726035671734591 0 0.1921297930601539 -0.16880082004306801 0 0.18819121100858999 -0.1578798057337856 0 0.18427668583611251 -0.16580126848098761 0 0.1921297930601539 -0.16880082004306801 0 0.18427668583611251 -0.16580126848098761 0 0.18701228019951219 -0.17726035671734591 0 0.1921297930601539 -0.16880082004306801 0 0.18819121100858999 -0.1578798057337856 0 0.2026806805135796 -0.16555294616367019 0 0.19571220057365579 -0.17796690061878509 0 0.2026806805135796 -0.16555294616367019 0 0.19571220057365579 -0.17796690061878509 0 0.1921297930601539 -0.16880082004306801 0 0.2026806805135796 -0.16555294616367019 0 0.2026806805135796 -0.16555294616367019 0 0.2121609657891928 -0.1725177612770927 0 0.22326671892170399 -0.16863875292044789 0 0.22387747833921201 -0.15425406761048119 0 0.2026806805135796 -0.16555294616367019 0 0.22326671892170399 -0.16863875292044789 0 0.2121609657891928 -0.1725177612770927 0 0.20907860254141869 -0.1838704479758429 0 0.22625965549318169 -0.17976864767263781 0 0.2026806805135796 -0.16555294616367019 0 0.2121609657891928 -0.1725177612770927 0 0.20907860254141869 -0.1838704479758429 0 0.2026806805135796 -0.16555294616367019 0 0.20907860254141869 -0.1838704479758429 0 0.20907860254141869 -0.1838704479758429 0 0.22625965549318169 -0.17976864767263781 0 0.22266754282754819 -0.19088142682670831 0 0.22625965549318169 -0.17976864767263781 0 0.22326671892170399 -0.16863875292044789 0 0.24351114197824131 -0.17442380090664231 0 0.2121609657891928 -0.1725177612770927 0 0.22625965549318169 -0.17976864767263781 0 0.22326671892170399 -0.16863875292044789 0 0.22625965549318169 -0.17976864767263781 0 0.23678238678885091 -0.1844701742964974 0 0.22266754282754819 -0.19088142682670831 0 0.22387747833921201 -0.15425406761048119 0 0.22326671892170399 -0.16863875292044789 0 0.24101776206028519 -0.15655513463752671 0 0.22326671892170399 -0.16863875292044789 0 0.24101776206028519 -0.15655513463752671 0 0.24351114197824131 -0.17442380090664231 0 0.24351114197824131 -0.17442380090664231 0 0.23678238678885091 -0.1844701742964974 0 0.24855855152693609 -0.19141787187995979 0 0.22625965549318169 -0.17976864767263781 0 0.24351114197824131 -0.17442380090664231 0 0.23678238678885091 -0.1844701742964974 0 0.24855855152693609 -0.19141787187995979 0 0.23471801180839791 -0.19750271492826521 0 0.24526428126873789 -0.21333451960786959 0 0.23678238678885091 -0.1844701742964974 0 0.24855855152693609 -0.19141787187995979 0 0.23471801180839791 -0.19750271492826521 0 0.23471801180839791 -0.19750271492826521 0 0.24526428126873789 -0.21333451960786959 0 0.2274130798613325 -0.20262495857018131 0 0.24526428126873789 -0.21333451960786959 0 0.21893903883271759 -0.20921818170004999 0 0.24526428126873789 -0.21333451960786959 0 0.21893903883271759 -0.20921818170004999 0 0.2274130798613325 -0.20262495857018131 0 0.24526428126873789 -0.21333451960786959 0 0.21893903883271759 -0.20921818170004999 0 0.22319941401109211 -0.22750732667553319 0 0.21893903883271759 -0.20921818170004999 0 0.2274130798613325 -0.20262495857018131 0 0.21547652456926081 -0.20218794978801449 0 0.22266754282754819 -0.19088142682670831 0 0.2274130798613325 -0.20262495857018131 0 0.21547652456926081 -0.20218794978801449 0 0.23678238678885091 -0.1844701742964974 0 0.23471801180839791 -0.19750271492826521 0 0.22266754282754819 -0.19088142682670831 0 0.23471801180839791 -0.19750271492826521 0 0.22266754282754819 -0.19088142682670831 0 0.2274130798613325 -0.20262495857018131 0 0.2350268157420097 -0.24904653729081719 0 0.2476018070020008 -0.23329042390658089 0 0.22319941401109211 -0.22750732667553319 0 0.25341282203674043 -0.24662775844995141 0 0.2350268157420097 -0.24904653729081719 0 0.2476018070020008 -0.23329042390658089 0 0.24526428126873789 -0.21333451960786959 0 0.2476018070020008 -0.23329042390658089 0 0.22319941401109211 -0.22750732667553319 0 0.24526428126873789 -0.21333451960786959 0 0.22319941401109211 -0.22750732667553319 0 0.2350268157420097 -0.24904653729081719 0 0.22319941401109211 -0.22750732667553319 0 0.21996486111888541 -0.2436093550118559 0 0.2190985368162951 -0.25912799282139543 0 0.21996486111888541 -0.2436093550118559 0 0.20113454675344511 -0.24168013374319541 0 0.22319941401109211 -0.22750732667553319 0 0.21996486111888541 -0.2436093550118559 0 0.20113454675344511 -0.24168013374319541 0 0.22319941401109211 -0.22750732667553319 0 0.20113454675344511 -0.24168013374319541 0 0.21893903883271759 -0.20921818170004999 0 0.22319941401109211 -0.22750732667553319 0 0.20357577971169469 -0.22089541254643541 0 0.22319941401109211 -0.22750732667553319 0 0.20357577971169469 -0.22089541254643541 0 0.20113454675344511 -0.24168013374319541 0 0.20357577971169469 -0.22089541254643541 0 0.18940528345273339 -0.23215919634528401 0 0.19205225869042039 -0.2133586164303807 0 0.20357577971169469 -0.22089541254643541 0 0.18940528345273339 -0.23215919634528401 0 0.20113454675344511 -0.24168013374319541 0 0.17906967949579819 -0.25585294081085752 0 0.20113454675344511 -0.24168013374319541 0 0.17906967949579819 -0.25585294081085752 0 0.18940528345273339 -0.23215919634528401 0 0.20113454675344511 -0.24168013374319541 0 0.21547652456926081 -0.20218794978801449 0 0.1926137963966971 -0.20510184379223181 0 0.2031006913109146 -0.1962344893020605 0 0.20907860254141869 -0.1838704479758429 0 0.22266754282754819 -0.19088142682670831 0 0.21547652456926081 -0.20218794978801449 0 0.20907860254141869 -0.1838704479758429 0 0.21547652456926081 -0.20218794978801449 0 0.2031006913109146 -0.1962344893020605 0 0.20907860254141869 -0.1838704479758429 0 0.21547652456926081 -0.20218794978801449 0 0.1988539406221172 -0.18732416071231389 0 0.20907860254141869 -0.1838704479758429 0 0.2031006913109146 -0.1962344893020605 0 0.21893903883271759 -0.20921818170004999 0 0.20357577971169469 -0.22089541254643541 0 0.1926137963966971 -0.20510184379223181 0 0.21893903883271759 -0.20921818170004999 0 0.1926137963966971 -0.20510184379223181 0 0.21893903883271759 -0.20921818170004999 0 0.21547652456926081 -0.20218794978801449 0 0.1926137963966971 -0.20510184379223181 0 0.20357577971169469 -0.22089541254643541 0 0.19205225869042039 -0.2133586164303807 0 0.1926137963966971 -0.20510184379223181 0 0.1926137963966971 -0.20510184379223181 0 0.19606796982041541 -0.19492141311587921 0 0.18970345095193261 -0.19102515865691061 0 0.1926137963966971 -0.20510184379223181 0 0.2031006913109146 -0.1962344893020605 0 0.19606796982041541 -0.19492141311587921 0 0.1988539406221172 -0.18732416071231389 0 0.2031006913109146 -0.1962344893020605 0 0.19606796982041541 -0.19492141311587921 0 0.1988539406221172 -0.18732416071231389 0 0.19606796982041541 -0.19492141311587921 0 0.18970345095193261 -0.19102515865691061 0 0.1926137963966971 -0.20510184379223181 0 0.16628855396067641 -0.2009855058844135 0 0.18970345095193261 -0.19102515865691061 0 0.16628855396067641 -0.2009855058844135 0 0.17675528932250861 -0.18347272876306889 0 0.1926137963966971 -0.20510184379223181 0 0.18970345095193261 -0.19102515865691061 0 0.16628855396067641 -0.2009855058844135 0 0.19205225869042039 -0.2133586164303807 0 0.1926137963966971 -0.20510184379223181 0 0.17608667175110451 -0.21292835446379069 0 0.19205225869042039 -0.2133586164303807 0 0.17608667175110451 -0.21292835446379069 0 0.17119415261230869 -0.22900887819555071 0 0.1926137963966971 -0.20510184379223181 0 0.17608667175110451 -0.21292835446379069 0 0.16628855396067641 -0.2009855058844135 0 0.17608667175110451 -0.21292835446379069 0 0.15828459709541989 -0.21618692801637659 0 0.16628855396067641 -0.2009855058844135 0 0.15828459709541989 -0.21618692801637659 0 0.16628855396067641 -0.2009855058844135 0 0.15370241200792981 -0.20428778142760759 0 0.15684535190028889 -0.19135272320752461 0 0.16628855396067641 -0.2009855058844135 0 0.15370241200792981 -0.20428778142760759 0 0.15684535190028889 -0.19135272320752461 0 0.16628855396067641 -0.2009855058844135 0 0.16646852100759749 -0.1836865385400358 0 0.16628855396067641 -0.2009855058844135 0 0.17675528932250861 -0.18347272876306889 0 0.16646852100759749 -0.1836865385400358 0 0.17906967949579819 -0.25585294081085752 0 0.18940528345273339 -0.23215919634528401 0 0.17119415261230869 -0.22900887819555071 0 0.18940528345273339 -0.23215919634528401 0 0.19205225869042039 -0.2133586164303807 0 0.17119415261230869 -0.22900887819555071 0 0.19205225869042039 -0.2133586164303807 0 0.17119415261230869 -0.22900887819555071 0 0.17608667175110451 -0.21292835446379069 0 0.15828459709541989 -0.21618692801637659 0 0.17119415261230869 -0.22900887819555071 0 0.15828459709541989 -0.21618692801637659 0 0.17119415261230869 -0.22900887819555071 0 0.1520355209316348 -0.22983127230130329 0 0.1634275993753225 -0.2535295448765581 0 0.17119415261230869 -0.22900887819555071 0 0.15033604653419669 -0.2446591399607205 0 0.1634275993753225 -0.2535295448765581 0 0.17906967949579819 -0.25585294081085752 0 0.17119415261230869 -0.22900887819555071 0 0.17119415261230869 -0.22900887819555071 0 0.15033604653419669 -0.2446591399607205 0 0.1520355209316348 -0.22983127230130329 0 0.17119415261230869 -0.22900887819555071 0 0.15033604653419669 -0.2446591399607205 0 0.13540154809883059 -0.25586479827743031 0 0.15033604653419669 -0.2446591399607205 0 0.13853725132079431 -0.23618738807718551 0 0.15033604653419669 -0.2446591399607205 0 0.1404552338877956 -0.22041581561906909 0 0.15033604653419669 -0.2446591399607205 0 0.1520355209316348 -0.22983127230130329 0 0.1404552338877956 -0.22041581561906909 0 0.15033604653419669 -0.2446591399607205 0 0.1404552338877956 -0.22041581561906909 0 0.13853725132079431 -0.23618738807718551 0 0.15828459709541989 -0.21618692801637659 0 0.1520355209316348 -0.22983127230130329 0 0.14955243817208361 -0.22005097665558271 0 0.1520355209316348 -0.22983127230130329 0 0.14955243817208361 -0.22005097665558271 0 0.1404552338877956 -0.22041581561906909 0 0.1404552338877956 -0.22041581561906909 0 0.1354129925500597 -0.22761747345813621 0 0.13853725132079431 -0.23618738807718551 0 0.1404552338877956 -0.22041581561906909 0 0.13438312591493831 -0.22226886119477399 0 0.1354129925500597 -0.22761747345813621 0 0.1404552338877956 -0.22041581561906909 0 0.13438312591493831 -0.22226886119477399 0 0.13408899493284199 -0.21731870925775909 0 0.13438312591493831 -0.22226886119477399 0 0.1260211116237461 -0.21998411296138751 0 0.13408899493284199 -0.21731870925775909 0 0.13438312591493831 -0.22226886119477399 0 0.12827635907671051 -0.23159782894151629 0 0.1354129925500597 -0.22761747345813621 0 0.12827635907671051 -0.23159782894151629 0 0.1354129925500597 -0.22761747345813621 0 0.13853725132079431 -0.23618738807718551 0 0.13540154809883059 -0.25586479827743031 0 0.12439266497993801 -0.24087206490340091 0 0.13853725132079431 -0.23618738807718551 0 0.12439266497993801 -0.24087206490340091 0 0.12827635907671051 -0.23159782894151629 0 0.13853725132079431 -0.23618738807718551 0 0.13540154809883059 -0.25586479827743031 0 0.120200565350322 -0.25179215276921502 0 0.12439266497993801 -0.24087206490340091 0 0.14553754022033771 -0.1893219637956253 0 0.1290952528587257 -0.18863215028824681 0 0.1512237908841613 -0.1846064677877316 0 0.14189650323007699 -0.1991579506579689 0 0.1488585846416548 -0.19780634661272961 0 0.1445029836760543 -0.2056252941590202 0 0.14189650323007699 -0.1991579506579689 0 0.1445668234804274 -0.19447998211920001 0 0.1488585846416548 -0.19780634661272961 0 0.14189650323007699 -0.1991579506579689 0 0.1445029836760543 -0.2056252941590202 0 0.13762394996815819 -0.20298663399140249 0 0.14189650323007699 -0.1991579506579689 0 0.1445668234804274 -0.19447998211920001 0 0.13905462375569971 -0.19558996693923039 0 0.14112418705457991 -0.19272728462177549 0 0.14553754022033771 -0.1893219637956253 0 0.1354109356291128 -0.19130847254325981 0 0.14112418705457991 -0.19272728462177549 0 0.14553754022033771 -0.1893219637956253 0 0.1445668234804274 -0.19447998211920001 0 0.14112418705457991 -0.19272728462177549 0 0.1445668234804274 -0.19447998211920001 0 0.13905462375569971 -0.19558996693923039 0 0.14553754022033771 -0.1893219637956253 0 0.1445668234804274 -0.19447998211920001 0 0.15006035695846839 -0.19110735129078521 0 0.1445668234804274 -0.19447998211920001 0 0.15006035695846839 -0.19110735129078521 0 0.1488585846416548 -0.19780634661272961 0 0.15684535190028889 -0.19135272320752461 0 0.15006035695846839 -0.19110735129078521 0 0.1488585846416548 -0.19780634661272961 0 0.14553754022033771 -0.1893219637956253 0 0.15006035695846839 -0.19110735129078521 0 0.1512237908841613 -0.1846064677877316 0 0.15684535190028889 -0.19135272320752461 0 0.15006035695846839 -0.19110735129078521 0 0.1512237908841613 -0.1846064677877316 0 0.15684535190028889 -0.19135272320752461 0 0.1488585846416548 -0.19780634661272961 0 0.15370241200792981 -0.20428778142760759 0 0.1488585846416548 -0.19780634661272961 0 0.15370241200792981 -0.20428778142760759 0 0.1445029836760543 -0.2056252941590202 0 0.15370241200792981 -0.20428778142760759 0 0.1474344007734843 -0.21376989068558169 0 0.1445029836760543 -0.2056252941590202 0 0.15828459709541989 -0.21618692801637659 0 0.15370241200792981 -0.20428778142760759 0 0.1474344007734843 -0.21376989068558169 0 0.15828459709541989 -0.21618692801637659 0 0.14955243817208361 -0.22005097665558271 0 0.1474344007734843 -0.21376989068558169 0 0.1404552338877956 -0.22041581561906909 0 0.1474344007734843 -0.21376989068558169 0 0.13985345030531951 -0.20994360575515339 0 0.14955243817208361 -0.22005097665558271 0 0.1404552338877956 -0.22041581561906909 0 0.1474344007734843 -0.21376989068558169 0 0.1474344007734843 -0.21376989068558169 0 0.1445029836760543 -0.2056252941590202 0 0.13985345030531951 -0.20994360575515339 0 0.1445029836760543 -0.2056252941590202 0 0.13985345030531951 -0.20994360575515339 0 0.13762394996815819 -0.20298663399140249 0 0.1404552338877956 -0.22041581561906909 0 0.13985345030531951 -0.20994360575515339 0 0.13151915227677349 -0.19849046063134951 0 0.1404552338877956 -0.22041581561906909 0 0.1335043938513493 -0.21058848643076891 0 0.13151915227677349 -0.19849046063134951 0 0.1404552338877956 -0.22041581561906909 0 0.13151915227677349 -0.19849046063134951 0 0.1404552338877956 -0.22041581561906909 0 0.1335043938513493 -0.21058848643076891 0 0.13408899493284199 -0.21731870925775909 0 0.1335043938513493 -0.21058848643076891 0 0.13408899493284199 -0.21731870925775909 0 0.13110572590847591 -0.214426854499112 0 0.1260211116237461 -0.21998411296138751 0 0.13408899493284199 -0.21731870925775909 0 0.13110572590847591 -0.214426854499112 0 0.1335043938513493 -0.21058848643076891 0 0.13110572590847591 -0.214426854499112 0 0.12735644208470831 -0.21084544960152471 0 0.1233932733370912 -0.21633192609272259 0 0.13110572590847591 -0.214426854499112 0 0.12735644208470831 -0.21084544960152471 0 0.1233932733370912 -0.21633192609272259 0 0.1260211116237461 -0.21998411296138751 0 0.13110572590847591 -0.214426854499112 0 0.1335043938513493 -0.21058848643076891 0 0.12767860512856469 -0.20573241658295541 0 0.13151915227677349 -0.19849046063134951 0 0.1335043938513493 -0.21058848643076891 0 0.12735644208470831 -0.21084544960152471 0 0.12767860512856469 -0.20573241658295541 0 0.1202985243438196 -0.2073864021523609 0 0.12735644208470831 -0.21084544960152471 0 0.12767860512856469 -0.20573241658295541 0 0.14553754022033771 -0.1893219637956253 0 0.1354109356291128 -0.19130847254325981 0 0.1290952528587257 -0.18863215028824681 0 0.12767860512856469 -0.20573241658295541 0 0.1266640587294153 -0.2002330542948709 0 0.13151915227677349 -0.19849046063134951 0 0.1241760014966011 -0.2030742242222707 0 0.12767860512856469 -0.20573241658295541 0 0.1266640587294153 -0.2002330542948709 0 0.1220628177846047 -0.19894502385889579 0 0.1266640587294153 -0.2002330542948709 0 0.12714281054212281 -0.19661068311773269 0 0.1266640587294153 -0.2002330542948709 0 0.12714281054212281 -0.19661068311773269 0 0.12910684653589449 -0.1973338992697371 0 0.1266640587294153 -0.2002330542948709 0 0.12910684653589449 -0.1973338992697371 0 0.13151915227677349 -0.19849046063134951 0 0.12714281054212281 -0.19661068311773269 0 0.13057442124139521 -0.1961724912774174 0 0.12910684653589449 -0.1973338992697371 0 0.13057442124139521 -0.1961724912774174 0 0.12910684653589449 -0.1973338992697371 0 0.13151915227677349 -0.19849046063134951 0 0.13057442124139521 -0.1961724912774174 0 0.13151915227677349 -0.19849046063134951 0 0.13985345030531951 -0.20994360575515339 0 0.13057442124139521 -0.1961724912774174 0 0.13151915227677349 -0.19849046063134951 0 0.13985345030531951 -0.20994360575515339 0 0.13057442124139521 -0.1961724912774174 0 0.13762394996815819 -0.20298663399140249 0 0.13057442124139521 -0.1961724912774174 0 0.1355327517378262 -0.19559642090871629 0 0.13684522872572569 -0.19825072703644431 0 0.13057442124139521 -0.1961724912774174 0 0.13684522872572569 -0.19825072703644431 0 0.13762394996815819 -0.20298663399140249 0 0.14189650323007699 -0.1991579506579689 0 0.13684522872572569 -0.19825072703644431 0 0.13905462375569971 -0.19558996693923039 0 0.1355327517378262 -0.19559642090871629 0 0.13684522872572569 -0.19825072703644431 0 0.13905462375569971 -0.19558996693923039 0 0.14189650323007699 -0.1991579506579689 0 0.13684522872572569 -0.19825072703644431 0 0.13762394996815819 -0.20298663399140249 0 0.14112418705457991 -0.19272728462177549 0 0.13905462375569971 -0.19558996693923039 0 0.1354109356291128 -0.19130847254325981 0 0.13057442124139521 -0.1961724912774174 0 0.1355327517378262 -0.19559642090871629 0 0.1354109356291128 -0.19130847254325981 0 0.1355327517378262 -0.19559642090871629 0 0.13905462375569971 -0.19558996693923039 0 0.1354109356291128 -0.19130847254325981 0 0.1220628177846047 -0.19894502385889579 0 0.12714281054212281 -0.19661068311773269 0 0.1290952528587257 -0.18863215028824681 0 0.12714281054212281 -0.19661068311773269 0 0.13057442124139521 -0.1961724912774174 0 0.1290952528587257 -0.18863215028824681 0 0.13057442124139521 -0.1961724912774174 0 0.1354109356291128 -0.19130847254325981 0 0.1290952528587257 -0.18863215028824681 0 0.13057442124139521 -0.1961724912774174 0 0.1290952528587257 -0.18863215028824681 0 0.14059425250941041 -0.1774303971062938 0 0.1513185876671895 -0.1747038252233859 0 0.12527720016430799 -0.16916890352892461 0 0.1290952528587257 -0.18863215028824681 0 0.14059425250941041 -0.1774303971062938 0 0.12527720016430799 -0.16916890352892461 0 0.1290952528587257 -0.18863215028824681 0 0.12527720016430799 -0.16916890352892461 0 0.1513185876671895 -0.1747038252233859 0 0.12527720016430799 -0.16916890352892461 0 0.1290952528587257 -0.18863215028824681 0 0.15668596934741921 -0.17721670938461739 0 0.14059425250941041 -0.1774303971062938 0 0.1513185876671895 -0.1747038252233859 0 0.15668596934741921 -0.17721670938461739 0 0.1290952528587257 -0.18863215028824681 0 0.1512237908841613 -0.1846064677877316 0 0.15668596934741921 -0.17721670938461739 0 0.1290952528587257 -0.18863215028824681 0 0.14059425250941041 -0.1774303971062938 0 0.15668596934741921 -0.17721670938461739 0 0.1513185876671895 -0.1747038252233859 0 0.1552407772281551 -0.16834539223206821 0 0.15668596934741921 -0.17721670938461739 0 0.1512237908841613 -0.1846064677877316 0 0.15784972754021309 -0.18395123424129889 0 0.15668596934741921 -0.17721670938461739 0 0.15684535190028889 -0.19135272320752461 0 0.1512237908841613 -0.1846064677877316 0 0.15784972754021309 -0.18395123424129889 0 0.1505768832704823 -0.15659346115040401 0 0.14327465427077279 -0.16567018391638921 0 0.13395982302373011 -0.15953933744716309 0 0.1505768832704823 -0.15659346115040401 0 0.1552407772281551 -0.16834539223206821 0 0.14327465427077279 -0.16567018391638921 0 0.1513185876671895 -0.1747038252233859 0 0.1552407772281551 -0.16834539223206821 0 0.14327465427077279 -0.16567018391638921 0 0.1221972546687847 -0.1534682980154744 0 0.13395982302373011 -0.15953933744716309 0 0.12527720016430799 -0.16916890352892461 0 0.14327465427077279 -0.16567018391638921 0 0.13395982302373011 -0.15953933744716309 0 0.12527720016430799 -0.16916890352892461 0 0.1513185876671895 -0.1747038252233859 0 0.14327465427077279 -0.16567018391638921 0 0.12527720016430799 -0.16916890352892461 0 0.1221972546687847 -0.1534682980154744 0 0.1505768832704823 -0.15659346115040401 0 0.13395982302373011 -0.15953933744716309 0 0.1221972546687847 -0.1534682980154744 0 0.1505768832704823 -0.15659346115040401 0 0.1451650883857081 -0.13764118373613729 0 0.1221972546687847 -0.1534682980154744 0 0.1311147155567472 -0.13976465251680939 0 0.1451650883857081 -0.13764118373613729 0 0.1221972546687847 -0.1534682980154744 0 0.1505768832704823 -0.15659346115040401 0 0.1221972546687847 -0.1534682980154744 0 0.1451650883857081 -0.13764118373613729 0 0.12383459175348011 -0.14538802333097989 0 0.1221972546687847 -0.1534682980154744 0 0.1311147155567472 -0.13976465251680939 0 0.14512859966325309 -0.1209895902220008 0 0.13045448960996309 -0.1291061186601464 0 0.1451650883857081 -0.13764118373613729 0 0.1188781015692907 -0.13654828643420031 0 0.13045448960996309 -0.1291061186601464 0 0.1311147155567472 -0.13976465251680939 0 0.13045448960996309 -0.1291061186601464 0 0.1311147155567472 -0.13976465251680939 0 0.1451650883857081 -0.13764118373613729 0 0.13045448960996309 -0.1291061186601464 0 0.1451650883857081 -0.13764118373613729 0 0.14512859966325309 -0.1209895902220008 0 0.1666533581442447 -0.12393495492715149 0 0.1451650883857081 -0.13764118373613729 0 0.1666533581442447 -0.12393495492715149 0 0.1451650883857081 -0.13764118373613729 0 0.1505768832704823 -0.15659346115040401 0 0.1451650883857081 -0.13764118373613729 0 0.1634838434475806 -0.1426608852862106 0 0.1505768832704823 -0.15659346115040401 0 0.1634838434475806 -0.1426608852862106 0 0.17782052895744499 -0.1604732872121433 0 0.1666533581442447 -0.12393495492715149 0 0.1634838434475806 -0.1426608852862106 0 0.17696014762133111 -0.14648999111927799 0 0.1666533581442447 -0.12393495492715149 0 0.1451650883857081 -0.13764118373613729 0 0.1634838434475806 -0.1426608852862106 0 0.18510227244294261 -0.1152252741026954 0 0.1666533581442447 -0.12393495492715149 0 0.19389147647825961 -0.14038911013318339 0 0.1666533581442447 -0.12393495492715149 0 0.19389147647825961 -0.14038911013318339 0 0.17696014762133111 -0.14648999111927799 0 0.19389147647825961 -0.14038911013318339 0 0.18819121100858999 -0.1578798057337856 0 0.17696014762133111 -0.14648999111927799 0 0.1634838434475806 -0.1426608852862106 0 0.17696014762133111 -0.14648999111927799 0 0.17782052895744499 -0.1604732872121433 0 0.18819121100858999 -0.1578798057337856 0 0.17696014762133111 -0.14648999111927799 0 0.17782052895744499 -0.1604732872121433 0 0.17782052895744499 -0.1604732872121433 0 0.18427668583611251 -0.16580126848098761 0 0.16530996324575961 -0.16584734662454781 0 0.18819121100858999 -0.1578798057337856 0 0.17782052895744499 -0.1604732872121433 0 0.18427668583611251 -0.16580126848098761 0 0.18427668583611251 -0.16580126848098761 0 0.17675528932250861 -0.18347272876306889 0 0.16646852100759749 -0.1836865385400358 0 0.18427668583611251 -0.16580126848098761 0 0.18701228019951219 -0.17726035671734591 0 0.17675528932250861 -0.18347272876306889 0 0.18970345095193261 -0.19102515865691061 0 0.18701228019951219 -0.17726035671734591 0 0.17675528932250861 -0.18347272876306889 0 0.18427668583611251 -0.16580126848098761 0 0.16646852100759749 -0.1836865385400358 0 0.15668596934741921 -0.17721670938461739 0 0.15684535190028889 -0.19135272320752461 0 0.16646852100759749 -0.1836865385400358 0 0.15784972754021309 -0.18395123424129889 0 0.16646852100759749 -0.1836865385400358 0 0.15784972754021309 -0.18395123424129889 0 0.15668596934741921 -0.17721670938461739 0 0.1552407772281551 -0.16834539223206821 0 0.15668596934741921 -0.17721670938461739 0 0.16530996324575961 -0.16584734662454781 0 0.1505768832704823 -0.15659346115040401 0 0.17782052895744499 -0.1604732872121433 0 0.16530996324575961 -0.16584734662454781 0 0.1505768832704823 -0.15659346115040401 0 0.17782052895744499 -0.1604732872121433 0 0.18427668583611251 -0.16580126848098761 0 0.15668596934741921 -0.17721670938461739 0 0.16530996324575961 -0.16584734662454781 0 0.18427668583611251 -0.16580126848098761 0 0.15668596934741921 -0.17721670938461739 0 0.1505768832704823 -0.15659346115040401 0 0.1552407772281551 -0.16834539223206821 0 0.16530996324575961 -0.16584734662454781 0 
</DataArray>
</Points>
<Cells>
<DataArray type="UInt32" Name="connectivity" format="ascii">
0 1 2 3 4 5 6 7 8 9 10 11 12 13 14 15 16 17 18 19 20 21 22 23 24 25 26 27 28 29 30 31 32 33 34 35 36 37 38 39 40 41 42 43 44 45 46 47 48 49 50 51 52 53 54 55 56 57 58 59 60 61 62 63 64 65 66 67 68 69 70 71 72 73 74 75 76 77 78 79 80 81 82 83 84 85 86 87 88 89 90 91 92 93 94 95 96 97 98 99 100 101 102 103 104 105 106 107 108 109 110 111 112 113 114 115 116 117 118 119 120 121 122 123 124 125 126 127 128 129 130 131 132 133 134 135 136 137 138 139 140 141 142 143 144 145 146 147 148 149 150 151 152 153 154 155 156 157 158 159 160 161 162 163 164 165 166 167 168 169 170 171 172 173 174 175 176 177 178 179 180 181 182 183 184 185 186 187 188 189 190 191 192 193 194 195 196 197 198 199 200 201 202 203 204 205 206 207 208 209 210 211 212 213 214 215 216 217 218 219 220 221 222 223 224 225 226 227 228 229 230 231 232 233 234 235 236 237 238 239 240 241 242 243 244 245 246 247 248 249 250 251 252 253 254 255 256 257 258 259 260 261 262 263 264 265 266 267 268 269 270 271 272 273 274 275 276 277 278 279 280 281 282 283 284 285 286 287 288 289 290 291 292 293 294 295 296 297 298 299 300 301 302 303 304 305 306 307 308 309 310 311 312 313 314 315 316 317 318 319 320 321 322 323 324 325 326 327 328 329 330 331 332 333 334 335 336 337 338 339 340 341 342 343 344 345 346 347 348 349 350 351 352 353 354 355 356 357 358 359 360 361 362 363 364 365 366 367 368 369 370 371 372 373 374 375 376 377 378 379 380 381 382 383 384 385 386 387 388 389 390 391 392 393 394 395 396 397 398 399 400 401 402 403 404 405 406 407 408 409 410 411 412 413 414 415 416 417 418 419 420 421 422 423 424 425 426 427 428 429 430 431 432 433 434 435 436 437 438 439 440 441 442 443 444 445 446 447 448 449 450 451 452 453 454 455 456 457 458 459 460 461 462 463 464 465 466 467 468 469 470 471 472 473 474 475 476 477 478 479 480 481 482 483 484 485 486 487 488 489 490 491 492 493 494 495 496 497 498 499 500 501 502 503 504 505 506 507 508 509 510 511 512 513 514 515 516 517 518 519 520 521 522 523 524 525 526 527 528 529 530 531 532 533 534 535 536 537 538 539 540 541 542 543 544 545 546 547 548 549 550 551 552 553 554 555 556 557 558 559 560 561 562 563 564 565 566 567 568 569 570 571 572 573 574 575 576 577 578 579 580 581 582 583 584 585 586 587 588 589 590 591 592 593 594 595 596 597 598 599 600 601 602 603 604 605 606 607 608 609 610 611 612 613 614 615 616 617 618 619 620 621 622 623 624 625 626 627 628 629 630 631 632 633 634 635 636 637 638 639 640 641 642 643 644 645 646 647 648 649 650 651 652 653 654 655 656 657 658 659 660 661 662 663 664 665 666 667 668 669 670 671 672 673 674 675 676 677 678 679 680 681 682 683 684 685 686 687 688 689 690 691 692 693 694 695 696 697 698 699 700 701 702 703 704 705 706 707 708 709 710 711 712 713 714 715 716 717 718 719 720 721 722 723 724 725 726 727 728 729 730 731 732 733 734 735 736 737 738 739 740 741 742 743 744 745 746 747 748 749 750 751 752 753 754 755 756 757 758 759 760 761 762 763 764 765 766 767 768 769 770 771 772 773 774 775 776 777 778 779 780 781 782 783 784 785 786 787 788 789 790 791 792 793 794 795 796 797 798 799 800 801 802 803 804 805 806 807 808 809 810 811 812 813 814 815 816 817 818 819 820 821 822 823 824 825 826 827 828 829 830 831 832 833 834 835 836 837 838 839 840 841 842 843 844 845 846 847 848 849 850 851 852 853 854 855 856 857 858 859 860 861 862 863 864 865 866 867 868 869 870 871 872 873 874 875 876 877 878 879 880 881 882 883 884 885 886 887 888 889 890 891 892 893 894 895 896 897 898 899 900 901 902 903 904 905 906 907 908 909 910 911 912 913 914 915 916 917 918 919 920 921 922 923 924 925 926 927 928 929 930 931 932 933 934 935 936 937 938 939 940 941 942 943 944 945 946 947 948 949 950 951 952 953 954 955 956 957 958 959 960 961 962 963 964 965 966 967 968 969 970 971 972 973 974 975 976 977 978 979 980 981 982 983 984 985 986 987 988 989 990 991 992 993 994 995 996 997 998 999 1000 1001 1002 1003 1004 1005 1006 1007 1008 1009 1010 1011 1012 1013 1014 1015 1016 1017 1018 1019 1020 1021 1022 1023 1024 1025 1026 1027 1028 1029 1030 1031 1032 1033 1034 1035 1036 1037 1038 1039 1040 1041 1042 1043 1044 1045 1046 1047 1048 1049 1050 1051 1052 1053 1054 1055 1056 1057 1058 1059 1060 1061 1062 1063 1064 1065 1066 1067 1068 1069 1070 1071 1072 1073 1074 1075 1076 1077 1078 1079 1080 1081 1082 1083 1084 1085 1086 1087 1088 1089 1090 1091 1092 1093 1094 1095 1096 1097 1098 1099 1100 1101 1102 1103 1104 1105 1106 1107 1108 1109 1110 1111 1112 1113 1114 1115 1116 1117 1118 1119 1120 1121 1122 1123 1124 1125 1126 1127 1128 1129 1130 1131 1132 1133 1134 1135 1136 1137 1138 1139 1140 1141 1142 1143 1144 1145 1146 1147 1148 1149 1150 1151 1152 1153 1154 1155 1156 1157 1158 1159 1160 1161 1162 1163 1164 1165 1166 1167 1168 1169 1170 1171 1172 1173 1174 1175 1176 1177 1178 1179 1180 1181 1182 1183 1184 1185 1186 1187 1188 1189 1190 1191 1192 1193 1194 1195 1196 1197 1198 1199 1200 1201 1202 1203 1204 1205 1206 1207 1208 1209 1210 1211 1212 1213 1214 1215 1216 1217 1218 1219 1220 1221 1222 1223 1224 1225 1226 1227 1228 1229 1230 1231 1232 1233 1234 1235 1236 1237 1238 1239 1240 1241 1242 1243 1244 1245 1246 1247 1248 1249 1250 1251 1252 1253 1254 1255 1256 1257 1258 1259 1260 1261 1262 1263 1264 1265 1266 1267 1268 1269 1270 1271 1272 1273 1274 1275 1276 1277 1278 1279 1280 1281 1282 1283 1284 1285 1286 1287 1288 1289 1290 1291 1292 1293 1294 1295 1296 1297 1298 1299 1300 1301 1302 1303 1304 1305 1306 1307 1308 1309 1310 1311 1312 1313 1314 1315 1316 1317 1318 1319 1320 1321 1322 1323 1324 1325 1326 1327 1328 1329 1330 1331 1332 1333 1334 1335 1336 1337 1338 1339 1340 1341 1342 1343 1344 1345 1346 1347 1348 1349 1350 1351 1352 1353 1354 1355 1356 1357 1358 1359 1360 1361 1362 1363 1364 1365 1366 1367 1368 1369 1370 1371 1372 1373 1374 1375 1376 1377 1378 1379 1380 1381 1382 1383 1384 1385 1386 1387 1388 1389 1390 1391 1392 1393 1394 1395 1396 1397 1398 1399 1400 1401 1402 1403 1404 1405 1406 1407 1408 1409 1410 1411 1412 1413 1414 1415 1416 1417 1418 1419 1420 1421 1422 1423 1424 1425 1426 1427 1428 1429 1430 1431 1432 1433 1434 1435 1436 1437 1438 1439 1440 1441 1442 1443 1444 1445 1446 1447 1448 1449 1450 1451 1452 1453 1454 1455 1456 1457 1458 1459 1460 1461 1462 1463 1464 1465 1466 1467 1468 1469 1470 1471 1472 1473 1474 1475 1476 1477 1478 1479 1480 1481 1482 1483 1484 1485 1486 1487 1488 1489 1490 1491 1492 1493 1494 1495 1496 1497 1498 1499 1500 1501 1502 1503 1504 1505 1506 1507 1508 1509 1510 1511 1512 1513 1514 1515 1516 1517 1518 1519 1520 1521 1522 1523 1524 1525 1526 1527 1528 1529 1530 1531 1532 1533 1534 1535 1536 1537 1538 1539 1540 1541 1542 1543 1544 1545 1546 1547 1548 1549 1550 1551 1552 1553 1554 1555 1556 1557 1558 1559 1560 1561 1562 1563 1564 1565 1566 1567 1568 1569 1570 1571 1572 1573 1574 1575 1576 1577 1578 1579 1580 1581 1582 1583 1584 1585 1586 1587 1588 1589 1590 1591 1592 1593 1594 1595 1596 1597 1598 1599 1600 1601 1602 1603 1604 1605 1606 1607 1608 1609 1610 1611 1612 1613 1614 1615 1616 1617 1618 1619 1620 1621 1622 1623 1624 1625 1626 1627 1628 1629 1630 1631 1632 1633 1634 1635 1636 1637 1638 1639 1640 1641 1642 1643 1644 1645 1646 1647 1648 1649 1650 1651 1652 1653 1654 1655 1656 1657 1658 1659 1660 1661 1662 1663 1664 1665 1666 1667 1668 1669 1670 1671 1672 1673 1674 1675 1676 1677 1678 1679 1680 1681 1682 1683 1684 1685 1686 1687 1688 1689 1690 1691 1692 1693 1694 1695 1696 1697 1698 1699 1700 1701 1702 1703 1704 1705 1706 1707 1708 1709 1710 1711 1712 1713 1714 1715 1716 1717 1718 1719 1720 1721 1722 1723 1724 1725 1726 1727 1728 1729 1730 1731 1732 1733 1734 1735 1736 1737 1738 1739 1740 1741 1742 1743 1744 1745 1746 1747 1748 1749 1750 1751 1752 1753 1754 1755 1756 1757 1758 1759 1760 1761 1762 1763 1764 1765 1766 1767 1768 1769 1770 1771 1772 1773 1774 1775 1776 1777 1778 1779 1780 1781 1782 1783 1784 1785 1786 1787 1788 1789 1790 1791 1792 1793 1794 1795 1796 1797 1798 1799 1800 1801 1802 1803 1804 1805 1806 1807 1808 1809 1810 1811 1812 1813 1814 1815 1816 1817 1818 1819 1820 1821 1822 1823 1824 1825 1826 1827 1828 1829 1830 1831 1832 1833 1834 1835 1836 1837 1838 1839 1840 1841 1842 1843 1844 1845 1846 1847 1848 1849 1850 1851 1852 1853 1854 1855 1856 1857 1858 1859 1860 1861 1862 1863 1864 1865 1866 1867 1868 1869 1870 1871 1872 1873 1874 1875 1876 1877 1878 1879 1880 1881 1882 1883 1884 1885 1886 1887 1888 1889 1890 1891 1892 1893 1894 1895 1896 1897 1898 1899 1900 1901 1902 1903 1904 1905 1906 1907 1908 1909 1910 1911 1912 1913 1914 1915 1916 1917 1918 1919 1920 1921 1922 1923 1924 1925 1926 1927 1928 1929 1930 1931 1932 1933 1934 1935 1936 1937 1938 1939 1940 1941 1942 1943 1944 1945 1946 1947 1948 1949 1950 1951 1952 1953 1954 1955 1956 1957 1958 1959 1960 1961 1962 1963 1964 1965 1966 1967 1968 1969 1970 1971 1972 1973 1974 1975 1976 1977 1978 1979 1980 1981 1982 1983 1984 1985 1986 1987 1988 1989 1990 1991 1992 1993 1994 1995 1996 1997 1998 1999 2000 2001 2002 2003 2004 2005 2006 2007 2008 2009 2010 2011 2012 2013 2014 2015 2016 2017 2018 2019 2020 2021 2022 2023 2024 2025 2026 2027 2028 2029 2030 2031 2032 2033 2034 2035 2036 2037 2038 2039 2040 2041 2042 2043 2044 2045 2046 2047 2048 2049 2050 2051 2052 2053 2054 2055 2056 2057 2058 2059 2060 2061 2062 2063 2064 2065 2066 2067 2068 2069 2070 2071 2072 2073 2074 2075 2076 2077 2078 2079 2080 2081 2082 2083 2084 2085 2086 2087 2088 2089 2090 2091 2092 2093 2094 2095 2096 2097 2098 2099 2100 2101 2102 2103 2104 2105 2106 2107 2108 2109 2110 2111 2112 2113 2114 2115 2116 2117 2118 2119 2120 2121 2122 2123 2124 2125 2126 2127 2128 2129 2130 2131 2132 2133 2134 2135 2136 2137 2138 2139 2140 2141 2142 2143 2144 2145 2146 2147 2148 2149 2150 2151 2152 2153 2154 2155 2156 2157 2158 2159 2160 2161 2162 2163 2164 2165 2166 2167 2168 2169 2170 2171 2172 2173 2174 2175 2176 2177 2178 2179 2180 2181 2182 2183 2184 2185 2186 2187 2188 2189 2190 2191 2192 2193 2194 2195 2196 2197 2198 2199 2200 2201 2202 2203 2204 2205 2206 2207 2208 2209 2210 2211 2212 2213 2214 2215 2216 2217 2218 2219 2220 2221 2222 2223 2224 2225 2226 2227 2228 2229 2230 2231 2232 2233 2234 2235 2236 2237 2238 2239 2240 2241 2242 2243 2244 2245 2246 2247 2248 2249 2250 2251 2252 2253 2254 2255 2256 2257 2258 2259 2260 2261 2262 2263 2264 2265 2266 2267 2268 2269 2270 2271 2272 2273 2274 2275 2276 2277 2278 2279 2280 2281 2282 2283 2284 2285 2286 2287 2288 2289 2290 2291 2292 2293 2294 2295 2296 2297 2298 2299 2300 2301 2302 2303 2304 2305 2306 2307 2308 2309 2310 2311 2312 2313 2314 2315 2316 2317 2318 2319 2320 2321 2322 2323 2324 2325 2326 2327 2328 2329 2330 2331 2332 2333 2334 2335 2336 2337 2338 2339 2340 2341 2342 2343 2344 2345 2346 2347 2348 2349 2350 2351 2352 2353 2354 2355 2356 2357 2358 2359 2360 2361 2362 2363 2364 2365 2366 2367 2368 2369 2370 2371 2372 2373 2374 2375 2376 2377 2378 2379 2380 2381 2382 2383 2384 2385 2386 2387 2388 2389 2390 2391 2392 2393 2394 2395 2396 2397 2398 2399 2400 2401 2402 2403 2404 2405 2406 2407 2408 2409 2410 2411 2412 2413 2414 2415 2416 2417 2418 2419 2420 2421 2422 2423 2424 2425 2426 2427 2428 2429 2430 2431 2432 2433 2434 2435 2436 2437 2438 2439 2440 2441 2442 2443 2444 2445 2446 2447 2448 2449 2450 2451 2452 2453 2454 2455 2456 2457 2458 2459 2460 2461 2462 2463 2464 2465 2466 2467 2468 2469 2470 2471 2472 2473 2474 2475 2476 2477 2478 2479 2480 2481 2482 2483 2484 2485 2486 2487 2488 2489 2490 2491 2492 2493 2494 2495 2496 2497 2498 2499 2500 2501 2502 2503 2504 2505 2506 2507 2508 2509 2510 2511 2512 2513 2514 2515 2516 2517 2518 2519 2520 2521 2522 2523 2524 2525 2526 2527 2528 2529 2530 2531 2532 2533 2534 2535 2536 2537 2538 2539 2540 2541 2542 2543 2544 2545 2546 2547 2548 2549 2550 2551 2552 2553 2554 2555 2556 2557 2558 2559 2560 2561 2562 2563 2564 2565 2566 2567 2568 2569 2570 2571 2572 2573 2574 2575 2576 2577 2578 2579 2580 2581 2582 2583 2584 2585 2586 2587 2588 2589 2590 2591 2592 2593 2594 2595 2596 2597 2598 2599 2600 2601 2602 2603 2604 2605 2606 2607 2608 2609 2610 2611 2612 2613 2614 2615 2616 2617 2618 2619 2620 2621 2622 2623 2624 2625 2626 2627 2628 2629 2630 2631 2632 2633 2634 2635 2636 2637 2638 2639 2640 2641 2642 2643 2644 2645 2646 2647 2648 2649 2650 2651 2652 2653 2654 2655 2656 2657 2658 2659 2660 2661 2662 2663 2664 2665 2666 2667 2668 2669 2670 2671 2672 2673 2674 2675 2676 2677 2678 2679 2680 2681 2682 2683 2684 2685 2686 2687 2688 2689 2690 2691 2692 2693 2694 2695 2696 2697 2698 2699 2700 2701 2702 2703 2704 2705 2706 2707 2708 2709 2710 2711 2712 2713 2714 2715 2716 2717 2718 2719 2720 2721 2722 2723 2724 2725 2726 2727 2728 2729 2730 2731 2732 2733 2734 2735 2736 2737 2738 2739 2740 2741 2742 2743 2744 2745 2746 2747 2748 2749 2750 2751 2752 2753 2754 2755 2756 2757 2758 2759 2760 2761 2762 2763 2764 2765 2766 2767 2768 2769 2770 2771 2772 2773 2774 2775 2776 2777 2778 2779 2780 2781 2782 2783 2784 2785 2786 2787 2788 2789 2790 2791 2792 2793 2794 2795 2796 2797 2798 2799 2800 2801 2802 2803 2804 2805 2806 2807 2808 2809 2810 2811 2812 2813 2814 2815 2816 2817 2818 2819 2820 2821 2822 2823 2824 2825 2826 2827 2828 2829 2830 2831 2832 2833 2834 2835 2836 2837 2838 2839 2840 2841 2842 2843 2844 2845 2846 2847 2848 2849 2850 2851 2852 2853 2854 2855 2856 2857 2858 2859 2860 2861 2862 2863 2864 2865 2866 2867 2868 2869 2870 2871 2872 2873 2874 2875 2876 2877 2878 2879 2880 2881 2882 2883 2884 2885 2886 2887 2888 2889 2890 2891 2892 2893 2894 2895 2896 2897 2898 2899 2900 2901 2902 2903 2904 2905 2906 2907 2908 2909 2910 2911 2912 2913 2914 2915 2916 2917 2918 2919 2920 2921 2922 2923 2924 2925 2926 2927 2928 2929 2930 2931 2932 2933 2934 2935 2936 2937 2938 2939 2940 2941 2942 2943 2944 2945 2946 2947 2948 2949 2950 2951 2952 2953 2954 2955 2956 2957 2958 2959 2960 2961 2962 2963 2964 2965 2966 2967 2968 2969 2970 2971 2972 2973 2974 2975 2976 2977 2978 2979 2980 2981 2982 2983 2984 2985 2986 2987 2988 2989 2990 2991 2992 2993 2994 2995 2996 2997 2998 2999 3000 3001 3002 3003 3004 3005 3006 3007 3008 3009 3010 3011 3012 3013 3014 3015 3016 3017 3018 3019 3020 3021 3022 3023 3024 3025 3026 3027 3028 3029 3030 3031 3032 3033 3034 3035 3036 3037 3038 3039 3040 3041 3042 3043 3044 3045 3046 3047 3048 3049 3050 3051 3052 3053 3054 3055 3056 3057 3058 3059 3060 3061 3062 3063 3064 3065 3066 3067 3068 3069 3070 3071 3072 3073 3074 3075 3076 3077 3078 3079 3080 3081 3082 3083 3084 3085 3086 3087 3088 3089 3090 3091 3092 3093 3094 3095 3096 3097 3098 3099 3100 3101 3102 3103 3104 3105 3106 3107 3108 3109 3110 3111 3112 3113 3114 3115 3116 3117 3118 3119 3120 3121 3122 3123 3124 3125 3126 3127 3128 3129 3130 3131 3132 3133 3134 3135 3136 3137 3138 3139 3140 3141 3142 3143 3144 3145 3146 3147 3148 3149 3150 3151 3152 3153 3154 3155 3156 3157 3158 3159 3160 3161 3162 3163 3164 3165 3166 3167 3168 3169 3170 3171 3172 3173 3174 3175 3176 3177 3178 3179 3180 3181 3182 3183 3184 3185 3186 3187 3188 3189 3190 3191 3192 3193 3194 3195 3196 3197 3198 3199 3200 3201 3202 3203 3204 3205 3206 3207 3208 3209 3210 3211 3212 3213 3214 3215 3216 3217 3218 3219 3220 3221 3222 3223 3224 3225 3226 3227 3228 3229 3230 3231 3232 3233 3234 3235 3236 3237 3238 3239 3240 3241 3242 3243 3244 3245 3246 3247 3248 3249 3250 3251 3252 3253 3254 3255 3256 3257 3258 3259 3260 3261 3262 3263 3264 3265 3266 3267 3268 3269 3270 3271 3272 3273 3274 3275 3276 3277 3278 3279 3280 3281 3282 3283 3284 3285 3286 3287 3288 3289 3290 3291 3292 3293 3294 3295 3296 3297 3298 3299 3300 3301 3302 3303 3304 3305 3306 3307 3308 3309 3310 3311 3312 3313 3314 3315 3316 3317 3318 3319 3320 3321 3322 3323 3324 3325 3326 3327 3328 3329 3330 3331 3332 3333 3334 3335 3336 3337 3338 3339 3340 3341 3342 3343 3344 3345 3346 3347 3348 3349 3350 3351 3352 3353 3354 3355 3356 3357 3358 3359 3360 3361 3362 3363 3364 3365 3366 3367 3368 3369 3370 3371 3372 3373 3374 3375 3376 3377 3378 3379 3380 3381 3382 3383 3384 3385 3386 3387 3388 3389 3390 3391 3392 3393 3394 3395 3396 3397 3398 3399 3400 3401 3402 3403 3404 3405 3406 3407 3408 3409 3410 3411 3412 3413 3414 3415 3416 3417 3418 3419 3420 3421 3422 3423 3424 3425 3426 3427 3428 3429 3430 3431 3432 3433 3434 3435 3436 3437 3438 3439 3440 3441 3442 3443 3444 3445 3446 3447 3448 3449 3450 3451 3452 3453 3454 3455 3456 3457 3458 3459 3460 3461 3462 3463 3464 3465 3466 3467 3468 3469 3470 3471 3472 3473 3474 3475 3476 3477 3478 3479 3480 3481 3482 3483 3484 3485 3486 3487 3488 3489 3490 3491 3492 3493 3494 3495 3496 3497 3498 3499 3500 3501 3502 3503 3504 3505 3506 3507 3508 3509 3510 3511 3512 3513 3514 3515 3516 3517 3518 3519 3520 3521 3522 3523 3524 3525 3526 3527 3528 3529 3530 3531 3532 3533 3534 3535 3536 3537 3538 3539 3540 3541 3542 3543 3544 3545 3546 3547 3548 3549 3550 3551 3552 3553 3554 3555 3556 3557 3558 3559 3560 3561 3562 3563 3564 3565 3566 3567 3568 3569 3570 3571 3572 3573 3574 3575 3576 3577 3578 3579 3580 3581 3582 3583 3584 3585 3586 3587 3588 3589 3590 3591 3592 3593 3594 3595 3596 3597 3598 3599 3600 3601 3602 3603 3604 3605 3606 3607 3608 3609 3610 3611 3612 3613 3614 3615 3616 3617 3618 3619 3620 3621 3622 3623 3624 3625 3626 3627 3628 3629 3630 3631 3632 3633 3634 3635 3636 3637 3638 3639 3640 3641 3642 3643 3644 3645 3646 3647 3648 3649 3650 3651 3652 3653 3654 3655 3656 3657 3658 3659 3660 3661 3662 3663 3664 3665 3666 3667 3668 3669 3670 3671 3672 3673 3674 3675 3676 3677 3678 3679 3680 3681 3682 3683 3684 3685 3686 3687 3688 3689 3690 3691 3692 3693 3694 3695 3696 3697 3698 3699 3700 3701 3702 3703 3704 3705 3706 3707 3708 3709 3710 3711 3712 3713 3714 3715 3716 3717 3718 3719 3720 3721 3722 3723 3724 3725 3726 3727 3728 3729 3730 3731 3732 3733 3734 3735 3736 3737 3738 3739 3740 3741 3742 3743 3744 3745 3746 3747 3748 3749 3750 3751 3752 3753 3754 3755 3756 3757 3758 3759 3760 3761 3762 3763 3764 3765 3766 3767 3768 3769 3770 3771 3772 3773 3774 3775 3776 3777 3778 3779 3780 3781 3782 3783 3784 3785 3786 3787 3788 3789 3790 3791 3792 3793 3794 3795 3796 3797 3798 3799 3800 3801 3802 3803 3804 3805 3806 3807 3808 3809 3810 3811 3812 3813 3814 3815 3816 3817 3818 3819 3820 3821 3822 3823 3824 3825 3826 3827 3828 3829 3830 3831 3832 3833 3834 3835 3836 3837 3838 3839 3840 3841 3842 3843 3844 3845 3846 3847 3848 3849 3850 3851 3852 3853 3854 3855 3856 3857 3858 3859 3860 3861 3862 3863 3864 3865 3866 3867 3868 3869 3870 3871 3872 3873 3874 3875 3876 3877 3878 3879 3880 3881 3882 3883 3884 3885 3886 3887 3888 3889 3890 3891 3892 3893 3894 3895 3896 3897 3898 3899 3900 3901 3902 3903 3904 3905 3906 3907 3908 3909 3910 3911 3912 3913 3914 3915 3916 3917 3918 3919 3920 3921 3922 3923 3924 3925 3926 3927 3928 3929 3930 3931 3932 3933 3934 3935 3936 3937 3938 3939 3940 3941 3942 3943 3944 3945 3946 3947 3948 3949 3950 3951 3952 3953 3954 3955 3956 3957 3958 3959 3960 3961 3962 3963 3964 3965 3966 3967 3968 3969 3970 3971 3972 3973 3974 3975 3976 3977 3978 3979 3980 3981 3982 3983 3984 3985 3986 3987 3988 3989 3990 3991 3992 3993 3994 3995 3996 3997 3998 3999 4000 4001 4002 4003 4004 4005 4006 4007 4008 4009 4010 4011 4012 4013 4014 4015 4016 4017 4018 4019 4020 4021 4022 4023 4024 4025 4026 4027 4028 4029 4030 4031 4032 4033 4034 4035 4036 4037 4038 4039 4040 4041 4042 4043 4044 4045 4046 4047 4048 4049 4050 4051 4052 4053 4054 4055 4056 4057 4058 4059 4060 4061 4062 4063 4064 4065 4066 4067 4068 4069 4070 4071 4072 4073 4074 4075 4076 4077 4078 4079 4080 4081 4082 4083 4084 4085 4086 4087 4088 4089 4090 4091 4092 4093 4094 4095 4096 4097 4098 4099 4100 4101 4102 4103 4104 4105 4106 4107 4108 4109 4110 4111 4112 4113 4114 4115 4116 4117 4118 4119 4120 4121 4122 4123 4124 4125 4126 4127 4128 4129 4130 4131 4132 4133 4134 4135 4136 4137 4138 4139 4140 4141 4142 4143 4144 4145 4146 4147 4148 4149 4150 4151 4152 4153 4154 4155 4156 4157 4158 4159 4160 4161 4162 4163 4164 4165 4166 4167 4168 4169 4170 4171 4172 4173 4174 4175 4176 4177 4178 4179 4180 4181 4182 4183 4184 4185 4186 4187 4188 4189 4190 4191 4192 4193 4194 4195 4196 4197 4198 4199 4200 4201 4202 4203 4204 4205 4206 4207 4208 4209 4210 4211 4212 4213 4214 4215 4216 4217 4218 4219 4220 4221 4222 4223 4224 4225 4226 4227 4228 4229 4230 4231 4232 4233 4234 4235 4236 4237 4238 4239 4240 4241 4242 4243 4244 4245 4246 4247 4248 4249 4250 4251 4252 4253 4254 4255 4256 4257 4258 4259 4260 4261 4262 4263 4264 4265 4266 4267 4268 4269 4270 4271 4272 4273 4274 4275 4276 4277 4278 4279 4280 4281 4282 4283 4284 4285 4286 4287 4288 4289 4290 4291 4292 4293 4294 4295 4296 4297 4298 4299 4300 4301 4302 4303 4304 4305 4306 4307 4308 4309 4310 4311 4312 4313 4314 4315 4316 4317 4318 4319 4320 4321 4322 4323 4324 4325 4326 4327 4328 4329 4330 4331 4332 4333 4334 4335 4336 4337 4338 4339 4340 4341 4342 4343 4344 4345 4346 4347 4348 4349 4350 4351 4352 4353 4354 4355 4356 4357 4358 4359 4360 4361 4362 4363 4364 4365 4366 4367 4368 4369 4370 4371 4372 4373 4374 4375 4376 4377 4378 4379 4380 4381 4382 4383 4384 4385 4386 4387 4388 4389 4390 4391 4392 4393 4394 4395 4396 4397 4398 4399 4400 4401 4402 4403 4404 4405 4406 4407 4408 4409 4410 4411 4412 4413 4414 4415 4416 4417 4418 4419 4420 4421 4422 4423 4424 4425 4426 4427 4428 4429 4430 4431 4432 4433 4434 4435 4436 4437 4438 4439 4440 4441 4442 4443 4444 4445 4446 4447 4448 4449 4450 4451 4452 4453 4454 4455 4456 4457 4458 4459 4460 4461 4462 4463 4464 4465 4466 4467 4468 4469 4470 4471 4472 4473 4474 4475 4476 4477 4478 4479 4480 4481 4482 4483 4484 4485 4486 4487 4488 4489 4490 4491 4492 4493 4494 4495 4496 4497 4498 4499 4500 4501 4502 4503 4504 4505 4506 4507 4508 4509 4510 4511 4512 4513 4514 4515 4516 4517 4518 4519 4520 4521 4522 4523 4524 4525 4526 4527 4528 4529 4530 4531 4532 4533 4534 4535 4536 4537 4538 4539 4540 4541 4542 4543 4544 4545 4546 4547 4548 4549 4550 4551 4552 4553 4554 4555 4556 4557 4558 4559 4560 4561 4562 4563 4564 4565 4566 4567 4568 4569 4570 4571 4572 4573 4574 4575 4576 4577 4578 4579 4580 4581 4582 4583 4584 4585 4586 4587 4588 4589 4590 4591 4592 4593 4594 4595 4596 4597 4598 4599 4600 4601 4602 4603 4604 4605 4606 4607 4608 4609 4610 4611 4612 4613 4614 4615 4616 4617 4618 4619 4620 4621 4622 4623 4624 4625 4626 4627 4628 4629 4630 4631 4632 4633 4634 4635 4636 4637 4638 4639 4640 4641 4642 4643 4644 4645 4646 4647 4648 4649 4650 4651 4652 4653 4654 4655 4656 4657 4658 4659 4660 4661 4662 4663 4664 4665 4666 4667 4668 4669 4670 4671 4672 4673 4674 4675 4676 4677 4678 4679 4680 4681 4682 4683 4684 4685 4686 4687 4688 4689 4690 4691 4692 4693 4694 4695 4696 4697 4698 4699 4700 4701 4702 4703 4704 4705 4706 4707 4708 4709 4710 4711 4712 4713 4714 4715 4716 4717 4718 4719 4720 4721 4722 4723 4724 4725 4726 4727 4728 4729 4730 4731 4732 4733 4734 4735 4736 4737 4738 4739 4740 4741 4742 4743 4744 4745 4746 4747 4748 4749 4750 4751 4752 4753 4754 4755 4756 4757 4758 4759 4760 4761 4762 4763 4764 4765 4766 4767 4768 4769 4770 4771 4772 4773 4774 4775 4776 4777 4778 4779 4780 4781 4782 4783 4784 4785 4786 4787 4788 4789 4790 4791 4792 4793 4794 4795 4796 4797 4798 4799 4800 4801 4802 4803 4804 4805 4806 4807 4808 4809 4810 4811 4812 4813 4814 4815 4816 4817 4818 4819 4820 4821 4822 4823 4824 4825 4826 4827 4828 4829 4830 4831 4832 4833 4834 4835 4836 4837 4838 4839 4840 4841 4842 4843 4844 4845 4846 4847 4848 4849 4850 4851 4852 4853 4854 4855 4856 4857 4858 4859 4860 4861 4862 4863 4864 4865 4866 4867 4868 4869 4870 4871 4872 4873 4874 4875 4876 4877 4878 4879 4880 4881 4882 4883 4884 4885 4886 4887 4888 4889 4890 4891 4892 4893 4894 4895 4896 4897 4898 4899 4900 4901 4902 4903 4904 4905 4906 4907 4908 4909 4910 4911 4912 4913 4914 4915 4916 4917 4918 4919 4920 4921 4922 4923 4924 4925 4926 4927 4928 4929 4930 4931 4932 4933 4934 4935 4936 4937 4938 4939 4940 4941 4942 4943 4944 4945 4946 4947 4948 4949 4950 4951 4952 4953 4954 4955 4956 4957 4958 4959 4960 4961 4962 4963 4964 4965 4966 4967 4968 4969 4970 4971 4972 4973 4974 4975 4976 4977 4978 4979 4980 4981 4982 4983 4984 4985 4986 4987 4988 4989 4990 4991 4992 4993 4994 4995 4996 4997 4998 4999 5000 5001 5002 5003 5004 5005 5006 5007 5008 5009 5010 5011 5012 5013 5014 5015 5016 5017 5018 5019 5020 5021 5022 5023 5024 5025 5026 5027 5028 5029 5030 5031 5032 5033 5034 5035 5036 5037 5038 5039 5040 5041 5042 5043 5044 5045 5046 5047 5048 5049 5050 5051 5052 5053 5054 5055 5056 5057 5058 5059 5060 5061 5062 5063 5064 5065 5066 5067 5068 5069 5070 5071 5072 5073 5074 5075 5076 5077 5078 5079 5080 5081 5082 5083 5084 5085 5086 5087 5088 5089 5090 5091 5092 5093 5094 5095 5096 5097 5098 5099 5100 5101 5102 5103 5104 5105 5106 5107 5108 5109 5110 5111 5112 5113 5114 5115 5116 5117 5118 5119 5120 5121 5122 5123 5124 5125 5126 5127 5128 5129 5130 5131 5132 5133 5134 5135 5136 5137 5138 5139 5140 5141 5142 5143 5144 5145 5146 5147 5148 5149 5150 5151 5152 5153 5154 5155 5156 5157 5158 5159 5160 5161 5162 5163 5164 5165 5166 5167 5168 5169 5170 5171 5172 5173 5174 5175 5176 5177 5178 5179 5180 5181 5182 5183 5184 5185 5186 5187 5188 5189 5190 5191 5192 5193 5194 5195 5196 5197 5198 5199 5200 5201 5202 5203 5204 5205 5206 5207 5208 5209 5210 5211 5212 5213 5214 5215 5216 5217 5218 5219 5220 5221 5222 5223 5224 5225 5226 5227 5228 5229 5230 5231 5232 5233 5234 5235 5236 5237 5238 5239 5240 5241 5242 5243 5244 5245 5246 5247 5248 5249 5250 5251 5252 5253 5254 5255 5256 5257 5258 5259 5260 5261 5262 5263 5264 5265 5266 5267 5268 5269 5270 5271 5272 5273 5274 5275 5276 5277 5278 5279 5280 5281 5282 5283 5284 5285 5286 5287 5288 5289 5290 5291 5292 5293 5294 5295 5296 5297 5298 5299 5300 5301 5302 5303 5304 5305 5306 5307 5308 5309 5310 5311 5312 5313 5314 5315 5316 5317 5318 5319 5320 5321 5322 5323 5324 5325 5326 5327 5328 5329 5330 5331 5332 5333 5334 5335 5336 5337 5338 5339 5340 5341 5342 5343 5344 5345 5346 5347 5348 5349 5350 5351 5352 5353 5354 5355 5356 5357 5358 5359 5360 5361 5362 5363 5364 5365 5366 5367 5368 5369 5370 5371 5372 5373 5374 5375 5376 5377 5378 5379 5380 5381 5382 5383 5384 5385 5386 5387 5388 5389 5390 5391 5392 5393 5394 5395 5396 5397 5398 5399 5400 5401 5402 5403 5404 5405 5406 5407 5408 5409 5410 5411 5412 5413 5414 5415 5416 5417 5418 5419 5420 5421 5422 5423 5424 5425 5426 5427 5428 5429 5430 5431 5432 5433 5434 5435 5436 5437 5438 5439 5440 5441 5442 5443 5444 5445 5446 5447 5448 5449 5450 5451 5452 5453 5454 5455 5456 5457 5458 5459 5460 5461 5462 5463 5464 5465 5466 5467 5468 5469 5470 5471 5472 5473 5474 5475 5476 5477 5478 5479 5480 5481 5482 5483 5484 5485 5486 5487 5488 5489 5490 5491 5492 5493 5494 5495 5496 5497 5498 5499 5500 5501 5502 5503 5504 5505 5506 5507 5508 5509 5510 5511 5512 5513 5514 5515 5516 5517 5518 5519 5520 5521 5522 5523 5524 5525 5526 5527 5528 5529 5530 5531 5532 5533 5534 5535 5536 5537 5538 5539 5540 5541 5542 5543 5544 5545 5546 5547 5548 5549 5550 5551 5552 5553 5554 5555 5556 5557 5558 5559 5560 5561 5562 5563 5564 5565 5566 5567 5568 5569 5570 5571 5572 5573 5574 5575 5576 5577 5578 5579 5580 5581 5582 5583 5584 5585 5586 5587 5588 5589 5590 5591 5592 5593 5594 5595 5596 5597 5598 5599 5600 5601 5602 5603 5604 5605 5606 5607 5608 5609 5610 5611 5612 5613 5614 5615 5616 5617 5618 5619 5620 5621 5622 5623 5624 5625 5626 5627 5628 5629 5630 5631 5632 5633 5634 5635 5636 5637 5638 5639 5640 5641 5642 5643 5644 5645 5646 5647 5648 5649 5650 5651 5652 5653 5654 5655 5656 5657 5658 5659 5660 5661 5662 5663 5664 5665 5666 5667 5668 5669 5670 5671 5672 5673 5674 5675 5676 5677 5678 5679 5680 5681 5682 5683 5684 5685 5686 5687 5688 5689 5690 5691 5692 5693 5694 5695 5696 5697 5698 5699 5700 5701 5702 5703 5704 5705 5706 5707 5708 5709 5710 5711 5712 5713 5714 5715 5716 5717 5718 5719 5720 5721 5722 5723 5724 5725 5726 5727 5728 5729 5730 5731 5732 5733 5734 5735 5736 5737 5738 5739 5740 5741 5742 5743 5744 5745 5746 5747 5748 5749 5750 5751 5752 5753 5754 5755 5756 5757 5758 5759 5760 5761 5762 5763 5764 5765 5766 5767 5768 5769 5770 5771 5772 5773 5774 5775 5776 5777 5778 5779 5780 5781 5782 5783 5784 5785 5786 5787 5788 5789 5790 5791 5792 5793 5794 5795 5796 5797 5798 5799 5800 5801 5802 5803 5804 5805 5806 5807 5808 5809 5810 5811 5812 5813 5814 5815 5816 5817 5818 5819 5820 5821 5822 5823 5824 5825 5826 5827 5828 5829 5830 5831 5832 5833 5834 5835 5836 5837 5838 5839 5840 5841 5842 5843 5844 5845 5846 5847 5848 5849 5850 5851 5852 5853 5854 5855 5856 5857 5858 5859 5860 5861 5862 5863 5864 5865 5866 5867 5868 5869 5870 5871 5872 5873 5874 5875 5876 5877 5878 5879 5880 5881 5882 5883 5884 5885 5886 5887 5888 5889 5890 5891 5892 5893 5894 5895 5896 5897 5898 5899 5900 5901 5902 5903 5904 5905 5906 5907 5908 5909 5910 5911 5912 5913 5914 5915 5916 5917 5918 5919 5920 5921 5922 5923 5924 5925 5926 5927 5928 5929 5930 5931 5932 5933 5934 5935 5936 5937 5938 5939 5940 5941 5942 5943 5944 5945 5946 5947 5948 5949 5950 5951 5952 5953 5954 5955 5956 5957 5958 5959 5960 5961 5962 5963 5964 5965 5966 5967 5968 5969 5970 5971 5972 5973 5974 5975 5976 5977 5978 5979 5980 5981 5982 5983 5984 5985 5986 5987 5988 5989 5990 5991 5992 5993 5994 5995 5996 5997 5998 5999 6000 6001 6002 6003 6004 6005 6006 6007 6008 6009 6010 6011 6012 6013 6014 6015 6016 6017 6018 6019 6020 6021 6022 6023 6024 6025 6026 6027 6028 6029 6030 6031 6032 6033 6034 6035 6036 6037 6038 6039 6040 6041 6042 6043 6044 6045 6046 6047 6048 6049 6050 6051 6052 6053 6054 6055 6056 6057 6058 6059 6060 6061 6062 6063 6064 6065 6066 6067 6068 6069 6070 6071 6072 6073 6074 6075 6076 6077 6078 6079 6080 6081 6082 6083 6084 6085 6086 6087 6088 6089 6090 6091 6092 6093 6094 6095 6096 6097 6098 6099 6100 6101 6102 6103 6104 6105 6106 6107 6108 6109 6110 6111 6112 6113 6114 6115 6116 6117 6118 6119 6120 6121 6122 6123 6124 6125 6126 6127 6128 6129 6130 6131 6132 6133 6134 6135 6136 6137 6138 6139 6140 6141 6142 6143 6144 6145 6146 6147 6148 6149 6150 6151 6152 6153 6154 6155 6156 6157 6158 6159 6160 6161 6162 6163 6164 6165 6166 6167 6168 6169 6170 6171 6172 6173 6174 6175 6176 6177 6178 6179 6180 6181 6182 6183 6184 6185 6186 6187 6188 6189 6190 6191 6192 6193 6194 6195 6196 6197 6198 6199 6200 6201 6202 6203 6204 6205 6206 6207 6208 6209 6210 6211 6212 6213 6214 6215 6216 6217 6218 6219 6220 6221 6222 6223 6224 6225 6226 6227 6228 6229 6230 6231 6232 6233 6234 6235 6236 6237 6238 6239 6240 6241 6242 6243 6244 6245 6246 6247 6248 6249 6250 6251 6252 6253 6254 6255 6256 6257 6258 6259 6260 6261 6262 6263 6264 6265 6266 6267 6268 6269 6270 6271 6272 6273 6274 6275 6276 6277 6278 6279 6280 6281 6282 6283 6284 6285 6286 6287 6288 6289 6290 6291 6292 6293 6294 6295 6296 6297 6298 6299 6300 6301 6302 6303 6304 6305 6306 6307 6308 6309 6310 6311 6312 6313 6314 6315 6316 6317 6318 6319 6320 6321 6322 6323 6324 6325 6326 6327 6328 6329 6330 6331 6332 6333 6334 6335 6336 6337 6338 6339 6340 6341 6342 6343 6344 6345 6346 6347 6348 6349 6350 6351 6352 6353 6354 6355 6356 6357 6358 6359 6360 6361 6362 6363 6364 6365 6366 6367 6368 6369 6370 6371 6372 6373 6374 6375 6376 6377 6378 6379 6380 6381 6382 6383 6384 6385 6386 6387 6388 6389 6390 6391 6392 6393 6394 6395 6396 6397 6398 6399 6400 6401 6402 6403 6404 6405 6406 6407 6408 6409 6410 6411 6412 6413 6414 6415 6416 6417 6418 6419 6420 6421 6422 6423 6424 6425 6426 6427 6428 6429 6430 6431 6432 6433 6434 6435 6436 6437 6438 6439 6440 6441 6442 6443 6444 6445 6446 6447 6448 6449 6450 6451 6452 6453 6454 6455 6456 6457 6458 6459 6460 6461 6462 6463 6464 6465 6466 6467 6468 6469 6470 6471 6472 6473 6474 6475 6476 6477 6478 6479 6480 6481 6482 6483 6484 6485 6486 6487 6488 6489 6490 6491 6492 6493 6494 6495 6496 6497 6498 6499 6500 6501 6502 6503 6504 6505 6506 6507 6508 6509 6510 6511 6512 6513 6514 6515 6516 6517 6518 6519 6520 6521 6522 6523 6524 6525 6526 6527 6528 6529 6530 6531 6532 6533 6534 6535 6536 6537 6538 6539 6540 6541 6542 6543 6544 6545 6546 6547 6548 6549 6550 6551 6552 6553 6554 6555 6556 6557 6558 6559 6560 6561 6562 6563 6564 6565 6566 6567 6568 6569 6570 6571 6572 6573 6574 6575 6576 6577 6578 6579 6580 6581 6582 6583 6584 6585 6586 6587 6588 6589 6590 6591 6592 6593 6594 6595 6596 6597 6598 6599 6600 6601 6602 6603 6604 6605 6606 6607 6608 6609 6610 6611 6612 6613 6614 6615 6616 6617 6618 6619 6620 6621 6622 6623 6624 6625 6626 6627 6628 6629 6630 6631 6632 6633 6634 6635 6636 6637 6638 6639 6640 6641 6642 6643 6644 6645 6646 6647 6648 6649 6650 6651 6652 6653 6654 6655 6656 6657 6658 6659 6660 6661 6662 6663 6664 6665 6666 6667 6668 6669 6670 6671 6672 6673 6674 6675 6676 6677 6678 6679 6680 6681 6682 6683 6684 6685 6686 6687 6688 6689 6690 6691 6692 6693 6694 6695 6696 6697 6698 6699 6700 6701 6702 6703 6704 6705 6706 6707 6708 6709 6710 6711 6712 6713 6714 6715 6716 6717 6718 6719 6720 6721 6722 6723 6724 6725 6726 6727 6728 6729 6730 6731 6732 6733 6734 6735 6736 6737 6738 6739 6740 6741 6742 6743 6744 6745 6746 6747 6748 6749 6750 6751 6752 6753 6754 6755 6756 6757 6758 6759 6760 6761 6762 6763 6764 6765 6766 6767 6768 6769 6770 6771 6772 6773 6774 6775 6776 6777 6778 6779 6780 6781 6782 6783 6784 6785 6786 6787 6788 6789 6790 6791 6792 6793 6794 6795 6796 6797 6798 6799 6800 6801 6802 6803 6804 6805 6806 6807 6808 6809 6810 6811 6812 6813 6814 6815 6816 6817 6818 6819 6820 6821 6822 6823 6824 6825 6826 6827 6828 6829 6830 6831 6832 6833 6834 6835 6836 6837 6838 6839 6840 6841 6842 6843 6844 6845 6846 6847 6848 6849 6850 6851 6852 6853 6854 6855 6856 6857 6858 6859 6860 6861 6862 6863 6864 6865 6866 6867 6868 6869 6870 6871 6872 6873 6874 6875 6876 6877 6878 6879 6880 6881 6882 6883 6884 6885 6886 6887 6888 6889 6890 6891 6892 6893 6894 6895 6896 6897 6898 6899 6900 6901 6902 6903 6904 6905 6906 6907 6908 6909 6910 6911 6912 6913 6914 6915 6916 6917 6918 6919 6920 6921 6922 6923 6924 6925 6926 6927 6928 6929 6930 6931 6932 6933 6934 6935 6936 6937 6938 6939 6940 6941 6942 6943 6944 6945 6946 6947 6948 6949 6950 6951 6952 6953 6954 6955 6956 6957 6958 6959 6960 6961 6962 6963 6964 6965 6966 6967 6968 6969 6970 6971 6972 6973 6974 6975 6976 6977 6978 6979 6980 6981 6982 6983 6984 6985 6986 6987 6988 6989 6990 6991 6992 6993 6994 6995 6996 6997 6998 6999 7000 7001 7002 7003 7004 7005 7006 7007 7008 7009 7010 7011 7012 7013 7014 7015 7016 7017 7018 7019 7020 7021 7022 7023 7024 7025 7026 7027 7028 7029 7030 7031 7032 7033 7034 7035 7036 7037 7038 7039 7040 7041 7042 7043 7044 7045 7046 7047 7048 7049 7050 7051 7052 7053 7054 7055 7056 7057 7058 7059 7060 7061 7062 7063 7064 7065 7066 7067 7068 7069 7070 7071 7072 7073 7074 7075 7076 7077 7078 7079 7080 7081 7082 7083 7084 7085 7086 7087 7088 7089 7090 7091 7092 7093 7094 7095 7096 7097 7098 7099 7100 7101 7102 7103 7104 7105 7106 7107 7108 7109 7110 7111 7112 7113 7114 7115 7116 7117 7118 7119 7120 7121 7122 7123 7124 7125 7126 7127 7128 7129 7130 7131 7132 7133 7134 7135 7136 7137 7138 7139 7140 7141 7142 7143 7144 7145 7146 7147 7148 7149 7150 7151 7152 7153 7154 7155 7156 7157 7158 7159 7160 7161 7162 7163 7164 7165 7166 7167 7168 7169 7170 7171 7172 7173 7174 7175 7176 7177 7178 7179 7180 7181 7182 7183 7184 7185 7186 7187 7188 7189 7190 7191 7192 7193 7194 7195 7196 7197 7198 7199 7200 7201 7202 7203 7204 7205 7206 7207 7208 7209 7210 7211 7212 7213 7214 7215 7216 7217 7218 7219 7220 7221 7222 7223 7224 7225 7226 7227 7228 7229 7230 7231 7232 7233 7234 7235 7236 7237 7238 7239 7240 7241 7242 7243 7244 7245 7246 7247 7248 7249 7250 7251 7252 7253 7254 7255 7256 7257 7258 7259 7260 7261 7262 7263 7264 7265 7266 7267 7268 7269 7270 7271 7272 7273 7274 7275 7276 7277 7278 7279 7280 7281 7282 7283 7284 7285 7286 7287 7288 7289 7290 7291 7292 7293 7294 7295 7296 7297 7298 7299 7300 7301 7302 7303 7304 7305 7306 7307 7308 7309 7310 7311 7312 7313 7314 7315 7316 7317 7318 7319 7320 7321 7322 7323 7324 7325 7326 7327 7328 7329 7330 7331 7332 7333 7334 7335 7336 7337 7338 7339 7340 7341 7342 7343 7344 7345 7346 7347 7348 7349 7350 7351 7352 7353 7354 7355 7356 7357 7358 7359 7360 7361 7362 7363 7364 7365 7366 7367 7368 7369 7370 7371 7372 7373 7374 7375 7376 7377 7378 7379 7380 7381 7382 7383 7384 7385 7386 7387 7388 7389 7390 7391 7392 7393 7394 7395 7396 7397 7398 7399 7400 7401 7402 7403 7404 7405 7406 7407 7408 7409 7410 7411 7412 7413 7414 7415 7416 7417 7418 7419 7420 7421 7422 7423 7424 7425 7426 7427 7428 7429 7430 7431 7432 7433 7434 7435 7436 7437 7438 7439 7440 7441 7442 7443 7444 7445 7446 7447 7448 7449 7450 7451 7452 7453 7454 7455 7456 7457 7458 7459 7460 7461 7462 7463 7464 7465 7466 7467 7468 7469 7470 7471 7472 7473 7474 7475 7476 7477 7478 7479 7480 7481 7482 7483 7484 7485 7486 7487 7488 7489 7490 7491 7492 7493 7494 7495 7496 7497 7498 7499 7500 7501 7502 7503 7504 7505 7506 7507 7508 7509 7510 7511 7512 7513 7514 7515 7516 7517 7518 7519 7520 7521 7522 7523 7524 7525 7526 7527 7528 7529 7530 7531 7532 7533 7534 7535 7536 7537 7538 7539 7540 7541 7542 7543 7544 7545 7546 7547 7548 7549 7550 7551 7552 7553 7554 7555 7556 7557 7558 7559 7560 7561 7562 7563 7564 7565 7566 7567 7568 7569 7570 7571 7572 7573 7574 7575 7576 7577 7578 7579 7580 7581 7582 7583 7584 7585 7586 7587 7588 7589 7590 7591 7592 7593 7594 7595 7596 7597 7598 7599 7600 7601 7602 7603 7604 7605 7606 7607 7608 7609 7610 7611 7612 7613 7614 7615 7616 7617 7618 7619 7620 7621 7622 7623 7624 7625 7626 7627 7628 7629 7630 7631 7632 7633 7634 7635 7636 7637 7638 7639 7640 7641 7642 7643 7644 7645 7646 7647 7648 7649 7650 7651 7652 7653 7654 7655 7656 7657 7658 7659 7660 7661 7662 7663 7664 7665 7666 7667 7668 7669 7670 7671 7672 7673 7674 7675 7676 7677 7678 7679 7680 7681 7682 7683 7684 7685 7686 7687 7688 7689 7690 7691 7692 7693 7694 7695 7696 7697 7698 7699 7700 7701 7702 7703 7704 7705 7706 7707 7708 7709 7710 7711 7712 7713 7714 7715 7716 7717 7718 7719 7720 7721 7722 7723 7724 7725 7726 7727 7728 7729 7730 7731 7732 7733 7734 7735 7736 7737 7738 7739 7740 7741 7742 7743 7744 7745 7746 7747 7748 7749 7750 7751 7752 7753 7754 7755 7756 7757 7758 7759 7760 7761 7762 7763 7764 7765 7766 7767 7768 7769 7770 7771 7772 7773 7774 7775 7776 7777 7778 7779 7780 7781 7782 7783 7784 7785 7786 7787 7788 7789 7790 7791 7792 7793 7794 7795 7796 7797 7798 7799 7800 7801 7802 7803 7804 7805 7806 7807 7808 7809 7810 7811 7812 7813 7814 7815 7816 7817 7818 7819 7820 7821 7822 7823 7824 7825 7826 7827 7828 7829 7830 7831 7832 7833 7834 7835 7836 7837 7838 7839 7840 7841 7842 7843 7844 7845 7846 7847 7848 7849 7850 7851 7852 7853 7854 7855 7856 7857 7858 7859 7860 7861 7862 7863 7864 7865 7866 7867 7868 7869 7870 7871 7872 7873 7874 7875 7876 7877 7878 7879 7880 7881 7882 7883 7884 7885 7886 7887 7888 7889 7890 7891 7892 7893 7894 7895 7896 7897 7898 7899 7900 7901 7902 7903 7904 7905 7906 7907 7908 7909 7910 7911 7912 7913 7914 7915 7916 7917 7918 7919 7920 7921 7922 7923 7924 7925 7926 7927 7928 7929 7930 7931 7932 7933 7934 7935 7936 7937 7938 7939 7940 7941 7942 7943 7944 7945 7946 7947 7948 7949 7950 7951 7952 7953 7954 7955 7956 7957 7958 7959 7960 7961 7962 7963 7964 7965 7966 7967 7968 7969 7970 7971 7972 7973 7974 7975 7976 7977 7978 7979 7980 7981 7982 7983 7984 7985 7986 7987 7988 7989 7990 7991 7992 7993 7994 7995 7996 7997 7998 7999 8000 8001 8002 8003 8004 8005 8006 8007 8008 8009 8010 8011 8012 8013 8014 8015 8016 8017 8018 8019 8020 8021 8022 8023 8024 8025 8026 8027 8028 8029 8030 8031 8032 8033 8034 8035 8036 8037 8038 8039 8040 8041 8042 8043 8044 8045 8046 8047 8048 8049 8050 8051 8052 8053 8054 8055 8056 8057 8058 8059 8060 8061 8062 8063 8064 8065 8066 8067 8068 8069 8070 8071 8072 8073 8074 8075 8076 8077 8078 8079 8080 8081 8082 8083 8084 8085 8086 8087 8088 8089 8090 8091 8092 8093 8094 8095 8096 8097 8098 8099 8100 8101 8102 8103 8104 8105 8106 8107 8108 8109 8110 8111 8112 8113 8114 8115 8116 8117 8118 8119 8120 8121 8122 8123 8124 8125 8126 8127 8128 8129 8130 8131 8132 8133 8134 8135 8136 8137 8138 8139 8140 8141 8142 8143 8144 8145 8146 8147 8148 8149 8150 8151 8152 8153 8154 8155 8156 8157 8158 8159 8160 8161 8162 8163 8164 8165 8166 8167 8168 8169 8170 8171 8172 8173 8174 8175 8176 8177 8178 8179 8180 8181 8182 8183 8184 8185 8186 8187 8188 8189 8190 8191 8192 8193 8194 8195 8196 8197 8198 8199 8200 8201 8202 8203 8204 8205 8206 8207 8208 8209 8210 8211 8212 8213 8214 8215 8216 8217 8218 8219 8220 8221 8222 8223 8224 8225 8226 8227 8228 8229 8230 8231 8232 8233 8234 8235 8236 8237 8238 8239 8240 8241 8242 8243 8244 8245 8246 8247 8248 8249 8250 8251 8252 8253 8254 8255 8256 8257 8258 8259 8260 8261 8262 8263 8264 8265 8266 8267 8268 8269 8270 8271 8272 8273 8274 8275 8276 8277 8278 8279 8280 8281 8282 8283 8284 8285 8286 8287 8288 8289 8290 8291 8292 8293 8294 8295 8296 8297 8298 8299 8300 8301 8302 8303 8304 8305 8306 8307 8308 8309 8310 8311 8312 8313 8314 8315 8316 8317 8318 8319 8320 8321 8322 8323 8324 8325 8326 8327 8328 8329 8330 8331 8332 8333 8334 8335 8336 8337 8338 8339 8340 8341 8342 8343 8344 8345 8346 8347 8348 8349 8350 8351 8352 8353 8354 8355 8356 8357 8358 8359 8360 8361 8362 8363 8364 8365 8366 8367 8368 8369 8370 8371 8372 8373 8374 8375 8376 8377 8378 8379 8380 8381 8382 8383 8384 8385 8386 8387 8388 8389 8390 8391 8392 8393 8394 8395 8396 8397 8398 8399 8400 8401 8402 8403 8404 8405 8406 8407 8408 8409 8410 8411 8412 8413 8414 8415 8416 8417 8418 8419 8420 8421 8422 8423 8424 8425 8426 8427 8428 8429 8430 8431 8432 8433 8434 8435 8436 8437 8438 8439 8440 8441 8442 8443 8444 8445 8446 8447 8448 8449 8450 8451 8452 8453 8454 8455 8456 8457 8458 8459 8460 8461 8462 8463 8464 8465 8466 8467 8468 8469 8470 8471 8472 8473 8474 8475 8476 8477 8478 8479 8480 8481 8482 8483 8484 8485 8486 8487 8488 8489 8490 8491 8492 8493 8494 8495 8496 8497 8498 8499 8500 8501 8502 8503 8504 8505 8506 8507 8508 8509 8510 8511 8512 8513 8514 8515 8516 8517 8518 8519 8520 8521 8522 8523 8524 8525 8526 8527 8528 8529 8530 8531 8532 8533 8534 8535 8536 8537 8538 8539 8540 8541 8542 8543 8544 8545 8546 8547 8548 8549 8550 8551 8552 8553 8554 8555 8556 8557 8558 8559 8560 8561 8562 8563 8564 8565 8566 8567 8568 8569 8570 8571 8572 8573 8574 8575 8576 8577 8578 8579 8580 8581 8582 8583 8584 8585 8586 8587 8588 8589 8590 8591 8592 8593 8594 8595 8596 8597 8598 8599 8600 8601 8602 8603 8604 8605 8606 8607 8608 8609 8610 8611 8612 8613 8614 8615 8616 8617 8618 8619 8620 8621 8622 8623 8624 8625 8626 8627 8628 8629 8630 8631 8632 8633 8634 8635 8636 8637 8638 8639 8640 8641 8642 8643 8644 8645 8646 8647 8648 8649 8650 8651 8652 8653 8654 8655 8656 8657 8658 8659 8660 8661 8662 8663 8664 8665 8666 8667 8668 8669 8670 8671 8672 8673 8674 8675 8676 8677 8678 8679 8680 8681 8682 8683 8684 8685 8686 8687 8688 8689 8690 8691 8692 8693 8694 8695 8696 8697 8698 8699 8700 8701 8702 8703 8704 8705 8706 8707 8708 8709 8710 8711 8712 8713 8714 8715 8716 8717 8718 8719 8720 8721 8722 8723 8724 8725 8726 8727 8728 8729 8730 8731 8732 8733 8734 8735 8736 8737 8738 8739 8740 8741 8742 8743 8744 8745 8746 8747 8748 8749 8750 8751 8752 8753 8754 8755 8756 8757 8758 8759 8760 8761 8762 8763 8764 8765 8766 8767 8768 8769 8770 8771 8772 8773 8774 8775 8776 8777 8778 8779 8780 8781 8782 8783 8784 8785 8786 8787 8788 8789 8790 8791 8792 8793 8794 8795 8796 8797 8798 8799 8800 8801 8802 8803 8804 8805 8806 8807 8808 8809 8810 8811 8812 8813 8814 8815 8816 8817 8818 8819 8820 8821 8822 8823 8824 8825 8826 8827 8828 8829 8830 8831 8832 8833 8834 8835 8836 8837 8838 8839 8840 8841 8842 8843 8844 8845 8846 8847 8848 8849 8850 8851 8852 8853 8854 8855 8856 8857 8858 8859 8860 8861 8862 8863 8864 8865 8866 8867 8868 8869 8870 8871 8872 8873 8874 8875 8876 8877 8878 8879 8880 8881 8882 8883 8884 8885 8886 8887 8888 8889 8890 8891 8892 8893 8894 8895 8896 8897 8898 8899 8900 8901 8902 8903 8904 8905 8906 8907 8908 8909 8910 8911 8912 8913 8914 8915 8916 8917 8918 8919 8920 8921 8922 8923 8924 8925 8926 8927 8928 8929 8930 8931 8932 8933 8934 8935 8936 8937 8938 8939 8940 8941 8942 8943 8944 8945 8946 8947 8948 8949 8950 8951 8952 8953 8954 8955 8956 8957 8958 8959 8960 8961 8962 8963 8964 8965 8966 8967 8968 8969 8970 8971 8972 8973 8974 8975 8976 8977 8978 8979 8980 8981 8982 8983 8984 8985 8986 8987 8988 8989 8990 8991 8992 8993 8994 8995 8996 8997 8998 8999 9000 9001 9002 9003 9004 9005 9006 9007 9008 9009 9010 9011 9012 9013 9014 9015 9016 9017 9018 9019 9020 9021 9022 9023 9024 9025 9026 9027 9028 9029 9030 9031 9032 9033 9034 9035 9036 9037 9038 9039 9040 9041 9042 9043 9044 9045 9046 9047 9048 9049 9050 9051 9052 9053 9054 9055 9056 9057 9058 9059 9060 9061 9062 9063 9064 9065 9066 9067 9068 9069 9070 9071 9072 9073 9074 9075 9076 9077 9078 9079 9080 9081 9082 9083 9084 9085 9086 9087 9088 9089 9090 9091 9092 9093 9094 9095 9096 9097 9098 9099 9100 9101 9102 9103 9104 9105 9106 9107 9108 9109 9110 9111 9112 9113 9114 9115 9116 9117 9118 9119 9120 9121 9122 9123 9124 9125 9126 9127 9128 9129 9130 9131 9132 9133 9134 9135 9136 9137 9138 9139 9140 9141 9142 9143 9144 9145 9146 9147 9148 9149 9150 9151 9152 9153 9154 9155 9156 9157 9158 9159 9160 9161 9162 9163 9164 9165 9166 9167 9168 9169 9170 9171 9172 9173 9174 9175 9176 9177 9178 9179 9180 9181 9182 9183 9184 9185 9186 9187 9188 9189 9190 9191 9192 9193 9194 9195 9196 9197 9198 9199 9200 9201 9202 9203 9204 9205 9206 9207 9208 9209 9210 9211 9212 9213 9214 9215 9216 9217 9218 9219 9220 9221 9222 9223 9224 9225 9226 9227 9228 9229 9230 9231 9232 9233 9234 9235 9236 9237 9238 9239 9240 9241 9242 9243 9244 9245 9246 9247 9248 9249 9250 9251 9252 9253 9254 9255 9256 9257 9258 9259 9260 9261 9262 9263 9264 9265 9266 9267 9268 9269 9270 9271 9272 9273 9274 9275 9276 9277 9278 9279 9280 9281 9282 9283 9284 9285 9286 9287 9288 9289 9290 9291 9292 9293 9294 9295 9296 9297 9298 9299 9300 9301 9302 9303 9304 9305 9306 9307 9308 9309 9310 9311 9312 9313 9314 9315 9316 9317 9318 9319 9320 9321 9322 9323 9324 9325 9326 9327 9328 9329 9330 9331 9332 9333 9334 9335 9336 9337 9338 9339 9340 9341 9342 9343 9344 9345 9346 9347 9348 9349 9350 9351 9352 9353 9354 9355 9356 9357 9358 9359 9360 9361 9362 9363 9364 9365 9366 9367 9368 9369 9370 9371 9372 9373 9374 9375 9376 9377 9378 9379 9380 9381 9382 9383 9384 9385 9386 9387 9388 9389 9390 9391 9392 9393 9394 9395 9396 9397 9398 9399 9400 9401 9402 9403 9404 9405 9406 9407 9408 9409 9410 9411 9412 9413 9414 9415 9416 9417 9418 9419 9420 9421 9422 9423 9424 9425 9426 9427 9428 9429 9430 9431 9432 9433 9434 9435 9436 9437 9438 9439 9440 9441 9442 9443 9444 9445 9446 9447 9448 9449 9450 9451 9452 9453 9454 9455 9456 9457 9458 9459 9460 9461 9462 9463 9464 9465 9466 9467 9468 9469 9470 9471 9472 9473 9474 9475 9476 9477 9478 9479 9480 9481 9482 9483 9484 9485 9486 9487 9488 9489 9490 9491 9492 9493 9494 9495 9496 9497 9498 9499 9500 9501 9502 9503 9504 9505 9506 9507 9508 9509 9510 9511 9512 9513 9514 9515 9516 9517 9518 9519 9520 9521 9522 9523 9524 9525 9526 9527 9528 9529 9530 9531 9532 9533 9534 9535 9536 9537 9538 9539 9540 9541 9542 9543 9544 9545 9546 9547 9548 9549 9550 9551 9552 9553 9554 9555 9556 9557 9558 9559 9560 9561 9562 9563 9564 9565 9566 9567 9568 9569 9570 9571 9572 9573 9574 9575 9576 9577 9578 9579 9580 9581 9582 9583 9584 9585 9586 9587 9588 9589 9590 9591 9592 9593 9594 9595 9596 9597 9598 9599 9600 9601 9602 9603 9604 9605 9606 9607 9608 9609 9610 9611 9612 9613 9614 9615 9616 9617 9618 9619 9620 9621 9622 9623 9624 9625 9626 9627 9628 9629 9630 9631 9632 9633 9634 9635 9636 9637 9638 9639 9640 9641 9642 9643 9644 9645 9646 9647 9648 9649 9650 9651 9652 9653 9654 9655 9656 9657 9658 9659 9660 9661 9662 9663 9664 9665 9666 9667 9668 9669 9670 9671 9672 9673 9674 9675 9676 9677 9678 9679 9680 9681 9682 9683 9684 9685 9686 9687 9688 9689 9690 9691 9692 9693 9694 9695 9696 9697 9698 9699 9700 9701 9702 9703 9704 9705 9706 9707 9708 9709 9710 9711 9712 9713 9714 9715 9716 9717 9718 9719 9720 9721 9722 9723 9724 9725 9726 9727 9728 9729 9730 9731 9732 9733 9734 9735 9736 9737 9738 9739 9740 9741 9742 9743 9744 9745 9746 9747 9748 9749 9750 9751 9752 9753 9754 9755 9756 9757 9758 9759 9760 9761 9762 9763 9764 9765 9766 9767 9768 9769 9770 9771 9772 9773 9774 9775 9776 9777 9778 9779 9780 9781 9782 9783 9784 9785 9786 9787 9788 9789 9790 9791 9792 9793 9794 9795 9796 9797 9798 9799 9800 9801 9802 9803 9804 9805 9806 9807 9808 9809 9810 9811 9812 9813 9814 9815 9816 9817 9818 9819 9820 9821 9822 9823 9824 9825 9826 9827 9828 9829 9830 9831 9832 9833 9834 9835 9836 9837 9838 9839 9840 9841 9842 9843 9844 9845 9846 9847 9848 9849 9850 9851 9852 9853 9854 9855 9856 9857 9858 9859 9860 9861 9862 9863 9864 9865 9866 9867 9868 9869 9870 9871 9872 9873 9874 9875 9876 9877 9878 9879 9880 9881 9882 9883 9884 9885 9886 9887 9888 9889 9890 9891 9892 9893 9894 9895 9896 9897 9898 9899 9900 9901 9902 9903 9904 9905 9906 9907 9908 9909 9910 9911 9912 9913 9914 9915 9916 9917 9918 9919 9920 9921 9922 9923 9924 9925 9926 9927 9928 9929 9930 9931 9932 9933 9934 9935 9936 9937 9938 9939 9940 9941 9942 9943 9944 9945 9946 9947 9948 9949 9950 9951 9952 9953 9954 9955 9956 9957 9958 9959 9960 9961 9962 9963 9964 9965 9966 9967 9968 9969 9970 9971 9972 9973 9974 9975 9976 9977 9978 9979 9980 9981 9982 9983 9984 9985 9986 9987 9988 9989 9990 9991 9992 9993 9994 9995 9996 9997 9998 9999 10000 10001 10002 10003 10004 10005 10006 10007 10008 10009 10010 10011 10012 10013 10014 10015 10016 10017 10018 10019 10020 10021 10022 10023 10024 10025 10026 10027 10028 10029 10030 10031 10032 10033 10034 10035 10036 10037 10038 10039 10040 10041 10042 10043 10044 10045 10046 10047 10048 10049 10050 10051 10052 10053 10054 10055 10056 10057 10058 10059 10060 10061 10062 10063 10064 10065 10066 10067 10068 10069 10070 10071 10072 10073 10074 10075 10076 10077 10078 10079 10080 10081 10082 10083 10084 10085 10086 10087 10088 10089 10090 10091 10092 10093 10094 10095 10096 10097 10098 10099 10100 10101 10102 10103 10104 10105 10106 10107 10108 10109 10110 10111 10112 10113 10114 10115 10116 10117 10118 10119 10120 10121 10122 10123 10124 10125 10126 10127 10128 10129 10130 10131 10132 10133 10134 10135 10136 10137 10138 10139 10140 10141 10142 10143 10144 10145 10146 10147 10148 10149 10150 10151 10152 10153 10154 10155 10156 10157 10158 10159 10160 10161 10162 10163 10164 10165 10166 10167 10168 10169 10170 10171 10172 10173 10174 10175 10176 10177 10178 10179 10180 10181 10182 10183 10184 10185 10186 10187 10188 10189 10190 10191 10192 10193 10194 10195 10196 10197 10198 10199 10200 10201 10202 10203 10204 10205 10206 10207 10208 10209 10210 10211 10212 10213 10214 10215 10216 10217 10218 10219 10220 10221 10222 10223 10224 10225 10226 10227 10228 10229 10230 10231 10232 10233 10234 10235 10236 10237 10238 10239 10240 10241 10242 10243 10244 10245 10246 10247 10248 10249 10250 10251 10252 10253 10254 10255 10256 10257 10258 10259 10260 10261 10262 10263 10264 10265 10266 10267 10268 10269 10270 10271 10272 10273 10274 10275 10276 10277 10278 10279 10280 10281 10282 10283 10284 10285 10286 10287 10288 10289 10290 10291 10292 10293 10294 10295 10296 10297 10298 10299 10300 10301 10302 10303 10304 10305 10306 10307 10308 10309 10310 10311 10312 10313 10314 10315 10316 10317 10318 10319 10320 10321 10322 10323 10324 10325 10326 10327 10328 10329 10330 10331 10332 10333 10334 10335 10336 10337 10338 10339 10340 10341 10342 10343 10344 10345 10346 10347 10348 10349 10350 10351 10352 10353 10354 10355 10356 10357 10358 10359 10360 10361 10362 10363 10364 10365 10366 10367 10368 10369 10370 10371 10372 10373 10374 10375 10376 10377 10378 10379 10380 10381 10382 10383 10384 10385 10386 10387 10388 10389 10390 10391 10392 10393 10394 10395 10396 10397 10398 10399 10400 10401 10402 10403 10404 10405 10406 10407 10408 10409 10410 10411 10412 10413 10414 10415 10416 10417 10418 10419 10420 10421 10422 10423 10424 10425 10426 10427 10428 10429 10430 10431 10432 10433 10434 10435 10436 10437 10438 10439 10440 10441 10442 10443 10444 10445 10446 10447 10448 10449 10450 10451 10452 10453 10454 10455 10456 10457 10458 10459 10460 10461 10462 10463 10464 10465 10466 10467 10468 10469 10470 10471 10472 10473 10474 10475 10476 10477 10478 10479 10480 10481 10482 10483 10484 10485 10486 10487 10488 10489 10490 10491 10492 10493 10494 10495 10496 10497 10498 10499 10500 10501 10502 10503 10504 10505 10506 10507 10508 10509 10510 10511 10512 10513 10514 10515 10516 10517 10518 10519 10520 10521 10522 10523 10524 10525 10526 10527 10528 10529 10530 10531 10532 10533 10534 10535 10536 10537 10538 10539 10540 10541 10542 10543 10544 10545 10546 10547 10548 10549 10550 10551 10552 10553 10554 10555 10556 10557 10558 10559 10560 10561 10562 10563 10564 10565 10566 10567 10568 10569 10570 10571 10572 10573 10574 10575 10576 10577 10578 10579 10580 10581 10582 10583 10584 10585 10586 10587 10588 10589 10590 10591 10592 10593 10594 10595 10596 10597 10598 10599 10600 10601 10602 10603 10604 10605 10606 10607 10608 10609 10610 10611 10612 10613 10614 10615 10616 10617 10618 10619 10620 10621 10622 10623 10624 10625 10626 10627 10628 10629 10630 10631 10632 10633 10634 10635 10636 10637 10638 10639 10640 10641 10642 10643 10644 10645 10646 10647 10648 10649 10650 10651 10652 10653 10654 10655 10656 10657 10658 10659 10660 10661 10662 10663 10664 10665 10666 10667 10668 10669 10670 10671 10672 10673 10674 10675 10676 10677 10678 10679 10680 10681 10682 10683 10684 10685 10686 10687 10688 10689 10690 10691 10692 10693 10694 10695 10696 10697 10698 10699 10700 10701 10702 10703 10704 10705 10706 10707 10708 10709 10710 10711 10712 10713 10714 10715 10716 10717 10718 10719 10720 10721 10722 10723 10724 10725 10726 10727 10728 10729 10730 10731 10732 10733 10734 10735 10736 10737 10738 10739 10740 10741 10742 10743 10744 10745 10746 10747 10748 10749 10750 10751 10752 10753 10754 10755 10756 10757 10758 10759 10760 10761 10762 10763 10764 10765 10766 10767 10768 10769 10770 10771 10772 10773 10774 10775 10776 10777 10778 10779 10780 10781 10782 10783 10784 10785 10786 10787 10788 10789 10790 10791 10792 10793 10794 10795 10796 10797 10798 10799 10800 10801 10802 10803 10804 10805 10806 10807 10808 10809 10810 10811 10812 10813 10814 10815 10816 10817 10818 10819 10820 10821 10822 10823 10824 10825 10826 10827 10828 10829 10830 10831 10832 10833 10834 10835 10836 10837 10838 10839 10840 10841 10842 10843 10844 10845 10846 10847 10848 10849 10850 10851 10852 10853 10854 10855 10856 10857 10858 10859 10860 10861 10862 10863 10864 10865 10866 10867 10868 10869 10870 10871 10872 10873 10874 10875 10876 10877 10878 10879 10880 10881 10882 10883 10884 10885 10886 10887 10888 10889 10890 10891 10892 10893 10894 10895 10896 10897 10898 10899 10900 10901 10902 10903 10904 10905 10906 10907 10908 10909 10910 10911 10912 10913 10914 10915 10916 10917 10918 10919 10920 10921 10922 10923 10924 10925 10926 10927 10928 10929 10930 10931 10932 10933 10934 10935 10936 10937 10938 10939 10940 10941 10942 10943 10944 10945 10946 10947 10948 10949 10950 10951 10952 10953 10954 10955 10956 10957 10958 10959 10960 10961 10962 10963 10964 10965 10966 10967 10968 10969 10970 10971 10972 10973 10974 10975 10976 10977 10978 10979 10980 10981 10982 10983 10984 10985 10986 10987 10988 10989 10990 10991 10992 10993 10994 10995 10996 10997 10998 10999 11000 11001 11002 11003 11004 11005 11006 11007 11008 11009 11010 11011 11012 11013 11014 11015 11016 11017 11018 11019 11020 11021 11022 11023 11024 11025 11026 11027 11028 11029 11030 11031 11032 11033 11034 11035 11036 11037 11038 11039 11040 11041 11042 11043 11044 11045 11046 11047 11048 11049 11050 11051 11052 11053 11054 11055 11056 11057 11058 11059 11060 11061 11062 11063 11064 11065 11066 11067 11068 11069 11070 11071 11072 11073 11074 11075 11076 11077 11078 11079 11080 11081 11082 11083 11084 11085 11086 11087 11088 11089 11090 11091 11092 11093 11094 11095 11096 11097 11098 11099 11100 11101 11102 11103 11104 11105 11106 11107 11108 11109 11110 11111 11112 11113 11114 11115 11116 11117 11118 11119 11120 11121 11122 11123 11124 11125 11126 11127 11128 11129 11130 11131 11132 11133 11134 11135 11136 11137 11138 11139 11140 11141 11142 11143 11144 11145 11146 11147 11148 11149 11150 11151 11152 11153 11154 11155 11156 11157 11158 11159 11160 11161 11162 11163 11164 11165 11166 11167 11168 11169 11170 11171 11172 11173 11174 11175 11176 11177 11178 11179 11180 11181 11182 11183 11184 11185 11186 11187 11188 11189 11190 11191 11192 11193 11194 11195 11196 11197 11198 11199 11200 11201 11202 11203 11204 11205 11206 11207 11208 11209 11210 11211 11212 11213 11214 11215 11216 11217 11218 11219 11220 11221 11222 11223 11224 11225 11226 11227 11228 11229 11230 11231 11232 11233 11234 11235 11236 11237 11238 11239 11240 11241 11242 11243 11244 11245 11246 11247 11248 11249 11250 11251 11252 11253 11254 11255 11256 11257 11258 11259 11260 11261 11262 11263 11264 11265 11266 11267 11268 11269 11270 11271 11272 11273 11274 11275 11276 11277 11278 11279 11280 11281 11282 11283 11284 11285 11286 11287 11288 11289 11290 11291 11292 11293 11294 11295 11296 11297 11298 11299 11300 11301 11302 11303 11304 11305 11306 11307 11308 11309 11310 11311 11312 11313 11314 11315 11316 11317 11318 11319 11320 11321 11322 11323 11324 11325 11326 11327 11328 11329 11330 11331 11332 11333 11334 11335 11336 11337 11338 11339 11340 11341 11342 11343 11344 11345 11346 11347 11348 11349 11350 11351 11352 11353 11354 11355 11356 11357 11358 11359 11360 11361 11362 11363 11364 11365 11366 11367 11368 11369 11370 11371 11372 11373 11374 11375 11376 11377 11378 11379 11380 11381 11382 11383 11384 11385 11386 11387 11388 11389 11390 11391 11392 11393 11394 11395 11396 11397 11398 11399 11400 11401 11402 11403 11404 11405 11406 11407 11408 11409 11410 11411 11412 11413 11414 11415 11416 11417 11418 11419 11420 11421 11422 11423 11424 11425 11426 11427 11428 11429 11430 11431 11432 11433 11434 11435 11436 11437 11438 11439 11440 11441 11442 11443 11444 11445 11446 11447 11448 11449 11450 11451 11452 11453 11454 11455 11456 11457 11458 11459 11460 11461 11462 11463 11464 11465 11466 11467 11468 11469 11470 11471 11472 11473 11474 11475 11476 11477 11478 11479 11480 11481 11482 11483 11484 11485 11486 11487 11488 11489 11490 11491 11492 11493 11494 11495 11496 11497 11498 11499 11500 11501 11502 11503 11504 11505 11506 11507 11508 11509 11510 11511 11512 11513 11514 11515 11516 11517 11518 11519 11520 11521 11522 11523 11524 11525 11526 11527 11528 11529 11530 11531 11532 11533 11534 11535 11536 11537 11538 11539 11540 11541 11542 11543 11544 11545 11546 11547 11548 11549 11550 11551 11552 11553 11554 11555 11556 11557 11558 11559 11560 11561 11562 11563 11564 11565 11566 11567 11568 11569 11570 11571 11572 11573 11574 11575 11576 11577 11578 11579 11580 11581 11582 11583 11584 11585 11586 11587 11588 11589 11590 11591 11592 11593 11594 11595 11596 11597 11598 11599 11600 11601 11602 11603 11604 11605 11606 11607 11608 11609 11610 11611 11612 11613 11614 11615 11616 11617 11618 11619 11620 11621 11622 11623 11624 11625 11626 11627 11628 11629 11630 11631 11632 11633 11634 11635 11636 11637 11638 11639 11640 11641 11642 11643 11644 11645 11646 11647 11648 11649 11650 11651 11652 11653 11654 11655 11656 11657 11658 11659 11660 11661 11662 11663 11664 11665 11666 11667 11668 11669 11670 11671 11672 11673 11674 11675 11676 11677 11678 11679 11680 11681 11682 11683 11684 11685 11686 11687 11688 11689 11690 11691 11692 11693 11694 11695 11696 11697 11698 11699 11700 11701 11702 11703 11704 11705 11706 11707 11708 11709 11710 11711 11712 11713 11714 11715 11716 11717 11718 11719 11720 11721 11722 11723 11724 11725 11726 11727 11728 11729 11730 11731 11732 11733 11734 11735 11736 11737 11738 11739 11740 11741 11742 11743 11744 11745 11746 11747 11748 11749 11750 11751 11752 11753 11754 11755 11756 11757 11758 11759 11760 11761 11762 11763 11764 11765 11766 11767 11768 11769 11770 11771 11772 11773 11774 11775 11776 11777 11778 11779 11780 11781 11782 11783 11784 11785 11786 11787 11788 11789 11790 11791 11792 11793 11794 11795 11796 11797 11798 11799 11800 11801 11802 11803 11804 11805 11806 11807 11808 11809 11810 11811 11812 11813 11814 11815 11816 11817 11818 11819 11820 11821 11822 11823 11824 11825 11826 11827 11828 11829 11830 11831 11832 11833 11834 11835 11836 11837 11838 11839 11840 11841 11842 11843 11844 11845 11846 11847 11848 11849 11850 11851 11852 11853 11854 11855 11856 11857 11858 11859 11860 11861 11862 11863 11864 11865 11866 11867 11868 11869 11870 11871 11872 11873 11874 11875 11876 11877 11878 11879 11880 11881 11882 11883 11884 11885 11886 11887 11888 11889 11890 11891 11892 11893 11894 11895 11896 11897 11898 11899 11900 11901 11902 11903 11904 11905 11906 11907 11908 11909 11910 11911 11912 11913 11914 11915 11916 11917 11918 11919 11920 11921 11922 11923 11924 11925 11926 11927 11928 11929 11930 11931 11932 11933 11934 11935 11936 11937 11938 11939 11940 11941 11942 11943 11944 11945 11946 11947 11948 11949 11950 11951 11952 11953 11954 11955 11956 11957 11958 11959 11960 11961 11962 11963 11964 11965 11966 11967 11968 11969 11970 11971 11972 11973 11974 11975 11976 11977 11978 11979 11980 11981 11982 11983 11984 11985 11986 11987 11988 11989 11990 11991 11992 11993 11994 11995 11996 11997 11998 11999 12000 12001 12002 12003 12004 12005 12006 12007 12008 12009 12010 12011 12012 12013 12014 12015 12016 12017 12018 12019 12020 12021 12022 12023 12024 12025 12026 12027 12028 12029 12030 12031 12032 12033 12034 12035 12036 12037 12038 12039 12040 12041 12042 12043 12044 12045 12046 12047 12048 12049 12050 12051 12052 12053 12054 12055 12056 12057 12058 12059 12060 12061 12062 12063 12064 12065 12066 12067 12068 12069 12070 12071 12072 12073 12074 12075 12076 12077 12078 12079 12080 12081 12082 12083 12084 12085 12086 12087 12088 12089 12090 12091 12092 12093 12094 12095 12096 12097 12098 12099 12100 12101 12102 12103 12104 12105 12106 12107 12108 12109 12110 12111 12112 12113 12114 12115 12116 12117 12118 12119 12120 12121 12122 12123 12124 12125 12126 12127 12128 12129 12130 12131 12132 12133 12134 12135 12136 12137 12138 12139 12140 12141 12142 12143 12144 12145 12146 12147 12148 12149 12150 12151 12152 12153 12154 12155 12156 12157 12158 12159 12160 12161 12162 12163 12164 12165 12166 12167 12168 12169 12170 12171 12172 12173 12174 12175 12176 12177 12178 12179 12180 12181 12182 12183 12184 12185 12186 12187 12188 12189 12190 12191 12192 12193 12194 12195 12196 12197 12198 12199 12200 12201 12202 12203 12204 12205 12206 12207 12208 12209 12210 12211 12212 12213 12214 12215 12216 12217 12218 12219 12220 12221 12222 12223 12224 12225 12226 12227 12228 12229 12230 12231 12232 12233 12234 12235 12236 12237 12238 12239 12240 12241 12242 12243 12244 12245 12246 12247 12248 12249 12250 12251 12252 12253 12254 12255 12256 12257 12258 12259 12260 12261 12262 12263 12264 12265 12266 12267 12268 12269 12270 12271 12272 12273 12274 12275 12276 12277 12278 12279 12280 12281 12282 12283 12284 12285 12286 12287 12288 12289 12290 12291 12292 12293 12294 12295 12296 12297 12298 12299 12300 12301 12302 12303 12304 12305 12306 12307 12308 12309 12310 12311 12312 12313 12314 12315 12316 12317 12318 12319 12320 12321 12322 12323 12324 12325 12326 12327 12328 12329 12330 12331 12332 12333 12334 12335 12336 12337 12338 12339 12340 12341 12342 12343 12344 12345 12346 12347 12348 12349 12350 12351 12352 12353 12354 12355 12356 12357 12358 12359 12360 12361 12362 12363 12364 12365 12366 12367 12368 12369 12370 12371 12372 12373 12374 12375 12376 12377 12378 12379 12380 12381 12382 12383 12384 12385 12386 12387 12388 12389 12390 12391 12392 12393 12394 12395 12396 12397 12398 12399 12400 12401 12402 12403 12404 12405 12406 12407 12408 12409 12410 12411 12412 12413 12414 12415 12416 12417 12418 12419 12420 12421 12422 12423 12424 12425 12426 12427 12428 12429 12430 12431 12432 12433 12434 12435 12436 12437 12438 12439 12440 12441 12442 12443 12444 12445 12446 12447 12448 12449 12450 12451 12452 12453 12454 12455 12456 12457 12458 12459 12460 12461 12462 12463 12464 12465 12466 12467 12468 12469 12470 12471 12472 12473 12474 12475 12476 12477 12478 12479 12480 12481 12482 12483 12484 12485 12486 12487 12488 12489 12490 12491 12492 12493 12494 12495 12496 12497 12498 12499 12500 12501 12502 12503 12504 12505 12506 12507 12508 12509 12510 12511 12512 12513 12514 12515 12516 12517 12518 12519 12520 12521 12522 12523 12524 12525 12526 12527 12528 12529 12530 12531 12532 12533 12534 12535 12536 12537 12538 12539 12540 12541 12542 12543 12544 12545 12546 12547 12548 12549 12550 12551 12552 12553 12554 12555 12556 12557 12558 12559 12560 12561 12562 12563 12564 12565 12566 12567 12568 12569 12570 12571 12572 12573 12574 12575 12576 12577 12578 12579 12580 12581 12582 12583 12584 12585 12586 12587 12588 12589 12590 12591 12592 12593 12594 12595 12596 12597 12598 12599 12600 12601 12602 12603 12604 12605 12606 12607 12608 12609 12610 12611 12612 12613 12614 12615 12616 12617 12618 12619 12620 12621 12622 12623 12624 12625 12626 12627 12628 12629 12630 12631 12632 12633 12634 12635 12636 12637 12638 12639 12640 12641 12642 12643 12644 12645 12646 12647 12648 12649 12650 12651 12652 12653 12654 12655 12656 12657 12658 12659 12660 12661 12662 12663 12664 12665 12666 12667 12668 12669 12670 12671 12672 12673 12674 12675 12676 12677 12678 12679 12680 12681 12682 12683 12684 12685 12686 12687 12688 12689 12690 12691 12692 12693 12694 12695 12696 12697 12698 12699 12700 12701 12702 12703 12704 12705 12706 12707 12708 12709 12710 12711 12712 12713 12714 12715 12716 12717 12718 12719 12720 12721 12722 12723 12724 12725 12726 12727 12728 12729 12730 12731 12732 12733 12734 12735 12736 12737 12738 12739 12740 12741 12742 12743 12744 12745 12746 12747 12748 12749 12750 12751 12752 12753 12754 12755 12756 12757 12758 12759 12760 12761 12762 12763 12764 12765 12766 12767 12768 12769 12770 12771 12772 12773 12774 12775 12776 12777 12778 12779 12780 12781 12782 12783 12784 12785 12786 12787 12788 12789 12790 12791 12792 12793 12794 12795 12796 12797 12798 12799 12800 12801 12802 12803 12804 12805 12806 12807 12808 12809 12810 12811 12812 12813 12814 12815 12816 12817 12818 12819 12820 12821 12822 12823 12824 12825 12826 12827 12828 12829 12830 12831 12832 12833 12834 12835 12836 12837 12838 12839 12840 12841 12842 12843 12844 12845 12846 12847 12848 12849 12850 12851 12852 12853 12854 12855 12856 12857 12858 12859 12860 12861 12862 12863 12864 12865 12866 12867 12868 12869 12870 12871 12872 12873 12874 12875 12876 12877 12878 12879 12880 12881 12882 12883 12884 12885 12886 12887 12888 12889 12890 12891 12892 12893 12894 12895 12896 12897 12898 12899 12900 12901 12902 12903 12904 12905 12906 12907 12908 12909 12910 12911 12912 12913 12914 12915 12916 12917 12918 12919 12920 12921 12922 12923 12924 12925 12926 12927 12928 12929 12930 12931 12932 12933 12934 12935 12936 12937 12938 12939 12940 12941 12942 12943 12944 12945 12946 12947 12948 12949 12950 12951 12952 12953 12954 12955 12956 12957 12958 12959 12960 12961 12962 12963 12964 12965 12966 12967 12968 12969 12970 12971 12972 12973 12974 12975 12976 12977 12978 12979 12980 12981 12982 12983 12984 12985 12986 12987 12988 12989 12990 12991 12992 12993 12994 12995 12996 12997 12998 12999 13000 13001 13002 13003 13004 13005 13006 13007 13008 13009 13010 13011 13012 13013 13014 13015 13016 13017 13018 13019 13020 13021 13022 13023 13024 13025 13026 13027 13028 13029 13030 13031 13032 13033 13034 13035 13036 13037 13038 13039 13040 13041 13042 13043 13044 13045 13046 13047 13048 13049 13050 13051 13052 13053 13054 13055 13056 13057 13058 13059 13060 13061 13062 13063 13064 13065 13066 13067 13068 13069 13070 13071 13072 13073 13074 13075 13076 13077 13078 13079 13080 13081 13082 13083 13084 13085 13086 13087 13088 13089 13090 13091 13092 13093 13094 13095 13096 13097 13098 13099 13100 13101 13102 13103 13104 13105 13106 13107 13108 13109 13110 13111 13112 13113 13114 13115 13116 13117 13118 13119 13120 13121 13122 13123 13124 13125 13126 13127 13128 13129 13130 13131 13132 13133 13134 13135 13136 13137 13138 13139 13140 13141 13142 13143 13144 13145 13146 13147 13148 13149 13150 13151 13152 13153 13154 13155 13156 13157 13158 13159 13160 13161 13162 13163 13164 13165 13166 13167 13168 13169 13170 13171 13172 13173 13174 13175 13176 13177 13178 13179 13180 13181 13182 13183 13184 13185 13186 13187 13188 13189 13190 13191 13192 13193 13194 13195 13196 13197 13198 13199 13200 13201 13202 13203 13204 13205 13206 13207 13208 13209 13210 13211 13212 13213 13214 13215 13216 13217 13218 13219 13220 13221 13222 13223 13224 13225 13226 13227 13228 13229 13230 13231 13232 13233 13234 13235 13236 13237 13238 13239 13240 13241 13242 13243 13244 13245 13246 13247 13248 13249 13250 13251 13252 13253 13254 13255 13256 13257 13258 13259 13260 13261 13262 13263 13264 13265 13266 13267 13268 13269 13270 13271 13272 13273 13274 13275 13276 13277 13278 13279 13280 13281 13282 13283 13284 13285 13286 13287 13288 13289 13290 13291 13292 13293 13294 13295 13296 13297 13298 13299 13300 13301 13302 13303 13304 13305 13306 13307 13308 13309 13310 13311 13312 13313 13314 13315 13316 13317 13318 13319 13320 13321 13322 13323 13324 13325 13326 13327 13328 13329 13330 13331 13332 13333 13334 13335 13336 13337 13338 13339 13340 13341 13342 13343 13344 13345 13346 13347 13348 13349 13350 13351 13352 13353 13354 13355 13356 13357 13358 13359 13360 13361 13362 13363 13364 13365 13366 13367 13368 13369 13370 13371 13372 13373 13374 13375 13376 13377 13378 13379 13380 13381 13382 13383 13384 13385 13386 13387 13388 13389 13390 13391 13392 13393 13394 13395 13396 13397 13398 13399 13400 13401 13402 13403 13404 13405 13406 13407 13408 13409 13410 13411 13412 13413 13414 13415 13416 13417 13418 13419 13420 13421 13422 13423 13424 13425 13426 13427 13428 13429 13430 13431 13432 13433 13434 13435 13436 13437 13438 13439 13440 13441 13442 13443 13444 13445 13446 13447 13448 13449 13450 13451 13452 13453 13454 13455 13456 13457 13458 13459 13460 13461 13462 13463 13464 13465 13466 13467 13468 13469 13470 13471 13472 13473 13474 13475 13476 13477 13478 13479 13480 13481 13482 13483 13484 13485 13486 13487 13488 13489 13490 13491 13492 13493 13494 13495 13496 13497 13498 13499 13500 13501 13502 13503 13504 13505 13506 13507 13508 13509 13510 13511 13512 13513 13514 13515 13516 13517 13518 13519 13520 13521 13522 13523 13524 13525 13526 13527 13528 13529 13530 13531 13532 13533 13534 13535 13536 13537 13538 13539 13540 13541 13542 13543 13544 13545 13546 13547 13548 13549 13550 13551 13552 13553 13554 13555 13556 13557 13558 13559 13560 13561 13562 13563 13564 13565 13566 13567 13568 13569 13570 13571 13572 13573 13574 13575 13576 13577 13578 13579 13580 13581 13582 13583 13584 13585 13586 13587 13588 13589 13590 13591 13592 13593 13594 13595 13596 13597 13598 13599 13600 13601 13602 13603 13604 13605 13606 13607 13608 13609 13610 13611 13612 13613 13614 13615 13616 13617 13618 13619 13620 13621 13622 13623 13624 13625 13626 13627 13628 13629 13630 13631 13632 13633 13634 13635 13636 13637 13638 13639 13640 13641 13642 13643 13644 13645 13646 13647 13648 13649 13650 13651 13652 13653 13654 13655 13656 13657 13658 13659 13660 13661 13662 13663 13664 13665 13666 13667 13668 13669 13670 13671 13672 13673 13674 13675 13676 13677 13678 13679 13680 13681 13682 13683 13684 13685 13686 13687 13688 13689 13690 13691 13692 13693 13694 13695 13696 13697 13698 13699 13700 13701 13702 13703 13704 13705 13706 13707 13708 13709 13710 13711 13712 13713 13714 13715 13716 13717 13718 13719 13720 13721 13722 13723 13724 13725 13726 13727 13728 13729 13730 13731 13732 13733 13734 13735 13736 13737 13738 13739 13740 13741 13742 13743 13744 13745 13746 13747 13748 13749 13750 13751 13752 13753 13754 13755 13756 13757 13758 13759 13760 13761 13762 13763 13764 13765 13766 13767 13768 13769 13770 13771 13772 13773 13774 13775 13776 13777 13778 13779 13780 13781 13782 13783 13784 13785 13786 13787 13788 13789 13790 13791 13792 13793 13794 13795 13796 13797 13798 13799 13800 13801 13802 13803 13804 13805 13806 13807 13808 13809 13810 13811 13812 13813 13814 13815 13816 13817 13818 13819 13820 13821 13822 13823 13824 13825 13826 13827 13828 13829 13830 13831 13832 13833 13834 13835 13836 13837 13838 13839 13840 13841 13842 13843 13844 13845 13846 13847 13848 13849 13850 13851 13852 13853 13854 13855 13856 13857 13858 13859 13860 13861 13862 13863 13864 13865 13866 13867 13868 13869 13870 13871 13872 13873 13874 13875 13876 13877 13878 13879 13880 13881 13882 13883 13884 13885 13886 13887 13888 13889 13890 13891 13892 13893 13894 13895 13896 13897 13898 13899 13900 13901 13902 13903 13904 13905 13906 13907 13908 13909 13910 13911 13912 13913 13914 13915 13916 13917 13918 13919 13920 13921 13922 13923 13924 13925 13926 13927 13928 13929 13930 13931 13932 13933 13934 13935 13936 13937 13938 13939 13940 13941 13942 13943 13944 13945 13946 13947 13948 13949 13950 13951 13952 13953 13954 13955 13956 13957 13958 13959 13960 13961 13962 13963 13964 13965 13966 13967 13968 13969 13970 13971 13972 13973 13974 13975 13976 13977 13978 13979 13980 13981 13982 13983 13984 13985 13986 13987 13988 13989 13990 13991 13992 13993 13994 13995 13996 13997 13998 13999 14000 14001 14002 14003 14004 14005 14006 14007 14008 14009 14010 14011 14012 14013 14014 14015 14016 14017 14018 14019 14020 14021 14022 14023 14024 14025 14026 14027 14028 14029 14030 14031 14032 14033 14034 14035 14036 14037 14038 14039 14040 14041 14042 14043 14044 14045 14046 14047 14048 14049 14050 14051 14052 14053 14054 14055 14056 14057 14058 14059 14060 14061 14062 14063 14064 14065 14066 14067 14068 14069 14070 14071 14072 14073 14074 14075 14076 14077 14078 14079 14080 14081 14082 14083 14084 14085 14086 14087 14088 14089 14090 14091 14092 14093 14094 14095 14096 14097 14098 14099 14100 14101 14102 14103 14104 14105 14106 14107 14108 14109 14110 14111 14112 14113 14114 14115 14116 14117 14118 14119 14120 14121 14122 14123 14124 14125 14126 14127 14128 14129 14130 14131 14132 14133 14134 14135 14136 14137 14138 14139 14140 14141 14142 14143 14144 14145 14146 14147 14148 14149 14150 14151 14152 14153 14154 14155 14156 14157 14158 14159 14160 14161 14162 14163 14164 14165 14166 14167 14168 14169 14170 14171 14172 14173 14174 14175 14176 14177 14178 14179 14180 14181 14182 14183 14184 14185 14186 14187 14188 14189 14190 14191 14192 14193 14194 14195 14196 14197 14198 14199 14200 14201 14202 14203 14204 14205 14206 14207 14208 14209 14210 14211 14212 14213 14214 14215 14216 14217 14218 14219 14220 14221 14222 14223 14224 14225 14226 14227 14228 14229 14230 14231 14232 14233 14234 14235 14236 14237 14238 14239 14240 14241 14242 14243 14244 14245 14246 14247 14248 14249 14250 14251 14252 14253 14254 14255 14256 14257 14258 14259 14260 14261 14262 14263 14264 14265 14266 14267 14268 14269 14270 14271 14272 14273 14274 14275 14276 14277 14278 14279 14280 14281 14282 14283 14284 14285 14286 14287 14288 14289 14290 14291 14292 14293 14294 14295 14296 14297 14298 14299 14300 14301 14302 14303 14304 14305 14306 14307 14308 14309 14310 14311 14312 14313 14314 14315 14316 14317 14318 14319 14320 14321 14322 14323 14324 14325 14326 14327 14328 14329 14330 14331 14332 14333 14334 14335 14336 14337 14338 14339 14340 14341 14342 14343 14344 14345 14346 14347 14348 14349 14350 14351 14352 14353 14354 14355 14356 14357 14358 14359 14360 14361 14362 14363 14364 14365 14366 14367 14368 14369 14370 14371 14372 14373 14374 14375 14376 14377 14378 14379 14380 14381 14382 14383 14384 14385 14386 14387 14388 14389 14390 14391 14392 14393 14394 14395 14396 14397 14398 14399 14400 14401 14402 14403 14404 14405 14406 14407 14408 14409 14410 14411 14412 14413 14414 14415 14416 14417 14418 14419 14420 14421 14422 14423 14424 14425 14426 14427 14428 14429 14430 14431 14432 14433 14434 14435 14436 14437 14438 14439 14440 14441 14442 14443 14444 14445 14446 14447 14448 14449 14450 14451 14452 14453 14454 14455 14456 14457 14458 14459 14460 14461 14462 14463 14464 14465 14466 14467 14468 14469 14470 14471 14472 14473 14474 14475 14476 14477 14478 14479 14480 14481 14482 14483 14484 14485 14486 14487 14488 14489 14490 14491 14492 14493 14494 14495 14496 14497 14498 14499 14500 14501 14502 14503 14504 14505 14506 14507 14508 14509 14510 14511 14512 14513 14514 14515 14516 14517 14518 14519 14520 14521 14522 14523 14524 14525 14526 14527 14528 14529 14530 14531 14532 14533 14534 14535 14536 14537 14538 14539 14540 14541 14542 14543 14544 14545 14546 14547 14548 14549 14550 14551 14552 14553 14554 14555 14556 14557 14558 14559 14560 14561 14562 14563 14564 14565 14566 14567 14568 14569 14570 14571 14572 14573 14574 14575 14576 14577 14578 14579 14580 14581 14582 14583 14584 14585 14586 14587 14588 14589 14590 14591 14592 14593 14594 14595 14596 14597 14598 14599 14600 14601 14602 14603 14604 14605 14606 14607 14608 14609 14610 14611 14612 14613 14614 14615 14616 14617 14618 14619 14620 14621 14622 14623 14624 14625 14626 14627 14628 14629 14630 14631 14632 14633 14634 14635 14636 14637 14638 14639 14640 14641 14642 14643 14644 14645 14646 14647 14648 14649 14650 14651 14652 14653 14654 14655 14656 14657 14658 14659 14660 14661 14662 14663 14664 14665 14666 14667 14668 14669 14670 14671 14672 14673 14674 14675 14676 14677 14678 14679 14680 14681 14682 14683 14684 14685 14686 14687 14688 14689 14690 14691 14692 14693 14694 14695 14696 14697 14698 14699 14700 14701 14702 14703 14704 14705 14706 14707 14708 14709 14710 14711 14712 14713 14714 14715 14716 14717 14718 14719 14720 14721 14722 14723 14724 14725 14726 14727 14728 14729 14730 14731 14732 14733 14734 14735 14736 14737 14738 14739 14740 14741 14742 14743 14744 14745 14746 14747 14748 14749 14750 14751 14752 14753 14754 14755 14756 14757 14758 14759 14760 14761 14762 14763 14764 14765 14766 14767 14768 14769 14770 14771 14772 14773 14774 14775 14776 14777 14778 14779 14780 14781 14782 14783 14784 14785 14786 14787 14788 14789 14790 14791 14792 14793 14794 14795 14796 14797 14798 14799 14800 14801 14802 14803 14804 14805 14806 14807 14808 14809 14810 14811 14812 14813 14814 14815 14816 14817 14818 14819 14820 14821 14822 14823 14824 14825 14826 14827 14828 14829 14830 14831 14832 14833 14834 14835 14836 14837 14838 14839 14840 14841 14842 14843 14844 14845 14846 14847 14848 14849 14850 14851 14852 14853 14854 14855 14856 14857 14858 14859 14860 14861 14862 14863 14864 14865 14866 14867 14868 14869 14870 14871 14872 14873 14874 14875 14876 14877 14878 14879 14880 14881 14882 14883 14884 14885 14886 14887 14888 14889 14890 14891 14892 14893 14894 14895 14896 14897 14898 14899 14900 14901 14902 14903 14904 14905 14906 14907 14908 14909 14910 14911 14912 14913 14914 14915 14916 14917 14918 14919 14920 14921 14922 14923 14924 14925 14926 14927 14928 14929 14930 14931 14932 14933 14934 14935 14936 14937 14938 14939 14940 14941 14942 14943 14944 14945 14946 14947 14948 14949 14950 14951 14952 14953 14954 14955 14956 14957 14958 14959 14960 14961 14962 14963 14964 14965 14966 14967 14968 14969 14970 14971 14972 14973 14974 14975 14976 14977 14978 14979 14980 14981 14982 14983 14984 14985 14986 14987 14988 14989 14990 14991 14992 14993 14994 14995 14996 14997 14998 14999 15000 15001 15002 15003 15004 15005 15006 15007 15008 15009 15010 15011 15012 15013 15014 15015 15016 15017 15018 15019 15020 15021 15022 15023 15024 15025 15026 15027 15028 15029 15030 15031 15032 15033 15034 15035 15036 15037 15038 15039 15040 15041 15042 15043 15044 15045 15046 15047 15048 15049 15050 15051 15052 15053 15054 15055 15056 15057 15058 15059 15060 15061 15062 15063 15064 15065 15066 15067 15068 15069 15070 15071 15072 15073 15074 15075 15076 15077 15078 15079 15080 15081 15082 15083 15084 15085 15086 15087 15088 15089 15090 15091 15092 15093 15094 15095 15096 15097 15098 15099 15100 15101 15102 15103 15104 15105 15106 15107 15108 15109 15110 15111 15112 15113 15114 15115 15116 15117 15118 15119 15120 15121 15122 15123 15124 15125 15126 15127 15128 15129 15130 15131 15132 15133 15134 15135 15136 15137 15138 15139 15140 15141 15142 15143 15144 15145 15146 15147 15148 15149 15150 15151 15152 15153 15154 15155 15156 15157 15158 15159 15160 15161 15162 15163 15164 15165 15166 15167 15168 15169 15170 15171 15172 15173 15174 15175 15176 15177 15178 15179 15180 15181 15182 15183 15184 15185 15186 15187 15188 15189 15190 15191 15192 15193 15194 15195 15196 15197 15198 15199 15200 15201 15202 15203 15204 15205 15206 15207 15208 15209 15210 15211 15212 15213 15214 15215 15216 15217 15218 15219 15220 15221 15222 15223 15224 15225 15226 15227 15228 15229 15230 15231 15232 15233 15234 15235 15236 15237 15238 15239 15240 15241 15242 15243 15244 15245 15246 15247 15248 15249 15250 15251 15252 15253 15254 15255 15256 15257 15258 15259 15260 15261 15262 15263 15264 15265 15266 15267 15268 15269 15270 15271 15272 15273 15274 15275 15276 15277 15278 15279 15280 15281 15282 15283 15284 15285 15286 15287 15288 15289 15290 15291 15292 15293 15294 15295 15296 15297 15298 15299 15300 15301 15302 15303 15304 15305 15306 15307 15308 15309 15310 15311 15312 15313 15314 15315 15316 15317 15318 15319 15320 15321 15322 15323 15324 15325 15326 15327 15328 15329 15330 15331 15332 15333 15334 15335 15336 15337 15338 15339 15340 15341 15342 15343 15344 15345 15346 15347 15348 15349 15350 15351 15352 15353 15354 15355 15356 15357 15358 15359 15360 15361 15362 15363 15364 15365 15366 15367 15368 15369 15370 15371 15372 15373 15374 15375 15376 15377 15378 15379 15380 15381 15382 15383 15384 15385 15386 15387 15388 15389 15390 15391 15392 15393 15394 15395 15396 15397 15398 15399 15400 15401 15402 15403 15404 15405 15406 15407 15408 15409 15410 15411 15412 15413 15414 15415 15416 15417 15418 15419 15420 15421 15422 15423 15424 15425 15426 15427 15428 15429 15430 15431 15432 15433 15434 15435 15436 15437 15438 15439 15440 15441 15442 15443 15444 15445 15446 15447 15448 15449 15450 15451 15452 15453 15454 15455 15456 15457 15458 15459 15460 15461 15462 15463 15464 15465 15466 15467 15468 15469 15470 15471 15472 15473 15474 15475 15476 15477 15478 15479 15480 15481 15482 15483 15484 15485 15486 15487 15488 15489 15490 15491 15492 15493 15494 15495 15496 15497 15498 15499 15500 15501 15502 15503 15504 15505 15506 15507 15508 15509 15510 15511 15512 15513 15514 15515 15516 15517 15518 15519 15520 15521 15522 15523 15524 15525 15526 15527 15528 15529 15530 15531 15532 15533 15534 15535 15536 15537 15538 15539 15540 15541 15542 15543 15544 15545 15546 15547 15548 15549 15550 15551 15552 15553 15554 15555 15556 15557 15558 15559 15560 15561 15562 15563 15564 15565 15566 15567 15568 15569 15570 15571 15572 15573 15574 15575 15576 15577 15578 15579 15580 15581 15582 15583 15584 15585 15586 15587 15588 15589 15590 15591 15592 15593 15594 15595 15596 15597 15598 15599 15600 15601 15602 15603 15604 15605 15606 15607 15608 15609 15610 15611 15612 15613 15614 15615 15616 15617 15618 15619 15620 15621 15622 15623 15624 15625 15626 15627 15628 15629 15630 15631 15632 15633 15634 15635 15636 15637 15638 15639 15640 15641 15642 15643 15644 15645 15646 15647 15648 15649 15650 15651 15652 15653 15654 15655 15656 15657 15658 15659 15660 15661 15662 15663 15664 15665 15666 15667 15668 15669 15670 15671 15672 15673 15674 15675 15676 15677 15678 15679 15680 15681 15682 15683 15684 15685 15686 15687 15688 15689 15690 15691 15692 15693 15694 15695 15696 15697 15698 15699 15700 15701 15702 15703 15704 15705 15706 15707 15708 15709 15710 15711 15712 15713 15714 15715 15716 15717 15718 15719 15720 15721 15722 15723 15724 15725 15726 15727 15728 15729 15730 15731 15732 15733 15734 15735 15736 15737 15738 15739 15740 15741 15742 15743 15744 15745 15746 15747 15748 15749 15750 15751 15752 15753 15754 15755 15756 15757 15758 15759 15760 15761 15762 15763 15764 15765 15766 15767 15768 15769 15770 15771 15772 15773 15774 15775 15776 15777 15778 15779 15780 15781 15782 15783 15784 15785 15786 15787 15788 15789 15790 15791 15792 15793 15794 15795 15796 15797 15798 15799 15800 15801 15802 15803 15804 15805 15806 15807 15808 15809 15810 15811 15812 15813 15814 15815 15816 15817 15818 15819 15820 15821 15822 15823 15824 15825 15826 15827 15828 15829 15830 15831 15832 15833 15834 15835 15836 15837 15838 15839 15840 15841 15842 15843 15844 15845 15846 15847 15848 15849 15850 15851 15852 15853 15854 15855 15856 15857 15858 15859 15860 15861 15862 15863 15864 15865 15866 15867 15868 15869 15870 15871 15872 15873 15874 15875 15876 15877 15878 15879 15880 15881 15882 15883 15884 15885 15886 15887 15888 15889 15890 15891 15892 15893 15894 15895 15896 15897 15898 15899 15900 15901 15902 15903 15904 15905 15906 15907 15908 15909 15910 15911 15912 15913 15914 15915 15916 15917 15918 15919 15920 15921 15922 15923 15924 15925 15926 15927 15928 15929 15930 15931 15932 15933 15934 15935 15936 15937 15938 15939 15940 15941 15942 15943 15944 15945 15946 15947 15948 15949 15950 15951 15952 15953 15954 15955 15956 15957 15958 15959 15960 15961 15962 15963 15964 15965 15966 15967 15968 15969 15970 15971 15972 15973 15974 15975 15976 15977 15978 15979 15980 15981 15982 15983 15984 15985 15986 15987 15988 15989 15990 15991 15992 15993 15994 15995 15996 15997 15998 15999 16000 16001 16002 16003 16004 16005 16006 16007 16008 16009 16010 16011 16012 16013 16014 16015 16016 16017 16018 16019 16020 16021 16022 16023 16024 16025 16026 16027 16028 16029 16030 16031 16032 16033 16034 16035 16036 16037 16038 16039 16040 16041 16042 16043 16044 16045 16046 16047 16048 16049 16050 16051 16052 16053 16054 16055 16056 16057 16058 16059 16060 16061 16062 16063 16064 16065 16066 16067 16068 16069 16070 16071 16072 16073 16074 16075 16076 16077 16078 16079 16080 16081 16082 16083 16084 16085 16086 16087 16088 16089 16090 16091 16092 16093 16094 16095 16096 16097 16098 16099 16100 16101 16102 16103 16104 16105 16106 16107 16108 16109 16110 16111 16112 16113 16114 16115 16116 16117 16118 16119 16120 16121 16122 16123 16124 16125 16126 16127 16128 16129 16130 16131 16132 16133 16134 16135 16136 16137 16138 16139 16140 16141 16142 16143 16144 16145 16146 16147 16148 16149 16150 16151 16152 16153 16154 16155 16156 16157 16158 16159 16160 16161 16162 16163 16164 16165 16166 16167 16168 16169 16170 16171 16172 16173 16174 16175 16176 16177 16178 16179 16180 16181 16182 16183 16184 16185 16186 16187 16188 16189 16190 16191 16192 16193 16194 16195 16196 16197 16198 16199 16200 16201 16202 16203 16204 16205 16206 16207 16208 16209 16210 16211 16212 16213 16214 16215 16216 16217 16218 16219 16220 16221 16222 16223 16224 16225 16226 16227 16228 16229 16230 16231 16232 16233 16234 16235 16236 16237 16238 16239 16240 16241 16242 16243 16244 16245 16246 16247 16248 16249 16250 16251 16252 16253 16254 16255 16256 16257 16258 16259 16260 16261 16262 16263 16264 16265 16266 16267 16268 16269 16270 16271 16272 16273 16274 16275 16276 16277 16278 16279 16280 16281 16282 16283 16284 16285 16286 16287 16288 16289 16290 16291 16292 16293 16294 16295 16296 16297 16298 16299 16300 16301 16302 16303 16304 16305 16306 16307 16308 16309 16310 16311 16312 16313 16314 16315 16316 16317 16318 16319 16320 16321 16322 16323 16324 16325 16326 16327 16328 16329 16330 16331 16332 16333 16334 16335 16336 16337 16338 16339 16340 16341 16342 16343 16344 16345 16346 16347 16348 16349 16350 16351 16352 16353 16354 16355 16356 16357 16358 16359 16360 16361 16362 16363 16364 16365 16366 16367 16368 16369 16370 16371 16372 16373 16374 16375 16376 16377 16378 16379 16380 16381 16382 16383 16384 16385 16386 16387 16388 16389 16390 16391 16392 16393 16394 16395 16396 16397 16398 16399 16400 16401 16402 16403 16404 16405 16406 16407 16408 16409 16410 16411 16412 16413 16414 16415 16416 16417 16418 16419 16420 16421 16422 16423 16424 16425 16426 16427 16428 16429 16430 16431 16432 16433 16434 16435 16436 16437 16438 16439 16440 16441 16442 16443 16444 16445 16446 16447 16448 16449 16450 16451 16452 16453 16454 16455 16456 16457 16458 16459 16460 16461 16462 16463 16464 16465 16466 16467 16468 16469 16470 16471 16472 16473 16474 16475 16476 16477 16478 16479 16480 16481 16482 16483 16484 16485 16486 16487 16488 16489 16490 16491 16492 16493 16494 16495 16496 16497 16498 16499 16500 16501 16502 16503 16504 16505 16506 16507 16508 16509 16510 16511 16512 16513 16514 16515 16516 16517 16518 16519 16520 16521 16522 16523 16524 16525 16526 16527 16528 16529 16530 16531 16532 16533 16534 16535 16536 16537 16538 16539 16540 16541 16542 16543 16544 16545 16546 16547 16548 16549 16550 16551 16552 16553 16554 16555 16556 16557 16558 16559 16560 16561 16562 16563 16564 16565 16566 16567 16568 16569 16570 16571 16572 16573 16574 16575 16576 16577 16578 16579 16580 16581 16582 16583 16584 16585 16586 16587 16588 16589 16590 16591 16592 16593 16594 16595 16596 16597 16598 16599 16600 16601 16602 16603 16604 16605 16606 16607 16608 16609 16610 16611 16612 16613 16614 16615 16616 16617 16618 16619 16620 16621 16622 16623 16624 16625 16626 16627 16628 16629 16630 16631 16632 16633 16634 16635 16636 16637 16638 16639 16640 16641 16642 16643 16644 16645 16646 16647 16648 16649 16650 16651 16652 16653 16654 16655 16656 16657 16658 16659 16660 16661 16662 16663 16664 16665 16666 16667 16668 16669 16670 16671 16672 16673 16674 16675 16676 16677 16678 16679 16680 16681 16682 16683 16684 16685 16686 16687 16688 16689 16690 16691 16692 16693 16694 16695 16696 16697 16698 16699 16700 16701 16702 16703 16704 16705 16706 16707 16708 16709 16710 16711 16712 16713 16714 16715 16716 16717 16718 16719 16720 16721 16722 16723 16724 16725 16726 16727 16728 16729 16730 16731 16732 16733 16734 16735 16736 16737 16738 16739 16740 16741 16742 16743 16744 16745 16746 16747 16748 16749 16750 16751 16752 16753 16754 16755 16756 16757 16758 16759 16760 16761 16762 16763 16764 16765 16766 16767 16768 16769 16770 16771 16772 16773 16774 16775 16776 16777 16778 16779 16780 16781 16782 16783 16784 16785 16786 16787 16788 16789 16790 16791 16792 16793 16794 16795 16796 16797 16798 16799 16800 16801 16802 16803 16804 16805 16806 16807 16808 16809 16810 16811 16812 16813 16814 16815 16816 16817 16818 16819 16820 16821 16822 16823 16824 16825 16826 16827 16828 16829 16830 16831 16832 16833 16834 16835 16836 16837 16838 16839 16840 16841 16842 16843 16844 16845 16846 16847 16848 16849 16850 16851 16852 16853 16854 16855 16856 16857 16858 16859 16860 16861 16862 16863 16864 16865 16866 16867 16868 16869 16870 16871 16872 16873 16874 16875 16876 16877 16878 16879 16880 16881 16882 16883 16884 16885 16886 16887 16888 16889 16890 16891 16892 16893 16894 16895 16896 16897 16898 16899 16900 16901 16902 16903 16904 16905 16906 16907 16908 16909 16910 16911 16912 16913 16914 16915 16916 16917 16918 16919 16920 16921 16922 16923 16924 16925 16926 16927 16928 16929 16930 16931 16932 16933 16934 16935 16936 16937 16938 16939 16940 16941 16942 16943 16944 16945 16946 16947 16948 16949 16950 16951 16952 16953 16954 16955 16956 16957 16958 16959 16960 16961 16962 16963 16964 16965 16966 16967 16968 16969 16970 16971 16972 16973 16974 16975 16976 16977 16978 16979 16980 16981 16982 16983 16984 16985 16986 16987 16988 16989 16990 16991 16992 16993 16994 16995 16996 16997 16998 16999 17000 17001 17002 17003 17004 17005 17006 17007 17008 17009 17010 17011 17012 17013 17014 17015 17016 17017 17018 17019 17020 17021 17022 17023 17024 17025 17026 17027 17028 17029 17030 17031 17032 17033 17034 17035 17036 17037 17038 17039 17040 17041 17042 17043 17044 17045 17046 17047 17048 17049 17050 17051 17052 17053 17054 17055 17056 17057 17058 17059 17060 17061 17062 17063 17064 17065 17066 17067 17068 17069 17070 17071 17072 17073 17074 17075 17076 17077 17078 17079 17080 17081 17082 17083 17084 17085 17086 17087 17088 17089 17090 17091 17092 17093 17094 17095 17096 17097 17098 17099 17100 17101 17102 17103 17104 17105 17106 17107 17108 17109 17110 17111 17112 17113 17114 17115 17116 17117 17118 17119 17120 17121 17122 17123 17124 17125 17126 17127 17128 17129 17130 17131 17132 17133 17134 17135 17136 17137 17138 17139 17140 17141 17142 17143 17144 17145 17146 17147 17148 17149 17150 17151 17152 17153 17154 17155 17156 17157 17158 17159 17160 17161 17162 17163 17164 17165 17166 17167 17168 17169 17170 17171 17172 17173 17174 17175 17176 17177 17178 17179 17180 17181 17182 17183 17184 17185 17186 17187 17188 17189 17190 17191 17192 17193 17194 17195 17196 17197 17198 17199 17200 17201 17202 17203 17204 17205 17206 17207 17208 17209 17210 17211 17212 17213 17214 17215 17216 17217 17218 17219 17220 17221 17222 17223 17224 17225 17226 17227 17228 17229 17230 17231 17232 17233 17234 17235 17236 17237 17238 17239 17240 17241 17242 17243 17244 17245 17246 17247 17248 17249 17250 17251 17252 17253 17254 17255 17256 17257 17258 17259 17260 17261 17262 17263 17264 17265 17266 17267 17268 17269 17270 17271 17272 17273 17274 17275 17276 17277 17278 17279 17280 17281 17282 17283 17284 17285 17286 17287 17288 17289 17290 17291 17292 17293 17294 17295 17296 17297 17298 17299 17300 17301 17302 17303 17304 17305 17306 17307 17308 17309 17310 17311 17312 17313 17314 17315 17316 17317 17318 17319 17320 17321 17322 17323 17324 17325 17326 17327 17328 17329 17330 17331 17332 17333 17334 17335 17336 17337 17338 17339 17340 17341 17342 17343 17344 17345 17346 17347 17348 17349 17350 17351 17352 17353 17354 17355 17356 17357 17358 17359 17360 17361 17362 17363 17364 17365 17366 17367 17368 17369 17370 17371 17372 17373 17374 17375 17376 17377 17378 17379 17380 17381 17382 17383 17384 17385 17386 17387 17388 17389 17390 17391 17392 17393 17394 17395 17396 17397 17398 17399 17400 17401 17402 17403 17404 17405 17406 17407 17408 17409 17410 17411 17412 17413 17414 17415 17416 17417 17418 17419 17420 17421 17422 17423 17424 17425 17426 17427 17428 17429 17430 17431 17432 17433 17434 17435 17436 17437 17438 17439 17440 17441 17442 17443 17444 17445 17446 17447 17448 17449 17450 17451 17452 17453 17454 17455 17456 17457 17458 17459 17460 17461 17462 17463 17464 17465 17466 17467 17468 17469 17470 17471 17472 17473 17474 17475 17476 17477 17478 17479 17480 17481 17482 17483 17484 17485 17486 17487 17488 17489 17490 17491 17492 17493 17494 17495 17496 17497 17498 17499 17500 17501 17502 17503 17504 17505 17506 17507 17508 17509 17510 17511 17512 17513 17514 17515 17516 17517 17518 17519 17520 17521 17522 17523 17524 17525 17526 17527 17528 17529 17530 17531 17532 17533 17534 17535 17536 17537 17538 17539 17540 17541 17542 17543 17544 17545 17546 17547 17548 17549 17550 17551 17552 17553 17554 17555 17556 17557 17558 17559 17560 17561 17562 17563 17564 17565 17566 17567 17568 17569 17570 17571 17572 17573 17574 17575 17576 17577 17578 17579 17580 17581 17582 17583 17584 17585 17586 17587 17588 17589 17590 17591 17592 17593 17594 17595 17596 17597 17598 17599 17600 17601 17602 17603 17604 17605 17606 17607 17608 17609 17610 17611 17612 17613 17614 17615 17616 17617 17618 17619 17620 17621 17622 17623 17624 17625 17626 17627 17628 17629 17630 17631 17632 17633 17634 17635 17636 17637 17638 17639 17640 17641 17642 17643 17644 17645 17646 17647 17648 17649 17650 17651 17652 17653 17654 17655 17656 17657 17658 17659 17660 17661 17662 17663 17664 17665 17666 17667 17668 17669 17670 17671 17672 17673 17674 17675 17676 17677 17678 17679 17680 17681 17682 17683 17684 17685 17686 17687 17688 17689 17690 17691 17692 17693 17694 17695 17696 17697 17698 17699 17700 17701 17702 17703 17704 17705 17706 17707 17708 17709 17710 17711 17712 17713 17714 17715 17716 17717 17718 17719 17720 17721 17722 17723 17724 17725 17726 17727 17728 17729 17730 17731 17732 17733 17734 17735 17736 17737 17738 17739 17740 17741 17742 17743 17744 17745 17746 17747 17748 17749 17750 17751 17752 17753 17754 17755 17756 17757 17758 17759 17760 17761 17762 17763 17764 17765 17766 17767 17768 17769 17770 17771 17772 17773 17774 17775 17776 17777 17778 17779 17780 17781 17782 17783 17784 17785 17786 17787 17788 17789 17790 17791 17792 17793 17794 17795 17796 17797 17798 17799 17800 17801 17802 17803 17804 17805 17806 17807 17808 17809 17810 17811 17812 17813 17814 17815 17816 17817 17818 17819 17820 17821 17822 17823 17824 17825 17826 17827 17828 17829 17830 17831 17832 17833 17834 17835 17836 17837 17838 17839 17840 17841 17842 17843 17844 17845 17846 17847 17848 17849 17850 17851 17852 17853 17854 17855 17856 17857 17858 17859 17860 17861 17862 17863 17864 17865 17866 17867 17868 17869 17870 17871 17872 17873 17874 17875 17876 17877 17878 17879 17880 17881 17882 17883 17884 17885 17886 17887 17888 17889 17890 17891 17892 17893 17894 17895 17896 17897 17898 17899 17900 17901 17902 17903 17904 17905 17906 17907 17908 17909 17910 17911 17912 17913 17914 17915 17916 17917 17918 17919 17920 17921 17922 17923 17924 17925 17926 17927 17928 17929 17930 17931 17932 17933 17934 17935 17936 17937 17938 17939 17940 17941 17942 17943 17944 17945 17946 17947 17948 17949 17950 17951 17952 17953 17954 17955 17956 17957 17958 17959 17960 17961 17962 17963 17964 17965 17966 17967 17968 17969 17970 17971 17972 17973 17974 17975 17976 17977 17978 17979 17980 17981 17982 17983 17984 17985 17986 17987 17988 17989 17990 17991 17992 17993 17994 17995 17996 17997 17998 17999 18000 18001 18002 18003 18004 18005 18006 18007 18008 18009 18010 18011 18012 18013 18014 18015 18016 18017 18018 18019 18020 18021 18022 18023 18024 18025 18026 18027 18028 18029 18030 18031 18032 18033 18034 18035 18036 18037 18038 18039 18040 18041 18042 18043 18044 18045 18046 18047 18048 18049 18050 18051 18052 18053 18054 18055 18056 18057 18058 18059 18060 18061 18062 18063 18064 18065 18066 18067 18068 18069 18070 18071 18072 18073 18074 18075 18076 18077 18078 18079 18080 18081 18082 18083 18084 18085 18086 18087 18088 18089 18090 18091 18092 18093 18094 18095 18096 18097 18098 18099 18100 18101 18102 18103 18104 18105 18106 18107 18108 18109 18110 18111 18112 18113 18114 18115 18116 18117 18118 18119 18120 18121 18122 18123 18124 18125 18126 18127 18128 18129 18130 18131 18132 18133 18134 18135 18136 18137 18138 18139 18140 18141 18142 18143 18144 18145 18146 18147 18148 18149 18150 18151 18152 18153 18154 18155 18156 18157 18158 18159 18160 18161 18162 18163 18164 18165 18166 18167 18168 18169 18170 18171 18172 18173 18174 18175 18176 18177 18178 18179 18180 18181 18182 18183 18184 18185 18186 18187 18188 18189 18190 18191 18192 18193 18194 18195 18196 18197 18198 18199 18200 18201 18202 18203 18204 18205 18206 18207 18208 18209 18210 18211 18212 18213 18214 18215 18216 18217 18218 18219 18220 18221 18222 18223 18224 18225 18226 18227 18228 18229 18230 18231 18232 18233 18234 18235 18236 18237 18238 18239 18240 18241 18242 18243 18244 18245 18246 18247 18248 18249 18250 18251 18252 18253 18254 18255 18256 18257 18258 18259 18260 18261 18262 18263 18264 18265 18266 18267 18268 18269 18270 18271 18272 18273 18274 18275 18276 18277 18278 18279 18280 18281 18282 18283 18284 18285 18286 18287 18288 18289 18290 18291 18292 18293 18294 18295 18296 18297 18298 18299 18300 18301 18302 18303 18304 18305 18306 18307 18308 18309 18310 18311 18312 18313 18314 18315 18316 18317 18318 18319 18320 18321 18322 18323 18324 18325 18326 18327 18328 18329 18330 18331 18332 18333 18334 18335 18336 18337 18338 18339 18340 18341 18342 18343 18344 18345 18346 18347 18348 18349 18350 18351 18352 18353 18354 18355 18356 18357 18358 18359 18360 18361 18362 18363 18364 18365 18366 18367 18368 18369 18370 18371 18372 18373 18374 18375 18376 18377 18378 18379 18380 18381 18382 18383 18384 18385 18386 18387 18388 18389 18390 18391 18392 18393 18394 18395 18396 18397 18398 18399 18400 18401 18402 18403 18404 18405 18406 18407 18408 18409 18410 18411 18412 18413 18414 18415 18416 18417 18418 18419 18420 18421 18422 18423 18424 18425 18426 18427 18428 18429 18430 18431 18432 18433 18434 18435 18436 18437 18438 18439 18440 18441 18442 18443 18444 18445 18446 18447 18448 18449 18450 18451 18452 18453 18454 18455 18456 18457 18458 18459 18460 18461 18462 18463 18464 18465 18466 18467 18468 18469 18470 18471 18472 18473 18474 18475 18476 18477 18478 18479 18480 18481 18482 18483 18484 18485 18486 18487 18488 18489 18490 18491 18492 18493 18494 18495 18496 18497 18498 18499 18500 18501 18502 18503 18504 18505 18506 18507 18508 18509 18510 18511 18512 18513 18514 18515 18516 18517 18518 18519 18520 18521 18522 18523 18524 18525 18526 18527 18528 18529 18530 18531 18532 18533 18534 18535 18536 18537 18538 18539 18540 18541 18542 18543 18544 18545 18546 18547 18548 18549 18550 18551 18552 18553 18554 18555 18556 18557 18558 18559 18560 18561 18562 18563 18564 18565 18566 18567 18568 18569 18570 18571 18572 18573 18574 18575 18576 18577 18578 18579 18580 18581 18582 18583 18584 18585 18586 18587 18588 18589 18590 18591 18592 18593 18594 18595 18596 18597 18598 18599 18600 18601 18602 18603 18604 18605 18606 18607 18608 18609 18610 18611 18612 18613 18614 18615 18616 18617 18618 18619 18620 18621 18622 18623 18624 18625 18626 18627 18628 18629 18630 18631 18632 18633 18634 18635 18636 18637 18638 18639 18640 18641 18642 18643 18644 18645 18646 18647 18648 18649 18650 18651 18652 18653 18654 18655 18656 18657 18658 18659 18660 18661 18662 18663 18664 18665 18666 18667 18668 18669 18670 18671 18672 18673 18674 18675 18676 18677 18678 18679 18680 18681 18682 18683 18684 18685 18686 18687 18688 18689 18690 18691 18692 18693 18694 18695 18696 18697 18698 18699 18700 18701 18702 18703 18704 18705 18706 18707 18708 18709 18710 18711 18712 18713 18714 18715 18716 18717 18718 18719 18720 18721 18722 18723 18724 18725 18726 18727 18728 18729 18730 18731 18732 18733 18734 18735 18736 18737 18738 18739 18740 18741 18742 18743 18744 18745 18746 18747 18748 18749 18750 18751 18752 18753 18754 18755 18756 18757 18758 18759 18760 18761 18762 18763 18764 18765 18766 18767 18768 18769 18770 18771 18772 18773 18774 18775 18776 18777 18778 18779 18780 18781 18782 18783 18784 18785 18786 18787 18788 18789 18790 18791 18792 18793 18794 18795 18796 18797 18798 18799 18800 18801 18802 18803 18804 18805 18806 18807 18808 18809 18810 18811 18812 18813 18814 18815 18816 18817 18818 18819 18820 18821 18822 18823 18824 18825 18826 18827 18828 18829 18830 18831 18832 18833 18834 18835 18836 18837 18838 18839 18840 18841 18842 18843 18844 18845 18846 18847 18848 18849 18850 18851 18852 18853 18854 18855 18856 18857 18858 18859 18860 18861 18862 18863 18864 18865 18866 18867 18868 18869 18870 18871 18872 18873 18874 18875 18876 18877 18878 18879 18880 18881 18882 18883 18884 18885 18886 18887 18888 18889 18890 18891 18892 18893 18894 18895 18896 18897 18898 18899 18900 18901 18902 18903 18904 18905 18906 18907 18908 18909 18910 18911 18912 18913 18914 18915 18916 18917 18918 18919 18920 18921 18922 18923 18924 18925 18926 18927 18928 18929 18930 18931 18932 18933 18934 18935 18936 18937 18938 18939 18940 18941 18942 18943 18944 18945 18946 18947 18948 18949 18950 18951 18952 18953 18954 18955 18956 18957 18958 18959 18960 18961 18962 18963 18964 18965 18966 18967 18968 18969 18970 18971 18972 18973 18974 18975 18976 18977 18978 18979 18980 18981 18982 18983 18984 18985 18986 18987 18988 18989 18990 18991 18992 18993 18994 18995 18996 18997 18998 18999 19000 19001 19002 19003 19004 19005 19006 19007 19008 19009 19010 19011 19012 19013 19014 19015 19016 19017 19018 19019 19020 19021 19022 19023 19024 19025 19026 19027 19028 19029 19030 19031 19032 19033 19034 19035 19036 19037 19038 19039 19040 19041 19042 19043 19044 19045 19046 19047 19048 19049 19050 19051 19052 19053 19054 19055 19056 19057 19058 19059 19060 19061 19062 19063 19064 19065 19066 19067 19068 19069 19070 19071 19072 19073 19074 19075 19076 19077 19078 19079 19080 19081 19082 19083 19084 19085 19086 19087 19088 19089 19090 19091 19092 19093 19094 19095 19096 19097 19098 19099 19100 19101 19102 19103 19104 19105 19106 19107 19108 19109 19110 19111 19112 19113 19114 19115 19116 19117 19118 19119 19120 19121 19122 19123 19124 19125 19126 19127 19128 19129 19130 19131 19132 19133 19134 19135 19136 19137 19138 19139 19140 19141 19142 19143 19144 19145 19146 19147 19148 19149 19150 19151 19152 19153 19154 19155 19156 19157 19158 19159 19160 19161 19162 19163 19164 19165 19166 19167 19168 19169 19170 19171 19172 19173 19174 19175 19176 19177 19178 19179 19180 19181 19182 19183 19184 19185 19186 19187 19188 19189 19190 19191 19192 19193 19194 19195 19196 19197 19198 19199 19200 19201 19202 19203 19204 19205 19206 19207 19208 19209 19210 19211 19212 19213 19214 19215 19216 19217 19218 19219 19220 19221 19222 19223 19224 19225 19226 19227 19228 19229 19230 19231 19232 19233 19234 19235 19236 19237 19238 19239 19240 19241 19242 19243 19244 19245 19246 19247 19248 19249 19250 19251 19252 19253 19254 19255 19256 19257 19258 19259 19260 19261 19262 19263 19264 19265 19266 19267 19268 19269 19270 19271 19272 19273 19274 19275 19276 19277 19278 19279 19280 19281 19282 19283 19284 19285 19286 19287 19288 19289 19290 19291 19292 19293 19294 19295 19296 19297 19298 19299 19300 19301 19302 19303 19304 19305 19306 19307 19308 19309 19310 19311 19312 19313 19314 19315 19316 19317 19318 19319 19320 19321 19322 19323 19324 19325 19326 19327 19328 19329 19330 19331 19332 19333 19334 19335 19336 19337 19338 19339 19340 19341 19342 19343 19344 19345 19346 19347 19348 19349 19350 19351 19352 19353 19354 19355 19356 19357 19358 19359 19360 19361 19362 19363 19364 19365 19366 19367 19368 19369 19370 19371 19372 19373 19374 19375 19376 19377 19378 19379 19380 19381 19382 19383 19384 19385 19386 19387 19388 19389 19390 19391 19392 19393 19394 19395 19396 19397 19398 19399 19400 19401 19402 19403 19404 19405 19406 19407 19408 19409 19410 19411 19412 19413 19414 19415 19416 19417 19418 19419 19420 19421 19422 19423 19424 19425 19426 19427 19428 19429 19430 19431 19432 19433 19434 19435 19436 19437 19438 19439 19440 19441 19442 19443 19444 19445 19446 19447 19448 19449 19450 19451 19452 19453 19454 19455 19456 19457 19458 19459 19460 19461 19462 19463 19464 19465 19466 19467 19468 19469 19470 19471 19472 19473 19474 19475 19476 19477 19478 19479 19480 19481 19482 19483 19484 19485 19486 19487 19488 19489 19490 19491 19492 19493 19494 19495 19496 19497 19498 19499 19500 19501 19502 19503 19504 19505 19506 19507 19508 19509 19510 19511 19512 19513 19514 19515 19516 19517 19518 19519 19520 19521 19522 19523 19524 19525 19526 19527 19528 19529 19530 19531 19532 19533 19534 19535 19536 19537 19538 19539 19540 19541 19542 19543 19544 19545 19546 19547 19548 19549 19550 19551 19552 19553 19554 19555 19556 19557 19558 19559 19560 19561 19562 19563 19564 19565 19566 19567 19568 19569 19570 19571 19572 19573 19574 19575 19576 19577 19578 19579 19580 19581 19582 19583 19584 19585 19586 19587 19588 19589 19590 19591 19592 19593 19594 19595 19596 19597 19598 19599 19600 19601 19602 19603 19604 19605 19606 19607 19608 19609 19610 19611 19612 19613 19614 19615 19616 19617 19618 19619 19620 19621 19622 19623 19624 19625 19626 19627 19628 19629 19630 19631 19632 19633 19634 19635 19636 19637 19638 19639 19640 19641 19642 19643 19644 19645 19646 19647 19648 19649 19650 19651 19652 19653 19654 19655 19656 19657 19658 19659 19660 19661 19662 19663 19664 19665 19666 19667 19668 19669 19670 19671 19672 19673 19674 19675 19676 19677 19678 19679 19680 19681 19682 19683 19684 19685 19686 19687 19688 19689 19690 19691 19692 19693 19694 19695 19696 19697 19698 19699 19700 19701 19702 19703 19704 19705 19706 19707 19708 19709 19710 19711 19712 19713 19714 19715 19716 19717 19718 19719 19720 19721 19722 19723 19724 19725 19726 19727 19728 19729 19730 19731 19732 19733 19734 19735 19736 19737 19738 19739 19740 19741 19742 19743 19744 19745 19746 19747 19748 19749 19750 19751 19752 19753 19754 19755 19756 19757 19758 19759 19760 19761 19762 19763 19764 19765 19766 19767 19768 19769 19770 19771 19772 19773 19774 19775 19776 19777 19778 19779 19780 19781 19782 19783 19784 19785 19786 19787 19788 19789 19790 19791 19792 19793 19794 19795 19796 19797 19798 19799 19800 19801 19802 19803 19804 19805 19806 19807 19808 19809 19810 19811 19812 19813 19814 19815 19816 19817 19818 19819 19820 19821 19822 19823 19824 19825 19826 19827 19828 19829 19830 19831 19832 19833 19834 19835 19836 19837 19838 19839 19840 19841 19842 19843 19844 19845 19846 19847 19848 19849 19850 19851 19852 19853 19854 19855 19856 19857 19858 19859 19860 19861 19862 19863 19864 19865 19866 19867 19868 19869 19870 19871 19872 19873 19874 19875 19876 19877 19878 19879 19880 19881 19882 19883 19884 19885 19886 19887 19888 19889 19890 19891 19892 19893 19894 19895 19896 19897 19898 19899 19900 19901 19902 19903 19904 19905 19906 19907 19908 19909 19910 19911 19912 19913 19914 19915 19916 19917 19918 19919 19920 19921 19922 19923 19924 19925 19926 19927 19928 19929 19930 19931 19932 19933 19934 19935 19936 19937 19938 19939 19940 19941 19942 19943 19944 19945 19946 19947 19948 19949 19950 19951 19952 19953 19954 19955 19956 19957 19958 19959 19960 19961 19962 19963 19964 19965 19966 19967 19968 19969 19970 19971 19972 19973 19974 19975 19976 19977 19978 19979 19980 19981 19982 19983 19984 19985 19986 19987 19988 19989 19990 19991 19992 19993 19994 19995 19996 19997 19998 19999 20000 20001 20002 20003 20004 20005 20006 20007 20008 20009 20010 20011 20012 20013 20014 20015 20016 20017 20018 20019 20020 20021 20022 20023 20024 20025 20026 20027 20028 20029 20030 20031 20032 20033 20034 20035 20036 20037 20038 20039 20040 20041 20042 20043 20044 20045 20046 20047 20048 20049 20050 20051 20052 20053 20054 20055 20056 20057 20058 20059 20060 20061 20062 20063 20064 20065 20066 20067 20068 20069 20070 20071 20072 20073 20074 20075 20076 20077 20078 20079 20080 20081 20082 20083 20084 20085 20086 20087 20088 20089 20090 20091 20092 20093 20094 20095 20096 20097 20098 20099 20100 20101 20102 20103 20104 20105 20106 20107 20108 20109 20110 20111 20112 20113 20114 20115 20116 20117 20118 20119 20120 20121 20122 20123 20124 20125 20126 20127 20128 20129 20130 20131 20132 20133 20134 20135 20136 20137 20138 20139 20140 20141 20142 20143 20144 20145 20146 20147 20148 20149 20150 20151 20152 20153 20154 20155 20156 20157 20158 20159 20160 20161 20162 20163 20164 20165 20166 20167 20168 20169 20170 20171 20172 20173 20174 20175 20176 20177 20178 20179 20180 20181 20182 20183 20184 20185 20186 20187 20188 20189 20190 20191 20192 20193 20194 20195 20196 20197 20198 20199 20200 20201 20202 20203 20204 20205 20206 20207 20208 20209 20210 20211 20212 20213 20214 20215 20216 20217 20218 20219 20220 20221 20222 20223 20224 20225 20226 20227 20228 20229 20230 20231 20232 20233 20234 20235 20236 20237 20238 20239 20240 20241 20242 20243 20244 20245 20246 20247 20248 20249 20250 20251 20252 20253 20254 20255 20256 20257 20258 20259 20260 20261 20262 20263 20264 20265 20266 20267 20268 20269 20270 20271 20272 20273 20274 20275 20276 20277 20278 20279 20280 20281 20282 20283 20284 20285 20286 20287 20288 20289 20290 20291 20292 20293 20294 20295 20296 20297 20298 20299 20300 20301 20302 20303 20304 20305 20306 20307 20308 20309 20310 20311 20312 20313 20314 20315 20316 20317 20318 20319 20320 20321 20322 20323 20324 20325 20326 20327 20328 20329 20330 20331 20332 20333 20334 20335 20336 20337 20338 20339 20340 20341 20342 20343 20344 20345 20346 20347 20348 20349 20350 20351 20352 20353 20354 20355 20356 20357 20358 20359 20360 20361 20362 20363 20364 20365 20366 20367 20368 20369 20370 20371 20372 20373 20374 20375 20376 20377 20378 20379 20380 20381 20382 20383 20384 20385 20386 20387 20388 20389 20390 20391 20392 20393 20394 20395 20396 20397 20398 20399 20400 20401 20402 20403 20404 20405 20406 20407 20408 20409 20410 20411 20412 20413 20414 20415 20416 20417 20418 20419 20420 20421 20422 20423 20424 20425 20426 20427 20428 20429 20430 20431 20432 20433 20434 20435 20436 20437 20438 20439 20440 20441 20442 20443 20444 20445 20446 20447 20448 20449 20450 20451 20452 20453 20454 20455 20456 20457 20458 20459 20460 20461 20462 20463 20464 20465 20466 20467 20468 20469 20470 20471 20472 20473 20474 20475 20476 20477 20478 20479 20480 20481 20482 20483 20484 20485 20486 20487 20488 20489 20490 20491 20492 20493 20494 20495 20496 20497 20498 20499 20500 20501 20502 20503 20504 20505 20506 20507 20508 20509 20510 20511 20512 20513 20514 20515 20516 20517 20518 20519 20520 20521 20522 20523 20524 20525 20526 20527 20528 20529 20530 20531 20532 20533 20534 20535 20536 20537 20538 20539 20540 20541 20542 20543 20544 20545 20546 20547 20548 20549 20550 20551 20552 20553 20554 20555 20556 20557 20558 20559 20560 20561 20562 20563 20564 20565 20566 20567 20568 20569 20570 20571 20572 20573 20574 20575 20576 20577 20578 20579 20580 20581 20582 20583 20584 20585 20586 20587 20588 20589 20590 20591 20592 20593 20594 20595 20596 20597 20598 20599 20600 20601 20602 20603 20604 20605 20606 20607 20608 20609 20610 20611 20612 20613 20614 20615 20616 20617 20618 20619 20620 20621 20622 20623 20624 20625 20626 20627 20628 20629 20630 20631 20632 20633 20634 20635 20636 20637 20638 20639 20640 20641 20642 20643 20644 20645 20646 20647 20648 20649 20650 20651 20652 20653 20654 20655 20656 20657 20658 20659 20660 20661 20662 20663 20664 20665 20666 20667 20668 20669 20670 20671 20672 20673 20674 20675 20676 20677 20678 20679 20680 20681 20682 20683 20684 20685 20686 20687 20688 20689 20690 20691 20692 20693 20694 20695 20696 20697 20698 20699 20700 20701 20702 20703 20704 20705 20706 20707 20708 20709 20710 20711 20712 20713 20714 20715 20716 20717 20718 20719 20720 20721 20722 20723 20724 20725 20726 20727 20728 20729 20730 20731 20732 20733 20734 20735 20736 20737 20738 20739 20740 20741 20742 20743 20744 20745 20746 20747 20748 20749 20750 20751 20752 20753 20754 20755 20756 20757 20758 20759 20760 20761 20762 20763 20764 20765 20766 20767 20768 20769 20770 20771 20772 20773 20774 20775 20776 20777 20778 20779 20780 20781 20782 20783 20784 20785 20786 20787 20788 20789 20790 20791 20792 20793 20794 20795 20796 20797 20798 20799 20800 20801 20802 20803 20804 20805 20806 20807 20808 20809 20810 20811 20812 20813 20814 20815 20816 20817 20818 20819 20820 20821 20822 20823 20824 20825 20826 20827 20828 20829 20830 20831 20832 20833 20834 20835 20836 20837 20838 20839 20840 20841 20842 20843 20844 20845 20846 20847 20848 20849 20850 20851 20852 20853 20854 20855 20856 20857 20858 20859 20860 20861 20862 20863 20864 20865 20866 20867 20868 20869 20870 20871 20872 20873 20874 20875 20876 20877 20878 20879 20880 20881 20882 20883 20884 20885 20886 20887 20888 20889 20890 20891 20892 20893 20894 20895 20896 20897 20898 20899 20900 20901 20902 20903 20904 20905 20906 20907 20908 20909 20910 20911 20912 20913 20914 20915 20916 20917 20918 20919 20920 20921 20922 20923 20924 20925 20926 20927 20928 20929 20930 20931 20932 20933 20934 20935 20936 20937 20938 20939 20940 20941 20942 20943 20944 20945 20946 20947 20948 20949 20950 20951 20952 20953 20954 20955 20956 20957 20958 20959 20960 20961 20962 20963 20964 20965 20966 20967 20968 20969 20970 20971 20972 20973 20974 20975 20976 20977 20978 20979 20980 20981 20982 20983 20984 20985 20986 20987 20988 20989 20990 20991 20992 20993 20994 20995 20996 20997 20998 20999 21000 21001 21002 21003 21004 21005 21006 21007 21008 21009 21010 21011 21012 21013 21014 21015 21016 21017 21018 21019 21020 21021 21022 21023 21024 21025 21026 21027 21028 21029 21030 21031 21032 21033 21034 21035 21036 21037 21038 21039 21040 21041 21042 21043 21044 21045 21046 21047 21048 21049 21050 21051 21052 21053 21054 21055 21056 21057 21058 21059 21060 21061 21062 21063 21064 21065 21066 21067 21068 21069 21070 21071 21072 21073 21074 21075 21076 21077 21078 21079 21080 21081 21082 21083 21084 21085 21086 21087 21088 21089 21090 21091 21092 21093 21094 21095 21096 21097 21098 21099 21100 21101 21102 21103 21104 21105 21106 21107 21108 21109 21110 21111 21112 21113 21114 21115 21116 21117 21118 21119 21120 21121 21122 21123 21124 21125 21126 21127 21128 21129 21130 21131 21132 21133 21134 21135 21136 21137 21138 21139 21140 21141 21142 21143 21144 21145 21146 21147 21148 21149 21150 21151 21152 21153 21154 21155 21156 21157 21158 21159 21160 21161 21162 21163 21164 21165 21166 21167 21168 21169 21170 21171 21172 21173 21174 21175 21176 21177 21178 21179 21180 21181 21182 21183 21184 21185 21186 21187 21188 21189 21190 21191 21192 21193 21194 21195 21196 21197 21198 21199 21200 21201 21202 21203 21204 21205 21206 21207 21208 21209 21210 21211 21212 21213 21214 21215 21216 21217 21218 21219 21220 21221 21222 21223 21224 21225 21226 21227 21228 21229 21230 21231 21232 21233 21234 21235 21236 21237 21238 21239 21240 21241 21242 21243 21244 21245 21246 21247 21248 21249 21250 21251 21252 21253 21254 21255 21256 21257 21258 21259 21260 21261 21262 21263 21264 21265 21266 21267 21268 21269 21270 21271 21272 21273 21274 21275 21276 21277 21278 21279 21280 21281 21282 21283 21284 21285 21286 21287 21288 21289 21290 21291 21292 21293 21294 21295 21296 21297 21298 21299 21300 21301 21302 21303 21304 21305 21306 21307 21308 21309 21310 21311 21312 21313 21314 21315 21316 21317 21318 21319 21320 21321 21322 21323 21324 21325 21326 21327 21328 21329 21330 21331 21332 21333 21334 21335 21336 21337 21338 21339 21340 21341 21342 21343 21344 21345 21346 21347 21348 21349 21350 21351 21352 21353 21354 21355 21356 21357 21358 21359 21360 21361 21362 21363 21364 21365 21366 21367 21368 21369 21370 21371 21372 21373 21374 21375 21376 21377 21378 21379 21380 21381 21382 21383 21384 21385 21386 21387 21388 21389 21390 21391 21392 21393 21394 21395 21396 21397 21398 21399 21400 21401 21402 21403 21404 21405 21406 21407 21408 21409 21410 21411 21412 21413 21414 21415 21416 21417 21418 21419 21420 21421 21422 21423 21424 21425 21426 21427 21428 21429 21430 21431 21432 21433 21434 21435 21436 21437 21438 21439 21440 21441 21442 21443 21444 21445 21446 21447 21448 21449 21450 21451 21452 21453 21454 21455 21456 21457 21458 21459 21460 21461 21462 21463 21464 21465 21466 21467 21468 21469 21470 21471 21472 21473 21474 21475 21476 21477 21478 21479 21480 21481 21482 21483 21484 21485 21486 21487 21488 21489 21490 21491 21492 21493 21494 21495 21496 21497 21498 21499 21500 21501 21502 21503 21504 21505 21506 21507 21508 21509 21510 21511 21512 21513 21514 21515 21516 21517 21518 21519 21520 21521 21522 21523 21524 21525 21526 21527 21528 21529 21530 21531 21532 21533 21534 21535 21536 21537 21538 21539 21540 21541 21542 21543 21544 21545 21546 21547 21548 21549 21550 21551 21552 21553 21554 21555 21556 21557 21558 21559 21560 21561 21562 21563 21564 21565 21566 21567 21568 21569 21570 21571 21572 21573 21574 21575 21576 21577 21578 21579 21580 21581 21582 21583 21584 21585 21586 21587 21588 21589 21590 21591 21592 21593 21594 21595 21596 21597 21598 21599 21600 21601 21602 21603 21604 21605 21606 21607 21608 21609 21610 21611 21612 21613 21614 21615 21616 21617 21618 21619 21620 21621 21622 21623 21624 21625 21626 21627 21628 21629 21630 21631 21632 21633 21634 21635 21636 21637 21638 21639 21640 21641 21642 21643 21644 21645 21646 21647 21648 21649 21650 21651 21652 21653 21654 21655 21656 21657 21658 21659 21660 21661 21662 21663 21664 21665 21666 21667 21668 21669 21670 21671 21672 21673 21674 21675 21676 21677 21678 21679 21680 21681 21682 21683 21684 21685 21686 21687 21688 21689 21690 21691 21692 21693 21694 21695 21696 21697 21698 21699 21700 21701 21702 21703 21704 21705 21706 21707 21708 21709 21710 21711 21712 21713 21714 21715 21716 21717 21718 21719 21720 21721 21722 21723 21724 21725 21726 21727 21728 21729 21730 21731 21732 21733 21734 21735 21736 21737 21738 21739 21740 21741 21742 21743 21744 21745 21746 21747 21748 21749 21750 21751 21752 21753 21754 21755 21756 21757 21758 21759 21760 21761 21762 21763 21764 21765 21766 21767 21768 21769 21770 21771 21772 21773 21774 21775 21776 21777 21778 21779 21780 21781 21782 21783 21784 21785 21786 21787 21788 21789 21790 21791 21792 21793 21794 21795 21796 21797 21798 21799 21800 21801 21802 21803 21804 21805 21806 21807 21808 21809 21810 21811 21812 21813 21814 21815 21816 21817 21818 21819 21820 21821 21822 21823 21824 21825 21826 21827 21828 21829 21830 21831 21832 21833 21834 21835 21836 21837 21838 21839 21840 21841 21842 21843 21844 21845 21846 21847 21848 21849 21850 21851 21852 21853 21854 21855 21856 21857 21858 21859 21860 21861 21862 21863 21864 21865 21866 21867 21868 21869 21870 21871 21872 21873 21874 21875 21876 21877 21878 21879 21880 21881 21882 21883 21884 21885 21886 21887 21888 21889 21890 21891 21892 21893 21894 21895 21896 21897 21898 21899 21900 21901 21902 21903 21904 21905 21906 21907 21908 21909 21910 21911 21912 21913 21914 21915 21916 21917 21918 21919 21920 21921 21922 21923 21924 21925 21926 21927 21928 21929 21930 21931 21932 21933 21934 21935 21936 21937 21938 21939 21940 21941 21942 21943 21944 21945 21946 21947 21948 21949 21950 21951 21952 21953 21954 21955 21956 21957 21958 21959 21960 21961 21962 21963 21964 21965 21966 21967 21968 21969 21970 21971 21972 21973 21974 21975 21976 21977 21978 21979 21980 21981 21982 21983 21984 21985 21986 21987 21988 21989 21990 21991 21992 21993 21994 21995 21996 21997 21998 21999 22000 22001 22002 22003 22004 22005 22006 22007 22008 22009 22010 22011 22012 22013 22014 22015 22016 22017 22018 22019 22020 22021 22022 22023 22024 22025 22026 22027 22028 22029 22030 22031 22032 22033 22034 22035 22036 22037 22038 22039 22040 22041 22042 22043 22044 22045 22046 22047 22048 22049 22050 22051 22052 22053 22054 22055 22056 22057 22058 22059 22060 22061 22062 22063 22064 22065 22066 22067 22068 22069 22070 22071 22072 22073 22074 22075 22076 22077 22078 22079 22080 22081 22082 22083 22084 22085 22086 22087 22088 22089 22090 22091 22092 22093 22094 22095 22096 22097 22098 22099 22100 22101 22102 22103 22104 22105 22106 22107 22108 22109 22110 22111 22112 22113 22114 22115 22116 22117 22118 22119 22120 22121 22122 22123 22124 22125 22126 22127 22128 22129 22130 22131 22132 22133 22134 22135 22136 22137 22138 22139 22140 22141 22142 22143 22144 22145 22146 22147 22148 22149 22150 22151 22152 22153 22154 22155 22156 22157 22158 22159 22160 22161 22162 22163 22164 22165 22166 22167 22168 22169 22170 22171 22172 22173 22174 22175 22176 22177 22178 22179 22180 22181 22182 22183 22184 22185 22186 22187 22188 22189 22190 22191 22192 22193 22194 22195 22196 22197 22198 22199 22200 22201 22202 22203 22204 22205 22206 22207 22208 22209 22210 22211 22212 22213 22214 22215 22216 22217 22218 22219 22220 22221 22222 22223 22224 22225 22226 22227 22228 22229 22230 22231 22232 22233 22234 22235 22236 22237 22238 22239 22240 22241 22242 22243 22244 22245 22246 22247 22248 22249 22250 22251 22252 22253 22254 22255 22256 22257 22258 22259 22260 22261 22262 22263 22264 22265 22266 22267 22268 22269 22270 22271 22272 22273 22274 22275 22276 22277 22278 22279 22280 22281 22282 22283 22284 22285 22286 22287 22288 22289 22290 22291 22292 22293 22294 22295 22296 22297 22298 22299 22300 22301 22302 22303 22304 22305 22306 22307 22308 22309 22310 22311 22312 22313 22314 22315 22316 22317 22318 22319 22320 22321 22322 22323 22324 22325 22326 22327 22328 22329 22330 22331 22332 22333 22334 22335 22336 22337 22338 22339 22340 22341 22342 22343 22344 22345 22346 22347 22348 22349 22350 22351 22352 22353 22354 22355 22356 22357 22358 22359 22360 22361 22362 22363 22364 22365 22366 22367 22368 22369 22370 22371 22372 22373 22374 22375 22376 22377 22378 22379 22380 22381 22382 22383 22384 22385 22386 22387 22388 22389 22390 22391 22392 22393 22394 22395 22396 22397 22398 22399 22400 22401 22402 22403 22404 22405 22406 22407 22408 22409 22410 22411 22412 22413 22414 22415 22416 22417 22418 22419 22420 22421 22422 22423 22424 22425 22426 22427 22428 22429 22430 22431 22432 22433 22434 22435 22436 22437 22438 22439 22440 22441 22442 22443 22444 22445 22446 22447 22448 22449 22450 22451 22452 22453 22454 22455 22456 22457 22458 22459 22460 22461 22462 22463 22464 22465 22466 22467 22468 22469 22470 22471 22472 22473 22474 22475 22476 22477 22478 22479 22480 22481 22482 22483 22484 22485 22486 22487 22488 22489 22490 22491 22492 22493 22494 22495 22496 22497 22498 22499 22500 22501 22502 22503 22504 22505 22506 22507 22508 22509 22510 22511 22512 22513 22514 22515 22516 22517 22518 22519 22520 22521 22522 22523 22524 22525 22526 22527 22528 22529 22530 22531 22532 22533 22534 22535 22536 22537 22538 22539 22540 22541 22542 22543 22544 22545 22546 22547 22548 22549 22550 22551 22552 22553 22554 22555 22556 22557 22558 22559 22560 22561 22562 22563 22564 22565 22566 22567 22568 22569 22570 22571 22572 22573 22574 22575 22576 22577 22578 22579 22580 22581 22582 22583 22584 22585 22586 22587 22588 22589 22590 22591 22592 22593 22594 22595 22596 22597 22598 22599 22600 22601 22602 22603 22604 22605 22606 22607 22608 22609 22610 22611 22612 22613 22614 22615 22616 22617 22618 22619 22620 22621 22622 22623 22624 22625 22626 22627 22628 22629 22630 22631 22632 22633 22634 22635 22636 22637 22638 22639 22640 22641 22642 22643 22644 22645 22646 22647 22648 22649 22650 22651 22652 22653 22654 22655 22656 22657 22658 22659 22660 22661 22662 22663 22664 22665 22666 22667 22668 22669 22670 22671 22672 22673 22674 22675 22676 22677 22678 22679 22680 22681 22682 22683 22684 22685 22686 22687 22688 22689 22690 22691 22692 22693 22694 22695 22696 22697 22698 22699 22700 22701 22702 22703 22704 22705 22706 22707 22708 22709 22710 22711 22712 22713 22714 22715 22716 22717 22718 22719 22720 22721 22722 22723 22724 22725 22726 22727 22728 22729 22730 22731 22732 22733 22734 22735 22736 22737 22738 22739 22740 22741 22742 22743 22744 22745 22746 22747 22748 22749 22750 22751 22752 22753 22754 22755 22756 22757 22758 22759 22760 22761 22762 22763 22764 22765 22766 22767 22768 22769 22770 22771 22772 22773 22774 22775 22776 22777 22778 22779 22780 22781 22782 22783 22784 22785 22786 22787 22788 22789 22790 22791 22792 22793 22794 22795 22796 22797 22798 22799 22800 22801 22802 22803 22804 22805 22806 22807 22808 22809 22810 22811 22812 22813 22814 22815 22816 22817 22818 22819 22820 22821 22822 22823 22824 22825 22826 22827 22828 22829 22830 22831 22832 22833 22834 22835 22836 22837 22838 22839 22840 22841 22842 22843 22844 22845 22846 22847 22848 22849 22850 22851 22852 22853 22854 22855 22856 22857 22858 22859 22860 22861 22862 22863 22864 22865 22866 22867 22868 22869 22870 22871 22872 22873 22874 22875 22876 22877 22878 22879 22880 22881 22882 22883 22884 22885 22886 22887 22888 22889 22890 22891 22892 22893 22894 22895 22896 22897 22898 22899 22900 22901 22902 22903 22904 22905 22906 22907 22908 22909 22910 22911 22912 22913 22914 22915 22916 22917 22918 22919 22920 22921 22922 22923 22924 22925 22926 22927 22928 22929 22930 22931 22932 22933 22934 22935 22936 22937 22938 22939 22940 22941 22942 22943 22944 22945 22946 22947 22948 22949 22950 22951 22952 22953 22954 22955 22956 22957 22958 22959 22960 22961 22962 22963 22964 22965 22966 22967 22968 22969 22970 22971 22972 22973 22974 22975 22976 22977 22978 22979 22980 22981 22982 22983 22984 22985 22986 22987 22988 22989 22990 22991 22992 22993 22994 22995 22996 22997 22998 22999 23000 23001 23002 23003 23004 23005 23006 23007 23008 23009 23010 23011 23012 23013 23014 23015 23016 23017 23018 23019 23020 23021 23022 23023 23024 23025 23026 23027 23028 23029 23030 23031 23032 23033 23034 23035 23036 23037 23038 23039 23040 23041 23042 23043 23044 23045 23046 23047 23048 23049 23050 23051 23052 23053 23054 23055 23056 23057 23058 23059 23060 23061 23062 23063 23064 23065 23066 23067 23068 23069 23070 23071 23072 23073 23074 23075 23076 23077 23078 23079 23080 23081 23082 23083 23084 23085 23086 23087 23088 23089 23090 23091 23092 23093 23094 23095 23096 23097 23098 23099 23100 23101 23102 23103 23104 23105 23106 23107 23108 23109 23110 23111 23112 23113 23114 23115 23116 23117 23118 23119 23120 23121 23122 23123 23124 23125 23126 23127 23128 23129 23130 23131 23132 23133 23134 23135 23136 23137 23138 23139 23140 23141 23142 23143 23144 23145 23146 23147 23148 23149 23150 23151 23152 23153 23154 23155 23156 23157 23158 23159 23160 23161 23162 23163 23164 23165 23166 23167 23168 23169 23170 23171 23172 23173 23174 23175 23176 23177 23178 23179 23180 23181 23182 23183 23184 23185 23186 23187 23188 23189 23190 23191 23192 23193 23194 23195 23196 23197 23198 23199 23200 23201 23202 23203 23204 23205 23206 23207 23208 23209 23210 23211 23212 23213 23214 23215 23216 23217 23218 23219 23220 23221 23222 23223 23224 23225 23226 23227 23228 23229 23230 23231 23232 23233 23234 23235 23236 23237 23238 23239 23240 23241 23242 23243 23244 23245 23246 23247 23248 23249 23250 23251 23252 23253 23254 23255 23256 23257 23258 23259 23260 23261 23262 23263 23264 23265 23266 23267 23268 23269 23270 23271 23272 23273 23274 23275 23276 23277 23278 23279 23280 23281 23282 23283 23284 23285 23286 23287 23288 23289 23290 23291 23292 23293 23294 23295 23296 23297 23298 23299 23300 23301 23302 23303 23304 23305 23306 23307 23308 23309 23310 23311 23312 23313 23314 23315 23316 23317 23318 23319 23320 23321 23322 23323 23324 23325 23326 23327 23328 23329 23330 23331 23332 23333 23334 23335 23336 23337 23338 23339 23340 23341 23342 23343 23344 23345 23346 23347 23348 23349 23350 23351 23352 23353 23354 23355 23356 23357 23358 23359 23360 23361 23362 23363 23364 23365 23366 23367 23368 23369 23370 23371 23372 23373 23374 23375 23376 23377 23378 23379 23380 23381 23382 23383 23384 23385 23386 23387 23388 23389 23390 23391 23392 23393 23394 23395 23396 23397 23398 23399 23400 23401 23402 23403 23404 23405 23406 23407 23408 23409 23410 23411 23412 23413 23414 23415 23416 23417 23418 23419 23420 23421 23422 23423 23424 23425 23426 23427 23428 23429 23430 23431 23432 23433 23434 23435 23436 23437 23438 23439 23440 23441 23442 23443 23444 23445 23446 23447 23448 23449 23450 23451 23452 23453 23454 23455 23456 23457 23458 23459 23460 23461 23462 23463 23464 23465 23466 23467 23468 23469 23470 23471 23472 23473 23474 23475 23476 23477 23478 23479 23480 23481 23482 23483 23484 23485 23486 23487 23488 23489 23490 23491 23492 23493 23494 23495 23496 23497 23498 23499 23500 23501 23502 23503 23504 23505 23506 23507 23508 23509 23510 23511 23512 23513 23514 23515 23516 23517 23518 23519 23520 23521 23522 23523 23524 23525 23526 23527 23528 23529 23530 23531 23532 23533 23534 23535 23536 23537 23538 23539 23540 23541 23542 23543 23544 23545 23546 23547 23548 23549 23550 23551 23552 23553 23554 23555 23556 23557 23558 23559 23560 23561 23562 23563 23564 23565 23566 23567 23568 23569 23570 23571 23572 23573 23574 23575 23576 23577 23578 23579 23580 23581 23582 23583 23584 23585 23586 23587 23588 23589 23590 23591 23592 23593 23594 23595 23596 23597 23598 23599 23600 23601 23602 23603 23604 23605 23606 23607 23608 23609 23610 23611 23612 23613 23614 23615 23616 23617 23618 23619 23620 23621 23622 23623 23624 23625 23626 23627 23628 23629 23630 23631 23632 23633 23634 23635 23636 23637 23638 23639 23640 23641 23642 23643 23644 23645 23646 23647 23648 23649 23650 23651 23652 23653 23654 23655 23656 23657 23658 23659 23660 23661 23662 23663 23664 23665 23666 23667 23668 23669 23670 23671 23672 23673 23674 23675 23676 23677 23678 23679 23680 23681 23682 23683 23684 23685 23686 23687 23688 23689 23690 23691 23692 23693 23694 23695 23696 23697 23698 23699 23700 23701 23702 23703 23704 23705 23706 23707 23708 23709 23710 23711 23712 23713 23714 23715 23716 23717 23718 23719 23720 23721 23722 23723 23724 23725 23726 23727 23728 23729 23730 23731 23732 23733 23734 23735 23736 23737 23738 23739 23740 23741 23742 23743 23744 23745 23746 23747 23748 23749 23750 23751 23752 23753 23754 23755 23756 23757 23758 23759 23760 23761 23762 23763 23764 23765 23766 23767 23768 23769 23770 23771 23772 23773 23774 23775 23776 23777 23778 23779 23780 23781 23782 23783 23784 23785 23786 23787 23788 23789 23790 23791 23792 23793 23794 23795 23796 23797 23798 23799 23800 23801 23802 23803 23804 23805 23806 23807 23808 23809 23810 23811 23812 23813 23814 23815 23816 23817 23818 23819 23820 23821 23822 23823 23824 23825 23826 23827 23828 23829 23830 23831 23832 23833 23834 23835 23836 23837 23838 23839 23840 23841 23842 23843 23844 23845 23846 23847 23848 23849 23850 23851 23852 23853 23854 23855 23856 23857 23858 23859 23860 23861 23862 23863 23864 23865 23866 23867 23868 23869 23870 23871 23872 23873 23874 23875 23876 23877 23878 23879 23880 23881 23882 23883 23884 23885 23886 23887 23888 23889 23890 23891 23892 23893 23894 23895 23896 23897 23898 23899 23900 23901 23902 23903 23904 23905 23906 23907 23908 23909 23910 23911 23912 23913 23914 23915 23916 23917 23918 23919 23920 23921 23922 23923 23924 23925 23926 23927 23928 23929 23930 23931 23932 23933 23934 23935 23936 23937 23938 23939 23940 23941 23942 23943 23944 23945 23946 23947 23948 23949 23950 23951 23952 23953 23954 23955 23956 23957 23958 23959 23960 23961 23962 23963 23964 23965 23966 23967 23968 23969 23970 23971 23972 23973 23974 23975 23976 23977 23978 23979 23980 23981 23982 23983 23984 23985 23986 23987 23988 23989 23990 23991 23992 23993 23994 23995 23996 23997 23998 23999 24000 24001 24002 24003 24004 24005 24006 24007 24008 24009 24010 24011 24012 24013 24014 24015 24016 24017 24018 24019 24020 24021 24022 24023 24024 24025 24026 24027 24028 24029 24030 24031 24032 24033 24034 24035 24036 24037 24038 24039 24040 24041 24042 24043 24044 24045 24046 24047 24048 24049 24050 24051 24052 24053 24054 24055 24056 24057 24058 24059 24060 24061 24062 24063 24064 24065 24066 24067 24068 24069 24070 24071 24072 24073 24074 24075 24076 24077 24078 24079 24080 24081 24082 24083 24084 24085 24086 24087 24088 24089 24090 24091 24092 24093 24094 24095 24096 24097 24098 24099 24100 24101 24102 24103 24104 24105 24106 24107 24108 24109 24110 24111 24112 24113 24114 24115 24116 24117 24118 24119 24120 24121 24122 24123 24124 24125 24126 24127 24128 24129 24130 24131 24132 24133 24134 24135 24136 24137 24138 24139 24140 24141 24142 24143 24144 24145 24146 24147 24148 24149 24150 24151 24152 24153 24154 24155 24156 24157 24158 24159 24160 24161 24162 24163 24164 24165 24166 24167 24168 24169 24170 24171 24172 24173 24174 24175 24176 24177 24178 24179 24180 24181 24182 24183 24184 24185 24186 24187 24188 24189 24190 24191 24192 24193 24194 24195 24196 24197 24198 24199 24200 24201 24202 24203 24204 24205 24206 24207 24208 24209 24210 24211 24212 24213 24214 24215 24216 24217 24218 24219 24220 24221 24222 24223 24224 24225 24226 24227 24228 24229 24230 24231 24232 24233 24234 24235 24236 24237 24238 24239 24240 24241 24242 24243 24244 24245 24246 24247 24248 24249 24250 24251 24252 24253 24254 24255 24256 24257 24258 24259 24260 24261 24262 24263 24264 24265 24266 24267 24268 24269 24270 24271 24272 24273 24274 24275 24276 24277 24278 24279 24280 24281 24282 24283 24284 24285 24286 24287 24288 24289 24290 24291 24292 24293 24294 24295 24296 24297 24298 24299 24300 24301 24302 24303 24304 24305 24306 24307 24308 24309 24310 24311 24312 24313 24314 24315 24316 24317 24318 24319 24320 24321 24322 24323 24324 24325 24326 24327 24328 24329 24330 24331 24332 24333 24334 24335 24336 24337 24338 24339 24340 24341 24342 24343 24344 24345 24346 24347 24348 24349 24350 24351 24352 24353 24354 24355 24356 24357 24358 24359 24360 24361 24362 24363 24364 24365 24366 24367 24368 24369 24370 24371 24372 24373 24374 24375 24376 24377 24378 24379 24380 24381 24382 24383 24384 24385 24386 24387 24388 24389 24390 24391 24392 24393 24394 24395 24396 24397 24398 24399 24400 24401 24402 24403 24404 24405 24406 24407 24408 24409 24410 24411 24412 24413 24414 24415 24416 24417 24418 24419 24420 24421 24422 24423 24424 24425 24426 24427 24428 24429 24430 24431 24432 24433 24434 24435 24436 24437 24438 24439 24440 24441 24442 24443 24444 24445 24446 24447 24448 24449 24450 24451 24452 24453 24454 24455 24456 24457 24458 24459 24460 24461 24462 24463 24464 24465 24466 24467 24468 24469 24470 24471 24472 24473 24474 24475 24476 24477 24478 24479 24480 24481 24482 24483 24484 24485 24486 24487 24488 24489 24490 24491 24492 24493 24494 24495 24496 24497 24498 24499 24500 24501 24502 24503 24504 24505 24506 24507 24508 24509 24510 24511 24512 24513 24514 24515 24516 24517 24518 24519 24520 24521 24522 24523 24524 24525 24526 24527 24528 24529 24530 24531 24532 24533 24534 24535 24536 24537 24538 24539 24540 24541 24542 24543 24544 24545 24546 24547 24548 24549 24550 24551 24552 24553 24554 24555 24556 24557 24558 24559 24560 24561 24562 24563 24564 24565 24566 24567 24568 24569 24570 24571 24572 24573 24574 24575 24576 24577 24578 24579 24580 24581 24582 24583 24584 24585 24586 24587 24588 24589 24590 24591 24592 24593 24594 24595 24596 24597 24598 24599 24600 24601 24602 24603 24604 24605 24606 24607 24608 24609 24610 24611 24612 24613 24614 24615 24616 24617 24618 24619 24620 24621 24622 24623 24624 24625 24626 24627 24628 24629 24630 24631 24632 24633 24634 24635 24636 24637 24638 24639 24640 24641 24642 24643 24644 24645 24646 24647 24648 24649 24650 24651 24652 24653 24654 24655 24656 24657 24658 24659 24660 24661 24662 24663 24664 24665 24666 24667 24668 24669 24670 24671 24672 24673 24674 24675 24676 24677 24678 24679 24680 24681 24682 24683 24684 24685 24686 24687 24688 24689 24690 24691 24692 24693 24694 24695 24696 24697 24698 24699 24700 24701 24702 24703 24704 24705 24706 24707 24708 24709 24710 24711 24712 24713 24714 24715 24716 24717 24718 24719 24720 24721 24722 24723 24724 24725 24726 24727 24728 24729 24730 24731 24732 24733 24734 24735 24736 24737 24738 24739 24740 24741 24742 24743 24744 24745 24746 24747 24748 24749 24750 24751 24752 24753 24754 24755 24756 24757 24758 24759 24760 24761 24762 24763 24764 24765 24766 24767 24768 24769 24770 24771 24772 24773 24774 24775 24776 24777 24778 24779 24780 24781 24782 24783 24784 24785 24786 24787 24788 24789 24790 24791 24792 24793 24794 24795 24796 24797 24798 24799 24800 24801 24802 24803 24804 24805 24806 24807 24808 24809 24810 24811 24812 24813 24814 24815 24816 24817 24818 24819 24820 24821 24822 24823 24824 24825 24826 24827 24828 24829 24830 24831 24832 24833 24834 24835 24836 24837 24838 24839 24840 24841 24842 24843 24844 24845 24846 24847 24848 24849 24850 24851 24852 24853 24854 24855 24856 24857 24858 24859 24860 24861 24862 24863 24864 24865 24866 24867 24868 24869 24870 24871 24872 24873 24874 24875 24876 24877 24878 24879 24880 24881 24882 24883 24884 24885 24886 24887 24888 24889 24890 24891 24892 24893 24894 24895 24896 24897 24898 24899 24900 24901 24902 24903 24904 24905 24906 24907 24908 24909 24910 24911 24912 24913 24914 24915 24916 24917 24918 24919 24920 24921 24922 24923 24924 24925 24926 24927 24928 24929 24930 24931 24932 24933 24934 24935 24936 24937 24938 24939 24940 24941 24942 24943 24944 24945 24946 24947 24948 24949 24950 24951 24952 24953 24954 24955 24956 24957 24958 24959 24960 24961 24962 24963 24964 24965 24966 24967 24968 24969 24970 24971 24972 24973 24974 24975 24976 24977 24978 24979 24980 24981 24982 24983 24984 24985 24986 24987 24988 24989 24990 24991 24992 24993 24994 24995 24996 24997 24998 24999 25000 25001 25002 25003 25004 25005 25006 25007 25008 25009 25010 25011 25012 25013 25014 25015 25016 25017 25018 25019 25020 25021 25022 25023 25024 25025 25026 25027 25028 25029 25030 25031 25032 25033 25034 25035 25036 25037 25038 25039 25040 25041 25042 25043 25044 25045 25046 25047 25048 25049 25050 25051 25052 25053 25054 25055 25056 25057 25058 25059 25060 25061 25062 25063 25064 25065 25066 25067 25068 25069 25070 25071 25072 25073 25074 25075 25076 25077 25078 25079 25080 25081 25082 25083 25084 25085 25086 25087 25088 25089 25090 25091 25092 25093 25094 25095 25096 25097 25098 25099 25100 25101 25102 25103 25104 25105 25106 25107 25108 25109 25110 25111 25112 25113 25114 25115 25116 25117 25118 25119 25120 25121 25122 25123 25124 25125 25126 25127 25128 25129 25130 25131 25132 25133 25134 25135 25136 25137 25138 25139 25140 25141 25142 25143 25144 25145 25146 25147 25148 25149 25150 25151 25152 25153 25154 25155 25156 25157 25158 25159 25160 25161 25162 25163 25164 25165 25166 25167 25168 25169 25170 25171 25172 25173 25174 25175 25176 25177 25178 25179 25180 25181 25182 25183 25184 25185 25186 25187 25188 25189 25190 25191 25192 25193 25194 25195 25196 25197 25198 25199 25200 25201 25202 25203 25204 25205 25206 25207 25208 25209 25210 25211 25212 25213 25214 25215 25216 25217 25218 25219 25220 25221 25222 25223 25224 25225 25226 25227 25228 25229 25230 25231 25232 25233 25234 25235 25236 25237 25238 25239 25240 25241 25242 25243 25244 25245 25246 25247 25248 25249 25250 25251 25252 25253 25254 25255 25256 25257 25258 25259 25260 25261 25262 25263 25264 25265 25266 25267 25268 25269 25270 25271 25272 25273 25274 25275 25276 25277 25278 25279 25280 25281 25282 25283 25284 25285 25286 25287 25288 25289 25290 25291 25292 25293 25294 25295 25296 25297 25298 25299 25300 25301 25302 25303 25304 25305 25306 25307 25308 25309 25310 25311 25312 25313 25314 25315 25316 25317 25318 25319 25320 25321 25322 25323 25324 25325 25326 25327 25328 25329 25330 25331 25332 25333 25334 25335 25336 25337 25338 25339 25340 25341 25342 25343 25344 25345 25346 25347 25348 25349 25350 25351 25352 25353 25354 25355 25356 25357 25358 25359 25360 25361 25362 25363 25364 25365 25366 25367 25368 25369 25370 25371 25372 25373 25374 25375 25376 25377 25378 25379 25380 25381 25382 25383 25384 25385 25386 25387 25388 25389 25390 25391 25392 25393 25394 25395 25396 25397 25398 25399 25400 25401 25402 25403 25404 25405 25406 25407 25408 25409 25410 25411 25412 25413 25414 25415 25416 25417 25418 25419 25420 25421 25422 25423 25424 25425 25426 25427 25428 25429 25430 25431 25432 25433 25434 25435 25436 25437 25438 25439 25440 25441 25442 25443 25444 25445 25446 25447 25448 25449 25450 25451 25452 25453 25454 25455 25456 25457 25458 25459 25460 25461 25462 25463 25464 25465 25466 25467 25468 25469 25470 25471 25472 25473 25474 25475 25476 25477 25478 25479 25480 25481 25482 25483 25484 25485 25486 25487 25488 25489 25490 25491 25492 25493 25494 25495 25496 25497 25498 25499 25500 25501 25502 25503 25504 25505 25506 25507 25508 25509 25510 25511 25512 25513 25514 25515 25516 25517 25518 25519 25520 25521 25522 25523 25524 25525 25526 25527 25528 25529 25530 25531 25532 25533 25534 25535 25536 25537 25538 25539 25540 25541 25542 25543 25544 25545 25546 25547 25548 25549 25550 25551 25552 25553 25554 25555 25556 25557 25558 25559 25560 25561 25562 25563 25564 25565 25566 25567 25568 25569 25570 25571 25572 25573 25574 25575 25576 25577 25578 25579 25580 25581 25582 25583 25584 25585 25586 25587 25588 25589 25590 25591 25592 25593 25594 25595 25596 25597 25598 25599 25600 25601 25602 25603 25604 25605 25606 25607 25608 25609 25610 25611 25612 25613 25614 25615 25616 25617 25618 25619 25620 25621 25622 25623 25624 25625 25626 25627 25628 25629 25630 25631 25632 25633 25634 25635 25636 25637 25638 25639 25640 25641 25642 25643 25644 25645 25646 25647 25648 25649 25650 25651 25652 25653 25654 25655 25656 25657 25658 25659 25660 25661 25662 25663 25664 25665 25666 25667 25668 25669 25670 25671 25672 25673 25674 25675 25676 25677 25678 25679 25680 25681 25682 25683 25684 25685 25686 25687 25688 25689 25690 25691 25692 25693 25694 25695 25696 25697 25698 25699 25700 25701 25702 25703 25704 25705 25706 25707 25708 25709 25710 25711 25712 25713 25714 25715 25716 25717 25718 25719 25720 25721 25722 25723 25724 25725 25726 25727 25728 25729 25730 25731 25732 25733 25734 25735 25736 25737 25738 25739 25740 25741 25742 25743 25744 25745 25746 25747 25748 25749 25750 25751 25752 25753 25754 25755 25756 25757 25758 25759 25760 25761 25762 25763 25764 25765 25766 25767 25768 25769 25770 25771 25772 25773 25774 25775 25776 25777 25778 25779 25780 25781 25782 25783 25784 25785 25786 25787 25788 25789 25790 25791 25792 25793 25794 25795 25796 25797 25798 25799 25800 25801 25802 25803 25804 25805 25806 25807 25808 25809 25810 25811 25812 25813 25814 25815 25816 25817 25818 25819 25820 25821 25822 25823 25824 25825 25826 25827 25828 25829 25830 25831 25832 25833 25834 25835 25836 25837 25838 25839 25840 25841 25842 25843 25844 25845 25846 25847 25848 25849 25850 25851 25852 25853 25854 25855 25856 25857 25858 25859 25860 25861 25862 25863 25864 25865 25866 25867 25868 25869 25870 25871 25872 25873 25874 25875 25876 25877 25878 25879 25880 25881 25882 25883 25884 25885 25886 25887 25888 25889 25890 25891 25892 25893 25894 25895 25896 25897 25898 25899 25900 25901 25902 25903 25904 25905 25906 25907 25908 25909 25910 25911 25912 25913 25914 25915 25916 25917 25918 25919 25920 25921 25922 25923 25924 25925 25926 25927 25928 25929 25930 25931 25932 25933 25934 25935 25936 25937 25938 25939 25940 25941 25942 25943 25944 25945 25946 25947 25948 25949 25950 25951 25952 25953 25954 25955 25956 25957 25958 25959 25960 25961 25962 25963 25964 25965 25966 25967 25968 25969 25970 25971 25972 25973 25974 25975 25976 25977 25978 25979 25980 25981 25982 25983 25984 25985 25986 25987 25988 25989 25990 25991 25992 25993 25994 25995 25996 25997 25998 25999 26000 26001 26002 26003 26004 26005 26006 26007 26008 26009 26010 26011 26012 26013 26014 26015 26016 26017 26018 26019 26020 26021 26022 26023 26024 26025 26026 26027 26028 26029 26030 26031 26032 26033 26034 26035 26036 26037 26038 26039 26040 26041 26042 26043 26044 26045 26046 26047 26048 26049 26050 26051 26052 26053 26054 26055 26056 26057 26058 26059 26060 26061 26062 26063 26064 26065 26066 26067 26068 26069 26070 26071 26072 26073 26074 26075 26076 26077 26078 26079 26080 26081 26082 26083 26084 26085 26086 26087 26088 26089 26090 26091 26092 26093 26094 26095 26096 26097 26098 26099 26100 26101 26102 26103 26104 26105 26106 26107 26108 26109 26110 26111 26112 26113 26114 26115 26116 26117 26118 26119 26120 26121 26122 26123 26124 26125 26126 26127 26128 26129 26130 26131 26132 26133 26134 26135 26136 26137 26138 26139 26140 26141 26142 26143 26144 26145 26146 26147 26148 26149 26150 26151 26152 26153 26154 26155 26156 26157 26158 26159 26160 26161 26162 26163 26164 26165 26166 26167 26168 26169 26170 26171 26172 26173 26174 26175 26176 26177 26178 26179 26180 26181 26182 26183 26184 26185 26186 26187 26188 26189 26190 26191 26192 26193 26194 26195 26196 26197 26198 26199 26200 26201 26202 26203 26204 26205 26206 26207 26208 26209 26210 26211 26212 26213 26214 26215 26216 26217 26218 26219 26220 26221 26222 26223 26224 26225 26226 26227 26228 26229 26230 26231 26232 26233 26234 26235 26236 26237 26238 26239 26240 26241 26242 26243 26244 26245 26246 26247 26248 26249 26250 26251 26252 26253 26254 26255 26256 26257 26258 26259 26260 26261 26262 26263 26264 26265 26266 26267 26268 26269 26270 26271 26272 26273 26274 26275 26276 26277 26278 26279 26280 26281 26282 26283 26284 26285 26286 26287 26288 26289 26290 26291 26292 26293 26294 26295 26296 26297 26298 26299 26300 26301 26302 26303 26304 26305 26306 26307 26308 26309 26310 26311 26312 26313 26314 26315 26316 26317 26318 26319 26320 26321 26322 26323 26324 26325 26326 26327 26328 26329 26330 26331 26332 26333 26334 26335 26336 26337 26338 26339 26340 26341 26342 26343 26344 26345 26346 26347 26348 26349 26350 26351 26352 26353 26354 26355 26356 26357 26358 26359 26360 26361 26362 26363 26364 26365 26366 26367 26368 26369 26370 26371 26372 26373 26374 26375 26376 26377 26378 26379 26380 26381 26382 26383 26384 26385 26386 26387 26388 26389 26390 26391 26392 26393 26394 26395 26396 26397 26398 26399 26400 26401 26402 26403 26404 26405 26406 26407 26408 26409 26410 26411 26412 26413 26414 26415 26416 26417 26418 26419 26420 26421 26422 26423 26424 26425 26426 26427 26428 26429 26430 26431 26432 26433 26434 26435 26436 26437 26438 26439 26440 26441 26442 26443 26444 26445 26446 26447 26448 26449 26450 26451 26452 26453 26454 26455 26456 26457 26458 26459 26460 26461 26462 26463 26464 26465 26466 26467 26468 26469 26470 26471 26472 26473 26474 26475 26476 26477 26478 26479 26480 26481 26482 26483 26484 26485 26486 26487 26488 26489 26490 26491 26492 26493 26494 26495 26496 26497 26498 26499 26500 26501 26502 26503 26504 26505 26506 26507 26508 26509 26510 26511 26512 26513 26514 26515 26516 26517 26518 26519 26520 26521 26522 26523 26524 26525 26526 26527 26528 26529 26530 26531 26532 26533 26534 26535 26536 26537 26538 26539 26540 26541 26542 26543 26544 26545 26546 26547 26548 26549 26550 26551 26552 26553 26554 26555 26556 26557 26558 26559 26560 26561 26562 26563 26564 26565 26566 26567 26568 26569 26570 26571 26572 26573 26574 26575 26576 26577 26578 26579 26580 26581 26582 26583 26584 26585 26586 26587 26588 26589 26590 26591 26592 26593 26594 26595 26596 26597 26598 26599 26600 26601 26602 26603 26604 26605 26606 26607 26608 26609 26610 26611 26612 26613 26614 26615 26616 26617 26618 26619 26620 26621 26622 26623 26624 26625 26626 26627 26628 26629 26630 26631 26632 26633 26634 26635 26636 26637 26638 26639 26640 26641 26642 26643 26644 26645 26646 26647 26648 26649 26650 26651 26652 26653 26654 26655 26656 26657 26658 26659 26660 26661 26662 26663 26664 26665 26666 26667 26668 26669 26670 26671 26672 26673 26674 26675 26676 26677 26678 26679 26680 26681 26682 26683 26684 26685 26686 26687 26688 26689 26690 26691 26692 26693 26694 26695 26696 26697 26698 26699 26700 26701 26702 26703 26704 26705 26706 26707 26708 26709 26710 26711 26712 26713 26714 26715 26716 26717 26718 26719 26720 26721 26722 26723 26724 26725 26726 26727 26728 26729 26730 26731 26732 26733 26734 26735 26736 26737 26738 26739 26740 26741 26742 26743 26744 26745 26746 26747 26748 26749 26750 26751 26752 26753 26754 26755 26756 26757 26758 26759 26760 26761 26762 26763 26764 26765 26766 26767 26768 26769 26770 26771 26772 26773 26774 26775 26776 26777 26778 26779 26780 26781 26782 26783 26784 26785 26786 26787 26788 26789 26790 26791 26792 26793 26794 26795 26796 26797 26798 26799 26800 26801 26802 26803 26804 26805 26806 26807 26808 26809 26810 26811 26812 26813 26814 26815 26816 26817 26818 26819 26820 26821 26822 26823 26824 26825 26826 26827 26828 26829 26830 26831 26832 26833 26834 26835 26836 26837 26838 26839 26840 26841 26842 26843 26844 26845 26846 26847 26848 26849 26850 26851 26852 26853 26854 26855 26856 26857 26858 26859 26860 26861 26862 26863 26864 26865 26866 26867 26868 26869 26870 26871 26872 26873 26874 26875 26876 26877 26878 26879 26880 26881 26882 26883 26884 26885 26886 26887 26888 26889 26890 26891 26892 26893 26894 26895 26896 26897 26898 26899 26900 26901 26902 26903 26904 26905 26906 26907 26908 26909 26910 26911 26912 26913 26914 26915 26916 26917 26918 26919 26920 26921 26922 26923 26924 26925 26926 26927 26928 26929 26930 26931 26932 26933 26934 26935 26936 26937 26938 26939 26940 26941 26942 26943 26944 26945 26946 26947 26948 26949 26950 26951 26952 26953 26954 26955 26956 26957 26958 26959 26960 26961 26962 26963 26964 26965 26966 26967 26968 26969 26970 26971 26972 26973 26974 26975 26976 26977 26978 26979 26980 26981 26982 26983 26984 26985 26986 26987 26988 26989 26990 26991 26992 26993 26994 26995 26996 26997 26998 26999 27000 27001 27002 27003 27004 27005 27006 27007 27008 27009 27010 27011 27012 27013 27014 27015 27016 27017 27018 27019 27020 27021 27022 27023 27024 27025 27026 27027 27028 27029 27030 27031 27032 27033 27034 27035 27036 27037 27038 27039 27040 27041 27042 27043 27044 27045 27046 27047 27048 27049 27050 27051 27052 27053 27054 27055 27056 27057 27058 27059 27060 27061 27062 27063 27064 27065 27066 27067 27068 27069 27070 27071 27072 27073 27074 27075 27076 27077 27078 27079 27080 27081 27082 27083 27084 27085 27086 27087 27088 27089 27090 27091 27092 27093 27094 27095 27096 27097 27098 27099 27100 27101 27102 27103 27104 27105 27106 27107 27108 27109 27110 27111 27112 27113 27114 27115 27116 27117 27118 27119 27120 27121 27122 27123 27124 27125 27126 27127 27128 27129 27130 27131 27132 27133 27134 27135 27136 27137 27138 27139 27140 27141 27142 27143 27144 27145 27146 27147 27148 27149 27150 27151 27152 27153 27154 27155 27156 27157 27158 27159 27160 27161 27162 27163 27164 27165 27166 27167 27168 27169 27170 27171 27172 27173 27174 27175 27176 27177 27178 27179 27180 27181 27182 27183 27184 27185 27186 27187 27188 27189 27190 27191 27192 27193 27194 27195 27196 27197 27198 27199 27200 27201 27202 27203 27204 27205 27206 27207 27208 27209 27210 27211 27212 27213 27214 27215 27216 27217 27218 27219 27220 27221 27222 27223 27224 27225 27226 27227 27228 27229 27230 27231 27232 27233 27234 27235 27236 27237 27238 27239 27240 27241 27242 27243 27244 27245 27246 27247 27248 27249 27250 27251 27252 27253 27254 27255 27256 27257 27258 27259 27260 27261 27262 27263 27264 27265 27266 27267 27268 27269 27270 27271 27272 27273 27274 27275 27276 27277 27278 27279 27280 27281 27282 27283 27284 27285 27286 27287 27288 27289 27290 27291 27292 27293 27294 27295 27296 27297 27298 27299 27300 27301 27302 27303 27304 27305 27306 27307 27308 27309 27310 27311 27312 27313 27314 27315 27316 27317 27318 27319 27320 27321 27322 27323 27324 27325 27326 27327 27328 27329 27330 27331 27332 27333 27334 27335 27336 27337 27338 27339 27340 27341 27342 27343 27344 27345 27346 27347 27348 27349 27350 27351 27352 27353 27354 27355 27356 27357 27358 27359 27360 27361 27362 27363 27364 27365 27366 27367 27368 27369 27370 27371 27372 27373 27374 27375 27376 27377 27378 27379 27380 27381 27382 27383 27384 27385 27386 27387 27388 27389 27390 27391 27392 27393 27394 27395 27396 27397 27398 27399 27400 27401 27402 27403 27404 27405 27406 27407 27408 27409 27410 27411 27412 27413 27414 27415 27416 27417 27418 27419 27420 27421 27422 27423 27424 27425 27426 27427 27428 27429 27430 27431 27432 27433 27434 27435 27436 27437 27438 27439 27440 27441 27442 27443 27444 27445 27446 27447 27448 27449 27450 27451 27452 27453 27454 27455 27456 27457 27458 27459 27460 27461 27462 27463 27464 27465 27466 27467 27468 27469 27470 27471 27472 27473 27474 27475 27476 27477 27478 27479 27480 27481 27482 27483 27484 27485 27486 27487 27488 27489 27490 27491 27492 27493 27494 27495 27496 27497 27498 27499 27500 27501 27502 27503 27504 27505 27506 27507 27508 27509 27510 27511 27512 27513 27514 27515 27516 27517 27518 27519 27520 27521 27522 27523 27524 27525 27526 27527 27528 27529 27530 27531 27532 27533 27534 27535 27536 27537 27538 27539 27540 27541 27542 27543 27544 27545 27546 27547 27548 27549 27550 27551 27552 27553 27554 27555 27556 27557 27558 27559 27560 27561 27562 27563 27564 27565 27566 27567 27568 27569 27570 27571 27572 27573 27574 27575 27576 27577 27578 27579 27580 27581 27582 27583 27584 27585 27586 27587 27588 27589 27590 27591 27592 27593 27594 27595 27596 27597 27598 27599 27600 27601 27602 27603 27604 27605 27606 27607 27608 27609 27610 27611 27612 27613 27614 27615 27616 27617 27618 27619 27620 27621 27622 27623 27624 27625 27626 27627 27628 27629 27630 27631 27632 27633 27634 27635 27636 27637 27638 27639 27640 27641 27642 27643 27644 27645 27646 27647 27648 27649 27650 27651 27652 27653 27654 27655 27656 27657 27658 27659 27660 27661 27662 27663 27664 27665 27666 27667 27668 27669 27670 27671 27672 27673 27674 27675 27676 27677 27678 27679 27680 27681 27682 27683 27684 27685 27686 27687 27688 27689 27690 27691 27692 27693 27694 27695 27696 27697 27698 27699 27700 27701 27702 27703 27704 27705 27706 27707 27708 27709 27710 27711 27712 27713 27714 27715 27716 27717 27718 27719 27720 27721 27722 27723 27724 27725 27726 27727 27728 27729 27730 27731 27732 27733 27734 27735 27736 27737 27738 27739 27740 27741 27742 27743 27744 27745 27746 27747 27748 27749 27750 27751 27752 27753 27754 27755 27756 27757 27758 27759 27760 27761 27762 27763 27764 27765 27766 27767 27768 27769 27770 27771 27772 27773 27774 27775 27776 27777 27778 27779 27780 27781 27782 27783 27784 27785 27786 27787 27788 27789 27790 27791 27792 27793 27794 27795 27796 27797 27798 27799 27800 27801 27802 27803 27804 27805 27806 27807 27808 27809 27810 27811 27812 27813 27814 27815 27816 27817 27818 27819 27820 27821 27822 27823 27824 27825 27826 27827 27828 27829 27830 27831 27832 27833 27834 27835 27836 27837 27838 27839 27840 27841 27842 27843 27844 27845 27846 27847 27848 27849 27850 27851 27852 27853 27854 27855 27856 27857 27858 27859 27860 27861 27862 27863 27864 27865 27866 27867 27868 27869 27870 27871 27872 27873 27874 27875 27876 27877 27878 27879 27880 27881 27882 27883 27884 27885 27886 27887 27888 27889 27890 27891 27892 27893 27894 27895 27896 27897 27898 27899 27900 27901 27902 27903 27904 27905 27906 27907 27908 27909 27910 27911 27912 27913 27914 27915 27916 27917 27918 27919 27920 27921 27922 27923 27924 27925 27926 27927 27928 27929 27930 27931 27932 27933 27934 27935 27936 27937 27938 27939 27940 27941 27942 27943 27944 27945 27946 27947 27948 27949 27950 27951 27952 27953 27954 27955 27956 27957 27958 27959 27960 27961 27962 27963 27964 27965 27966 27967 27968 27969 27970 27971 27972 27973 27974 27975 27976 27977 27978 27979 27980 27981 27982 27983 27984 27985 27986 27987 27988 27989 27990 27991 27992 27993 27994 27995 27996 27997 27998 27999 28000 28001 28002 28003 28004 28005 28006 28007 28008 28009 28010 28011 28012 28013 28014 28015 28016 28017 28018 28019 28020 28021 28022 28023 28024 28025 28026 28027 28028 28029 28030 28031 28032 28033 28034 28035 28036 28037 28038 28039 28040 28041 28042 28043 28044 28045 28046 28047 28048 28049 28050 28051 28052 28053 28054 28055 28056 28057 28058 28059 28060 28061 28062 28063 28064 28065 28066 28067 28068 28069 28070 28071 28072 28073 28074 28075 28076 28077 28078 28079 28080 28081 28082 28083 28084 28085 28086 28087 28088 28089 28090 28091 28092 28093 28094 28095 28096 28097 28098 28099 28100 28101 28102 28103 28104 28105 28106 28107 28108 28109 28110 28111 28112 28113 28114 28115 28116 28117 28118 28119 28120 28121 28122 28123 28124 28125 28126 28127 28128 28129 28130 28131 28132 28133 28134 28135 28136 28137 28138 28139 28140 28141 28142 28143 28144 28145 28146 28147 28148 28149 28150 28151 28152 28153 28154 28155 28156 28157 28158 28159 28160 28161 28162 28163 28164 28165 28166 28167 28168 28169 28170 28171 28172 28173 28174 28175 28176 28177 28178 28179 28180 28181 28182 28183 28184 28185 28186 28187 28188 28189 28190 28191 28192 28193 28194 28195 28196 28197 28198 28199 28200 28201 28202 28203 28204 28205 28206 28207 28208 28209 28210 28211 28212 28213 28214 28215 28216 28217 28218 28219 28220 28221 28222 28223 28224 28225 28226 28227 28228 28229 28230 28231 28232 28233 28234 28235 28236 28237 28238 28239 28240 28241 28242 28243 28244 28245 28246 28247 28248 28249 28250 28251 28252 28253 28254 28255 28256 28257 28258 28259 28260 28261 28262 28263 28264 28265 28266 28267 28268 28269 28270 28271 28272 28273 28274 28275 28276 28277 28278 28279 28280 28281 28282 28283 28284 28285 28286 28287 28288 28289 28290 28291 28292 28293 28294 28295 28296 28297 28298 28299 28300 28301 28302 28303 28304 28305 28306 28307 28308 28309 28310 28311 28312 28313 28314 28315 28316 28317 28318 28319 28320 28321 28322 28323 28324 28325 28326 28327 28328 28329 28330 28331 28332 28333 28334 28335 28336 28337 28338 28339 28340 28341 28342 28343 28344 28345 28346 28347 28348 28349 28350 28351 28352 28353 28354 28355 28356 28357 28358 28359 28360 28361 28362 28363 28364 28365 28366 28367 28368 28369 28370 28371 28372 28373 28374 28375 28376 28377 28378 28379 28380 28381 28382 28383 28384 28385 28386 28387 28388 28389 28390 28391 28392 28393 28394 28395 28396 28397 28398 28399 28400 28401 28402 28403 28404 28405 28406 28407 28408 28409 28410 28411 28412 28413 28414 28415 28416 28417 28418 28419 28420 28421 28422 28423 28424 28425 28426 28427 28428 28429 28430 28431 28432 28433 28434 28435 28436 28437 28438 28439 28440 28441 28442 28443 28444 28445 28446 28447 28448 28449 28450 28451 28452 28453 28454 28455 28456 28457 28458 28459 28460 28461 28462 28463 28464 28465 28466 28467 28468 28469 28470 28471 28472 28473 28474 28475 28476 28477 28478 28479 28480 28481 28482 28483 28484 28485 28486 28487 28488 28489 28490 28491 28492 28493 28494 28495 28496 28497 28498 28499 28500 28501 28502 28503 28504 28505 28506 28507 28508 28509 28510 28511 28512 28513 28514 28515 28516 28517 28518 28519 28520 28521 28522 28523 28524 28525 28526 28527 28528 28529 28530 28531 28532 28533 28534 28535 28536 28537 28538 28539 28540 28541 28542 28543 28544 28545 28546 28547 28548 28549 28550 28551 28552 28553 28554 28555 28556 28557 28558 28559 28560 28561 28562 28563 28564 28565 28566 28567 28568 28569 28570 28571 28572 28573 28574 28575 28576 28577 28578 28579 28580 28581 28582 28583 28584 28585 28586 28587 28588 28589 28590 28591 28592 28593 28594 28595 28596 28597 28598 28599 28600 28601 28602 28603 28604 28605 28606 28607 28608 28609 28610 28611 28612 28613 28614 28615 28616 28617 28618 28619 28620 28621 28622 28623 28624 28625 28626 28627 28628 28629 28630 28631 28632 28633 28634 28635 28636 28637 28638 28639 28640 28641 28642 28643 28644 28645 28646 28647 28648 28649 28650 28651 28652 28653 28654 28655 28656 28657 28658 28659 28660 28661 28662 28663 28664 28665 28666 28667 28668 28669 28670 28671 28672 28673 28674 28675 28676 28677 28678 28679 28680 28681 28682 28683 28684 28685 28686 28687 28688 28689 28690 28691 28692 28693 28694 28695 28696 28697 28698 28699 28700 28701 28702 28703 28704 28705 28706 28707 28708 28709 28710 28711 28712 28713 28714 28715 28716 28717 28718 28719 28720 28721 28722 28723 28724 28725 28726 28727 28728 28729 28730 28731 28732 28733 28734 28735 28736 28737 28738 28739 28740 28741 28742 28743 28744 28745 28746 28747 28748 28749 28750 28751 28752 28753 28754 28755 28756 28757 28758 28759 28760 28761 28762 28763 28764 28765 28766 28767 28768 28769 28770 28771 28772 28773 28774 28775 28776 28777 28778 28779 28780 28781 28782 28783 28784 28785 28786 28787 28788 28789 28790 28791 28792 28793 28794 28795 28796 28797 28798 28799 28800 28801 28802 28803 28804 28805 28806 28807 28808 28809 28810 28811 28812 28813 28814 28815 28816 28817 28818 28819 28820 28821 28822 28823 28824 28825 28826 28827 28828 28829 28830 28831 28832 28833 28834 28835 28836 28837 28838 28839 28840 28841 28842 28843 28844 28845 28846 28847 28848 28849 28850 28851 28852 28853 28854 28855 28856 28857 28858 28859 28860 28861 28862 28863 28864 28865 28866 28867 28868 28869 28870 28871 28872 28873 28874 28875 28876 28877 28878 28879 28880 28881 28882 28883 28884 28885 28886 28887 28888 28889 28890 28891 28892 28893 28894 28895 28896 28897 28898 28899 28900 28901 28902 28903 28904 28905 28906 28907 28908 28909 28910 28911 28912 28913 28914 28915 28916 28917 28918 28919 28920 28921 28922 28923 28924 28925 28926 28927 28928 28929 28930 28931 28932 28933 28934 28935 28936 28937 28938 28939 28940 28941 28942 28943 28944 28945 28946 28947 28948 28949 28950 28951 28952 28953 28954 28955 28956 28957 28958 28959 28960 28961 28962 28963 28964 28965 28966 28967 28968 28969 28970 28971 28972 28973 28974 28975 28976 28977 28978 28979 28980 28981 28982 28983 28984 28985 28986 28987 28988 28989 28990 28991 28992 28993 28994 28995 28996 28997 28998 28999 29000 29001 29002 29003 29004 29005 29006 29007 29008 29009 29010 29011 29012 29013 29014 29015 29016 29017 29018 29019 29020 29021 29022 29023 29024 29025 29026 29027 29028 29029 29030 29031 29032 29033 29034 29035 29036 29037 29038 29039 29040 29041 29042 29043 29044 29045 29046 29047 29048 29049 29050 29051 29052 29053 29054 29055 29056 29057 29058 29059 29060 29061 29062 29063 29064 29065 29066 29067 29068 29069 29070 29071 29072 29073 29074 29075 29076 29077 29078 29079 29080 29081 29082 29083 29084 29085 29086 29087 29088 29089 29090 29091 29092 29093 29094 29095 29096 29097 29098 29099 29100 29101 29102 29103 29104 29105 29106 29107 29108 29109 29110 29111 29112 29113 29114 29115 29116 29117 29118 29119 29120 29121 29122 29123 29124 29125 29126 29127 29128 29129 29130 29131 29132 29133 29134 29135 29136 29137 29138 29139 29140 29141 29142 29143 29144 29145 29146 29147 29148 29149 29150 29151 29152 29153 29154 29155 29156 29157 29158 29159 29160 29161 29162 29163 29164 29165 29166 29167 29168 29169 29170 29171 29172 29173 29174 29175 29176 29177 29178 29179 29180 29181 29182 29183 29184 29185 29186 29187 29188 29189 29190 29191 29192 29193 29194 29195 29196 29197 29198 29199 29200 29201 29202 29203 29204 29205 29206 29207 29208 29209 29210 29211 29212 29213 29214 29215 29216 29217 29218 29219 29220 29221 29222 29223 29224 29225 29226 29227 29228 29229 29230 29231 29232 29233 29234 29235 29236 29237 29238 29239 29240 29241 29242 29243 29244 29245 29246 29247 29248 29249 29250 29251 29252 29253 29254 29255 29256 29257 29258 29259 29260 29261 29262 29263 29264 29265 29266 29267 29268 29269 29270 29271 29272 29273 29274 29275 29276 29277 29278 29279 29280 29281 29282 29283 29284 29285 29286 29287 29288 29289 29290 29291 29292 29293 29294 29295 29296 29297 29298 29299 29300 29301 29302 29303 29304 29305 29306 29307 29308 29309 29310 29311 29312 29313 29314 29315 29316 29317 29318 29319 29320 29321 29322 29323 29324 29325 29326 29327 29328 29329 29330 29331 29332 29333 29334 29335 29336 29337 29338 29339 29340 29341 29342 29343 29344 29345 29346 29347 29348 29349 29350 29351 29352 29353 29354 29355 29356 29357 29358 29359 29360 29361 29362 29363 29364 29365 29366 29367 29368 29369 29370 29371 29372 29373 29374 29375 29376 29377 29378 29379 29380 29381 29382 29383 29384 29385 29386 29387 29388 29389 29390 29391 29392 29393 29394 29395 29396 29397 29398 29399 29400 29401 29402 29403 29404 29405 29406 29407 29408 29409 29410 29411 29412 29413 29414 29415 29416 29417 29418 29419 29420 29421 29422 29423 29424 29425 29426 29427 29428 29429 29430 29431 29432 29433 29434 29435 29436 29437 29438 29439 29440 29441 29442 29443 29444 29445 29446 29447 29448 29449 29450 29451 29452 29453 29454 29455 29456 29457 29458 29459 29460 29461 29462 29463 29464 29465 29466 29467 29468 29469 29470 29471 29472 29473 29474 29475 29476 29477 29478 29479 29480 29481 29482 29483 29484 29485 29486 29487 29488 29489 29490 29491 29492 29493 29494 29495 29496 29497 29498 29499 29500 29501 29502 29503 29504 29505 29506 29507 29508 29509 29510 29511 29512 29513 29514 29515 29516 29517 29518 29519 29520 29521 29522 29523 29524 29525 29526 29527 29528 29529 29530 29531 29532 29533 29534 29535 29536 29537 29538 29539 29540 29541 29542 29543 29544 29545 29546 29547 29548 29549 29550 29551 29552 29553 29554 29555 29556 29557 29558 29559 29560 29561 29562 29563 29564 29565 29566 29567 29568 29569 29570 29571 29572 29573 29574 29575 29576 29577 29578 29579 29580 29581 29582 29583 29584 29585 29586 29587 29588 29589 29590 29591 29592 29593 29594 29595 29596 29597 29598 29599 29600 29601 29602 29603 29604 29605 29606 29607 29608 29609 29610 29611 29612 29613 29614 29615 29616 29617 29618 29619 29620 29621 29622 29623 29624 29625 29626 29627 29628 29629 29630 29631 29632 29633 29634 29635 29636 29637 29638 29639 29640 29641 29642 29643 29644 29645 29646 29647 29648 29649 29650 29651 29652 29653 29654 29655 29656 29657 29658 29659 29660 29661 29662 29663 29664 29665 29666 29667 29668 29669 29670 29671 29672 29673 29674 29675 29676 29677 29678 29679 29680 29681 29682 29683 29684 29685 29686 29687 29688 29689 29690 29691 29692 29693 29694 29695 29696 29697 29698 29699 29700 29701 29702 29703 29704 29705 29706 29707 29708 29709 29710 29711 29712 29713 29714 29715 29716 29717 29718 29719 29720 29721 29722 29723 29724 29725 29726 29727 29728 29729 29730 29731 29732 29733 29734 29735 29736 29737 29738 29739 29740 29741 29742 29743 29744 29745 29746 29747 29748 29749 29750 29751 29752 29753 29754 29755 29756 29757 29758 29759 29760 29761 29762 29763 29764 29765 29766 29767 29768 29769 29770 29771 29772 29773 29774 29775 29776 29777 29778 29779 29780 29781 29782 29783 29784 29785 29786 29787 29788 29789 29790 29791 29792 29793 29794 29795 29796 29797 29798 29799 29800 29801 29802 29803 29804 29805 29806 29807 29808 29809 29810 29811 29812 29813 29814 29815 29816 29817 29818 29819 29820 29821 29822 29823 29824 29825 29826 29827 29828 29829 29830 29831 29832 29833 29834 29835 29836 29837 29838 29839 29840 29841 29842 29843 29844 29845 29846 29847 29848 29849 29850 29851 29852 29853 29854 29855 29856 29857 29858 29859 29860 29861 29862 29863 29864 29865 29866 29867 29868 29869 29870 29871 29872 29873 29874 29875 29876 29877 29878 29879 29880 29881 29882 29883 29884 29885 29886 29887 29888 29889 29890 29891 29892 29893 29894 29895 29896 29897 29898 29899 29900 29901 29902 29903 29904 29905 29906 29907 29908 29909 29910 29911 29912 29913 29914 29915 29916 29917 29918 29919 29920 29921 29922 29923 29924 29925 29926 29927 29928 29929 29930 29931 29932 29933 29934 29935 29936 29937 29938 29939 29940 29941 29942 29943 29944 29945 29946 29947 29948 29949 29950 29951 29952 29953 29954 29955 29956 29957 29958 29959 29960 29961 29962 29963 29964 29965 29966 29967 29968 29969 29970 29971 29972 29973 29974 29975 29976 29977 29978 29979 29980 29981 29982 29983 29984 29985 29986 29987 29988 29989 29990 29991 29992 29993 29994 29995 29996 29997 29998 29999 30000 30001 30002 30003 30004 30005 30006 30007 30008 30009 30010 30011 30012 30013 30014 30015 30016 30017 30018 30019 30020 30021 30022 30023 30024 30025 30026 30027 30028 30029 30030 30031 30032 30033 30034 30035 30036 30037 30038 30039 30040 30041 30042 30043 30044 30045 30046 30047 30048 30049 30050 30051 30052 30053 30054 30055 30056 30057 30058 30059 30060 30061 30062 30063 30064 30065 30066 30067 30068 30069 30070 30071 30072 30073 30074 30075 30076 30077 30078 30079 30080 30081 30082 30083 30084 30085 30086 30087 30088 30089 30090 30091 30092 30093 30094 30095 30096 30097 30098 30099 30100 30101 30102 30103 30104 30105 30106 30107 30108 30109 30110 30111 30112 30113 30114 30115 30116 30117 30118 30119 30120 30121 30122 30123 30124 30125 30126 30127 30128 30129 30130 30131 30132 30133 30134 30135 30136 30137 30138 30139 30140 30141 30142 30143 30144 30145 30146 30147 30148 30149 30150 30151 30152 30153 30154 30155 30156 30157 30158 30159 30160 30161 30162 30163 30164 30165 30166 30167 30168 30169 30170 30171 30172 30173 30174 30175 30176 30177 30178 30179 30180 30181 30182 30183 30184 30185 30186 30187 30188 30189 30190 30191 30192 30193 30194 30195 30196 30197 30198 30199 30200 30201 30202 30203 30204 30205 30206 30207 30208 30209 30210 30211 30212 30213 30214 30215 30216 30217 30218 30219 30220 30221 30222 30223 30224 30225 30226 30227 30228 30229 30230 30231 30232 30233 30234 30235 30236 30237 30238 30239 30240 30241 30242 30243 30244 30245 30246 30247 30248 30249 30250 30251 30252 30253 30254 30255 30256 30257 30258 30259 30260 30261 30262 30263 30264 30265 30266 30267 30268 30269 30270 30271 30272 30273 30274 30275 30276 30277 30278 30279 30280 30281 30282 30283 30284 30285 30286 30287 30288 30289 30290 30291 30292 30293 30294 30295 30296 30297 30298 30299 30300 30301 30302 30303 30304 30305 30306 30307 30308 30309 30310 30311 30312 30313 30314 30315 30316 30317 30318 30319 30320 30321 30322 30323 30324 30325 30326 30327 30328 30329 30330 30331 30332 30333 30334 30335 30336 30337 30338 30339 30340 30341 30342 30343 30344 30345 30346 30347 30348 30349 30350 30351 30352 30353 30354 30355 30356 30357 30358 30359 30360 30361 30362 30363 30364 30365 30366 30367 30368 30369 30370 30371 30372 30373 30374 30375 30376 30377 30378 30379 30380 30381 30382 30383 30384 30385 30386 30387 30388 30389 30390 30391 30392 30393 30394 30395 30396 30397 30398 30399 30400 30401 30402 30403 30404 30405 30406 30407 30408 30409 30410 30411 30412 30413 30414 30415 30416 30417 30418 30419 30420 30421 30422 30423 30424 30425 30426 30427 30428 30429 30430 30431 30432 30433 30434 30435 30436 30437 30438 30439 30440 30441 30442 30443 30444 30445 30446 30447 30448 30449 30450 30451 30452 30453 30454 30455 30456 30457 30458 30459 30460 30461 30462 30463 30464 30465 30466 30467 30468 30469 30470 30471 30472 30473 30474 30475 30476 30477 30478 30479 30480 30481 30482 30483 30484 30485 30486 30487 30488 30489 30490 30491 30492 30493 30494 30495 30496 30497 30498 30499 30500 30501 30502 30503 30504 30505 30506 30507 30508 30509 30510 30511 30512 30513 30514 30515 30516 30517 30518 30519 30520 30521 30522 30523 30524 30525 30526 30527 30528 30529 30530 30531 30532 30533 30534 30535 30536 30537 30538 30539 30540 30541 30542 30543 30544 30545 30546 30547 30548 30549 30550 30551 30552 30553 30554 30555 30556 30557 30558 30559 30560 30561 30562 30563 30564 30565 30566 30567 30568 30569 30570 30571 30572 30573 30574 30575 30576 30577 30578 30579 30580 30581 30582 30583 30584 30585 30586 30587 30588 30589 30590 30591 30592 30593 30594 30595 30596 30597 30598 30599 30600 30601 30602 30603 30604 30605 30606 30607 30608 30609 30610 30611 30612 30613 30614 30615 30616 30617 30618 30619 30620 30621 30622 30623 30624 30625 30626 30627 30628 30629 30630 30631 30632 30633 30634 30635 30636 30637 30638 30639 30640 30641 30642 30643 30644 30645 30646 30647 30648 30649 30650 30651 30652 30653 30654 30655 30656 30657 30658 30659 30660 30661 30662 30663 30664 30665 30666 30667 30668 30669 30670 30671 30672 30673 30674 30675 30676 30677 30678 30679 30680 30681 30682 30683 30684 30685 30686 30687 30688 30689 30690 30691 30692 30693 30694 30695 30696 30697 30698 30699 30700 30701 30702 30703 30704 30705 30706 30707 30708 30709 30710 30711 30712 30713 30714 30715 30716 30717 30718 30719 30720 30721 30722 30723 30724 30725 30726 30727 30728 30729 30730 30731 30732 30733 30734 30735 30736 30737 30738 30739 30740 30741 30742 30743 30744 30745 30746 30747 30748 30749 30750 30751 30752 30753 30754 30755 30756 30757 30758 30759 30760 30761 30762 30763 30764 30765 30766 30767 30768 30769 30770 30771 30772 30773 30774 30775 30776 30777 30778 30779 30780 30781 30782 30783 30784 30785 30786 30787 30788 30789 30790 30791 30792 30793 30794 30795 30796 30797 30798 30799 30800 30801 30802 30803 30804 30805 30806 30807 30808 30809 30810 30811 30812 30813 30814 30815 30816 30817 30818 30819 30820 30821 30822 30823 30824 30825 30826 30827 30828 30829 30830 30831 30832 30833 30834 30835 30836 30837 30838 30839 30840 30841 30842 30843 30844 30845 30846 30847 30848 30849 30850 30851 30852 30853 30854 30855 30856 30857 30858 30859 30860 30861 30862 30863 30864 30865 30866 30867 30868 30869 30870 30871 30872 30873 30874 30875 30876 30877 30878 30879 30880 30881 30882 30883 30884 30885 30886 30887 30888 30889 30890 30891 30892 30893 30894 30895 30896 30897 30898 30899 30900 30901 30902 30903 30904 30905 30906 30907 30908 30909 30910 30911 30912 30913 30914 30915 30916 30917 30918 30919 30920 30921 30922 30923 30924 30925 30926 30927 30928 30929 30930 30931 30932 30933 30934 30935 30936 30937 30938 30939 30940 30941 30942 30943 30944 30945 30946 30947 30948 30949 30950 30951 30952 30953 30954 30955 30956 30957 30958 30959 30960 30961 30962 30963 30964 30965 30966 30967 30968 30969 30970 30971 30972 30973 30974 30975 30976 30977 30978 30979 30980 30981 30982 30983 30984 30985 30986 30987 30988 30989 30990 30991 30992 30993 30994 30995 30996 30997 30998 30999 31000 31001 31002 31003 31004 31005 31006 31007 31008 31009 31010 31011 31012 31013 31014 31015 31016 31017 31018 31019 31020 31021 31022 31023 31024 31025 31026 31027 31028 31029 31030 31031 31032 31033 31034 31035 31036 31037 31038 31039 31040 31041 31042 31043 31044 31045 31046 31047 31048 31049 31050 31051 31052 31053 31054 31055 31056 31057 31058 31059 31060 31061 31062 31063 31064 31065 31066 31067 31068 31069 31070 31071 31072 31073 31074 31075 31076 31077 31078 31079 31080 31081 31082 31083 31084 31085 31086 31087 31088 31089 31090 31091 31092 31093 31094 31095 31096 31097 31098 31099 31100 31101 31102 31103 31104 31105 31106 31107 31108 31109 31110 31111 31112 31113 31114 31115 31116 31117 31118 31119 31120 31121 31122 31123 31124 31125 31126 31127 31128 31129 31130 31131 31132 31133 31134 31135 31136 31137 31138 31139 31140 31141 31142 31143 31144 31145 31146 31147 31148 31149 31150 31151 31152 31153 31154 31155 31156 31157 31158 31159 31160 31161 31162 31163 31164 31165 31166 31167 31168 31169 31170 31171 31172 31173 31174 31175 31176 31177 31178 31179 31180 31181 31182 31183 31184 31185 31186 31187 31188 31189 31190 31191 31192 31193 31194 31195 31196 31197 31198 31199 31200 31201 31202 31203 31204 31205 31206 31207 31208 31209 31210 31211 31212 31213 31214 31215 31216 31217 31218 31219 31220 31221 31222 31223 31224 31225 31226 31227 31228 31229 31230 31231 31232 31233 31234 31235 31236 31237 31238 31239 31240 31241 31242 31243 31244 31245 
</DataArray>
<DataArray type="UInt32" Name="offsets" format="ascii">
3 6 8 11 14 17 20 23 26 28 31 34 37 40 43 46 49 52 55 58 61 64 66 69 72 75 78 80 83 85 88 91 94 97 99 102 105 107 110 113 116 118 121 124 127 129 132 135 138 141 143 146 148 151 154 157 160 162 165 168 171 174 176 179 182 185 188 191 194 197 200 203 206 209 212 215 218 221 224 227 230 232 235 238 241 244 247 250 253 256 258 261 264 267 270 273 276 279 282 285 288 291 294 297 300 303 306 309 312 315 318 321 324 327 330 333 336 339 342 344 347 350 352 355 358 361 364 367 370 373 376 379 381 384 387 390 392 395 398 401 404 407 409 412 414 417 419 422 425 428 431 434 437 440 443 446 449 452 454 457 460 463 466 469 472 475 478 481 483 486 489 492 495 498 500 503 506 509 512 515 518 520 523 526 529 532 535 538 541 544 546 549 552 555 558 561 564 566 569 572 574 577 580 583 585 588 590 593 596 599 602 605 608 611 614 617 620 623 626 629 632 635 638 641 644 647 650 653 656 659 662 665 668 671 674 677 680 683 686 689 692 695 698 700 703 706 709 712 715 717 720 723 726 729 731 734 737 740 743 746 749 752 755 758 761 764 767 770 772 775 778 781 784 787 790 793 796 799 802 805 808 811 814 817 820 823 826 829 832 834 837 840 843 845 848 851 853 855 858 861 864 867 870 873 876 879 882 885 888 891 894 897 900 903 906 909 912 914 917 920 923 926 929 932 934 937 940 943 946 949 952 955 958 961 964 967 970 972 975 978 981 984 986 988 991 994 996 999 1002 1005 1007 1010 1013 1016 1019 1022 1025 1028 1031 1034 1037 1040 1042 1045 1048 1050 1053 1056 1059 1062 1065 1068 1071 1074 1077 1080 1083 1086 1089 1092 1095 1098 1100 1103 1106 1109 1112 1115 1118 1120 1123 1126 1129 1132 1135 1138 1141 1144 1147 1150 1153 1156 1159 1162 1165 1168 1171 1174 1177 1180 1183 1186 1189 1192 1195 1198 1201 1204 1207 1210 1213 1216 1219 1222 1225 1228 1231 1234 1237 1240 1243 1246 1249 1252 1255 1258 1261 1264 1267 1270 1273 1276 1279 1282 1284 1286 1289 1292 1295 1298 1301 1303 1306 1309 1312 1315 1318 1320 1323 1326 1329 1331 1333 1335 1338 1340 1343 1346 1349 1352 1355 1357 1360 1363 1366 1369 1371 1374 1377 1380 1383 1386 1389 1392 1395 1398 1400 1403 1405 1408 1411 1414 1417 1420 1423 1426 1429 1432 1435 1438 1441 1443 1445 1448 1451 1454 1457 1460 1463 1466 1469 1471 1474 1477 1480 1483 1486 1489 1492 1495 1498 1501 1504 1506 1509 1512 1515 1517 1520 1523 1526 1529 1532 1535 1538 1541 1544 1547 1550 1553 1556 1559 1562 1565 1568 1571 1574 1577 1580 1583 1586 1588 1591 1594 1597 1600 1602 1605 1608 1611 1614 1617 1620 1623 1626 1629 1632 1635 1638 1641 1644 1647 1650 1653 1656 1659 1662 1665 1668 1671 1674 1677 1680 1683 1686 1689 1692 1694 1697 1700 1702 1705 1708 1711 1714 1717 1720 1723 1726 1729 1732 1734 1737 1740 1743 1746 1749 1751 1753 1756 1759 1762 1765 1768 1770 1773 1776 1779 1782 1785 1788 1791 1794 1797 1800 1802 1805 1808 1811 1814 1817 1820 1823 1825 1828 1831 1834 1837 1840 1843 1846 1849 1852 1855 1857 1860 1863 1866 1868 1871 1874 1877 1880 1882 1885 1888 1891 1894 1897 1900 1903 1906 1909 1912 1914 1916 1918 1921 1924 1927 1930 1933 1935 1938 1940 1942 1945 1947 1950 1953 1956 1958 1961 1964 1966 1969 1972 1974 1977 1979 1982 1985 1988 1991 1993 1996 1999 2002 2005 2008 2010 2013 2016 2019 2022 2025 2028 2031 2034 2037 2039 2042 2045 2048 2051 2054 2057 2060 2063 2065 2068 2071 2074 2077 2080 2083 2085 2088 2091 2094 2097 2100 2103 2105 2108 2110 2113 2116 2119 2121 2124 2127 2130 2133 2136 2139 2141 2143 2146 2148 2151 2154 2157 2160 2163 2166 2168 2171 2174 2177 2180 2183 2186 2189 2192 2194 2197 2200 2203 2206 2209 2212 2215 2218 2221 2224 2227 2229 2232 2235 2237 2240 2243 2246 2249 2252 2255 2258 2261 2264 2267 2270 2272 2275 2278 2281 2284 2286 2289 2292 2295 2298 2300 2303 2306 2309 2312 2314 2317 2320 2323 2326 2329 2332 2335 2338 2341 2344 2346 2349 2352 2355 2357 2360 2363 2365 2368 2371 2373 2376 2378 2381 2384 2387 2390 2393 2396 2399 2401 2404 2407 2409 2412 2415 2418 2421 2423 2425 2428 2431 2433 2436 2439 2442 2445 2447 2450 2453 2456 2459 2462 2464 2467 2470 2473 2476 2479 2482 2485 2488 2491 2494 2497 2500 2503 2506 2509 2512 2515 2518 2521 2524 2527 2530 2533 2536 2539 2541 2544 2547 2550 2553 2556 2559 2562 2565 2568 2571 2574 2577 2580 2583 2586 2589 2591 2594 2597 2600 2603 2606 2609 2612 2615 2618 2621 2624 2627 2630 2633 2636 2639 2642 2645 2648 2651 2654 2657 2660 2663 2666 2669 2672 2675 2678 2681 2684 2687 2690 2692 2695 2698 2700 2703 2706 2709 2712 2715 2717 2720 2723 2725 2728 2731 2734 2736 2739 2742 2745 2747 2750 2753 2756 2759 2762 2765 2768 2770 2773 2776 2779 2782 2785 2788 2791 2794 2797 2800 2803 2806 2809 2812 2815 2818 2821 2824 2827 2830 2833 2836 2839 2841 2844 2847 2850 2853 2856 2859 2862 2865 2868 2870 2873 2876 2879 2882 2885 2888 2891 2894 2897 2900 2903 2906 2909 2912 2915 2918 2921 2924 2927 2930 2933 2935 2938 2941 2944 2947 2950 2953 2956 2959 2961 2964 2967 2969 2972 2975 2978 2981 2984 2987 2990 2993 2996 2999 3001 3004 3007 3010 3013 3016 3018 3021 3024 3027 3030 3033 3036 3039 3042 3045 3048 3051 3053 3056 3058 3060 3063 3066 3069 3072 3075 3078 3081 3083 3086 3088 3091 3094 3096 3099 3102 3105 3108 3111 3113 3116 3119 3122 3125 3128 3131 3133 3136 3138 3141 3144 3146 3149 3152 3155 3158 3161 3164 3166 3169 3172 3175 3178 3181 3183 3185 3188 3190 3193 3196 3199 3201 3204 3207 3209 3212 3215 3218 3221 3223 3226 3229 3232 3234 3237 3240 3243 3245 3248 3251 3254 3256 3259 3262 3265 3268 3271 3274 3277 3280 3283 3286 3289 3291 3294 3297 3300 3303 3306 3308 3311 3314 3317 3320 3323 3326 3329 3332 3335 3338 3341 3344 3346 3349 3351 3354 3357 3359 3362 3365 3367 3370 3373 3376 3379 3382 3385 3388 3391 3394 3397 3400 3403 3406 3409 3411 3413 3416 3419 3422 3425 3428 3431 3434 3437 3439 3442 3445 3448 3451 3454 3457 3460 3463 3466 3469 3472 3474 3477 3480 3482 3485 3488 3491 3494 3497 3500 3502 3505 3508 3511 3514 3517 3520 3523 3525 3528 3530 3532 3535 3538 3541 3544 3547 3550 3553 3556 3559 3562 3565 3568 3571 3574 3577 3580 3583 3586 3589 3592 3595 3598 3600 3603 3606 3609 3611 3614 3617 3620 3623 3626 3629 3631 3634 3637 3640 3643 3646 3649 3652 3655 3658 3661 3664 3667 3670 3673 3676 3679 3682 3685 3688 3691 3694 3697 3700 3703 3706 3709 3712 3715 3717 3720 3722 3725 3728 3731 3734 3737 3740 3742 3745 3748 3751 3754 3756 3759 3762 3765 3768 3771 3773 3776 3778 3781 3784 3787 3790 3793 3796 3798 3801 3804 3807 3810 3813 3816 3818 3821 3823 3826 3829 3832 3835 3838 3841 3844 3847 3849 3852 3855 3857 3860 3863 3866 3869 3871 3873 3875 3878 3880 3883 3885 3888 3891 3893 3896 3899 3902 3905 3908 3911 3913 3916 3919 3921 3923 3926 3928 3930 3933 3936 3939 3941 3944 3947 3950 3953 3956 3959 3961 3964 3966 3969 3971 3974 3977 3979 3981 3984 3987 3990 3993 3996 3998 4001 4004 4007 4010 4013 4016 4019 4022 4025 4028 4031 4033 4036 4039 4042 4045 4048 4051 4054 4057 4060 4063 4066 4069 4072 4075 4078 4081 4084 4086 4089 4092 4095 4098 4101 4104 4107 4110 4112 4115 4118 4121 4124 4127 4130 4133 4136 4138 4141 4144 4147 4150 4153 4156 4159 4162 4164 4167 4170 4173 4175 4178 4181 4184 4186 4188 4191 4194 4197 4200 4203 4206 4209 4212 4215 4218 4221 4224 4227 4230 4233 4236 4239 4242 4245 4248 4251 4254 4256 4259 4262 4265 4268 4270 4273 4276 4279 4282 4285 4288 4291 4293 4295 4298 4301 4304 4307 4309 4312 4315 4318 4321 4324 4327 4330 4333 4336 4339 4342 4345 4348 4351 4354 4357 4360 4363 4366 4369 4372 4375 4378 4381 4384 4387 4390 4393 4396 4399 4401 4404 4407 4410 4412 4415 4418 4421 4424 4427 4430 4433 4436 4439 4442 4444 4447 4450 4453 4455 4458 4461 4463 4466 4469 4472 4475 4478 4481 4484 4487 4490 4493 4496 4499 4502 4505 4508 4511 4514 4517 4520 4522 4525 4528 4531 4534 4537 4540 4543 4546 4549 4552 4554 4557 4560 4563 4566 4569 4571 4574 4577 4580 4582 4585 4588 4591 4594 4597 4600 4603 4606 4608 4611 4613 4616 4619 4622 4625 4628 4631 4634 4637 4640 4643 4646 4649 4652 4655 4658 4661 4664 4667 4670 4673 4676 4679 4682 4685 4688 4691 4694 4697 4700 4703 4706 4709 4712 4715 4718 4720 4723 4726 4729 4732 4735 4738 4741 4744 4747 4750 4752 4755 4758 4761 4764 4767 4770 4773 4776 4779 4782 4785 4787 4790 4793 4796 4799 4802 4805 4808 4811 4814 4817 4820 4823 4826 4829 4832 4835 4838 4841 4844 4847 4850 4853 4856 4859 4862 4865 4867 4870 4873 4876 4879 4881 4884 4887 4890 4893 4895 4898 4901 4904 4907 4910 4913 4916 4919 4921 4924 4927 4929 4932 4935 4938 4941 4944 4946 4949 4952 4955 4958 4961 4964 4967 4970 4973 4976 4979 4982 4985 4987 4990 4993 4996 4998 5001 5004 5007 5010 5013 5016 5019 5022 5025 5028 5031 5033 5036 5038 5041 5044 5047 5050 5053 5056 5059 5062 5064 5067 5069 5072 5075 5077 5080 5083 5085 5087 5090 5093 5095 5098 5101 5104 5106 5108 5111 5114 5117 5120 5122 5125 5127 5130 5132 5135 5138 5140 5143 5145 5148 5150 5153 5156 5158 5161 5164 5166 5169 5172 5174 5177 5180 5183 5186 5189 5192 5195 5198 5200 5203 5206 5209 5212 5215 5218 5220 5223 5225 5227 5230 5232 5235 5237 5239 5242 5244 5247 5249 5252 5255 5258 5261 5263 5265 5267 5270 5273 5276 5278 5281 5283 5286 5289 5292 5295 5298 5301 5304 5307 5310 5313 5316 5319 5322 5325 5328 5331 5334 5337 5340 5342 5345 5348 5350 5352 5355 5357 5360 5363 5366 5369 5371 5373 5376 5379 5381 5384 5387 5390 5393 5396 5399 5402 5405 5408 5411 5414 5417 5420 5422 5425 5428 5431 5434 5436 5438 5441 5444 5446 5449 5452 5455 5458 5460 5462 5464 5467 5470 5473 5476 5478 5481 5484 5487 5490 5493 5496 5499 5502 5505 5508 5511 5513 5516 5518 5521 5524 5527 5530 5532 5535 5538 5541 5544 5547 5549 5552 5555 5558 5561 5564 5567 5570 5573 5575 5577 5580 5582 5585 5588 5591 5593 5596 5599 5602 5605 5608 5611 5614 5617 5620 5623 5626 5629 5632 5635 5638 5641 5644 5647 5650 5653 5656 5659 5662 5665 5668 5671 5674 5677 5680 5683 5686 5689 5692 5695 5698 5701 5704 5707 5710 5713 5716 5719 5722 5725 5728 5731 5734 5737 5740 5743 5746 5749 5752 5755 5757 5760 5762 5765 5768 5771 5774 5777 5780 5783 5785 5788 5791 5794 5797 5800 5803 5806 5809 5812 5815 5818 5821 5824 5827 5830 5833 5836 5839 5841 5843 5846 5849 5852 5854 5857 5860 5863 5866 5868 5871 5874 5877 5880 5883 5886 5889 5892 5895 5898 5901 5904 5906 5909 5911 5913 5916 5919 5922 5925 5927 5930 5933 5936 5938 5941 5943 5946 5949 5952 5955 5958 5960 5963 5965 5968 5970 5973 5976 5978 5981 5984 5986 5988 5991 5993 5996 5999 6002 6004 6007 6010 6013 6016 6019 6022 6025 6028 6031 6034 6037 6040 6043 6046 6049 6052 6055 6058 6061 6064 6067 6070 6073 6076 6078 6080 6083 6086 6089 6091 6094 6097 6100 6103 6106 6109 6112 6115 6117 6120 6123 6126 6129 6132 6134 6137 6139 6142 6145 6148 6151 6154 6157 6160 6163 6166 6169 6172 6175 6177 6180 6183 6186 6189 6192 6194 6197 6200 6203 6205 6208 6211 6214 6217 6220 6223 6225 6228 6231 6233 6236 6239 6242 6245 6248 6251 6254 6256 6258 6261 6264 6267 6269 6272 6275 6278 6281 6284 6286 6289 6292 6295 6298 6300 6303 6306 6309 6312 6315 6317 6320 6323 6326 6329 6332 6335 6338 6341 6344 6346 6349 6352 6355 6358 6361 6364 6367 6369 6372 6375 6378 6381 6384 6387 6390 6393 6396 6399 6402 6405 6408 6411 6414 6417 6420 6423 6426 6428 6431 6434 6437 6440 6443 6446 6449 6452 6455 6458 6461 6464 6467 6470 6472 6475 6477 6480 6483 6486 6489 6492 6495 6498 6501 6504 6507 6510 6513 6515 6518 6521 6524 6527 6530 6533 6536 6538 6541 6544 6547 6549 6552 6554 6557 6560 6563 6566 6569 6572 6575 6578 6581 6584 6587 6590 6593 6596 6599 6602 6605 6608 6611 6614 6616 6619 6622 6625 6628 6631 6634 6637 6640 6643 6646 6649 6652 6655 6658 6661 6663 6666 6669 6672 6675 6677 6680 6683 6686 6689 6692 6695 6698 6701 6704 6707 6710 6713 6716 6719 6722 6725 6728 6731 6734 6737 6740 6743 6746 6749 6752 6755 6758 6761 6764 6767 6770 6773 6776 6779 6782 6785 6788 6790 6793 6796 6799 6802 6805 6808 6811 6814 6816 6819 6822 6825 6828 6830 6833 6836 6839 6842 6845 6847 6850 6853 6856 6859 6862 6864 6867 6869 6872 6875 6877 6880 6883 6886 6889 6891 6894 6897 6900 6903 6906 6908 6911 6914 6917 6920 6923 6926 6929 6932 6935 6938 6941 6944 6947 6950 6953 6955 6958 6961 6964 6967 6970 6973 6976 6979 6982 6985 6988 6991 6994 6997 7000 7003 7006 7009 7012 7014 7017 7020 7023 7026 7029 7032 7035 7038 7041 7044 7047 7049 7052 7055 7057 7060 7063 7066 7069 7072 7075 7078 7081 7084 7087 7090 7093 7096 7099 7102 7105 7107 7110 7112 7115 7118 7121 7124 7127 7130 7133 7136 7139 7142 7145 7148 7151 7154 7157 7160 7163 7166 7169 7172 7175 7178 7181 7184 7187 7190 7193 7196 7199 7202 7205 7208 7211 7214 7217 7220 7222 7225 7228 7231 7234 7236 7239 7242 7245 7247 7249 7252 7255 7258 7261 7264 7267 7270 7273 7276 7279 7282 7285 7288 7291 7294 7297 7300 7303 7306 7309 7311 7314 7317 7320 7323 7326 7328 7331 7334 7337 7340 7343 7346 7349 7352 7355 7358 7361 7364 7367 7370 7373 7376 7378 7381 7384 7386 7389 7391 7394 7397 7400 7403 7406 7409 7412 7415 7418 7420 7423 7426 7429 7432 7435 7438 7441 7444 7447 7450 7453 7456 7459 7462 7465 7467 7470 7472 7475 7478 7481 7484 7487 7490 7492 7495 7498 7501 7504 7507 7510 7513 7516 7518 7521 7524 7527 7529 7532 7535 7538 7541 7544 7547 7549 7552 7555 7557 7560 7563 7566 7569 7572 7575 7578 7581 7584 7586 7589 7592 7595 7598 7601 7604 7606 7609 7612 7615 7618 7620 7623 7625 7628 7631 7633 7636 7638 7641 7644 7647 7650 7652 7655 7658 7661 7664 7667 7670 7673 7676 7679 7682 7685 7688 7691 7694 7696 7699 7702 7705 7708 7711 7714 7717 7720 7722 7725 7728 7731 7734 7737 7740 7743 7746 7749 7752 7755 7758 7761 7764 7767 7770 7773 7775 7778 7781 7784 7787 7790 7793 7796 7799 7802 7805 7808 7811 7814 7817 7820 7823 7825 7828 7831 7833 7836 7839 7842 7845 7848 7851 7854 7857 7859 7862 7865 7868 7870 7873 7876 7878 7881 7884 7887 7890 7892 7895 7898 7901 7904 7907 7910 7913 7916 7918 7921 7924 7927 7930 7933 7936 7939 7942 7945 7948 7951 7953 7956 7959 7962 7965 7968 7971 7974 7977 7980 7983 7986 7989 7992 7995 7998 8001 8004 8007 8010 8013 8016 8019 8021 8024 8027 8029 8032 8035 8038 8041 8044 8047 8050 8053 8056 8059 8062 8065 8068 8071 8074 8077 8080 8083 8086 8089 8092 8095 8098 8101 8104 8107 8109 8112 8115 8118 8120 8123 8126 8129 8132 8135 8138 8141 8144 8147 8150 8152 8155 8158 8161 8163 8166 8169 8172 8175 8177 8180 8183 8186 8189 8192 8195 8198 8201 8204 8207 8209 8212 8215 8217 8220 8223 8226 8229 8232 8235 8238 8241 8244 8247 8250 8253 8256 8259 8262 8265 8268 8271 8274 8277 8279 8282 8285 8288 8291 8294 8297 8300 8303 8306 8309 8311 8314 8317 8320 8323 8326 8329 8332 8335 8338 8341 8343 8346 8348 8350 8352 8355 8358 8361 8364 8367 8370 8373 8375 8378 8381 8384 8386 8389 8392 8395 8398 8401 8404 8407 8410 8413 8416 8418 8421 8424 8427 8430 8433 8436 8439 8442 8445 8448 8451 8454 8457 8460 8463 8466 8469 8472 8475 8478 8481 8484 8487 8490 8493 8496 8499 8502 8505 8508 8511 8514 8517 8520 8523 8525 8528 8531 8534 8537 8540 8543 8546 8549 8552 8555 8558 8561 8564 8567 8570 8573 8576 8579 8582 8585 8588 8591 8594 8597 8600 8603 8606 8609 8612 8615 8618 8621 8624 8627 8630 8633 8636 8639 8642 8644 8647 8650 8653 8656 8659 8662 8665 8667 8670 8673 8676 8678 8681 8684 8687 8690 8693 8695 8698 8701 8704 8706 8708 8710 8713 8716 8719 8722 8725 8728 8731 8734 8736 8739 8742 8745 8748 8751 8754 8757 8760 8763 8766 8769 8772 8775 8778 8781 8784 8787 8790 8793 8796 8799 8802 8805 8808 8811 8814 8816 8819 8822 8825 8828 8831 8834 8837 8840 8843 8846 8849 8852 8855 8858 8861 8864 8867 8870 8873 8876 8879 8882 8885 8888 8891 8894 8897 8900 8903 8906 8909 8912 8915 8918 8921 8924 8927 8930 8932 8935 8938 8941 8944 8947 8950 8953 8956 8958 8961 8964 8966 8969 8972 8975 8978 8981 8984 8987 8990 8993 8996 8999 9001 9004 9007 9010 9013 9016 9019 9022 9024 9026 9029 9032 9034 9037 9039 9042 9045 9048 9051 9054 9057 9060 9063 9066 9069 9072 9075 9078 9081 9084 9087 9090 9093 9096 9099 9101 9104 9107 9110 9112 9115 9118 9121 9124 9127 9130 9133 9136 9139 9142 9145 9148 9150 9153 9156 9159 9162 9165 9168 9170 9173 9175 9178 9181 9184 9187 9190 9193 9196 9199 9202 9204 9207 9210 9213 9216 9219 9221 9224 9226 9229 9231 9233 9236 9238 9241 9243 9246 9248 9251 9254 9257 9260 9263 9266 9269 9272 9275 9278 9280 9283 9285 9288 9291 9294 9297 9300 9303 9306 9309 9312 9315 9318 9321 9324 9327 9330 9333 9336 9339 9342 9345 9348 9351 9354 9357 9360 9363 9366 9369 9372 9375 9378 9381 9384 9387 9390 9392 9395 9398 9401 9404 9407 9410 9413 9415 9418 9421 9424 9427 9430 9432 9435 9438 9441 9443 9446 9449 9452 9455 9458 9461 9464 9466 9469 9472 9474 9477 9480 9483 9486 9489 9492 9495 9498 9501 9504 9507 9510 9513 9516 9519 9522 9525 9528 9531 9534 9537 9540 9542 9545 9548 9550 9553 9556 9559 9562 9565 9568 9571 9574 9577 9580 9583 9586 9589 9592 9595 9598 9601 9603 9606 9609 9612 9615 9618 9621 9624 9627 9630 9633 9635 9638 9641 9644 9646 9649 9652 9655 9658 9661 9663 9665 9668 9671 9673 9676 9679 9682 9684 9687 9690 9693 9695 9697 9700 9702 9705 9708 9711 9713 9716 9719 9722 9725 9728 9731 9734 9737 9740 9743 9746 9749 9751 9754 9757 9760 9763 9766 9769 9772 9775 9778 9781 9783 9786 9789 9792 9795 9797 9800 9803 9805 9808 9811 9814 9816 9819 9822 9825 9828 9831 9834 9836 9839 9842 9845 9848 9851 9853 9856 9859 9862 9864 9867 9870 9873 9876 9879 9881 9884 9887 9890 9893 9896 9899 9901 9903 9906 9909 9912 9915 9918 9921 9924 9927 9930 9933 9936 9939 9942 9945 9947 9950 9953 9956 9959 9962 9965 9968 9971 9973 9976 9979 9982 9985 9988 9991 9994 9997 10000 10003 10006 10009 10011 10014 10017 10020 10022 10025 10028 10031 10033 10036 10039 10042 10045 10048 10051 10054 10057 10060 10063 10066 10069 10072 10075 10078 10081 10084 10087 10090 10093 10096 10099 10102 10105 10108 10111 10114 10117 10120 10123 10126 10128 10130 10133 10136 10138 10141 10144 10146 10149 10152 10154 10157 10160 10162 10165 10168 10170 10172 10175 10178 10181 10184 10187 10190 10192 10195 10198 10201 10204 10207 10210 10213 10216 10219 10222 10224 10227 10230 10233 10236 10239 10242 10245 10248 10251 10254 10257 10260 10263 10266 10269 10272 10275 10278 10281 10284 10287 10290 10293 10296 10299 10302 10305 10308 10310 10313 10316 10319 10322 10325 10328 10331 10334 10337 10340 10343 10346 10349 10352 10355 10358 10361 10364 10366 10369 10371 10374 10377 10380 10383 10386 10389 10392 10395 10398 10401 10404 10407 10410 10413 10416 10419 10421 10424 10427 10430 10433 10436 10439 10441 10444 10446 10449 10452 10455 10457 10459 10462 10465 10468 10471 10474 10477 10479 10482 10485 10487 10490 10493 10496 10499 10501 10504 10507 10510 10513 10516 10519 10521 10524 10527 10530 10533 10536 10538 10541 10544 10547 10550 10553 10556 10559 10562 10565 10568 10571 10574 10577 10580 10583 10586 10588 10591 10594 10597 10600 10602 10605 10608 10611 10614 10616 10619 10621 10624 10627 10630 10632 10635 10638 10641 10644 10647 10650 10653 10656 10658 10661 10664 10667 10670 10673 10676 10679 10682 10685 10687 10690 10693 10696 10699 10702 10705 10708 10711 10714 10717 10720 10722 10725 10728 10730 10733 10736 10739 10741 10743 10746 10749 10752 10755 10758 10761 10764 10766 10769 10772 10775 10777 10779 10782 10785 10788 10791 10793 10796 10799 10801 10803 10805 10808 10810 10813 10815 10818 10820 10823 10826 10829 10832 10835 10838 10841 10844 10847 10850 10853 10856 10858 10861 10864 10867 10870 10873 10876 10879 10882 10885 10888 10891 10894 10897 10900 10903 10906 10909 10912 10915 10918 10921 10924 10927 10930 10933 10936 10938 10941 10944 10947 10950 10953 10956 10959 10962 10965 10968 10971 10974 10977 10980 10983 10986 10988 10991 10993 10995 10997 11000 11003 11006 11009 11011 11014 11017 11019 11022 11025 11028 11031 11033 11036 11039 11042 11045 11047 11050 11053 11056 11059 11062 11065 11068 11071 11073 11076 11079 11081 11084 11086 11089 11092 11095 11098 11101 11104 11107 11110 11113 11116 11119 11122 11125 11128 11131 11134 11137 11140 11143 11146 11149 11152 11155 11158 11161 11164 11167 11170 11173 11176 11179 11182 11185 11188 11191 11194 11197 11200 11203 11206 11209 11212 11215 11218 11221 11224 11227 11230 11233 11236 11239 11242 11245 11248 11251 11254 11257 11260 11263 11266 11269 11272 11275 11278 11281 11284 11287 11290 11293 11296 11299 11302 11305 11308 11311 11314 11317 11320 11323 11326 11329 11332 11335 11338 11341 11344 11347 11350 11353 11356 11359 11362 11365 11368 11370 11372 11375 11378 11381 11384 11387 11390 11393 11396 11399 11402 11405 11408 11411 11414 11417 11420 11423 11426 11429 11432 11435 11438 11441 11444 11447 11450 11453 11456 11459 11462 11465 11468 11471 11474 11477 11480 11483 11486 11488 11491 11494 11497 11500 11503 11506 11509 11512 11515 11517 11520 11523 11526 11529 11532 11534 11537 11540 11543 11546 11549 11552 11555 11558 11561 11564 11567 11570 11573 11576 11578 11581 11584 11587 11590 11593 11596 11599 11602 11605 11607 11610 11613 11616 11619 11622 11625 11627 11630 11633 11636 11638 11641 11644 11647 11650 11653 11656 11658 11661 11664 11667 11670 11673 11676 11679 11682 11685 11688 11691 11694 11697 11700 11703 11706 11709 11712 11715 11717 11720 11723 11726 11729 11731 11734 11737 11739 11742 11745 11747 11750 11752 11755 11758 11761 11764 11767 11770 11773 11776 11779 11782 11785 11788 11791 11794 11797 11800 11802 11805 11808 11811 11813 11816 11819 11822 11825 11828 11831 11833 11836 11839 11842 11845 11848 11851 11854 11856 11859 11861 11864 11867 11870 11873 11876 11879 11882 11885 11887 11890 11893 11895 11898 11900 11903 11906 11909 11912 11915 11918 11921 11924 11927 11929 11932 11934 11937 11940 11943 11946 11949 11952 11955 11958 11960 11963 11966 11969 11972 11975 11978 11981 11983 11986 11989 11991 11994 11997 12000 12002 12005 12008 12010 12013 12016 12019 12022 12025 12028 12030 12033 12036 12039 12042 12045 12048 12051 12054 12057 12060 12062 12065 12068 12071 12074 12077 12080 12083 12086 12089 12092 12095 12098 12100 12103 12105 12108 12111 12113 12116 12119 12121 12123 12126 12128 12131 12134 12137 12140 12143 12146 12149 12152 12155 12158 12161 12164 12167 12169 12172 12175 12177 12180 12183 12186 12188 12191 12194 12197 12200 12203 12206 12209 12212 12215 12218 12221 12224 12227 12230 12233 12236 12239 12242 12245 12248 12251 12254 12257 12260 12263 12266 12269 12272 12275 12278 12281 12284 12287 12289 12292 12295 12298 12301 12304 12307 12309 12312 12315 12317 12320 12323 12326 12329 12332 12334 12337 12340 12343 12345 12348 12351 12354 12357 12360 12362 12365 12368 12370 12373 12376 12378 12381 12384 12386 12389 12392 12395 12398 12401 12403 12406 12408 12410 12413 12416 12418 12421 12424 12426 12429 12431 12434 12437 12440 12443 12446 12449 12452 12455 12458 12461 12464 12467 12470 12473 12476 12479 12482 12485 12488 12490 12493 12496 12498 12501 12504 12507 12510 12513 12516 12519 12522 12525 12528 12531 12534 12537 12540 12543 12545 12548 12550 12553 12556 12559 12561 12564 12567 12569 12572 12575 12577 12579 12582 12585 12588 12591 12594 12597 12600 12603 12606 12609 12612 12615 12617 12619 12621 12624 12627 12630 12633 12636 12639 12642 12645 12648 12651 12654 12657 12659 12661 12664 12667 12670 12673 12676 12679 12682 12685 12688 12691 12694 12697 12700 12703 12706 12709 12712 12715 12718 12721 12724 12727 12730 12733 12736 12739 12742 12744 12747 12750 12753 12756 12759 12762 12765 12768 12771 12774 12777 12779 12782 12784 12787 12790 12792 12794 12797 12800 12803 12805 12807 12810 12813 12816 12819 12822 12825 12827 12829 12832 12835 12837 12840 12843 12846 12849 12851 12853 12856 12859 12861 12864 12867 12869 12872 12875 12878 12881 12884 12887 12890 12893 12896 12899 12902 12905 12908 12911 12914 12917 12920 12923 12926 12929 12932 12935 12938 12941 12944 12947 12950 12953 12956 12959 12962 12965 12968 12971 12974 12977 12980 12983 12986 12989 12991 12994 12997 12999 13002 13005 13008 13011 13014 13016 13019 13022 13025 13028 13031 13034 13037 13040 13043 13046 13049 13052 13055 13057 13060 13063 13065 13068 13071 13074 13077 13079 13082 13085 13088 13090 13093 13096 13099 13102 13105 13108 13110 13113 13116 13119 13122 13125 13127 13130 13133 13136 13139 13142 13145 13148 13151 13154 13156 13159 13162 13165 13168 13171 13174 13176 13179 13182 13185 13188 13191 13194 13197 13200 13203 13206 13209 13212 13215 13218 13221 13223 13226 13229 13231 13234 13237 13240 13242 13245 13248 13250 13253 13256 13259 13262 13265 13268 13271 13273 13276 13279 13282 13285 13288 13291 13294 13297 13300 13303 13306 13308 13311 13314 13317 13320 13323 13326 13329 13332 13335 13338 13341 13344 13347 13350 13353 13356 13359 13362 13365 13368 13371 13374 13377 13380 13383 13386 13389 13391 13394 13397 13400 13403 13406 13409 13412 13414 13417 13420 13423 13426 13429 13432 13435 13437 13440 13443 13446 13449 13452 13454 13457 13460 13463 13465 13468 13471 13474 13476 13479 13482 13485 13487 13490 13493 13496 13498 13501 13503 13506 13508 13511 13514 13516 13519 13522 13524 13527 13529 13532 13535 13538 13541 13544 13547 13550 13553 13556 13558 13561 13564 13567 13570 13573 13576 13578 13581 13584 13587 13589 13592 13595 13597 13600 13603 13606 13608 13611 13614 13617 13620 13623 13626 13629 13632 13635 13637 13640 13643 13645 13648 13651 13653 13656 13658 13661 13664 13667 13670 13673 13676 13678 13681 13684 13687 13689 13692 13695 13698 13701 13704 13707 13709 13712 13715 13718 13721 13724 13726 13728 13731 13734 13737 13740 13742 13745 13748 13751 13754 13757 13760 13763 13765 13768 13770 13773 13776 13779 13782 13785 13788 13790 13792 13795 13798 13801 13803 13806 13809 13811 13814 13817 13820 13823 13826 13829 13832 13835 13838 13841 13844 13847 13850 13853 13856 13858 13860 13863 13865 13868 13871 13874 13877 13880 13883 13885 13888 13891 13894 13897 13900 13903 13906 13909 13912 13915 13918 13921 13924 13927 13930 13932 13935 13938 13941 13944 13947 13950 13953 13956 13958 13961 13964 13967 13969 13972 13974 13977 13980 13983 13986 13988 13991 13994 13996 13999 14002 14005 14008 14011 14014 14017 14019 14022 14025 14027 14030 14033 14035 14038 14041 14044 14047 14049 14052 14055 14058 14061 14064 14067 14070 14073 14076 14079 14082 14085 14088 14091 14094 14097 14100 14103 14106 14109 14111 14114 14117 14120 14123 14126 14129 14132 14135 14138 14141 14144 14147 14150 14153 14156 14159 14162 14165 14168 14171 14174 14176 14179 14182 14185 14187 14190 14193 14196 14199 14202 14205 14208 14211 14214 14217 14220 14223 14226 14229 14232 14235 14238 14241 14244 14247 14250 14253 14256 14258 14261 14264 14266 14269 14272 14275 14278 14281 14284 14287 14290 14292 14295 14298 14301 14303 14306 14309 14311 14314 14317 14320 14323 14326 14329 14332 14335 14338 14341 14344 14347 14349 14352 14355 14357 14360 14363 14366 14369 14372 14374 14377 14379 14382 14385 14387 14390 14393 14395 14398 14400 14403 14406 14409 14412 14415 14418 14420 14423 14426 14429 14431 14434 14437 14440 14443 14446 14449 14452 14455 14458 14461 14464 14467 14470 14473 14476 14479 14482 14485 14488 14491 14494 14497 14500 14503 14505 14508 14511 14513 14516 14519 14522 14524 14527 14530 14533 14536 14539 14541 14544 14547 14550 14553 14556 14559 14562 14565 14568 14571 14573 14576 14579 14581 14584 14587 14589 14592 14595 14598 14601 14604 14607 14610 14613 14616 14619 14622 14625 14628 14631 14634 14636 14639 14642 14645 14648 14651 14654 14657 14660 14663 14666 14669 14672 14674 14677 14680 14682 14685 14688 14691 14694 14697 14700 14703 14706 14709 14712 14715 14718 14721 14723 14726 14729 14732 14734 14737 14739 14741 14744 14747 14749 14752 14755 14758 14761 14764 14766 14769 14772 14774 14777 14780 14783 14786 14789 14792 14795 14798 14800 14803 14806 14809 14812 14815 14818 14821 14824 14826 14829 14832 14834 14837 14840 14843 14846 14849 14852 14855 14858 14861 14864 14866 14869 14872 14875 14878 14881 14883 14886 14889 14892 14894 14896 14899 14902 14905 14908 14911 14914 14917 14920 14923 14926 14928 14931 14934 14937 14940 14943 14945 14948 14951 14954 14957 14960 14962 14965 14968 14971 14974 14977 14980 14983 14985 14987 14990 14993 14996 14998 15001 15004 15007 15010 15013 15016 15019 15022 15025 15028 15030 15033 15036 15039 15042 15045 15048 15051 15053 15056 15059 15062 15065 15068 15071 15074 15077 15080 15082 15085 15088 15091 15094 15097 15100 15103 15106 15108 15111 15113 15116 15119 15122 15125 15128 15131 15133 15136 15139 15142 15145 15147 15150 15153 15156 15159 15162 15165 15168 15170 15173 15176 15179 15182 15185 15188 15191 15194 15196 15199 15201 15204 15207 15210 15212 15215 15218 15221 15224 15227 15230 15233 15236 15239 15242 15245 15248 15251 15254 15256 15259 15262 15265 15267 15270 15273 15276 15279 15282 15285 15288 15290 15293 15296 15299 15302 15305 15308 15311 15314 15317 15320 15322 15325 15328 15331 15334 15337 15340 15343 15346 15349 15352 15355 15358 15360 15363 15366 15369 15372 15375 15378 15381 15384 15387 15390 15392 15395 15398 15401 15403 15406 15409 15411 15414 15417 15419 15422 15425 15428 15431 15433 15435 15437 15440 15442 15445 15448 15451 15454 15457 15460 15463 15466 15469 15471 15474 15476 15479 15482 15485 15488 15491 15493 15495 15498 15501 15504 15507 15510 15513 15516 15519 15522 15525 15528 15531 15534 15537 15540 15543 15546 15549 15552 15555 15558 15560 15563 15566 15569 15572 15575 15578 15581 15584 15587 15590 15593 15596 15599 15602 15605 15608 15611 15614 15617 15620 15622 15625 15628 15631 15633 15636 15639 15642 15645 15648 15651 15653 15655 15658 15660 15662 15665 15667 15670 15673 15676 15678 15680 15683 15686 15688 15690 15693 15696 15699 15702 15705 15708 15711 15714 15717 15720 15723 15726 15729 15732 15735 15738 15741 15744 15747 15750 15753 15756 15759 15761 15763 15766 15769 15772 15775 15778 15781 15784 15786 15789 15792 15795 15798 15801 15804 15807 15810 15813 15815 15818 15821 15824 15827 15829 15831 15834 15837 15840 15842 15845 15848 15851 15854 15857 15860 15863 15865 15867 15870 15873 15876 15879 15881 15884 15886 15889 15892 15895 15898 15901 15903 15905 15908 15911 15913 15916 15919 15922 15924 15927 15930 15933 15936 15939 15942 15945 15948 15951 15954 15957 15960 15963 15966 15969 15971 15973 15976 15979 15982 15984 15987 15990 15992 15994 15997 16000 16003 16006 16008 16011 16014 16017 16019 16022 16024 16027 16030 16033 16035 16038 16041 16043 16046 16049 16052 16055 16058 16061 16064 16067 16070 16073 16076 16078 16081 16084 16087 16090 16093 16096 16099 16102 16105 16108 16111 16114 16117 16120 16123 16126 16128 16131 16134 16137 16139 16142 16145 16148 16151 16153 16156 16159 16162 16165 16168 16171 16174 16176 16179 16182 16185 16188 16191 16194 16197 16199 16202 16205 16208 16211 16213 16216 16219 16222 16225 16228 16230 16233 16235 16238 16241 16244 16247 16250 16253 16256 16259 16262 16265 16268 16271 16274 16277 16280 16283 16286 16289 16292 16295 16298 16301 16304 16307 16310 16313 16315 16318 16321 16324 16327 16330 16332 16334 16337 16339 16341 16344 16347 16350 16353 16356 16359 16362 16365 16368 16370 16373 16376 16379 16382 16384 16387 16390 16393 16396 16399 16402 16405 16408 16411 16414 16417 16420 16423 16426 16429 16431 16434 16437 16440 16443 16445 16448 16450 16453 16456 16459 16462 16465 16468 16471 16474 16477 16480 16483 16486 16489 16492 16495 16498 16501 16504 16507 16510 16512 16515 16518 16521 16524 16527 16530 16533 16535 16538 16541 16544 16547 16550 16553 16556 16559 16562 16565 16568 16570 16573 16576 16579 16582 16584 16587 16590 16593 16596 16599 16602 16605 16608 16610 16613 16616 16619 16622 16625 16628 16631 16634 16637 16640 16643 16646 16649 16652 16655 16658 16661 16664 16666 16669 16671 16674 16677 16680 16683 16685 16688 16691 16694 16697 16700 16703 16706 16709 16712 16715 16718 16721 16724 16726 16729 16732 16735 16738 16741 16744 16747 16750 16753 16756 16759 16761 16764 16767 16770 16773 16776 16779 16782 16785 16788 16790 16793 16796 16799 16802 16804 16807 16810 16813 16816 16819 16822 16825 16828 16831 16834 16837 16840 16843 16845 16848 16851 16854 16857 16860 16863 16865 16868 16870 16873 16876 16878 16880 16882 16885 16888 16891 16894 16897 16899 16902 16905 16908 16911 16914 16917 16920 16922 16925 16928 16930 16933 16936 16939 16941 16944 16947 16950 16952 16954 16957 16959 16962 16965 16968 16971 16973 16976 16979 16982 16985 16987 16990 16992 16994 16996 16999 17001 17004 17007 17010 17012 17015 17018 17021 17023 17026 17028 17031 17034 17036 17039 17041 17044 17047 17050 17053 17056 17059 17062 17065 17068 17071 17074 17077 17080 17083 17086 17089 17091 17094 17097 17099 17101 17104 17107 17110 17113 17115 17118 17121 17124 17127 17130 17133 17136 17139 17142 17145 17147 17150 17153 17156 17159 17162 17165 17168 17170 17173 17176 17179 17182 17185 17188 17191 17194 17197 17200 17203 17206 17209 17212 17215 17218 17221 17223 17226 17228 17230 17233 17236 17239 17242 17245 17247 17250 17253 17256 17259 17262 17265 17268 17271 17274 17276 17278 17281 17284 17287 17290 17293 17296 17299 17302 17305 17308 17310 17313 17316 17319 17322 17325 17328 17330 17333 17336 17339 17342 17345 17348 17351 17354 17357 17360 17363 17366 17369 17372 17375 17378 17381 17384 17387 17390 17393 17396 17399 17402 17404 17407 17409 17412 17415 17418 17421 17423 17426 17429 17432 17434 17437 17440 17443 17446 17449 17451 17454 17457 17460 17463 17466 17469 17471 17474 17477 17480 17483 17486 17489 17492 17495 17498 17501 17504 17507 17509 17512 17515 17518 17521 17524 17527 17530 17533 17536 17538 17541 17544 17547 17550 17553 17556 17559 17562 17565 17568 17571 17574 17577 17580 17583 17586 17589 17592 17595 17598 17601 17604 17607 17610 17613 17616 17618 17621 17624 17627 17629 17631 17634 17637 17640 17643 17646 17649 17652 17654 17656 17659 17662 17664 17667 17670 17672 17675 17677 17680 17682 17685 17687 17690 17692 17695 17698 17700 17703 17705 17708 17710 17712 17714 17717 17719 17722 17725 17727 17730 17733 17736 17739 17742 17745 17748 17750 17753 17756 17759 17761 17764 17767 17770 17773 17776 17778 17781 17784 17787 17790 17792 17795 17798 17800 17803 17805 17808 17810 17813 17816 17819 17821 17823 17826 17829 17832 17834 17837 17840 17842 17845 17847 17850 17853 17856 17859 17861 17864 17867 17870 17873 17876 17879 17882 17885 17888 17891 17894 17897 17900 17903 17906 17909 17912 17915 17918 17921 17924 17926 17929 17931 17933 17936 17939 17942 17945 17948 17951 17954 17957 17960 17963 17965 17968 17971 17974 17976 17978 17981 17984 17987 17990 17992 17994 17997 18000 18003 18006 18009 18012 18015 18018 18020 18023 18026 18028 18031 18034 18037 18039 18042 18045 18048 18051 18054 18057 18060 18063 18066 18069 18072 18074 18077 18080 18083 18086 18089 18092 18095 18098 18101 18104 18107 18110 18113 18116 18119 18122 18125 18128 18130 18133 18136 18138 18141 18144 18147 18150 18152 18155 18158 18161 18164 18167 18170 18173 18175 18178 18181 18184 18187 18190 18193 18196 18198 18201 18204 18206 18209 18212 18215 18218 18221 18224 18227 18230 18233 18236 18239 18242 18245 18248 18251 18253 18256 18259 18262 18265 18268 18271 18274 18277 18280 18283 18285 18288 18291 18294 18297 18300 18303 18306 18309 18312 18315 18318 18321 18324 18327 18329 18332 18335 18338 18340 18343 18346 18349 18352 18355 18358 18361 18364 18366 18369 18372 18375 18378 18381 18384 18387 18389 18392 18395 18398 18400 18403 18406 18409 18411 18414 18417 18420 18422 18425 18428 18431 18434 18437 18440 18443 18446 18449 18452 18455 18458 18461 18464 18467 18470 18473 18476 18479 18481 18484 18486 18489 18492 18495 18498 18501 18504 18506 18509 18512 18515 18518 18521 18524 18527 18530 18533 18536 18539 18542 18545 18548 18551 18554 18557 18559 18562 18564 18567 18570 18572 18575 18578 18581 18584 18587 18590 18593 18596 18599 18601 18604 18607 18610 18613 18616 18619 18622 18624 18627 18630 18633 18635 18638 18641 18644 18647 18650 18653 18656 18659 18662 18665 18668 18670 18673 18676 18678 18681 18684 18687 18690 18693 18696 18699 18702 18705 18708 18711 18714 18717 18720 18723 18726 18729 18731 18734 18736 18739 18742 18744 18747 18750 18753 18756 18759 18762 18765 18768 18771 18774 18777 18780 18783 18786 18789 18791 18794 18797 18799 18801 18804 18807 18810 18812 18815 18818 18821 18824 18827 18830 18833 18836 18839 18842 18845 18847 18850 18853 18856 18859 18862 18865 18868 18871 18874 18877 18880 18882 18885 18888 18891 18894 18897 18900 18903 18906 18908 18911 18914 18917 18919 18922 18924 18927 18930 18933 18936 18939 18942 18945 18948 18951 18953 18956 18958 18961 18964 18967 18970 18973 18976 18979 18981 18983 18986 18988 18991 18994 18997 19000 19003 19006 19009 19011 19014 19017 19019 19022 19025 19028 19030 19033 19036 19039 19041 19043 19046 19049 19051 19054 19057 19059 19062 19065 19067 19070 19072 19075 19078 19081 19084 19087 19089 19092 19095 19097 19100 19102 19105 19107 19110 19112 19115 19117 19120 19123 19126 19129 19131 19134 19137 19139 19142 19145 19147 19150 19153 19156 19159 19161 19164 19167 19170 19172 19174 19176 19179 19182 19185 19187 19190 19193 19195 19198 19201 19204 19206 19209 19212 19215 19218 19221 19224 19227 19230 19233 19235 19238 19241 19244 19247 19249 19251 19254 19257 19259 19262 19265 19268 19271 19274 19277 19280 19283 19286 19288 19290 19293 19296 19299 19302 19305 19308 19311 19314 19317 19320 19322 19325 19328 19331 19334 19337 19340 19343 19346 19349 19352 19355 19358 19361 19363 19365 19368 19371 19373 19376 19379 19381 19384 19387 19390 19392 19395 19398 19401 19404 19407 19410 19413 19416 19419 19422 19425 19428 19431 19433 19436 19439 19442 19445 19448 19451 19454 19457 19460 19463 19466 19468 19471 19474 19477 19480 19483 19486 19489 19492 19495 19498 19501 19503 19506 19509 19512 19515 19518 19521 19524 19527 19530 19533 19536 19539 19542 19545 19548 19551 19553 19556 19559 19562 19564 19567 19570 19573 19575 19578 19581 19584 19587 19590 19593 19596 19599 19602 19605 19608 19610 19613 19616 19619 19622 19625 19627 19630 19633 19636 19639 19642 19645 19648 19651 19654 19657 19660 19662 19665 19668 19671 19673 19676 19679 19682 19685 19688 19691 19693 19695 19698 19700 19703 19705 19708 19711 19714 19717 19720 19722 19725 19728 19731 19734 19736 19739 19741 19744 19747 19750 19753 19756 19758 19761 19764 19767 19770 19772 19775 19777 19780 19783 19786 19789 19792 19794 19797 19800 19802 19805 19808 19811 19813 19816 19819 19822 19825 19828 19830 19833 19836 19839 19842 19845 19848 19850 19852 19855 19858 19861 19864 19867 19870 19873 19876 19879 19882 19885 19888 19891 19894 19897 19900 19903 19906 19909 19912 19915 19918 19921 19924 19927 19930 19933 19936 19939 19942 19945 19948 19951 19954 19957 19960 19963 19965 19967 19970 19973 19976 19979 19982 19985 19988 19991 19994 19997 20000 20003 20006 20009 20012 20015 20017 20020 20023 20025 20028 20031 20034 20037 20040 20043 20045 20048 20051 20054 20057 20059 20062 20065 20068 20071 20074 20077 20080 20082 20085 20088 20091 20094 20097 20100 20103 20106 20108 20111 20114 20117 20120 20123 20126 20129 20132 20135 20138 20141 20144 20147 20150 20153 20156 20158 20161 20164 20167 20170 20173 20176 20179 20182 20185 20188 20191 20193 20196 20199 20202 20205 20208 20210 20213 20216 20219 20222 20225 20227 20230 20233 20236 20238 20240 20243 20246 20249 20252 20255 20258 20261 20264 20267 20270 20272 20275 20278 20281 20284 20287 20290 20293 20296 20299 20302 20305 20308 20311 20314 20317 20320 20323 20326 20329 20332 20335 20337 20340 20343 20346 20349 20352 20355 20358 20361 20364 20367 20369 20372 20375 20378 20381 20384 20387 20390 20392 20395 20398 20400 20403 20406 20409 20412 20415 20418 20421 20424 20427 20430 20433 20436 20439 20442 20445 20448 20451 20454 20456 20458 20461 20464 20467 20470 20473 20476 20478 20481 20484 20487 20489 20491 20494 20497 20500 20503 20506 20509 20511 20514 20517 20519 20522 20525 20528 20530 20533 20536 20538 20541 20543 20546 20549 20552 20554 20557 20560 20563 20566 20568 20571 20574 20577 20580 20583 20586 20589 20592 20595 20597 20600 20603 20606 20609 20612 20615 20618 20621 20624 20627 20630 20633 20636 20639 20642 20645 20648 20650 20653 20655 20658 20661 20664 20667 20670 20673 20676 20679 20682 20685 20688 20691 20694 20697 20700 20703 20706 20709 20712 20715 20718 20720 20723 20726 20729 20732 20735 20738 20741 20744 20747 20750 20753 20756 20759 20762 20765 20768 20771 20774 20777 20780 20782 20785 20788 20790 20793 20796 20798 20801 20804 20807 20810 20813 20816 20819 20822 20825 20827 20830 20833 20836 20838 20841 20844 20847 20850 20852 20855 20858 20860 20863 20866 20868 20871 20874 20876 20879 20882 20885 20888 20891 20894 20897 20900 20903 20905 20908 20911 20913 20916 20918 20921 20924 20927 20929 20931 20934 20937 20940 20942 20944 20947 20949 20951 20954 20957 20960 20962 20965 20968 20971 20974 20977 20980 20983 20986 20989 20992 20995 20998 21001 21003 21006 21008 21011 21014 21017 21020 21023 21026 21029 21031 21034 21037 21040 21043 21046 21049 21052 21055 21057 21060 21063 21066 21069 21071 21074 21076 21079 21082 21085 21087 21090 21093 21096 21099 21101 21104 21107 21109 21111 21114 21116 21119 21122 21124 21127 21130 21133 21135 21137 21139 21142 21145 21148 21151 21154 21157 21160 21163 21166 21169 21172 21175 21178 21181 21184 21187 21190 21192 21195 21198 21200 21203 21206 21209 21211 21214 21217 21219 21222 21225 21227 21229 21231 21233 21236 21239 21242 21244 21247 21250 21253 21256 21258 21261 21263 21266 21268 21271 21274 21277 21280 21282 21285 21288 21291 21294 21297 21299 21301 21303 21306 21309 21312 21315 21318 21321 21324 21326 21329 21331 21334 21336 21338 21341 21343 21346 21349 21351 21353 21356 21359 21362 21365 21368 21370 21373 21376 21379 21381 21384 21387 21389 21392 21395 21398 21401 21404 21407 21410 21413 21416 21419 21422 21425 21428 21431 21434 21437 21440 21443 21445 21448 21451 21454 21456 21459 21462 21465 21468 21470 21473 21475 21478 21481 21484 21486 21489 21492 21495 21498 21501 21504 21507 21510 21513 21516 21518 21521 21524 21527 21530 21533 21536 21539 21542 21544 21547 21550 21553 21556 21559 21561 21564 21566 21569 21572 21574 21577 21580 21583 21586 21589 21592 21595 21598 21601 21604 21607 21609 21612 21615 21617 21620 21623 21626 21629 21632 21635 21638 21640 21643 21645 21648 21650 21653 21656 21659 21661 21664 21666 21669 21672 21674 21677 21680 21682 21684 21686 21689 21692 21695 21698 21701 21703 21706 21709 21711 21714 21717 21720 21722 21724 21727 21729 21732 21734 21737 21740 21743 21745 21747 21749 21752 21755 21758 21760 21763 21766 21769 21772 21775 21777 21780 21783 21786 21789 21791 21794 21797 21800 21802 21805 21807 21810 21813 21816 21818 21821 21824 21827 21830 21833 21836 21839 21842 21845 21848 21851 21854 21857 21860 21863 21866 21869 21872 21875 21878 21881 21884 21887 21890 21893 21896 21899 21902 21905 21908 21910 21913 21916 21919 21922 21925 21928 21931 21934 21937 21940 21943 21946 21949 21952 21955 21958 21961 21964 21967 21969 21972 21975 21978 21981 21984 21987 21990 21993 21996 21999 22002 22005 22008 22011 22014 22017 22020 22022 22024 22027 22030 22032 22035 22038 22040 22043 22046 22049 22051 22054 22056 22059 22061 22064 22066 22069 22072 22075 22078 22081 22084 22087 22090 22093 22096 22099 22102 22105 22108 22111 22114 22117 22119 22122 22125 22128 22131 22133 22136 22139 22142 22145 22148 22151 22153 22156 22159 22162 22164 22167 22170 22172 22175 22178 22181 22183 22185 22187 22190 22192 22194 22197 22199 22202 22204 22207 22209 22212 22215 22217 22220 22222 22225 22228 22231 22234 22237 22240 22243 22246 22249 22252 22255 22258 22261 22264 22266 22269 22272 22275 22278 22281 22284 22287 22290 22293 22296 22299 22302 22305 22308 22310 22313 22316 22319 22321 22324 22327 22330 22332 22335 22338 22341 22343 22346 22349 22352 22355 22358 22361 22364 22367 22370 22372 22375 22378 22381 22384 22386 22389 22392 22394 22397 22400 22403 22406 22409 22412 22415 22417 22420 22423 22426 22429 22432 22435 22438 22441 22444 22447 22449 22451 22454 22457 22460 22463 22466 22469 22472 22474 22476 22479 22481 22483 22486 22488 22491 22493 22495 22498 22501 22503 22506 22509 22512 22515 22518 22521 22524 22527 22530 22533 22535 22538 22540 22543 22545 22548 22551 22554 22557 22560 22563 22566 22569 22572 22575 22578 22581 22584 22587 22590 22593 22596 22599 22602 22605 22608 22611 22614 22617 22620 22623 22626 22629 22632 22635 22638 22641 22644 22647 22650 22653 22656 22659 22662 22665 22668 22671 22674 22677 22680 22683 22686 22689 22692 22695 22698 22701 22704 22707 22710 22713 22715 22718 22721 22724 22727 22730 22733 22736 22739 22742 22745 22748 22751 22754 22757 22760 22763 22765 22767 22770 22773 22776 22779 22782 22785 22788 22791 22794 22797 22800 22803 22806 22809 22812 22815 22818 22821 22824 22827 22830 22833 22836 22839 22842 22845 22848 22851 22854 22857 22860 22863 22866 22869 22872 22875 22878 22881 22884 22887 22890 22893 22896 22899 22902 22905 22908 22911 22914 22917 22920 22923 22926 22929 22932 22935 22938 22941 22944 22947 22950 22953 22956 22959 22962 22965 22968 22971 22974 22977 22980 22983 22986 22989 22992 22995 22998 23001 23004 23007 23010 23013 23016 23019 23022 23025 23028 23031 23034 23037 23040 23043 23046 23049 23052 23055 23058 23060 23063 23066 23069 23072 23075 23078 23081 23084 23087 23090 23093 23096 23099 23102 23105 23108 23111 23114 23117 23120 23123 23125 23128 23131 23134 23137 23140 23143 23145 23148 23151 23154 23157 23160 23163 23166 23169 23172 23175 23178 23181 23184 23187 23190 23193 23196 23199 23202 23205 23208 23211 23214 23217 23220 23223 23226 23229 23232 23235 23237 23240 23243 23245 23248 23250 23253 23256 23259 23262 23265 23268 23271 23274 23277 23279 23282 23284 23287 23290 23293 23295 23298 23301 23304 23307 23310 23313 23316 23319 23322 23325 23328 23331 23334 23337 23340 23343 23346 23348 23351 23354 23357 23359 23362 23365 23367 23369 23372 23374 23377 23379 23382 23384 23387 23390 23392 23395 23398 23401 23403 23406 23409 23412 23415 23418 23420 23422 23425 23428 23430 23433 23435 23438 23440 23443 23446 23449 23452 23455 23457 23459 23461 23463 23466 23469 23472 23474 23477 23479 23481 23484 23487 23490 23493 23496 23498 23500 23503 23506 23509 23511 23513 23516 23519 23522 23525 23528 23531 23534 23537 23540 23543 23546 23548 23551 23554 23557 23560 23562 23564 23567 23570 23573 23576 23579 23581 23584 23587 23590 23593 23596 23599 23602 23605 23608 23611 23614 23616 23619 23622 23625 23627 23629 23632 23635 23638 23641 23644 23647 23650 23653 23656 23659 23661 23664 23666 23669 23672 23675 23678 23680 23683 23685 23688 23690 23693 23696 23698 23701 23704 23707 23710 23712 23715 23717 23719 23722 23725 23727 23730 23732 23734 23737 23740 23743 23746 23748 23751 23753 23756 23759 23762 23764 23766 23769 23771 23774 23776 23779 23782 23785 23788 23791 23794 23797 23800 23803 23805 23808 23811 23813 23816 23819 23822 23824 23826 23829 23832 23835 23838 23840 23843 23845 23848 23851 23854 23857 23860 23863 23866 23869 23872 23874 23877 23880 23883 23886 23889 23892 23895 23898 23901 23904 23907 23910 23913 23916 23919 23921 23924 23927 23930 23933 23936 23939 23942 23945 23948 23951 23954 23956 23959 23962 23965 23968 23971 23974 23977 23980 23983 23986 23989 23992 23995 23998 24000 24003 24006 24009 24012 24015 24018 24020 24023 24026 24029 24032 24034 24036 24039 24042 24045 24048 24050 24053 24056 24058 24060 24063 24066 24069 24072 24075 24078 24080 24083 24086 24089 24092 24095 24098 24100 24103 24105 24108 24111 24114 24117 24119 24122 24125 24128 24130 24133 24136 24139 24142 24145 24148 24151 24154 24157 24160 24163 24166 24169 24172 24175 24178 24181 24184 24186 24189 24192 24195 24198 24201 24203 24205 24207 24210 24213 24216 24219 24222 24225 24228 24231 24234 24236 24239 24241 24244 24247 24250 24253 24256 24259 24262 24265 24268 24271 24274 24277 24280 24282 24284 24287 24290 24293 24296 24299 24302 24305 24307 24310 24313 24316 24319 24321 24324 24327 24330 24333 24336 24339 24342 24345 24347 24350 24353 24356 24359 24362 24365 24368 24371 24374 24377 24380 24383 24386 24389 24392 24395 24398 24401 24404 24407 24410 24413 24416 24419 24422 24425 24428 24431 24434 24437 24440 24443 24446 24449 24451 24454 24457 24460 24463 24466 24469 24472 24475 24478 24481 24484 24487 24490 24493 24496 24499 24502 24505 24508 24511 24514 24517 24519 24522 24525 24528 24531 24534 24537 24540 24543 24546 24548 24551 24553 24556 24559 24561 24564 24566 24569 24572 24575 24578 24581 24584 24587 24590 24593 24596 24599 24602 24604 24607 24610 24613 24616 24619 24621 24624 24627 24630 24633 24636 24639 24642 24645 24648 24651 24653 24656 24659 24661 24664 24667 24670 24673 24676 24679 24682 24685 24688 24691 24694 24696 24699 24702 24705 24708 24711 24713 24716 24719 24722 24724 24727 24730 24733 24736 24738 24740 24743 24746 24749 24752 24754 24757 24759 24762 24764 24766 24769 24772 24775 24778 24780 24783 24786 24788 24791 24794 24796 24799 24802 24805 24807 24810 24813 24816 24819 24822 24825 24828 24830 24832 24835 24837 24840 24843 24846 24849 24852 24855 24858 24861 24864 24867 24870 24873 24876 24879 24882 24884 24886 24889 24891 24894 24897 24900 24903 24905 24908 24911 24914 24917 24920 24923 24926 24929 24932 24935 24937 24940 24943 24946 24948 24951 24954 24957 24960 24963 24966 24969 24972 24975 24978 24981 24984 24987 24990 24992 24995 24997 25000 25003 25006 25009 25012 25015 25018 25021 25024 25027 25030 25033 25036 25039 25042 25045 25048 25051 25053 25056 25059 25062 25065 25068 25071 25074 25077 25080 25083 25086 25089 25092 25095 25098 25101 25104 25107 25110 25112 25115 25118 25121 25124 25127 25130 25133 25136 25139 25141 25144 25147 25150 25152 25155 25158 25161 25164 25167 25170 25173 25176 25178 25181 25183 25186 25189 25192 25195 25198 25200 25203 25206 25209 25212 25215 25218 25221 25224 25227 25230 25232 25235 25238 25241 25244 25246 25249 25252 25255 25258 25260 25263 25266 25268 25271 25274 25277 25279 25281 25284 25287 25290 25293 25295 25297 25300 25303 25306 25309 25312 25314 25317 25320 25323 25326 25329 25331 25334 25337 25339 25342 25345 25348 25350 25353 25356 25358 25361 25364 25367 25370 25373 25376 25378 25381 25383 25386 25389 25392 25394 25396 25399 25402 25404 25407 25410 25412 25415 25418 25421 25423 25426 25429 25432 25435 25438 25441 25444 25447 25450 25452 25454 25457 25460 25463 25465 25468 25471 25473 25476 25479 25482 25485 25488 25491 25494 25497 25500 25502 25505 25508 25511 25514 25517 25520 25523 25526 25529 25532 25535 25537 25540 25543 25546 25549 25551 25554 25557 25560 25563 25566 25569 25572 25575 25577 25580 25583 25586 25589 25591 25594 25597 25600 25603 25605 25608 25611 25613 25616 25619 25621 25623 25626 25629 25631 25634 25637 25640 25642 25644 25647 25649 25652 25655 25657 25659 25661 25664 25666 25669 25672 25675 25677 25680 25683 25685 25688 25691 25694 25697 25700 25703 25705 25708 25711 25714 25717 25720 25723 25725 25728 25731 25733 25735 25738 25741 25743 25745 25748 25751 25754 25756 25759 25762 25764 25766 25769 25772 25775 25778 25781 25783 25785 25787 25790 25792 25795 25798 25800 25803 25805 25808 25811 25814 25816 25819 25821 25823 25826 25829 25831 25834 25837 25840 25842 25845 25847 25850 25853 25855 25858 25861 25863 25866 25869 25872 25875 25878 25881 25884 25887 25890 25893 25896 25899 25902 25904 25907 25910 25913 25915 25917 25920 25922 25925 25928 25931 25933 25936 25938 25941 25944 25947 25950 25953 25956 25959 25961 25964 25967 25970 25973 25976 25979 25982 25985 25988 25991 25994 25997 26000 26003 26005 26008 26011 26014 26017 26020 26022 26025 26028 26031 26033 26036 26039 26042 26045 26047 26049 26051 26054 26057 26060 26063 26065 26068 26071 26073 26076 26079 26082 26084 26087 26090 26092 26095 26097 26100 26102 26105 26108 26111 26114 26117 26120 26123 26126 26129 26132 26135 26138 26141 26144 26146 26149 26152 26155 26158 26161 26164 26167 26170 26173 26175 26178 26181 26184 26187 26190 26192 26195 26198 26201 26204 26207 26210 26212 26215 26218 26220 26223 26226 26229 26232 26235 26238 26241 26243 26245 26248 26250 26253 26256 26259 26261 26264 26267 26270 26272 26275 26278 26281 26284 26287 26289 26292 26294 26296 26299 26302 26305 26308 26310 26313 26316 26319 26322 26325 26327 26330 26333 26336 26338 26341 26343 26346 26349 26352 26355 26358 26361 26364 26367 26370 26373 26376 26379 26382 26385 26388 26391 26394 26397 26400 26403 26406 26409 26412 26415 26417 26420 26423 26425 26428 26431 26434 26437 26439 26441 26444 26447 26450 26452 26455 26458 26461 26464 26467 26470 26473 26476 26478 26481 26484 26487 26490 26493 26496 26498 26501 26504 26506 26509 26512 26515 26517 26520 26523 26526 26528 26531 26533 26535 26538 26541 26543 26546 26548 26551 26554 26556 26559 26562 26564 26566 26569 26572 26574 26577 26580 26583 26586 26589 26592 26595 26598 26600 26602 26605 26608 26611 26613 26616 26619 26621 26624 26626 26628 26631 26634 26636 26638 26641 26644 26646 26649 26652 26654 26657 26660 26662 26664 26667 26670 26673 26676 26678 26681 26684 26687 26689 26692 26694 26697 26699 26702 26704 26707 26710 26712 26715 26718 26721 26723 26725 26728 26731 26734 26736 26739 26741 26744 26746 26748 26751 26754 26757 26759 26762 26764 26767 26769 26772 26774 26777 26780 26783 26786 26789 26792 26795 26798 26801 26804 26807 26810 26812 26815 26818 26821 26824 26827 26830 26833 26836 26839 26841 26844 26847 26850 26852 26855 26858 26861 26864 26866 26868 26871 26874 26877 26880 26883 26885 26888 26891 26893 26895 26897 26900 26903 26906 26909 26911 26914 26917 26919 26922 26925 26928 26930 26933 26936 26938 26941 26943 26946 26949 26952 26955 26958 26961 26963 26966 26969 26972 26975 26978 26981 26984 26987 26989 26992 26995 26998 27001 27004 27007 27010 27013 27016 27018 27021 27024 27027 27030 27033 27036 27039 27042 27045 27048 27050 27053 27056 27059 27062 27065 27068 27071 27074 27077 27080 27082 27085 27088 27091 27094 27097 27100 27103 27106 27109 27112 27115 27118 27121 27124 27127 27130 27133 27136 27139 27142 27145 27148 27151 27154 27157 27160 27163 27165 27168 27170 27173 27175 27178 27181 27184 27187 27190 27193 27196 27199 27202 27205 27207 27209 27212 27215 27218 27221 27224 27227 27229 27232 27235 27237 27239 27242 27245 27248 27250 27253 27256 27259 27261 27264 27266 27269 27272 27275 27278 27281 27283 27286 27288 27291 27294 27296 27299 27302 27304 27307 27310 27312 27314 27317 27319 27322 27324 27327 27330 27333 27335 27338 27340 27342 27345 27348 27351 27353 27356 27359 27361 27364 27367 27370 27373 27376 27378 27381 27384 27386 27389 27392 27395 27397 27400 27403 27406 27409 27411 27414 27417 27419 27422 27425 27427 27430 27432 27435 27438 27441 27443 27445 27448 27451 27454 27457 27460 27463 27465 27468 27471 27474 27477 27480 27483 27486 27489 27492 27495 27498 27501 27504 27507 27510 27513 27516 27519 27522 27525 27527 27530 27533 27536 27538 27541 27544 27547 27549 27551 27554 27557 27559 27562 27564 27567 27569 27572 27575 27578 27580 27583 27586 27589 27591 27593 27595 27598 27601 27603 27606 27609 27612 27614 27617 27620 27622 27625 27627 27630 27633 27636 27638 27640 27643 27645 27647 27650 27653 27656 27659 27662 27665 27667 27670 27673 27676 27678 27680 27683 27686 27689 27692 27695 27698 27701 27704 27707 27709 27712 27715 27718 27721 27723 27726 27729 27732 27735 27738 27741 27744 27747 27750 27753 27756 27759 27762 27765 27768 27771 27774 27776 27779 27782 27785 27788 27791 27794 27797 27800 27803 27806 27809 27812 27815 27818 27821 27824 27827 27830 27833 27836 27839 27842 27845 27848 27851 27854 27856 27859 27862 27865 27868 27871 27874 27876 27878 27881 27883 27886 27889 27892 27895 27898 27901 27904 27907 27910 27913 27916 27919 27922 27924 27927 27929 27931 27934 27937 27939 27942 27945 27948 27951 27954 27957 27959 27962 27965 27968 27971 27974 27977 27980 27983 27986 27988 27991 27994 27997 28000 28003 28006 28009 28012 28015 28018 28020 28023 28026 28028 28031 28033 28035 28038 28041 28044 28047 28050 28053 28056 28059 28061 28064 28067 28070 28073 28076 28079 28081 28084 28087 28090 28093 28095 28098 28100 28102 28105 28108 28111 28114 28117 28120 28123 28126 28128 28131 28134 28137 28140 28143 28146 28149 28152 28154 28157 28160 28163 28166 28169 28172 28175 28177 28180 28182 28185 28188 28190 28192 28195 28197 28199 28202 28205 28208 28210 28213 28216 28219 28222 28225 28228 28230 28233 28235 28238 28241 28243 28246 28249 28252 28255 28258 28261 28263 28266 28268 28271 28273 28276 28278 28280 28283 28286 28289 28292 28294 28297 28300 28303 28306 28309 28312 28315 28318 28321 28323 28326 28329 28332 28335 28338 28341 28343 28346 28349 28352 28354 28357 28360 28362 28365 28367 28370 28373 28376 28379 28381 28384 28386 28389 28392 28395 28398 28401 28403 28405 28408 28411 28414 28417 28420 28423 28426 28429 28432 28435 28438 28441 28444 28447 28450 28453 28456 28459 28462 28465 28468 28471 28474 28477 28480 28483 28486 28489 28492 28495 28498 28501 28504 28507 28510 28513 28516 28519 28522 28525 28528 28531 28534 28537 28540 28543 28546 28549 28551 28554 28557 28559 28561 28564 28567 28570 28573 28575 28578 28581 28584 28587 28590 28593 28596 28599 28602 28605 28608 28611 28614 28617 28620 28623 28625 28628 28631 28633 28636 28638 28641 28644 28647 28650 28653 28656 28659 28662 28665 28668 28671 28674 28677 28680 28683 28686 28688 28691 28694 28697 28700 28703 28706 28708 28711 28714 28717 28720 28723 28726 28729 28732 28735 28738 28741 28744 28746 28749 28752 28755 28758 28760 28763 28766 28769 28772 28775 28778 28781 28784 28787 28789 28792 28795 28798 28801 28803 28806 28809 28812 28815 28818 28821 28824 28827 28830 28833 28835 28838 28841 28843 28845 28848 28851 28854 28857 28860 28863 28866 28869 28872 28875 28878 28881 28884 28887 28890 28893 28895 28898 28901 28904 28907 28910 28912 28915 28918 28921 28923 28926 28929 28932 28935 28937 28940 28942 28945 28948 28951 28953 28955 28958 28961 28964 28967 28970 28972 28975 28977 28980 28983 28986 28989 28992 28995 28998 29000 29003 29006 29009 29012 29015 29017 29019 29022 29025 29027 29030 29033 29036 29038 29041 29043 29046 29049 29051 29054 29057 29060 29062 29065 29068 29071 29074 29077 29080 29082 29085 29087 29090 29093 29096 29098 29101 29104 29107 29110 29113 29116 29119 29122 29125 29128 29131 29134 29137 29140 29143 29146 29149 29152 29155 29158 29160 29163 29166 29168 29170 29173 29176 29178 29181 29184 29186 29189 29192 29195 29198 29201 29204 29207 29210 29213 29216 29219 29222 29225 29228 29231 29234 29237 29240 29243 29246 29249 29252 29255 29258 29261 29264 29267 29270 29272 29275 29278 29281 29283 29286 29289 29292 29295 29298 29301 29304 29307 29310 29312 29315 29318 29321 29323 29326 29328 29331 29334 29337 29340 29342 29345 29348 29351 29354 29356 29359 29362 29365 29367 29370 29373 29376 29378 29381 29384 29387 29389 29392 29395 29398 29401 29404 29407 29409 29412 29415 29418 29421 29424 29427 29430 29433 29436 29439 29442 29444 29447 29450 29453 29456 29459 29462 29465 29468 29471 29474 29477 29480 29483 29486 29489 29492 29495 29497 29500 29503 29505 29507 29510 29513 29515 29518 29520 29522 29525 29528 29531 29534 29537 29540 29542 29544 29547 29550 29552 29554 29557 29560 29562 29565 29567 29570 29572 29575 29578 29581 29584 29587 29590 29593 29596 29599 29601 29604 29607 29610 29613 29615 29618 29621 29624 29627 29630 29633 29636 29638 29640 29643 29646 29649 29652 29655 29658 29661 29664 29667 29670 29673 29675 29678 29681 29684 29686 29689 29692 29695 29698 29701 29704 29706 29709 29712 29715 29717 29720 29723 29725 29727 29730 29733 29735 29738 29741 29744 29746 29749 29751 29754 29757 29760 29763 29766 29769 29772 29774 29777 29780 29783 29785 29788 29790 29793 29796 29799 29802 29805 29808 29810 29813 29816 29819 29822 29825 29828 29831 29834 29837 29840 29843 29846 29849 29852 29855 29858 29861 29864 29867 29870 29873 29875 29878 29881 29884 29887 29890 29893 29896 29899 29902 29905 29908 29911 29914 29916 29919 29922 29925 29928 29931 29934 29937 29940 29943 29946 29949 29952 29955 29958 29961 29964 29967 29970 29973 29975 29978 29981 29983 29986 29989 29992 29995 29997 30000 30003 30006 30009 30012 30015 30018 30021 30023 30026 30029 30032 30035 30038 30041 30044 30047 30050 30053 30056 30059 30062 30064 30067 30070 30073 30076 30078 30081 30083 30086 30089 30092 30095 30098 30101 30103 30106 30109 30112 30115 30117 30120 30123 30126 30128 30131 30134 30137 30140 30143 30146 30149 30151 30154 30157 30160 30163 30166 30168 30171 30174 30177 30180 30183 30186 30189 30191 30194 30197 30200 30202 30205 30208 30211 30214 30217 30219 30222 30225 30228 30231 30234 30237 30240 30243 30246 30249 30252 30255 30258 30261 30264 30267 30270 30272 30275 30278 30280 30283 30286 30288 30291 30294 30297 30299 30302 30305 30308 30310 30313 30316 30319 30322 30325 30328 30331 30334 30337 30340 30342 30345 30348 30351 30354 30356 30359 30362 30365 30368 30371 30374 30377 30380 30382 30385 30387 30390 30393 30396 30399 30402 30404 30407 30409 30412 30415 30418 30421 30424 30426 30429 30432 30435 30438 30441 30444 30447 30450 30453 30456 30458 30461 30464 30466 30469 30472 30475 30478 30480 30483 30486 30489 30491 30494 30497 30500 30503 30506 30509 30512 30515 30518 30521 30524 30527 30530 30533 30536 30538 30541 30544 30547 30550 30553 30556 30558 30561 30564 30567 30570 30573 30576 30579 30582 30585 30587 30590 30593 30595 30598 30601 30603 30606 30608 30611 30614 30617 30620 30623 30626 30629 30632 30634 30637 30640 30642 30645 30648 30650 30653 30655 30658 30661 30664 30667 30670 30673 30676 30679 30682 30684 30687 30690 30693 30696 30699 30701 30704 30707 30710 30713 30716 30719 30722 30725 30728 30731 30734 30736 30739 30742 30745 30748 30751 30754 30757 30760 30763 30765 30768 30771 30774 30776 30779 30782 30785 30788 30790 30793 30796 30799 30802 30804 30807 30810 30812 30815 30818 30821 30824 30827 30830 30832 30835 30838 30841 30844 30847 30850 30853 30856 30859 30862 30865 30868 30870 30873 30876 30879 30882 30885 30887 30890 30892 30895 30898 30901 30904 30907 30910 30913 30916 30919 30922 30925 30928 30931 30934 30937 30940 30943 30946 30949 30952 30955 30958 30961 30964 30967 30970 30973 30976 30979 30982 30985 30988 30991 30994 30997 31000 31003 31005 31008 31011 31014 31017 31020 31023 31026 31029 31032 31035 31038 31041 31044 31047 31050 31053 31056 31058 31061 31064 31067 31070 31073 31076 31079 31082 31085 31088 31091 31094 31097 31099 31102 31105 31107 31109 31111 31114 31117 31120 31123 31126 31129 31132 31135 31138 31141 31144 31147 31150 31153 31156 31158 31160 31163 31166 31169 31172 31174 31177 31179 31182 31185 31188 31191 31194 31197 31200 31203 31206 31209 31212 31215 31218 31221 31224 31227 31230 31233 31236 31238 31241 31243 31246 
</DataArray>
<DataArray type="UInt32" Name="types" format="ascii">
5 5 3 5 5 5 5 5 5 3 5 5 5 5 5 5 5 5 5 5 5 5 3 5 5 5 5 3 5 3 5 5 5 5 3 5 5 3 5 5 5 3 5 5 5 3 5 5 5 5 3 5 3 5 5 5 5 3 5 5 5 5 3 5 5 5 5 5 5 5 5 5 5 5 5 5 5 5 5 5 5 3 5 5 5 5 5 5 5 5 3 5 5 5 5 5 5 5 5 5 5 5 5 5 5 5 5 5 5 5 5 5 5 5 5 5 5 5 5 3 5 5 3 5 5 5 5 5 5 5 5 5 3 5 5 5 3 5 5 5 5 5 3 5 3 5 3 5 5 5 5 5 5 5 5 5 5 5 3 5 5 5 5 5 5 5 5 5 3 5 5 5 5 5 3 5 5 5 5 5 5 3 5 5 5 5 5 5 5 5 3 5 5 5 5 5 5 3 5 5 3 5 5 5 3 5 3 5 5 5 5 5 5 5 5 5 5 5 5 5 5 5 5 5 5 5 5 5 5 5 5 5 5 5 5 5 5 5 5 5 5 5 5 3 5 5 5 5 5 3 5 5 5 5 3 5 5 5 5 5 5 5 5 5 5 5 5 5 3 5 5 5 5 5 5 5 5 5 5 5 5 5 5 5 5 5 5 5 5 3 5 5 5 3 5 5 3 3 5 5 5 5 5 5 5 5 5 5 5 5 5 5 5 5 5 5 5 3 5 5 5 5 5 5 3 5 5 5 5 5 5 5 5 5 5 5 5 3 5 5 5 5 3 3 5 5 3 5 5 5 3 5 5 5 5 5 5 5 5 5 5 5 3 5 5 3 5 5 5 5 5 5 5 5 5 5 5 5 5 5 5 5 3 5 5 5 5 5 5 3 5 5 5 5 5 5 5 5 5 5 5 5 5 5 5 5 5 5 5 5 5 5 5 5 5 5 5 5 5 5 5 5 5 5 5 5 5 5 5 5 5 5 5 5 5 5 5 5 5 5 5 5 5 5 3 3 5 5 5 5 5 3 5 5 5 5 5 3 5 5 5 3 3 3 5 3 5 5 5 5 5 3 5 5 5 5 3 5 5 5 5 5 5 5 5 5 3 5 3 5 5 5 5 5 5 5 5 5 5 5 5 3 3 5 5 5 5 5 5 5 5 3 5 5 5 5 5 5 5 5 5 5 5 3 5 5 5 3 5 5 5 5 5 5 5 5 5 5 5 5 5 5 5 5 5 5 5 5 5 5 5 3 5 5 5 5 3 5 5 5 5 5 5 5 5 5 5 5 5 5 5 5 5 5 5 5 5 5 5 5 5 5 5 5 5 5 5 3 5 5 3 5 5 5 5 5 5 5 5 5 5 3 5 5 5 5 5 3 3 5 5 5 5 5 3 5 5 5 5 5 5 5 5 5 5 3 5 5 5 5 5 5 5 3 5 5 5 5 5 5 5 5 5 5 3 5 5 5 3 5 5 5 5 3 5 5 5 5 5 5 5 5 5 5 3 3 3 5 5 5 5 5 3 5 3 3 5 3 5 5 5 3 5 5 3 5 5 3 5 3 5 5 5 5 3 5 5 5 5 5 3 5 5 5 5 5 5 5 5 5 3 5 5 5 5 5 5 5 5 3 5 5 5 5 5 5 3 5 5 5 5 5 5 3 5 3 5 5 5 3 5 5 5 5 5 5 3 3 5 3 5 5 5 5 5 5 3 5 5 5 5 5 5 5 5 3 5 5 5 5 5 5 5 5 5 5 5 3 5 5 3 5 5 5 5 5 5 5 5 5 5 5 3 5 5 5 5 3 5 5 5 5 3 5 5 5 5 3 5 5 5 5 5 5 5 5 5 5 3 5 5 5 3 5 5 3 5 5 3 5 3 5 5 5 5 5 5 5 3 5 5 3 5 5 5 5 3 3 5 5 3 5 5 5 5 3 5 5 5 5 5 3 5 5 5 5 5 5 5 5 5 5 5 5 5 5 5 5 5 5 5 5 5 5 5 5 5 3 5 5 5 5 5 5 5 5 5 5 5 5 5 5 5 5 3 5 5 5 5 5 5 5 5 5 5 5 5 5 5 5 5 5 5 5 5 5 5 5 5 5 5 5 5 5 5 5 5 5 3 5 5 3 5 5 5 5 5 3 5 5 3 5 5 5 3 5 5 5 3 5 5 5 5 5 5 5 3 5 5 5 5 5 5 5 5 5 5 5 5 5 5 5 5 5 5 5 5 5 5 5 3 5 5 5 5 5 5 5 5 5 3 5 5 5 5 5 5 5 5 5 5 5 5 5 5 5 5 5 5 5 5 5 3 5 5 5 5 5 5 5 5 3 5 5 3 5 5 5 5 5 5 5 5 5 5 3 5 5 5 5 5 3 5 5 5 5 5 5 5 5 5 5 5 3 5 3 3 5 5 5 5 5 5 5 3 5 3 5 5 3 5 5 5 5 5 3 5 5 5 5 5 5 3 5 3 5 5 3 5 5 5 5 5 5 3 5 5 5 5 5 3 3 5 3 5 5 5 3 5 5 3 5 5 5 5 3 5 5 5 3 5 5 5 3 5 5 5 3 5 5 5 5 5 5 5 5 5 5 5 3 5 5 5 5 5 3 5 5 5 5 5 5 5 5 5 5 5 5 3 5 3 5 5 3 5 5 3 5 5 5 5 5 5 5 5 5 5 5 5 5 5 3 3 5 5 5 5 5 5 5 5 3 5 5 5 5 5 5 5 5 5 5 5 3 5 5 3 5 5 5 5 5 5 3 5 5 5 5 5 5 5 3 5 3 3 5 5 5 5 5 5 5 5 5 5 5 5 5 5 5 5 5 5 5 5 5 5 3 5 5 5 3 5 5 5 5 5 5 3 5 5 5 5 5 5 5 5 5 5 5 5 5 5 5 5 5 5 5 5 5 5 5 5 5 5 5 5 3 5 3 5 5 5 5 5 5 3 5 5 5 5 3 5 5 5 5 5 3 5 3 5 5 5 5 5 5 3 5 5 5 5 5 5 3 5 3 5 5 5 5 5 5 5 5 3 5 5 3 5 5 5 5 3 3 3 5 3 5 3 5 5 3 5 5 5 5 5 5 3 5 5 3 3 5 3 3 5 5 5 3 5 5 5 5 5 5 3 5 3 5 3 5 5 3 3 5 5 5 5 5 3 5 5 5 5 5 5 5 5 5 5 5 3 5 5 5 5 5 5 5 5 5 5 5 5 5 5 5 5 5 3 5 5 5 5 5 5 5 5 3 5 5 5 5 5 5 5 5 3 5 5 5 5 5 5 5 5 3 5 5 5 3 5 5 5 3 3 5 5 5 5 5 5 5 5 5 5 5 5 5 5 5 5 5 5 5 5 5 5 3 5 5 5 5 3 5 5 5 5 5 5 5 3 3 5 5 5 5 3 5 5 5 5 5 5 5 5 5 5 5 5 5 5 5 5 5 5 5 5 5 5 5 5 5 5 5 5 5 5 3 5 5 5 3 5 5 5 5 5 5 5 5 5 5 3 5 5 5 3 5 5 3 5 5 5 5 5 5 5 5 5 5 5 5 5 5 5 5 5 5 5 3 5 5 5 5 5 5 5 5 5 5 3 5 5 5 5 5 3 5 5 5 3 5 5 5 5 5 5 5 5 3 5 3 5 5 5 5 5 5 5 5 5 5 5 5 5 5 5 5 5 5 5 5 5 5 5 5 5 5 5 5 5 5 5 5 5 5 5 3 5 5 5 5 5 5 5 5 5 5 3 5 5 5 5 5 5 5 5 5 5 5 3 5 5 5 5 5 5 5 5 5 5 5 5 5 5 5 5 5 5 5 5 5 5 5 5 5 5 3 5 5 5 5 3 5 5 5 5 3 5 5 5 5 5 5 5 5 3 5 5 3 5 5 5 5 5 3 5 5 5 5 5 5 5 5 5 5 5 5 5 3 5 5 5 3 5 5 5 5 5 5 5 5 5 5 5 3 5 3 5 5 5 5 5 5 5 5 3 5 3 5 5 3 5 5 3 3 5 5 3 5 5 5 3 3 5 5 5 5 3 5 3 5 3 5 5 3 5 3 5 3 5 5 3 5 5 3 5 5 3 5 5 5 5 5 5 5 5 3 5 5 5 5 5 5 3 5 3 3 5 3 5 3 3 5 3 5 3 5 5 5 5 3 3 3 5 5 5 3 5 3 5 5 5 5 5 5 5 5 5 5 5 5 5 5 5 5 5 5 5 3 5 5 3 3 5 3 5 5 5 5 3 3 5 5 3 5 5 5 5 5 5 5 5 5 5 5 5 5 3 5 5 5 5 3 3 5 5 3 5 5 5 5 3 3 3 5 5 5 5 3 5 5 5 5 5 5 5 5 5 5 5 3 5 3 5 5 5 5 3 5 5 5 5 5 3 5 5 5 5 5 5 5 5 3 3 5 3 5 5 5 3 5 5 5 5 5 5 5 5 5 5 5 5 5 5 5 5 5 5 5 5 5 5 5 5 5 5 5 5 5 5 5 5 5 5 5 5 5 5 5 5 5 5 5 5 5 5 5 5 5 5 5 5 5 5 3 5 3 5 5 5 5 5 5 5 3 5 5 5 5 5 5 5 5 5 5 5 5 5 5 5 5 5 5 3 3 5 5 5 3 5 5 5 5 3 5 5 5 5 5 5 5 5 5 5 5 5 3 5 3 3 5 5 5 5 3 5 5 5 3 5 3 5 5 5 5 5 3 5 3 5 3 5 5 3 5 5 3 3 5 3 5 5 5 3 5 5 5 5 5 5 5 5 5 5 5 5 5 5 5 5 5 5 5 5 5 5 5 5 3 3 5 5 5 3 5 5 5 5 5 5 5 5 3 5 5 5 5 5 3 5 3 5 5 5 5 5 5 5 5 5 5 5 5 3 5 5 5 5 5 3 5 5 5 3 5 5 5 5 5 5 3 5 5 3 5 5 5 5 5 5 5 3 3 5 5 5 3 5 5 5 5 5 3 5 5 5 5 3 5 5 5 5 5 3 5 5 5 5 5 5 5 5 5 3 5 5 5 5 5 5 5 3 5 5 5 5 5 5 5 5 5 5 5 5 5 5 5 5 5 5 5 3 5 5 5 5 5 5 5 5 5 5 5 5 5 5 3 5 3 5 5 5 5 5 5 5 5 5 5 5 5 3 5 5 5 5 5 5 5 3 5 5 5 3 5 3 5 5 5 5 5 5 5 5 5 5 5 5 5 5 5 5 5 5 5 5 3 5 5 5 5 5 5 5 5 5 5 5 5 5 5 5 3 5 5 5 5 3 5 5 5 5 5 5 5 5 5 5 5 5 5 5 5 5 5 5 5 5 5 5 5 5 5 5 5 5 5 5 5 5 5 5 5 5 5 3 5 5 5 5 5 5 5 5 3 5 5 5 5 3 5 5 5 5 5 3 5 5 5 5 5 3 5 3 5 5 3 5 5 5 5 3 5 5 5 5 5 3 5 5 5 5 5 5 5 5 5 5 5 5 5 5 5 3 5 5 5 5 5 5 5 5 5 5 5 5 5 5 5 5 5 5 5 3 5 5 5 5 5 5 5 5 5 5 5 3 5 5 3 5 5 5 5 5 5 5 5 5 5 5 5 5 5 5 5 3 5 3 5 5 5 5 5 5 5 5 5 5 5 5 5 5 5 5 5 5 5 5 5 5 5 5 5 5 5 5 5 5 5 5 5 5 5 5 3 5 5 5 5 3 5 5 5 3 3 5 5 5 5 5 5 5 5 5 5 5 5 5 5 5 5 5 5 5 5 3 5 5 5 5 5 3 5 5 5 5 5 5 5 5 5 5 5 5 5 5 5 5 3 5 5 3 5 3 5 5 5 5 5 5 5 5 5 3 5 5 5 5 5 5 5 5 5 5 5 5 5 5 5 3 5 3 5 5 5 5 5 5 3 5 5 5 5 5 5 5 5 3 5 5 5 3 5 5 5 5 5 5 3 5 5 3 5 5 5 5 5 5 5 5 5 3 5 5 5 5 5 5 3 5 5 5 5 3 5 3 5 5 3 5 3 5 5 5 5 3 5 5 5 5 5 5 5 5 5 5 5 5 5 5 3 5 5 5 5 5 5 5 5 3 5 5 5 5 5 5 5 5 5 5 5 5 5 5 5 5 5 3 5 5 5 5 5 5 5 5 5 5 5 5 5 5 5 5 3 5 5 3 5 5 5 5 5 5 5 5 3 5 5 5 3 5 5 3 5 5 5 5 3 5 5 5 5 5 5 5 5 3 5 5 5 5 5 5 5 5 5 5 5 3 5 5 5 5 5 5 5 5 5 5 5 5 5 5 5 5 5 5 5 5 5 5 3 5 5 3 5 5 5 5 5 5 5 5 5 5 5 5 5 5 5 5 5 5 5 5 5 5 5 5 5 5 3 5 5 5 3 5 5 5 5 5 5 5 5 5 5 3 5 5 5 3 5 5 5 5 3 5 5 5 5 5 5 5 5 5 5 3 5 5 3 5 5 5 5 5 5 5 5 5 5 5 5 5 5 5 5 5 5 5 5 3 5 5 5 5 5 5 5 5 5 5 3 5 5 5 5 5 5 5 5 5 5 3 5 3 3 3 5 5 5 5 5 5 5 3 5 5 5 3 5 5 5 5 5 5 5 5 5 5 3 5 5 5 5 5 5 5 5 5 5 5 5 5 5 5 5 5 5 5 5 5 5 5 5 5 5 5 5 5 5 5 5 5 5 5 3 5 5 5 5 5 5 5 5 5 5 5 5 5 5 5 5 5 5 5 5 5 5 5 5 5 5 5 5 5 5 5 5 5 5 5 5 5 5 5 3 5 5 5 5 5 5 5 3 5 5 5 3 5 5 5 5 5 3 5 5 5 3 3 3 5 5 5 5 5 5 5 5 3 5 5 5 5 5 5 5 5 5 5 5 5 5 5 5 5 5 5 5 5 5 5 5 5 5 5 3 5 5 5 5 5 5 5 5 5 5 5 5 5 5 5 5 5 5 5 5 5 5 5 5 5 5 5 5 5 5 5 5 5 5 5 5 5 5 3 5 5 5 5 5 5 5 5 3 5 5 3 5 5 5 5 5 5 5 5 5 5 5 3 5 5 5 5 5 5 5 3 3 5 5 3 5 3 5 5 5 5 5 5 5 5 5 5 5 5 5 5 5 5 5 5 5 5 3 5 5 5 3 5 5 5 5 5 5 5 5 5 5 5 5 3 5 5 5 5 5 5 3 5 3 5 5 5 5 5 5 5 5 5 3 5 5 5 5 5 3 5 3 5 3 3 5 3 5 3 5 3 5 5 5 5 5 5 5 5 5 5 3 5 3 5 5 5 5 5 5 5 5 5 5 5 5 5 5 5 5 5 5 5 5 5 5 5 5 5 5 5 5 5 5 5 5 5 5 5 3 5 5 5 5 5 5 5 3 5 5 5 5 5 3 5 5 5 3 5 5 5 5 5 5 5 3 5 5 3 5 5 5 5 5 5 5 5 5 5 5 5 5 5 5 5 5 5 5 5 5 5 3 5 5 3 5 5 5 5 5 5 5 5 5 5 5 5 5 5 5 5 5 3 5 5 5 5 5 5 5 5 5 5 3 5 5 5 3 5 5 5 5 5 3 3 5 5 3 5 5 5 3 5 5 5 3 3 5 3 5 5 5 3 5 5 5 5 5 5 5 5 5 5 5 5 3 5 5 5 5 5 5 5 5 5 5 3 5 5 5 5 3 5 5 3 5 5 5 3 5 5 5 5 5 5 3 5 5 5 5 5 3 5 5 5 3 5 5 5 5 5 3 5 5 5 5 5 5 3 3 5 5 5 5 5 5 5 5 5 5 5 5 5 5 3 5 5 5 5 5 5 5 5 3 5 5 5 5 5 5 5 5 5 5 5 5 3 5 5 5 3 5 5 5 3 5 5 5 5 5 5 5 5 5 5 5 5 5 5 5 5 5 5 5 5 5 5 5 5 5 5 5 5 5 5 5 3 3 5 5 3 5 5 3 5 5 3 5 5 3 5 5 3 3 5 5 5 5 5 5 3 5 5 5 5 5 5 5 5 5 5 3 5 5 5 5 5 5 5 5 5 5 5 5 5 5 5 5 5 5 5 5 5 5 5 5 5 5 5 5 3 5 5 5 5 5 5 5 5 5 5 5 5 5 5 5 5 5 5 3 5 3 5 5 5 5 5 5 5 5 5 5 5 5 5 5 5 5 3 5 5 5 5 5 5 3 5 3 5 5 5 3 3 5 5 5 5 5 5 3 5 5 3 5 5 5 5 3 5 5 5 5 5 5 3 5 5 5 5 5 3 5 5 5 5 5 5 5 5 5 5 5 5 5 5 5 5 3 5 5 5 5 3 5 5 5 5 3 5 3 5 5 5 3 5 5 5 5 5 5 5 5 3 5 5 5 5 5 5 5 5 5 3 5 5 5 5 5 5 5 5 5 5 5 3 5 5 3 5 5 5 3 3 5 5 5 5 5 5 5 3 5 5 5 3 3 5 5 5 5 3 5 5 3 3 3 5 3 5 3 5 3 5 5 5 5 5 5 5 5 5 5 5 5 3 5 5 5 5 5 5 5 5 5 5 5 5 5 5 5 5 5 5 5 5 5 5 5 5 5 5 3 5 5 5 5 5 5 5 5 5 5 5 5 5 5 5 5 3 5 3 3 3 5 5 5 5 3 5 5 3 5 5 5 5 3 5 5 5 5 3 5 5 5 5 5 5 5 5 3 5 5 3 5 3 5 5 5 5 5 5 5 5 5 5 5 5 5 5 5 5 5 5 5 5 5 5 5 5 5 5 5 5 5 5 5 5 5 5 5 5 5 5 5 5 5 5 5 5 5 5 5 5 5 5 5 5 5 5 5 5 5 5 5 5 5 5 5 5 5 5 5 5 5 5 5 5 5 5 5 5 5 5 5 5 5 5 5 5 5 5 5 5 5 5 5 5 5 5 3 3 5 5 5 5 5 5 5 5 5 5 5 5 5 5 5 5 5 5 5 5 5 5 5 5 5 5 5 5 5 5 5 5 5 5 5 5 5 5 3 5 5 5 5 5 5 5 5 5 3 5 5 5 5 5 3 5 5 5 5 5 5 5 5 5 5 5 5 5 5 3 5 5 5 5 5 5 5 5 5 3 5 5 5 5 5 5 3 5 5 5 3 5 5 5 5 5 5 3 5 5 5 5 5 5 5 5 5 5 5 5 5 5 5 5 5 5 5 3 5 5 5 5 3 5 5 3 5 5 3 5 3 5 5 5 5 5 5 5 5 5 5 5 5 5 5 5 5 3 5 5 5 3 5 5 5 5 5 5 3 5 5 5 5 5 5 5 3 5 3 5 5 5 5 5 5 5 5 3 5 5 3 5 3 5 5 5 5 5 5 5 5 5 3 5 3 5 5 5 5 5 5 5 5 3 5 5 5 5 5 5 5 3 5 5 3 5 5 5 3 5 5 3 5 5 5 5 5 5 3 5 5 5 5 5 5 5 5 5 5 3 5 5 5 5 5 5 5 5 5 5 5 5 3 5 3 5 5 3 5 5 3 3 5 3 5 5 5 5 5 5 5 5 5 5 5 5 5 3 5 5 3 5 5 5 3 5 5 5 5 5 5 5 5 5 5 5 5 5 5 5 5 5 5 5 5 5 5 5 5 5 5 5 5 5 5 5 5 5 3 5 5 5 5 5 5 3 5 5 3 5 5 5 5 5 3 5 5 5 3 5 5 5 5 5 3 5 5 3 5 5 3 5 5 3 5 5 5 5 5 3 5 3 3 5 5 3 5 5 3 5 3 5 5 5 5 5 5 5 5 5 5 5 5 5 5 5 5 5 5 5 3 5 5 3 5 5 5 5 5 5 5 5 5 5 5 5 5 5 5 3 5 3 5 5 5 3 5 5 3 5 5 3 3 5 5 5 5 5 5 5 5 5 5 5 5 3 3 3 5 5 5 5 5 5 5 5 5 5 5 5 3 3 5 5 5 5 5 5 5 5 5 5 5 5 5 5 5 5 5 5 5 5 5 5 5 5 5 5 5 3 5 5 5 5 5 5 5 5 5 5 5 3 5 3 5 5 3 3 5 5 5 3 3 5 5 5 5 5 5 3 3 5 5 3 5 5 5 5 3 3 5 5 3 5 5 3 5 5 5 5 5 5 5 5 5 5 5 5 5 5 5 5 5 5 5 5 5 5 5 5 5 5 5 5 5 5 5 5 5 5 5 5 5 5 5 5 3 5 5 3 5 5 5 5 5 3 5 5 5 5 5 5 5 5 5 5 5 5 5 3 5 5 3 5 5 5 5 3 5 5 5 3 5 5 5 5 5 5 3 5 5 5 5 5 3 5 5 5 5 5 5 5 5 5 3 5 5 5 5 5 5 3 5 5 5 5 5 5 5 5 5 5 5 5 5 5 5 3 5 5 3 5 5 5 3 5 5 3 5 5 5 5 5 5 5 3 5 5 5 5 5 5 5 5 5 5 5 3 5 5 5 5 5 5 5 5 5 5 5 5 5 5 5 5 5 5 5 5 5 5 5 5 5 5 5 3 5 5 5 5 5 5 5 3 5 5 5 5 5 5 5 3 5 5 5 5 5 3 5 5 5 3 5 5 5 3 5 5 5 3 5 5 5 3 5 3 5 3 5 5 3 5 5 3 5 3 5 5 5 5 5 5 5 5 5 3 5 5 5 5 5 5 3 5 5 5 3 5 5 3 5 5 5 3 5 5 5 5 5 5 5 5 5 3 5 5 3 5 5 3 5 3 5 5 5 5 5 5 3 5 5 5 3 5 5 5 5 5 5 3 5 5 5 5 5 3 3 5 5 5 5 3 5 5 5 5 5 5 5 3 5 3 5 5 5 5 5 5 3 3 5 5 5 3 5 5 3 5 5 5 5 5 5 5 5 5 5 5 5 5 5 5 3 3 5 3 5 5 5 5 5 5 3 5 5 5 5 5 5 5 5 5 5 5 5 5 5 5 3 5 5 5 5 5 5 5 5 3 5 5 5 3 5 3 5 5 5 5 3 5 5 3 5 5 5 5 5 5 5 3 5 5 3 5 5 3 5 5 5 5 3 5 5 5 5 5 5 5 5 5 5 5 5 5 5 5 5 5 5 5 5 3 5 5 5 5 5 5 5 5 5 5 5 5 5 5 5 5 5 5 5 5 5 3 5 5 5 3 5 5 5 5 5 5 5 5 5 5 5 5 5 5 5 5 5 5 5 5 5 5 5 3 5 5 3 5 5 5 5 5 5 5 5 3 5 5 5 3 5 5 3 5 5 5 5 5 5 5 5 5 5 5 5 3 5 5 3 5 5 5 5 5 3 5 3 5 5 3 5 5 3 5 3 5 5 5 5 5 5 3 5 5 5 3 5 5 5 5 5 5 5 5 5 5 5 5 5 5 5 5 5 5 5 5 5 5 5 5 3 5 5 3 5 5 5 3 5 5 5 5 5 3 5 5 5 5 5 5 5 5 5 5 3 5 5 3 5 5 3 5 5 5 5 5 5 5 5 5 5 5 5 5 5 5 3 5 5 5 5 5 5 5 5 5 5 5 5 3 5 5 3 5 5 5 5 5 5 5 5 5 5 5 5 5 3 5 5 5 3 5 3 3 5 5 3 5 5 5 5 5 3 5 5 3 5 5 5 5 5 5 5 5 3 5 5 5 5 5 5 5 5 3 5 5 3 5 5 5 5 5 5 5 5 5 5 3 5 5 5 5 5 3 5 5 5 3 3 5 5 5 5 5 5 5 5 5 5 3 5 5 5 5 5 3 5 5 5 5 5 3 5 5 5 5 5 5 5 3 3 5 5 5 3 5 5 5 5 5 5 5 5 5 5 3 5 5 5 5 5 5 5 3 5 5 5 5 5 5 5 5 5 3 5 5 5 5 5 5 5 5 3 5 3 5 5 5 5 5 5 3 5 5 5 5 3 5 5 5 5 5 5 5 3 5 5 5 5 5 5 5 5 3 5 3 5 5 5 3 5 5 5 5 5 5 5 5 5 5 5 5 5 5 3 5 5 5 3 5 5 5 5 5 5 5 3 5 5 5 5 5 5 5 5 5 5 3 5 5 5 5 5 5 5 5 5 5 5 5 3 5 5 5 5 5 5 5 5 5 5 3 5 5 5 3 5 5 3 5 5 3 5 5 5 5 3 3 3 5 3 5 5 5 5 5 5 5 5 5 3 5 3 5 5 5 5 5 3 3 5 5 5 5 5 5 5 5 5 5 5 5 5 5 5 5 5 5 5 5 5 3 5 5 5 5 5 5 5 5 5 5 5 5 5 5 5 5 5 5 5 5 3 5 5 5 3 5 5 5 5 5 5 3 3 5 3 3 5 3 5 5 5 3 3 5 5 3 3 5 5 5 5 5 5 5 5 5 5 5 5 5 5 5 5 5 5 5 5 5 5 5 3 3 5 5 5 5 5 5 5 3 5 5 5 5 5 5 5 5 5 3 5 5 5 5 3 3 5 5 5 3 5 5 5 5 5 5 5 3 3 5 5 5 5 3 5 3 5 5 5 5 5 3 3 5 5 3 5 5 5 3 5 5 5 5 5 5 5 5 5 5 5 5 5 5 5 3 3 5 5 5 3 5 5 3 3 5 5 5 5 3 5 5 5 3 5 3 5 5 5 3 5 5 3 5 5 5 5 5 5 5 5 5 5 5 3 5 5 5 5 5 5 5 5 5 5 5 5 5 5 5 5 3 5 5 5 3 5 5 5 5 3 5 5 5 5 5 5 5 3 5 5 5 5 5 5 5 3 5 5 5 5 3 5 5 5 5 5 3 5 3 5 5 5 5 5 5 5 5 5 5 5 5 5 5 5 5 5 5 5 5 5 5 5 5 5 5 3 5 5 5 5 5 3 3 5 3 3 5 5 5 5 5 5 5 5 5 3 5 5 5 5 3 5 5 5 5 5 5 5 5 5 5 5 5 5 5 5 3 5 5 5 5 3 5 3 5 5 5 5 5 5 5 5 5 5 5 5 5 5 5 5 5 5 5 5 3 5 5 5 5 5 5 5 3 5 5 5 5 5 5 5 5 5 5 5 3 5 5 5 5 3 5 5 5 5 5 5 5 5 3 5 5 5 5 5 5 5 5 5 5 5 5 5 5 5 5 5 5 3 5 3 5 5 5 5 3 5 5 5 5 5 5 5 5 5 5 5 5 5 3 5 5 5 5 5 5 5 5 5 5 5 3 5 5 5 5 5 5 5 5 5 3 5 5 5 5 3 5 5 5 5 5 5 5 5 5 5 5 5 5 3 5 5 5 5 5 5 3 5 3 5 5 3 3 3 5 5 5 5 5 3 5 5 5 5 5 5 5 3 5 5 3 5 5 5 3 5 5 5 3 3 5 3 5 5 5 5 3 5 5 5 5 3 5 3 3 3 5 3 5 5 5 3 5 5 5 3 5 3 5 5 3 5 3 5 5 5 5 5 5 5 5 5 5 5 5 5 5 5 5 3 5 5 3 3 5 5 5 5 3 5 5 5 5 5 5 5 5 5 5 3 5 5 5 5 5 5 5 3 5 5 5 5 5 5 5 5 5 5 5 5 5 5 5 5 5 3 5 3 3 5 5 5 5 5 3 5 5 5 5 5 5 5 5 5 3 3 5 5 5 5 5 5 5 5 5 5 3 5 5 5 5 5 5 3 5 5 5 5 5 5 5 5 5 5 5 5 5 5 5 5 5 5 5 5 5 5 5 5 3 5 3 5 5 5 5 3 5 5 5 3 5 5 5 5 5 3 5 5 5 5 5 5 3 5 5 5 5 5 5 5 5 5 5 5 5 3 5 5 5 5 5 5 5 5 5 3 5 5 5 5 5 5 5 5 5 5 5 5 5 5 5 5 5 5 5 5 5 5 5 5 5 5 3 5 5 5 3 3 5 5 5 5 5 5 5 3 3 5 5 3 5 5 3 5 3 5 3 5 3 5 3 5 5 3 5 3 5 3 3 3 5 3 5 5 3 5 5 5 5 5 5 5 3 5 5 5 3 5 5 5 5 5 3 5 5 5 5 3 5 5 3 5 3 5 3 5 5 5 3 3 5 5 5 3 5 5 3 5 3 5 5 5 5 3 5 5 5 5 5 5 5 5 5 5 5 5 5 5 5 5 5 5 5 5 5 3 5 3 3 5 5 5 5 5 5 5 5 5 5 3 5 5 5 3 3 5 5 5 5 3 3 5 5 5 5 5 5 5 5 3 5 5 3 5 5 5 3 5 5 5 5 5 5 5 5 5 5 5 3 5 5 5 5 5 5 5 5 5 5 5 5 5 5 5 5 5 5 3 5 5 3 5 5 5 5 3 5 5 5 5 5 5 5 3 5 5 5 5 5 5 5 3 5 5 3 5 5 5 5 5 5 5 5 5 5 5 5 5 5 5 3 5 5 5 5 5 5 5 5 5 5 3 5 5 5 5 5 5 5 5 5 5 5 5 5 5 3 5 5 5 3 5 5 5 5 5 5 5 5 3 5 5 5 5 5 5 5 3 5 5 5 3 5 5 5 3 5 5 5 3 5 5 5 5 5 5 5 5 5 5 5 5 5 5 5 5 5 5 5 3 5 3 5 5 5 5 5 5 3 5 5 5 5 5 5 5 5 5 5 5 5 5 5 5 5 5 3 5 3 5 5 3 5 5 5 5 5 5 5 5 5 3 5 5 5 5 5 5 5 3 5 5 5 3 5 5 5 5 5 5 5 5 5 5 5 3 5 5 3 5 5 5 5 5 5 5 5 5 5 5 5 5 5 5 5 5 3 5 3 5 5 3 5 5 5 5 5 5 5 5 5 5 5 5 5 5 5 3 5 5 3 3 5 5 5 3 5 5 5 5 5 5 5 5 5 5 5 3 5 5 5 5 5 5 5 5 5 5 5 3 5 5 5 5 5 5 5 5 3 5 5 5 3 5 3 5 5 5 5 5 5 5 5 5 3 5 3 5 5 5 5 5 5 5 3 3 5 3 5 5 5 5 5 5 5 3 5 5 3 5 5 5 3 5 5 5 3 3 5 5 3 5 5 3 5 5 3 5 3 5 5 5 5 5 3 5 5 3 5 3 5 3 5 3 5 3 5 5 5 5 3 5 5 3 5 5 3 5 5 5 5 3 5 5 5 3 3 3 5 5 5 3 5 5 3 5 5 5 3 5 5 5 5 5 5 5 5 5 3 5 5 5 5 3 3 5 5 3 5 5 5 5 5 5 5 5 5 3 3 5 5 5 5 5 5 5 5 5 5 3 5 5 5 5 5 5 5 5 5 5 5 5 5 3 3 5 5 3 5 5 3 5 5 5 3 5 5 5 5 5 5 5 5 5 5 5 5 5 3 5 5 5 5 5 5 5 5 5 5 5 3 5 5 5 5 5 5 5 5 5 5 5 3 5 5 5 5 5 5 5 5 5 5 5 5 5 5 5 5 3 5 5 5 3 5 5 5 3 5 5 5 5 5 5 5 5 5 5 5 3 5 5 5 5 5 3 5 5 5 5 5 5 5 5 5 5 5 3 5 5 5 3 5 5 5 5 5 5 3 3 5 3 5 3 5 5 5 5 5 3 5 5 5 5 3 5 3 5 5 5 5 5 3 5 5 5 5 3 5 3 5 5 5 5 5 3 5 5 3 5 5 5 3 5 5 5 5 5 3 5 5 5 5 5 5 3 3 5 5 5 5 5 5 5 5 5 5 5 5 5 5 5 5 5 5 5 5 5 5 5 5 5 5 5 5 5 5 5 5 5 5 5 5 5 3 3 5 5 5 5 5 5 5 5 5 5 5 5 5 5 5 5 3 5 5 3 5 5 5 5 5 5 3 5 5 5 5 3 5 5 5 5 5 5 5 3 5 5 5 5 5 5 5 5 3 5 5 5 5 5 5 5 5 5 5 5 5 5 5 5 5 3 5 5 5 5 5 5 5 5 5 5 5 3 5 5 5 5 5 3 5 5 5 5 5 3 5 5 5 3 3 5 5 5 5 5 5 5 5 5 5 3 5 5 5 5 5 5 5 5 5 5 5 5 5 5 5 5 5 5 5 5 5 3 5 5 5 5 5 5 5 5 5 5 3 5 5 5 5 5 5 5 3 5 5 3 5 5 5 5 5 5 5 5 5 5 5 5 5 5 5 5 5 5 3 3 5 5 5 5 5 5 3 5 5 5 3 3 5 5 5 5 5 5 3 5 5 3 5 5 5 3 5 5 3 5 3 5 5 5 3 5 5 5 5 3 5 5 5 5 5 5 5 5 5 3 5 5 5 5 5 5 5 5 5 5 5 5 5 5 5 5 5 3 5 3 5 5 5 5 5 5 5 5 5 5 5 5 5 5 5 5 5 5 5 5 5 3 5 5 5 5 5 5 5 5 5 5 5 5 5 5 5 5 5 5 5 5 3 5 5 3 5 5 3 5 5 5 5 5 5 5 5 5 3 5 5 5 3 5 5 5 5 3 5 5 3 5 5 3 5 5 3 5 5 5 5 5 5 5 5 5 3 5 5 3 5 3 5 5 5 3 3 5 5 5 3 3 5 3 3 5 5 5 3 5 5 5 5 5 5 5 5 5 5 5 5 5 3 5 3 5 5 5 5 5 5 5 3 5 5 5 5 5 5 5 5 3 5 5 5 5 3 5 3 5 5 5 3 5 5 5 5 3 5 5 3 3 5 3 5 5 3 5 5 5 3 3 3 5 5 5 5 5 5 5 5 5 5 5 5 5 5 5 5 5 3 5 5 3 5 5 5 3 5 5 3 5 5 3 3 3 3 5 5 5 3 5 5 5 5 3 5 3 5 3 5 5 5 5 3 5 5 5 5 5 3 3 3 5 5 5 5 5 5 5 3 5 3 5 3 3 5 3 5 5 3 3 5 5 5 5 5 3 5 5 5 3 5 5 3 5 5 5 5 5 5 5 5 5 5 5 5 5 5 5 5 5 5 3 5 5 5 3 5 5 5 5 3 5 3 5 5 5 3 5 5 5 5 5 5 5 5 5 5 3 5 5 5 5 5 5 5 5 3 5 5 5 5 5 3 5 3 5 5 3 5 5 5 5 5 5 5 5 5 5 5 3 5 5 3 5 5 5 5 5 5 5 3 5 3 5 3 5 5 5 3 5 3 5 5 3 5 5 3 3 3 5 5 5 5 5 3 5 5 3 5 5 5 3 3 5 3 5 3 5 5 5 3 3 3 5 5 5 3 5 5 5 5 5 3 5 5 5 5 3 5 5 5 3 5 3 5 5 5 3 5 5 5 5 5 5 5 5 5 5 5 5 5 5 5 5 5 5 5 5 5 5 5 5 5 5 5 5 5 5 3 5 5 5 5 5 5 5 5 5 5 5 5 5 5 5 5 5 5 5 3 5 5 5 5 5 5 5 5 5 5 5 5 5 5 5 5 5 3 3 5 5 3 5 5 3 5 5 5 3 5 3 5 3 5 3 5 5 5 5 5 5 5 5 5 5 5 5 5 5 5 5 5 3 5 5 5 5 3 5 5 5 5 5 5 3 5 5 5 3 5 5 3 5 5 5 3 3 3 5 3 3 5 3 5 3 5 3 5 5 3 5 3 5 5 5 5 5 5 5 5 5 5 5 5 5 5 3 5 5 5 5 5 5 5 5 5 5 5 5 5 5 3 5 5 5 3 5 5 5 3 5 5 5 3 5 5 5 5 5 5 5 5 5 3 5 5 5 5 3 5 5 3 5 5 5 5 5 5 5 3 5 5 5 5 5 5 5 5 5 5 3 3 5 5 5 5 5 5 5 3 3 5 3 3 5 3 5 3 3 5 5 3 5 5 5 5 5 5 5 5 5 5 3 5 3 5 3 5 5 5 5 5 5 5 5 5 5 5 5 5 5 5 5 5 5 5 5 5 5 5 5 5 5 5 5 5 5 5 5 5 5 5 5 5 5 5 5 5 5 5 5 5 5 5 5 5 5 5 5 5 5 5 5 3 5 5 5 5 5 5 5 5 5 5 5 5 5 5 5 5 3 3 5 5 5 5 5 5 5 5 5 5 5 5 5 5 5 5 5 5 5 5 5 5 5 5 5 5 5 5 5 5 5 5 5 5 5 5 5 5 5 5 5 5 5 5 5 5 5 5 5 5 5 5 5 5 5 5 5 5 5 5 5 5 5 5 5 5 5 5 5 5 5 5 5 5 5 5 5 5 5 5 5 5 5 5 5 5 5 5 5 5 5 5 5 5 5 5 5 3 5 5 5 5 5 5 5 5 5 5 5 5 5 5 5 5 5 5 5 5 5 3 5 5 5 5 5 5 3 5 5 5 5 5 5 5 5 5 5 5 5 5 5 5 5 5 5 5 5 5 5 5 5 5 5 5 5 5 5 3 5 5 3 5 3 5 5 5 5 5 5 5 5 5 3 5 3 5 5 5 3 5 5 5 5 5 5 5 5 5 5 5 5 5 5 5 5 5 3 5 5 5 3 5 5 3 3 5 3 5 3 5 3 5 5 3 5 5 5 3 5 5 5 5 5 3 3 5 5 3 5 3 5 3 5 5 5 5 5 3 3 3 3 5 5 5 3 5 3 3 5 5 5 5 5 3 3 5 5 5 3 3 5 5 5 5 5 5 5 5 5 5 5 3 5 5 5 5 3 3 5 5 5 5 5 3 5 5 5 5 5 5 5 5 5 5 5 3 5 5 5 3 3 5 5 5 5 5 5 5 5 5 5 3 5 3 5 5 5 5 3 5 3 5 3 5 5 3 5 5 5 5 3 5 3 3 5 5 3 5 3 3 5 5 5 5 3 5 3 5 5 5 3 3 5 3 5 3 5 5 5 5 5 5 5 5 5 3 5 5 3 5 5 5 3 3 5 5 5 5 3 5 3 5 5 5 5 5 5 5 5 5 3 5 5 5 5 5 5 5 5 5 5 5 5 5 5 5 3 5 5 5 5 5 5 5 5 5 5 5 3 5 5 5 5 5 5 5 5 5 5 5 5 5 5 3 5 5 5 5 5 5 3 5 5 5 5 3 3 5 5 5 5 3 5 5 3 3 5 5 5 5 5 5 3 5 5 5 5 5 5 3 5 3 5 5 5 5 3 5 5 5 3 5 5 5 5 5 5 5 5 5 5 5 5 5 5 5 5 5 5 3 5 5 5 5 5 3 3 3 5 5 5 5 5 5 5 5 5 3 5 3 5 5 5 5 5 5 5 5 5 5 5 5 5 3 3 5 5 5 5 5 5 5 3 5 5 5 5 3 5 5 5 5 5 5 5 5 3 5 5 5 5 5 5 5 5 5 5 5 5 5 5 5 5 5 5 5 5 5 5 5 5 5 5 5 5 5 5 5 5 5 5 3 5 5 5 5 5 5 5 5 5 5 5 5 5 5 5 5 5 5 5 5 5 5 3 5 5 5 5 5 5 5 5 5 3 5 3 5 5 3 5 3 5 5 5 5 5 5 5 5 5 5 5 5 3 5 5 5 5 5 3 5 5 5 5 5 5 5 5 5 5 3 5 5 3 5 5 5 5 5 5 5 5 5 5 5 3 5 5 5 5 5 3 5 5 5 3 5 5 5 5 3 3 5 5 5 5 3 5 3 5 3 3 5 5 5 5 3 5 5 3 5 5 3 5 5 5 3 5 5 5 5 5 5 5 3 3 5 3 5 5 5 5 5 5 5 5 5 5 5 5 5 5 5 3 3 5 3 5 5 5 5 3 5 5 5 5 5 5 5 5 5 5 3 5 5 5 3 5 5 5 5 5 5 5 5 5 5 5 5 5 5 3 5 3 5 5 5 5 5 5 5 5 5 5 5 5 5 5 5 5 5 5 3 5 5 5 5 5 5 5 5 5 5 5 5 5 5 5 5 5 5 5 3 5 5 5 5 5 5 5 5 5 3 5 5 5 3 5 5 5 5 5 5 5 5 3 5 3 5 5 5 5 5 3 5 5 5 5 5 5 5 5 5 5 3 5 5 5 5 3 5 5 5 5 3 5 5 3 5 5 5 3 3 5 5 5 5 3 3 5 5 5 5 5 3 5 5 5 5 5 3 5 5 3 5 5 5 3 5 5 3 5 5 5 5 5 5 3 5 3 5 5 5 3 3 5 5 3 5 5 3 5 5 5 3 5 5 5 5 5 5 5 5 5 3 3 5 5 5 3 5 5 3 5 5 5 5 5 5 5 5 5 3 5 5 5 5 5 5 5 5 5 5 5 3 5 5 5 5 3 5 5 5 5 5 5 5 5 3 5 5 5 5 3 5 5 5 5 3 5 5 3 5 5 3 3 5 5 3 5 5 5 3 3 5 3 5 5 3 3 3 5 3 5 5 5 3 5 5 3 5 5 5 5 5 5 3 5 5 5 5 5 5 3 5 5 3 3 5 5 3 3 5 5 5 3 5 5 3 3 5 5 5 5 5 3 3 3 5 3 5 5 3 5 3 5 5 5 3 5 3 3 5 5 3 5 5 5 3 5 3 5 5 3 5 5 3 5 5 5 5 5 5 5 5 5 5 5 5 5 3 5 5 5 3 3 5 3 5 5 5 3 5 3 5 5 5 5 5 5 5 3 5 5 5 5 5 5 5 5 5 5 5 5 5 5 3 5 5 5 5 5 3 5 5 5 3 5 5 5 5 3 3 3 5 5 5 5 3 5 5 3 5 5 5 3 5 5 3 5 3 5 3 5 5 5 5 5 5 5 5 5 5 5 5 5 5 3 5 5 5 5 5 5 5 5 5 3 5 5 5 5 5 3 5 5 5 5 5 5 3 5 5 3 5 5 5 5 5 5 5 3 3 5 3 5 5 5 3 5 5 5 3 5 5 5 5 5 3 5 3 3 5 5 5 5 3 5 5 5 5 5 3 5 5 5 3 5 3 5 5 5 5 5 5 5 5 5 5 5 5 5 5 5 5 5 5 5 5 5 5 5 5 3 5 5 3 5 5 5 5 3 3 5 5 5 3 5 5 5 5 5 5 5 5 3 5 5 5 5 5 5 3 5 5 3 5 5 5 3 5 5 5 3 5 3 3 5 5 3 5 3 5 5 3 5 5 3 3 5 5 3 5 5 5 5 5 5 5 5 3 3 5 5 5 3 5 5 3 5 3 3 5 5 3 3 5 5 3 5 5 3 5 5 3 3 5 5 5 5 3 5 5 5 3 5 3 5 3 5 3 5 5 3 5 5 5 3 3 5 5 5 3 5 3 5 3 3 5 5 5 3 5 3 5 3 5 3 5 5 5 5 5 5 5 5 5 5 5 5 3 5 5 5 5 5 5 5 5 5 3 5 5 5 3 5 5 5 5 3 3 5 5 5 5 5 3 5 5 3 3 3 5 5 5 5 3 5 5 3 5 5 5 3 5 5 3 5 3 5 5 5 5 5 5 3 5 5 5 5 5 5 5 5 3 5 5 5 5 5 5 5 5 5 3 5 5 5 5 5 5 5 5 5 5 3 5 5 5 5 5 5 5 5 5 5 3 5 5 5 5 5 5 5 5 5 5 5 5 5 5 5 5 5 5 5 5 5 5 5 5 5 5 5 3 5 3 5 3 5 5 5 5 5 5 5 5 5 5 3 3 5 5 5 5 5 5 3 5 5 3 3 5 5 5 3 5 5 5 3 5 3 5 5 5 5 5 3 5 3 5 5 3 5 5 3 5 5 3 3 5 3 5 3 5 5 5 3 5 3 3 5 5 5 3 5 5 3 5 5 5 5 5 3 5 5 3 5 5 5 3 5 5 5 5 3 5 5 3 5 5 3 5 3 5 5 5 3 3 5 5 5 5 5 5 3 5 5 5 5 5 5 5 5 5 5 5 5 5 5 5 5 5 5 5 5 3 5 5 5 3 5 5 5 3 3 5 5 3 5 3 5 3 5 5 5 3 5 5 5 3 3 3 5 5 3 5 5 5 3 5 5 3 5 3 5 5 5 3 3 5 3 3 5 5 5 5 5 5 3 5 5 5 3 3 5 5 5 5 5 5 5 5 5 3 5 5 5 5 3 5 5 5 5 5 5 5 5 5 5 5 5 5 5 5 5 5 3 5 5 5 5 5 5 5 5 5 5 5 5 5 5 5 5 5 5 5 5 5 5 5 5 5 5 3 5 5 5 5 5 5 3 3 5 3 5 5 5 5 5 5 5 5 5 5 5 5 5 3 5 3 3 5 5 3 5 5 5 5 5 5 3 5 5 5 5 5 5 5 5 5 3 5 5 5 5 5 5 5 5 5 5 3 5 5 3 5 3 3 5 5 5 5 5 5 5 5 3 5 5 5 5 5 5 3 5 5 5 5 3 5 3 3 5 5 5 5 5 5 5 5 3 5 5 5 5 5 5 5 5 3 5 5 5 5 5 5 5 3 5 3 5 5 3 3 5 3 3 5 5 5 3 5 5 5 5 5 5 3 5 3 5 5 3 5 5 5 5 5 5 3 5 3 5 3 5 3 3 5 5 5 5 3 5 5 5 5 5 5 5 5 5 3 5 5 5 5 5 5 3 5 5 5 3 5 5 3 5 3 5 5 5 5 3 5 3 5 5 5 5 5 3 3 5 5 5 5 5 5 5 5 5 5 5 5 5 5 5 5 5 5 5 5 5 5 5 5 5 5 5 5 5 5 5 5 5 5 5 5 5 5 5 5 5 5 5 5 5 5 5 5 3 5 5 3 3 5 5 5 5 3 5 5 5 5 5 5 5 5 5 5 5 5 5 5 5 5 3 5 5 3 5 3 5 5 5 5 5 5 5 5 5 5 5 5 5 5 5 5 3 5 5 5 5 5 5 3 5 5 5 5 5 5 5 5 5 5 5 5 3 5 5 5 5 3 5 5 5 5 5 5 5 5 5 3 5 5 5 5 3 5 5 5 5 5 5 5 5 5 5 3 5 5 3 3 5 5 5 5 5 5 5 5 5 5 5 5 5 5 5 5 3 5 5 5 5 5 3 5 5 5 3 5 5 5 5 3 5 3 5 5 5 3 3 5 5 5 5 5 3 5 3 5 5 5 5 5 5 5 3 5 5 5 5 5 3 3 5 5 3 5 5 5 3 5 3 5 5 3 5 5 5 3 5 5 5 5 5 5 3 5 3 5 5 5 3 5 5 5 5 5 5 5 5 5 5 5 5 5 5 5 5 5 5 5 5 3 5 5 3 3 5 5 3 5 5 3 5 5 5 5 5 5 5 5 5 5 5 5 5 5 5 5 5 5 5 5 5 5 5 5 5 5 5 5 3 5 5 5 3 5 5 5 5 5 5 5 5 5 3 5 5 5 3 5 3 5 5 5 5 3 5 5 5 5 3 5 5 5 3 5 5 5 3 5 5 5 3 5 5 5 5 5 5 3 5 5 5 5 5 5 5 5 5 5 5 3 5 5 5 5 5 5 5 5 5 5 5 5 5 5 5 5 5 3 5 5 3 3 5 5 3 5 3 3 5 5 5 5 5 5 3 3 5 5 3 3 5 5 3 5 3 5 3 5 5 5 5 5 5 5 5 5 3 5 5 5 5 3 5 5 5 5 5 5 5 3 3 5 5 5 5 5 5 5 5 5 5 5 3 5 5 5 3 5 5 5 5 5 5 3 5 5 5 3 5 5 3 3 5 5 3 5 5 5 3 5 3 5 5 5 5 5 5 5 3 5 5 5 3 5 3 5 5 5 5 5 5 3 5 5 5 5 5 5 5 5 5 5 5 5 5 5 5 5 5 5 5 5 5 3 5 5 5 5 5 5 5 5 5 5 5 5 5 3 5 5 5 5 5 5 5 5 5 5 5 5 5 5 5 5 5 5 5 3 5 5 3 5 5 5 5 3 5 5 5 5 5 5 5 5 3 5 5 5 5 5 5 5 5 5 5 5 5 5 3 5 5 5 5 3 5 3 5 5 5 5 5 5 3 5 5 5 5 3 5 5 5 3 5 5 5 5 5 5 5 3 5 5 5 5 5 3 5 5 5 5 5 5 5 3 5 5 5 3 5 5 5 5 5 3 5 5 5 5 5 5 5 5 5 5 5 5 5 5 5 5 5 3 5 5 3 5 5 3 5 5 5 3 5 5 5 3 5 5 5 5 5 5 5 5 5 5 3 5 5 5 5 3 5 5 5 5 5 5 5 5 3 5 3 5 5 5 5 5 3 5 3 5 5 5 5 5 3 5 5 5 5 5 5 5 5 5 5 3 5 5 3 5 5 5 5 3 5 5 5 3 5 5 5 5 5 5 5 5 5 5 5 5 5 5 5 3 5 5 5 5 5 5 3 5 5 5 5 5 5 5 5 5 3 5 5 3 5 5 3 5 3 5 5 5 5 5 5 5 5 3 5 5 3 5 5 3 5 3 5 5 5 5 5 5 5 5 5 3 5 5 5 5 5 3 5 5 5 5 5 5 5 5 5 5 5 3 5 5 5 5 5 5 5 5 5 3 5 5 5 3 5 5 5 5 3 5 5 5 5 3 5 5 3 5 5 5 5 5 5 3 5 5 5 5 5 5 5 5 5 5 5 5 3 5 5 5 5 5 3 5 3 5 5 5 5 5 5 5 5 5 5 5 5 5 5 5 5 5 5 5 5 5 5 5 5 5 5 5 5 5 5 5 5 5 5 5 5 5 3 5 5 5 5 5 5 5 5 5 5 5 5 5 5 5 5 5 3 5 5 5 5 5 5 5 5 5 5 5 5 5 3 5 5 3 3 3 5 5 5 5 5 5 5 5 5 5 5 5 5 5 5 3 3 5 5 5 5 3 5 3 5 5 5 5 5 5 5 5 5 5 5 5 5 5 5 5 5 5 5 3 5 3 5 
</DataArray>
</Cells>
<PointData Scalars="" Vectors="displacement," Tensors="">
<DataArray type="Float64" Name="displacement" NumberOfComponents="3" format="ascii">
-0.034043366257493969 -0.034998800900852702 0 -0.034997217435535591 -0.034999555937094681 0 -0.035445833467047855 -0.033529089388265924 0 -0.034997217435535591 -0.034999555937094681 0 -0.035445833467047855 -0.033529089388265924 0 -0.034999177265601721 -0.030595853372087794 0 -0.034038483564193533 -0.034999495902969906 0 -0.034239772544157741 -0.034300315923691593 0 -0.034036775318131603 -0.035000001130680983 0 -0.033323479898929594 -0.035313668812936051 0 -0.03310882908075654 -0.035375680599386922 0 -0.034036775318131603 -0.035000001130680983 0 -0.032902668278361975 -0.035280907790413388 0 -0.032163891012581734 -0.034999441863128436 0 -0.034036775318131603 -0.035000001130680983 0 -0.033323479898929594 -0.035313668812936051 0 -0.032902668278361975 -0.035280907790413388 0 -0.033323479898929594 -0.035313668812936051 0 -0.032902668278361975 -0.035280907790413388 0 -0.033183451632151278 -0.035382671293865575 0 -0.033323479898929594 -0.035313668812936051 0 -0.033183451632151278 -0.035382671293865575 0 -0.03310882908075654 -0.035375680599386922 0 -0.033183451632151278 -0.035382671293865575 0 -0.03310882908075654 -0.035375680599386922 0 -0.033408547587243875 -0.03482319652439396 0 -0.034239772544157741 -0.034300315923691593 0 -0.034197195615078578 -0.032927675192339453 0 -0.035445833467047855 -0.033529089388265924 0 -0.035502668964587591 -0.031809927670713257 0 -0.034999177265601721 -0.030595853372087794 0 -0.03310882908075654 -0.035375680599386922 0 -0.032870966886809294 -0.033892056789409736 0 -0.033408547587243875 -0.03482319652439396 0 -0.032870966886809294 -0.033892056789409736 0 -0.033408547587243875 -0.03482319652439396 0 -0.033797879746704174 -0.033976106269913743 0 -0.032870966886809294 -0.033892056789409736 0 -0.033913460357815117 -0.032557207554145082 0 -0.0341713498116318 -0.031519649391521985 0 -0.032870966886809294 -0.033892056789409736 0 -0.033973140650941425 -0.033136788019271779 0 -0.033913460357815117 -0.032557207554145082 0 -0.032870966886809294 -0.033892056789409736 0 -0.033797879746704174 -0.033976106269913743 0 -0.033973140650941425 -0.033136788019271779 0 -0.033797879746704174 -0.033976106269913743 0 -0.033973140650941425 -0.033136788019271779 0 -0.034541739950652059 -0.032550578398603973 0 -0.034139813111058279 -0.032522342238927131 0 -0.034541739950652059 -0.032550578398603973 0 -0.034144222023592567 -0.031915147925976398 0 -0.033973140650941425 -0.033136788019271779 0 -0.034139813111058279 -0.032522342238927131 0 -0.034541739950652059 -0.032550578398603973 0 -0.033973140650941425 -0.033136788019271779 0 -0.034139813111058279 -0.032522342238927131 0 -0.033913460357815117 -0.032557207554145082 0 -0.034139813111058279 -0.032522342238927131 0 -0.033913460357815117 -0.032557207554145082 0 -0.034144222023592567 -0.031915147925976398 0 -0.035502668964587591 -0.031809927670713257 0 -0.0341713498116318 -0.031519649391521985 0 -0.034999177265601721 -0.030595853372087794 0 -0.034197195615078578 -0.032927675192339453 0 -0.034173732904317175 -0.031781616976648289 0 -0.029129988217596194 -0.034620422281714198 0 -0.02847521057019153 -0.034445711066425001 0 -0.028238490565698545 -0.034893299580605858 0 -0.029129988217596194 -0.034620422281714198 0 -0.028238490565698545 -0.034893299580605858 0 -0.028938755816639277 -0.034872527515761864 0 -0.029129988217596194 -0.034620422281714198 0 -0.029408684908348661 -0.034690206494143574 0 -0.028938755816639277 -0.034872527515761864 0 -0.029129988217596194 -0.034620422281714198 0 -0.029173228041323569 -0.034797076132153257 0 -0.029408684908348661 -0.034690206494143574 0 -0.030043890984479165 -0.035162824676613434 0 -0.029537527698164028 -0.034760352187438545 0 -0.029462661266819123 -0.034722476943178419 0 -0.030903504096319458 -0.035430261429692168 0 -0.029408684908348661 -0.034690206494143574 0 -0.032029247586537649 -0.034331141573260032 0 -0.032187312179480398 -0.034989092334478368 0 -0.029462661266819123 -0.034722476943178419 0 -0.030903504096319458 -0.035430261429692168 0 -0.030807664076295389 -0.035703630529587194 0 -0.033797879746704174 -0.033976106269913743 0 -0.034541739950652059 -0.032550578398603973 0 -0.033828885172712861 -0.03496190489361798 0 -0.033408547587243875 -0.03482319652439396 0 -0.033797879746704174 -0.033976106269913743 0 -0.033828885172712861 -0.03496190489361798 0 -0.030903504096319458 -0.035430261429692168 0 -0.030807664076295389 -0.035703630529587194 0 -0.031399969787806084 -0.035829092265286695 0 -0.030043890984479165 -0.035162824676613434 0 -0.030527989677862088 -0.035558517470738786 0 -0.029173228041323569 -0.034797076132153257 0 -0.029775159657339931 -0.035061559174757416 0 -0.029797149423785502 -0.035449196869938984 0 -0.029129988217596194 -0.034620422281714198 0 -0.02847521057019153 -0.034445711066425001 0 -0.028395081643682742 -0.033987439860681742 0 -0.029147088056747025 -0.034624004898701315 0 -0.029075210541279147 -0.034554808257449457 0 -0.029129988217596194 -0.034620422281714198 0 -0.029173228041323569 -0.034797076132153257 0 -0.029775159657339931 -0.035061559174757416 0 -0.030807664076295389 -0.035703630529587194 0 -0.031399969787806084 -0.035829092265286695 0 -0.031854214899099557 -0.035525616410489597 0 -0.033183451632151278 -0.035382671293865575 0 -0.033828885172712861 -0.03496190489361798 0 -0.031854214899099557 -0.035525616410489597 0 -0.032187312179480398 -0.034989092334478368 0 -0.03192874278654699 -0.035426752980300152 0 -0.033183451632151278 -0.035382671293865575 0 -0.033408547587243875 -0.03482319652439396 0 -0.033828885172712861 -0.03496190489361798 0 -0.032902668278361975 -0.035280907790413388 0 -0.032163891012581734 -0.034999441863128436 0 -0.031854214899099557 -0.035525616410489597 0 -0.032902668278361975 -0.035280907790413388 0 -0.033183451632151278 -0.035382671293865575 0 -0.031854214899099557 -0.035525616410489597 0 -0.030527989677862088 -0.035558517470738786 0 -0.030287493734463707 -0.034999970546271499 0 -0.032163891012581734 -0.034999441863128436 0 -0.031854214899099557 -0.035525616410489597 0 -0.030287961766374008 -0.034999992783885811 0 -0.031399969787806084 -0.035829092265286695 0 -0.031854214899099557 -0.035525616410489597 0 -0.030287961766374008 -0.034999992783885811 0 -0.029797149423785502 -0.035449196869938984 0 -0.030285740094591212 -0.035000127251415603 0 -0.029773376708143739 -0.035582299037169828 0 -0.030285740094591212 -0.035000127251415603 0 -0.028556540574608706 -0.034999655911775007 0 -0.029773376708143739 -0.035582299037169828 0 -0.028276453079340989 -0.034348194121096985 0 -0.027846568840330717 -0.034268246706214117 0 -0.02798592642607281 -0.033687781992653008 0 -0.028021626454674525 -0.033791054808102162 0 -0.028077680536902079 -0.033765386905388772 0 -0.028276453079340989 -0.034348194121096985 0 -0.028885495638311835 -0.034634407089967505 0 -0.028552165268187671 -0.0350001603734569 0 -0.027615997824916264 -0.034822756055237915 0 -0.027814250689038221 -0.034906210619877524 0 -0.028021626454674525 -0.033791054808102162 0 -0.028140997277536793 -0.033928795502475219 0 -0.028077680536902079 -0.033765386905388772 0 -0.027615997824916264 -0.034822756055237915 0 -0.027814250689038221 -0.034906210619877524 0 -0.027610341961793697 -0.0347834359843417 0 -0.027615997824916264 -0.034822756055237915 0 -0.027610341961793697 -0.0347834359843417 0 -0.027606808493949024 -0.034773284288184908 0 -0.029075210541279147 -0.034554808257449457 0 -0.028885495638311835 -0.034634407089967505 0 -0.028395081643682742 -0.033987439860681742 0 -0.028140997277536793 -0.033928795502475219 0 -0.028077680536902079 -0.033765386905388772 0 -0.029775159657339931 -0.035061559174757416 0 -0.029797149423785502 -0.035449196869938984 0 -0.029773376708143739 -0.035582299037169828 0 -0.028021626454674525 -0.033791054808102162 0 -0.028140997277536793 -0.033928795502475219 0 -0.028106843439003468 -0.034179285202594063 0 -0.026731417516590868 -0.034999947377013479 0 -0.027894472365291915 -0.035000034399137091 0 -0.026310712728480335 -0.036198321258016489 0 -0.027894115642060985 -0.035000034225905433 0 -0.026662838286111466 -0.035458644886517246 0 -0.027896115024706292 -0.034998930866228593 0 -0.027814250689038221 -0.034906210619877524 0 -0.027027113174504555 -0.034543152946359554 0 -0.028552165268187671 -0.0350001603734569 0 -0.027896115024706292 -0.034998930866228593 0 -0.027814250689038221 -0.034906210619877524 0 -0.027814250689038221 -0.034906210619877524 0 -0.027610341961793697 -0.0347834359843417 0 -0.027291257181391654 -0.034761015713856223 0 -0.027814250689038221 -0.034906210619877524 0 -0.027027113174504555 -0.034543152946359554 0 -0.027291257181391654 -0.034761015713856223 0 -0.027027113174504555 -0.034543152946359554 0 -0.027291257181391654 -0.034761015713856223 0 -0.026670273287063517 -0.034788067356473676 0 -0.02696094043144329 -0.034894831138416599 0 -0.026670273287063517 -0.034788067356473676 0 -0.02651750961141509 -0.035078203502315428 0 -0.027291257181391654 -0.034761015713856223 0 -0.02696094043144329 -0.034894831138416599 0 -0.026670273287063517 -0.034788067356473676 0 -0.027610341961793697 -0.0347834359843417 0 -0.027291257181391654 -0.034761015713856223 0 -0.027328600587594915 -0.034840734599939804 0 -0.027291257181391654 -0.034761015713856223 0 -0.02696094043144329 -0.034894831138416599 0 -0.027328600587594915 -0.034840734599939804 0 -0.027610341961793697 -0.0347834359843417 0 -0.027328600587594915 -0.034840734599939804 0 -0.027561569851739891 -0.034778679914005101 0 -0.02720991385796941 -0.035040451674965896 0 -0.026900692371025638 -0.035065037022858521 0 -0.026816513685623541 -0.035327506915364459 0 -0.027328600587594915 -0.034840734599939804 0 -0.02720991385796941 -0.035040451674965896 0 -0.026900692371025638 -0.035065037022858521 0 -0.027328600587594915 -0.034840734599939804 0 -0.02720991385796941 -0.035040451674965896 0 -0.027528557668061782 -0.034838988274932772 0 -0.026900692371025638 -0.035065037022858521 0 -0.02651750961141509 -0.035078203502315428 0 -0.026372078164937775 -0.035396862952336669 0 -0.02696094043144329 -0.034894831138416599 0 -0.027328600587594915 -0.034840734599939804 0 -0.026900692371025638 -0.035065037022858521 0 -0.02696094043144329 -0.034894831138416599 0 -0.026900692371025638 -0.035065037022858521 0 -0.02651750961141509 -0.035078203502315428 0 -0.02847521057019153 -0.034445711066425001 0 -0.028395081643682742 -0.033987439860681742 0 -0.028106843439003468 -0.034179285202594063 0 -0.028395081643682742 -0.033987439860681742 0 -0.028140997277536793 -0.033928795502475219 0 -0.028106843439003468 -0.034179285202594063 0 -0.027846568840330717 -0.034268246706214117 0 -0.027926409457745917 -0.034486900338915591 0 -0.027684304769586103 -0.03471400346771563 0 -0.027606808493949024 -0.034773284288184908 0 -0.027561569851739891 -0.034778679914005101 0 -0.027615997824916264 -0.034822756055237915 0 -0.027684304769586103 -0.03471400346771563 0 -0.027606808493949024 -0.034773284288184908 0 -0.027610341961793697 -0.0347834359843417 0 -0.027606808493949024 -0.034773284288184908 0 -0.027561569851739891 -0.034778679914005101 0 -0.027328600587594915 -0.034840734599939804 0 -0.027561569851739891 -0.034778679914005101 0 -0.027528557668061782 -0.034838988274932772 0 -0.027684304769586103 -0.03471400346771563 0 -0.027561569851739891 -0.034778679914005101 0 -0.027528557668061782 -0.034838988274932772 0 -0.027684304769586103 -0.03471400346771563 0 -0.027528557668061782 -0.034838988274932772 0 -0.027701774676878756 -0.034891487853513543 0 -0.02720991385796941 -0.035040451674965896 0 -0.027528557668061782 -0.034838988274932772 0 -0.027462810864089159 -0.035022356774203331 0 -0.027528557668061782 -0.034838988274932772 0 -0.027462810864089159 -0.035022356774203331 0 -0.027701774676878756 -0.034891487853513543 0 -0.027926409457745917 -0.034486900338915591 0 -0.02820859141583712 -0.034896549470286871 0 -0.027684304769586103 -0.03471400346771563 0 -0.027701774676878756 -0.034891487853513543 0 -0.028238490565698545 -0.034893299580605858 0 -0.02847521057019153 -0.034445711066425001 0 -0.028106843439003468 -0.034179285202594063 0 -0.028238490565698545 -0.034893299580605858 0 -0.028238490565698545 -0.034893299580605858 0 -0.027642985887206623 -0.035157941624611562 0 -0.028023048979399005 -0.035375330997284446 0 -0.027701774676878756 -0.034891487853513543 0 -0.028238490565698545 -0.034893299580605858 0 -0.027642985887206623 -0.035157941624611562 0 -0.027642985887206623 -0.035157941624611562 0 -0.027287767542219205 -0.035539671362636929 0 -0.027184200988468191 -0.035271402687919874 0 -0.027462810864089159 -0.035022356774203331 0 -0.027701774676878756 -0.034891487853513543 0 -0.027642985887206623 -0.035157941624611562 0 -0.027462810864089159 -0.035022356774203331 0 -0.027642985887206623 -0.035157941624611562 0 -0.027184200988468191 -0.035271402687919874 0 -0.02720991385796941 -0.035040451674965896 0 -0.027462810864089159 -0.035022356774203331 0 -0.027184200988468191 -0.035271402687919874 0 -0.027642985887206623 -0.035157941624611562 0 -0.027287767542219205 -0.035539671362636929 0 -0.028023048979399005 -0.035375330997284446 0 -0.027287767542219205 -0.035539671362636929 0 -0.028023048979399005 -0.035375330997284446 0 -0.027668077112138194 -0.035741439936823938 0 -0.026900692371025638 -0.035065037022858521 0 -0.026816513685623541 -0.035327506915364459 0 -0.026372078164937775 -0.035396862952336669 0 -0.026816513685623541 -0.035327506915364459 0 -0.026382621447114979 -0.035637720681558828 0 -0.026372078164937775 -0.035396862952336669 0 -0.026816513685623541 -0.035327506915364459 0 -0.027184200988468191 -0.035271402687919874 0 -0.026775305774811877 -0.035594627267652508 0 -0.02720991385796941 -0.035040451674965896 0 -0.026816513685623541 -0.035327506915364459 0 -0.027184200988468191 -0.035271402687919874 0 -0.027287767542219205 -0.035539671362636929 0 -0.027184200988468191 -0.035271402687919874 0 -0.026775305774811877 -0.035594627267652508 0 -0.026816513685623541 -0.035327506915364459 0 -0.026775305774811877 -0.035594627267652508 0 -0.026382621447114979 -0.035637720681558828 0 -0.026775305774811877 -0.035594627267652508 0 -0.026382621447114979 -0.035637720681558828 0 -0.026398412247339575 -0.035835836606221597 0 -0.026382621447114979 -0.035637720681558828 0 -0.026398412247339575 -0.035835836606221597 0 -0.026062730991906417 -0.035841305029139417 0 -0.026398412247339575 -0.035835836606221597 0 -0.026062730991906417 -0.035841305029139417 0 -0.025944691712119473 -0.035909665618776287 0 -0.026775305774811877 -0.035594627267652508 0 -0.026398412247339575 -0.035835836606221597 0 -0.026981131590238114 -0.035903466029431425 0 -0.027287767542219205 -0.035539671362636929 0 -0.026775305774811877 -0.035594627267652508 0 -0.026981131590238114 -0.035903466029431425 0 -0.026398412247339575 -0.035835836606221597 0 -0.026281967946847569 -0.035956131460763929 0 -0.026981131590238114 -0.035903466029431425 0 -0.026281967946847569 -0.035956131460763929 0 -0.026981131590238114 -0.035903466029431425 0 -0.026922877920202936 -0.036204270941154339 0 -0.026398412247339575 -0.035835836606221597 0 -0.026281967946847569 -0.035956131460763929 0 -0.025944691712119473 -0.035909665618776287 0 -0.027668077112138194 -0.035741439936823938 0 -0.026981131590238114 -0.035903466029431425 0 -0.027866060526809643 -0.036142801947624592 0 -0.027287767542219205 -0.035539671362636929 0 -0.027668077112138194 -0.035741439936823938 0 -0.026981131590238114 -0.035903466029431425 0 -0.026981131590238114 -0.035903466029431425 0 -0.027866060526809643 -0.036142801947624592 0 -0.026922877920202936 -0.036204270941154339 0 -0.029843259851256559 -0.023487447537902804 0 -0.03044908500509922 -0.024000471566011976 0 -0.029720692083007778 -0.024498198178008867 0 -0.028931122780539428 -0.029798743176728152 0 -0.028119585751145079 -0.030235859791602739 0 -0.029843259851256559 -0.023487447537902804 0 -0.031102439123231837 -0.02245800772025984 0 -0.03044908500509922 -0.024000471566011976 0 -0.027668077112138194 -0.035741439936823938 0 -0.027866060526809643 -0.036142801947624592 0 -0.028877447811274562 -0.035762166726015468 0 -0.028931122780539428 -0.029798743176728152 0 -0.029735983047475885 -0.028996150401120656 0 -0.031102439123231837 -0.02245800772025984 0 -0.031984221476892061 -0.022931853137722554 0 -0.031594789346724654 -0.023718171671556557 0 -0.031102439123231837 -0.02245800772025984 0 -0.031984221476892061 -0.022931853137722554 0 -0.032293059751256091 -0.02167473290405612 0 -0.031102439123231837 -0.02245800772025984 0 -0.031594789346724654 -0.023718171671556557 0 -0.03044908500509922 -0.024000471566011976 0 -0.031984221476892061 -0.022931853137722554 0 -0.031594789346724654 -0.023718171671556557 0 -0.032466107799720999 -0.023602089800735276 0 -0.031594789346724654 -0.023718171671556557 0 -0.032466107799720999 -0.023602089800735276 0 -0.032229829888273338 -0.024374975134078582 0 -0.032466107799720999 -0.023602089800735276 0 -0.032992316008683568 -0.022934588044951201 0 -0.033561051671550331 -0.024253573106874825 0 -0.031984221476892061 -0.022931853137722554 0 -0.032466107799720999 -0.023602089800735276 0 -0.032992316008683568 -0.022934588044951201 0 -0.034999984960338154 -0.027217728100343428 0 -0.036157554697618194 -0.027439039078506706 0 -0.035584877078898049 -0.025644454346951489 0 -0.032992316008683568 -0.022934588044951201 0 -0.033985177395472493 -0.024277941059017788 0 -0.033561051671550331 -0.024253573106874825 0 -0.034699882861062341 -0.024344192262357268 0 -0.034823873516130352 -0.025153593915378029 0 -0.034999984960338154 -0.027217728100343428 0 -0.036157554697618194 -0.027439039078506706 0 -0.035858672683137319 -0.028524773160634825 0 -0.034999984960338154 -0.027217728100343428 0 -0.034999977225609193 -0.028905213282476857 0 -0.035858672683137319 -0.028524773160634825 0 -0.036157554697618194 -0.027439039078506706 0 -0.036721035881602429 -0.02924601602997793 0 -0.035858672683137319 -0.028524773160634825 0 -0.034699882861062341 -0.024344192262357268 0 -0.032749475762654578 -0.029718031357038131 0 -0.031984221476892061 -0.022931853137722554 0 -0.032992316008683568 -0.022934588044951201 0 -0.032293059751256091 -0.02167473290405612 0 -0.036721035881602429 -0.02924601602997793 0 -0.035858672683137319 -0.028524773160634825 0 -0.035864452585196542 -0.029915654691938881 0 -0.034999977225609193 -0.028905213282476857 0 -0.035858672683137319 -0.028524773160634825 0 -0.035864452585196542 -0.029915654691938881 0 -0.034999977225609193 -0.028905213282476857 0 -0.035864452585196542 -0.029915654691938881 0 -0.034999991442253013 -0.030592672259338455 0 -0.034170279910041602 -0.031649289654722745 0 -0.0341713498116318 -0.031519649391521985 0 -0.034999177265601721 -0.030595853372087794 0 -0.035212037178191991 -0.030489589310524555 0 -0.034999759927408058 -0.030592991474573315 0 -0.034541739950652059 -0.032550578398603973 0 -0.034307761118297364 -0.031263773747024576 0 -0.034144222023592567 -0.031915147925976398 0 -0.032029247586537649 -0.034331141573260032 0 -0.032749475762654578 -0.029718031357038131 0 -0.034307761118297364 -0.031263773747024576 0 -0.034170279910041602 -0.031649289654722745 0 -0.034144222023592567 -0.031915147925976398 0 -0.032749475762654578 -0.029718031357038131 0 -0.035212037178191991 -0.030489589310524555 0 -0.034170279910041602 -0.031649289654722745 0 -0.0341713498116318 -0.031519649391521985 0 -0.034144222023592567 -0.031915147925976398 0 -0.033913460357815117 -0.032557207554145082 0 -0.0341713498116318 -0.031519649391521985 0 -0.034144222023592567 -0.031915147925976398 0 -0.029462661266819123 -0.034722476943178419 0 -0.029733145740977657 -0.0351771941591629 0 -0.029408684908348661 -0.034690206494143574 0 -0.029733145740977657 -0.0351771941591629 0 -0.029408684908348661 -0.034690206494143574 0 -0.02922100761584754 -0.03510101960889897 0 -0.02922100761584754 -0.03510101960889897 0 -0.028938755816639277 -0.034872527515761864 0 -0.028693721176835878 -0.035182145657150818 0 -0.029408684908348661 -0.034690206494143574 0 -0.02922100761584754 -0.03510101960889897 0 -0.028938755816639277 -0.034872527515761864 0 -0.028238490565698545 -0.034893299580605858 0 -0.028023048979399005 -0.035375330997284446 0 -0.028693721176835878 -0.035182145657150818 0 -0.028238490565698545 -0.034893299580605858 0 -0.028938755816639277 -0.034872527515761864 0 -0.028693721176835878 -0.035182145657150818 0 -0.028023048979399005 -0.035375330997284446 0 -0.028877447811274562 -0.035762166726015468 0 -0.028693721176835878 -0.035182145657150818 0 -0.028023048979399005 -0.035375330997284446 0 -0.027668077112138194 -0.035741439936823938 0 -0.028877447811274562 -0.035762166726015468 0 -0.028877447811274562 -0.035762166726015468 0 -0.029733145740977657 -0.0351771941591629 0 -0.02922100761584754 -0.03510101960889897 0 -0.029735983047475885 -0.028996150401120656 0 -0.032749475762654578 -0.029718031357038131 0 -0.028877447811274562 -0.035762166726015468 0 -0.02922100761584754 -0.03510101960889897 0 -0.028693721176835878 -0.035182145657150818 0 -0.019694880924042851 -0.036469287940976064 0 -0.01960921531293712 -0.036512323849736975 0 -0.019345972688333834 -0.036426550928167462 0 -0.019694880924042851 -0.036469287940976064 0 -0.019437390787035984 -0.036305963287355587 0 -0.019345972688333834 -0.036426550928167462 0 -0.019694880924042851 -0.036469287940976064 0 -0.020135500014812052 -0.036499865256157824 0 -0.02011510166805713 -0.036503141480123139 0 -0.019437390787035984 -0.036305963287355587 0 -0.019483412260412541 -0.035906808536181604 0 -0.020135500014812052 -0.036499865256157824 0 -0.019694880924042851 -0.036469287940976064 0 -0.019437390787035984 -0.036305963287355587 0 -0.020135500014812052 -0.036499865256157824 0 -0.019437390787035984 -0.036305963287355587 0 -0.018637296786895175 -0.035943522385157627 0 -0.019345972688333834 -0.036426550928167462 0 -0.019437390787035984 -0.036305963287355587 0 -0.018637296786895175 -0.035943522385157627 0 -0.019483412260412541 -0.035906808536181604 0 -0.018637296786895175 -0.035943522385157627 0 -0.017701901432260612 -0.034999994153803005 0 -0.019483412260412541 -0.035906808536181604 0 -0.018054410397645018 -0.03611620147019716 0 -0.017700045070952707 -0.035000185294584422 0 -0.017701901432260612 -0.034999994153803005 0 -0.019667149983890193 -0.034999523035954154 0 -0.019483412260412541 -0.035906808536181604 0 -0.019667149983890193 -0.034999523035954154 0 -0.019483412260412541 -0.035906808536181604 0 -0.021740766679709853 -0.036119374362713771 0 -0.019667149983890193 -0.034999523035954154 0 -0.021634582743915901 -0.034999581023403559 0 -0.021740766679709853 -0.036119374362713771 0 -0.019483412260412541 -0.035906808536181604 0 -0.021740766679709853 -0.036119374362713771 0 -0.020135500014812052 -0.036499865256157824 0 -0.021740766679709853 -0.036119374362713771 0 -0.020135500014812052 -0.036499865256157824 0 -0.020523445595366674 -0.036601670143162721 0 -0.021813100875265466 -0.035974061871447797 0 -0.022091665480120294 -0.036190597758182008 0 -0.021740766679709853 -0.036119374362713771 0 -0.02370014854794637 -0.035994556508892439 0 -0.023288974567017999 -0.036264208516890974 0 -0.020135500014812052 -0.036499865256157824 0 -0.020523445595366674 -0.036601670143162721 0 -0.02011510166805713 -0.036503141480123139 0 -0.02370014854794637 -0.035994556508892439 0 -0.023959457313162812 -0.035750745719739623 0 -0.023288974567017999 -0.036264208516890974 0 -0.025033121113586038 -0.034692507749698322 0 -0.025494847632671101 -0.035188907053236421 0 -0.024845674424824354 -0.035673034527034783 0 -0.023959457313162812 -0.035750745719739623 0 -0.025033121113586038 -0.034692507749698322 0 -0.024845674424824354 -0.035673034527034783 0 -0.023959457313162812 -0.035750745719739623 0 -0.023551033555261971 -0.036326664998784369 0 -0.023288974567017999 -0.036264208516890974 0 -0.02400855891429924 -0.035718403262957686 0 -0.024347722233268445 -0.035497631594417628 0 -0.023598034872996821 -0.036203628036695676 0 -0.023288974567017999 -0.036264208516890974 0 -0.023145395955699571 -0.035882613584345149 0 -0.023551033555261971 -0.036326664998784369 0 -0.023598034872996821 -0.036203628036695676 0 -0.023288974567017999 -0.036264208516890974 0 -0.023551033555261971 -0.036326664998784369 0 -0.023598034872996821 -0.036203628036695676 0 -0.024176208009025729 -0.036358286703755606 0 -0.021740766679709853 -0.036119374362713771 0 -0.023288974567017999 -0.036264208516890974 0 -0.023145395955699571 -0.035882613584345149 0 -0.021634582743915901 -0.034999581023403559 0 -0.021740766679709853 -0.036119374362713771 0 -0.023145395955699571 -0.035882613584345149 0 -0.021634582743915901 -0.034999581023403559 0 -0.023601333336540912 -0.034999789615228934 0 -0.023145395955699571 -0.035882613584345149 0 -0.023601333336540912 -0.034999789615228934 0 -0.023875379681370056 -0.035916349761733031 0 -0.023145395955699571 -0.035882613584345149 0 -0.023598034872996821 -0.036203628036695676 0 -0.023875379681370056 -0.035916349761733031 0 -0.023145395955699571 -0.035882613584345149 0 -0.024946779004980948 -0.036191451106362606 0 -0.025254089956226331 -0.035627759132754955 0 -0.023598034872996821 -0.036203628036695676 0 -0.023875379681370056 -0.035916349761733031 0 -0.024176208009025729 -0.036358286703755606 0 -0.023875379681370056 -0.035916349761733031 0 -0.024808062797134683 -0.035843581859906638 0 -0.024176208009025729 -0.036358286703755606 0 -0.023601333336540912 -0.034999789615228934 0 -0.023875379681370056 -0.035916349761733031 0 -0.024808062797134683 -0.035843581859906638 0 -0.023601333336540912 -0.034999789615228934 0 -0.025567446728679964 -0.034999725698703986 0 -0.024808062797134683 -0.035843581859906638 0 -0.026310712728480335 -0.036198321258016489 0 -0.025568540129733398 -0.035000027633835182 0 -0.025226402940868062 -0.036180680532808443 0 -0.026731417516590868 -0.034999947377013479 0 -0.026310712728480335 -0.036198321258016489 0 -0.025568540129733398 -0.035000027633835182 0 -0.02556832849767747 -0.034999951560896567 0 -0.024946779004980948 -0.036191451106362606 0 -0.027027113174504555 -0.034543152946359554 0 -0.026670273287063517 -0.034788067356473676 0 -0.026026205541647678 -0.034641419848538114 0 -0.026310712728480335 -0.036198321258016489 0 -0.025226402940868062 -0.036180680532808443 0 -0.024852975083805715 -0.03729601105218739 0 -0.026662838286111466 -0.035458644886517246 0 -0.025254089956226331 -0.035627759132754955 0 -0.026670273287063517 -0.034788067356473676 0 -0.02651750961141509 -0.035078203502315428 0 -0.026151541495166571 -0.034981732361861827 0 -0.026670273287063517 -0.034788067356473676 0 -0.026026205541647678 -0.034641419848538114 0 -0.026151541495166571 -0.034981732361861827 0 -0.025033121113586038 -0.034692507749698322 0 -0.025817422635739631 -0.034084292423143939 0 -0.025494847632671101 -0.035188907053236421 0 -0.025254089956226331 -0.035627759132754955 0 -0.025740478193827479 -0.034655732504269308 0 -0.026026205541647678 -0.034641419848538114 0 -0.025494847632671101 -0.035188907053236421 0 -0.026151541495166571 -0.034981732361861827 0 -0.024347722233268445 -0.035497631594417628 0 -0.025254089956226331 -0.035627759132754955 0 -0.025494847632671101 -0.035188907053236421 0 -0.026024660966957901 -0.03530923076441337 0 -0.025473602160474361 -0.03562322115468311 0 -0.025494847632671101 -0.035188907053236421 0 -0.026024660966957901 -0.03530923076441337 0 -0.026151541495166571 -0.034981732361861827 0 -0.026024660966957901 -0.03530923076441337 0 -0.02651750961141509 -0.035078203502315428 0 -0.026372078164937775 -0.035396862952336669 0 -0.026024660966957901 -0.03530923076441337 0 -0.02651750961141509 -0.035078203502315428 0 -0.026151541495166571 -0.034981732361861827 0 -0.025921032627083663 -0.035564586692414142 0 -0.026372078164937775 -0.035396862952336669 0 -0.02602133349667185 -0.035700069220504144 0 -0.026024660966957901 -0.03530923076441337 0 -0.025921032627083663 -0.035564586692414142 0 -0.026372078164937775 -0.035396862952336669 0 -0.026024660966957901 -0.03530923076441337 0 -0.025921032627083663 -0.035564586692414142 0 -0.025473602160474361 -0.03562322115468311 0 -0.025494847632671101 -0.035188907053236421 0 -0.025473602160474361 -0.03562322115468311 0 -0.024845674424824354 -0.035673034527034783 0 -0.025473602160474361 -0.03562322115468311 0 -0.025613869808733081 -0.035766019816477063 0 -0.025082614215225913 -0.035822279719452899 0 -0.025921032627083663 -0.035564586692414142 0 -0.025473602160474361 -0.03562322115468311 0 -0.025613869808733081 -0.035766019816477063 0 -0.025921032627083663 -0.035564586692414142 0 -0.025613869808733081 -0.035766019816477063 0 -0.02602133349667185 -0.035700069220504144 0 -0.025613869808733081 -0.035766019816477063 0 -0.02540541487209419 -0.03588670759919619 0 -0.025082614215225913 -0.035822279719452899 0 -0.025613869808733081 -0.035766019816477063 0 -0.025773575546521477 -0.035845183060927703 0 -0.02540541487209419 -0.03588670759919619 0 -0.025613869808733081 -0.035766019816477063 0 -0.02602133349667185 -0.035700069220504144 0 -0.025773575546521477 -0.035845183060927703 0 -0.02602133349667185 -0.035700069220504144 0 -0.026062730991906417 -0.035841305029139417 0 -0.025773575546521477 -0.035845183060927703 0 -0.026382621447114979 -0.035637720681558828 0 -0.026372078164937775 -0.035396862952336669 0 -0.02602133349667185 -0.035700069220504144 0 -0.026382621447114979 -0.035637720681558828 0 -0.02602133349667185 -0.035700069220504144 0 -0.026062730991906417 -0.035841305029139417 0 -0.026062730991906417 -0.035841305029139417 0 -0.025944691712119473 -0.035909665618776287 0 -0.025697539117977095 -0.03592990554807711 0 -0.025944691712119473 -0.035909665618776287 0 -0.025697539117977095 -0.03592990554807711 0 -0.025848724430291597 -0.035802464700404893 0 -0.026062730991906417 -0.035841305029139417 0 -0.025697539117977095 -0.03592990554807711 0 -0.025773575546521477 -0.035845183060927703 0 -0.025697539117977095 -0.03592990554807711 0 -0.025773575546521477 -0.035845183060927703 0 -0.02540541487209419 -0.03588670759919619 0 -0.025338967706408769 -0.035922359627750942 0 -0.024829906968646957 -0.03588937957260227 0 -0.02540541487209419 -0.03588670759919619 0 -0.025697539117977095 -0.03592990554807711 0 -0.025338967706408769 -0.035922359627750942 0 -0.02540541487209419 -0.03588670759919619 0 -0.025697539117977095 -0.03592990554807711 0 -0.025589342461042473 -0.035894123051386728 0 -0.025848724430291597 -0.035802464700404893 0 -0.025697539117977095 -0.03592990554807711 0 -0.025338967706408769 -0.035922359627750942 0 -0.025589342461042473 -0.035894123051386728 0 -0.025589342461042473 -0.035894123051386728 0 -0.024936945438817776 -0.03586824055943684 0 -0.024989754077769918 -0.035913854276758445 0 -0.025338967706408769 -0.035922359627750942 0 -0.025589342461042473 -0.035894123051386728 0 -0.024989754077769918 -0.035913854276758445 0 -0.024989754077769918 -0.035913854276758445 0 -0.024829906968646957 -0.03588937957260227 0 -0.024543184094232492 -0.035898801143935885 0 -0.025338967706408769 -0.035922359627750942 0 -0.024989754077769918 -0.035913854276758445 0 -0.024829906968646957 -0.03588937957260227 0 -0.024829906968646957 -0.03588937957260227 0 -0.024439099077346059 -0.035858705749847529 0 -0.024543184094232492 -0.035898801143935885 0 -0.024829906968646957 -0.03588937957260227 0 -0.025082614215225913 -0.035822279719452899 0 -0.024439099077346059 -0.035858705749847529 0 -0.024829906968646957 -0.03588937957260227 0 -0.02540541487209419 -0.03588670759919619 0 -0.025082614215225913 -0.035822279719452899 0 -0.023959457313162812 -0.035750745719739623 0 -0.024845674424824354 -0.035673034527034783 0 -0.024439099077346059 -0.035858705749847529 0 -0.025082614215225913 -0.035822279719452899 0 -0.024845674424824354 -0.035673034527034783 0 -0.024439099077346059 -0.035858705749847529 0 -0.025473602160474361 -0.03562322115468311 0 -0.025082614215225913 -0.035822279719452899 0 -0.024845674424824354 -0.035673034527034783 0 -0.02370014854794637 -0.035994556508892439 0 -0.023959457313162812 -0.035750745719739623 0 -0.024439099077346059 -0.035858705749847529 0 -0.022091665480120294 -0.036190597758182008 0 -0.02229507896918393 -0.036045915761050422 0 -0.02370014854794637 -0.035994556508892439 0 -0.024439099077346059 -0.035858705749847529 0 -0.024543184094232492 -0.035898801143935885 0 -0.020523445595366674 -0.036601670143162721 0 -0.02011510166805713 -0.036503141480123139 0 -0.020051200092317575 -0.036310979225354395 0 -0.02011510166805713 -0.036503141480123139 0 -0.020051200092317575 -0.036310979225354395 0 -0.020039969749819087 -0.036235352936716855 0 -0.020051200092317575 -0.036310979225354395 0 -0.020096168492078702 -0.036096413442144287 0 -0.020039969749819087 -0.036235352936716855 0 -0.024989754077769918 -0.035913854276758445 0 -0.024543184094232492 -0.035898801143935885 0 -0.0250324660821164 -0.035983867081087299 0 -0.02229507896918393 -0.036045915761050422 0 -0.022615547927380044 -0.036141882111411665 0 -0.024936945438817776 -0.03586824055943684 0 -0.024989754077769918 -0.035913854276758445 0 -0.0250324660821164 -0.035983867081087299 0 -0.020028409362536297 -0.036058509235102856 0 -0.020096168492078702 -0.036096413442144287 0 -0.020110108395207681 -0.036014257005270528 0 -0.020051200092317575 -0.036310979225354395 0 -0.020028409362536297 -0.036058509235102856 0 -0.020096168492078702 -0.036096413442144287 0 -0.020096168492078702 -0.036096413442144287 0 -0.020151520783941192 -0.036076211754020426 0 -0.020030564357689302 -0.03590939271644112 0 -0.020308347770366404 -0.035348179368019927 0 -0.020424911734115713 -0.035431186948964744 0 -0.020096168492078702 -0.036096413442144287 0 -0.020110108395207681 -0.036014257005270528 0 -0.020151520783941192 -0.036076211754020426 0 -0.020886538279204135 -0.034629052244021755 0 -0.020608299570292445 -0.034814602280179116 0 -0.020750221291770583 -0.034742348752271918 0 -0.020608299570292445 -0.034814602280179116 0 -0.020750221291770583 -0.034742348752271918 0 -0.020575909211539619 -0.034851615150991291 0 -0.020608299570292445 -0.034814602280179116 0 -0.020181351578688864 -0.034949287514462274 0 -0.020575909211539619 -0.034851615150991291 0 -0.020151520783941192 -0.036076211754020426 0 -0.019991693419832982 -0.035670767565847646 0 -0.020030564357689302 -0.03590939271644112 0 -0.020151520783941192 -0.036076211754020426 0 -0.019991693419832982 -0.035670767565847646 0 -0.019831989764188023 -0.035158316249084859 0 -0.019991693419832982 -0.035670767565847646 0 -0.019979269731510912 -0.035802383271334379 0 -0.019831989764188023 -0.035158316249084859 0 -0.019979269731510912 -0.035802383271334379 0 -0.020030564357689302 -0.03590939271644112 0 -0.019839118610801891 -0.03639312929634355 0 -0.019991693419832982 -0.035670767565847646 0 -0.019979269731510912 -0.035802383271334379 0 -0.020030564357689302 -0.03590939271644112 0 -0.020096168492078702 -0.036096413442144287 0 -0.020030564357689302 -0.03590939271644112 0 -0.020039969749819087 -0.036235352936716855 0 -0.020030564357689302 -0.03590939271644112 0 -0.020039969749819087 -0.036235352936716855 0 -0.019839118610801891 -0.03639312929634355 0 -0.02011510166805713 -0.036503141480123139 0 -0.020039969749819087 -0.036235352936716855 0 -0.019839118610801891 -0.03639312929634355 0 -0.019694880924042851 -0.036469287940976064 0 -0.02011510166805713 -0.036503141480123139 0 -0.019839118610801891 -0.03639312929634355 0 -0.020171039028629666 -0.036366622414886779 0 -0.01893979417827614 -0.036429677775542603 0 -0.019694880924042851 -0.036469287940976064 0 -0.019839118610801891 -0.03639312929634355 0 -0.01960921531293712 -0.036512323849736975 0 -0.019979269731510912 -0.035802383271334379 0 -0.019839118610801891 -0.03639312929634355 0 -0.020293188894954052 -0.036269629605720687 0 -0.021197763666248051 -0.034145330616366064 0 -0.021255432535977534 -0.033980969557191786 0 -0.021290388161086742 -0.034070918605168143 0 -0.021197763666248051 -0.034145330616366064 0 -0.021176473495452399 -0.034324013064289831 0 -0.021290388161086742 -0.034070918605168143 0 -0.021202776702285708 -0.034126889510486515 0 -0.021318740104097136 -0.033964069968062872 0 -0.021255432535977534 -0.033980969557191786 0 -0.021197763666248051 -0.034145330616366064 0 -0.021202776702285708 -0.034126889510486515 0 -0.021096479348215121 -0.034300254609264745 0 -0.021197763666248051 -0.034145330616366064 0 -0.021202776702285708 -0.034126889510486515 0 -0.021255432535977534 -0.033980969557191786 0 -0.021202776702285708 -0.034126889510486515 0 -0.021096479348215121 -0.034300254609264745 0 -0.021052396882511214 -0.03435883211041648 0 -0.021096479348215121 -0.034300254609264745 0 -0.020926813249486181 -0.034560918701323377 0 -0.021176473495452399 -0.034324013064289831 0 -0.021197763666248051 -0.034145330616366064 0 -0.021096479348215121 -0.034300254609264745 0 -0.021176473495452399 -0.034324013064289831 0 -0.021096479348215121 -0.034300254609264745 0 -0.020926813249486181 -0.034560918701323377 0 -0.02099288819036731 -0.034448851343948962 0 -0.020926813249486181 -0.034560918701323377 0 -0.02088737552596983 -0.03459470654664637 0 -0.02099288819036731 -0.034448851343948962 0 -0.020926813249486181 -0.034560918701323377 0 -0.020785423337655116 -0.034708210458742575 0 -0.020750221291770583 -0.034742348752271918 0 -0.020926813249486181 -0.034560918701323377 0 -0.020750221291770583 -0.034742348752271918 0 -0.02088737552596983 -0.03459470654664637 0 -0.020785423337655116 -0.034708210458742575 0 -0.020750221291770583 -0.034742348752271918 0 -0.020575909211539619 -0.034851615150991291 0 -0.020886538279204135 -0.034629052244021755 0 -0.02088737552596983 -0.03459470654664637 0 -0.021052396882511214 -0.03435883211041648 0 -0.020886538279204135 -0.034629052244021755 0 -0.020750221291770583 -0.034742348752271918 0 -0.02088737552596983 -0.03459470654664637 0 -0.02088737552596983 -0.03459470654664637 0 -0.02099288819036731 -0.034448851343948962 0 -0.021052396882511214 -0.03435883211041648 0 -0.021096479348215121 -0.034300254609264745 0 -0.02099288819036731 -0.034448851343948962 0 -0.021052396882511214 -0.03435883211041648 0 -0.021052396882511214 -0.03435883211041648 0 -0.020960947051124147 -0.034424687733856187 0 -0.021305370593065597 -0.034121149727485138 0 -0.020308347770366404 -0.035348179368019927 0 -0.021704151035219717 -0.03473117004802162 0 -0.020886538279204135 -0.034629052244021755 0 -0.021052396882511214 -0.03435883211041648 0 -0.020960947051124147 -0.034424687733856187 0 -0.020028409362536297 -0.036058509235102856 0 -0.020110108395207681 -0.036014257005270528 0 -0.020050725424532439 -0.035937093247477916 0 -0.024936945438817776 -0.03586824055943684 0 -0.0250324660821164 -0.035983867081087299 0 -0.025004192685033864 -0.034805008387937104 0 -0.022615547927380044 -0.036141882111411665 0 -0.021704151035219717 -0.03473117004802162 0 -0.024936945438817776 -0.03586824055943684 0 -0.025004192685033864 -0.034805008387937104 0 -0.022544128587873302 -0.033751730397145158 0 -0.021630769376288855 -0.033005477046525428 0 -0.021305370593065597 -0.034121149727485138 0 -0.02251640894059832 -0.03369994003434635 0 -0.021704151035219717 -0.03473117004802162 0 -0.023021500544913979 -0.033712097816673177 0 -0.021704151035219717 -0.03473117004802162 0 -0.021195278894685289 -0.033701400402889325 0 -0.021305370593065597 -0.034121149727485138 0 -0.021865693965493677 -0.033954058244083853 0 -0.02251640894059832 -0.03369994003434635 0 -0.021202776702285708 -0.034126889510486515 0 -0.021052396882511214 -0.03435883211041648 0 -0.021305370593065597 -0.034121149727485138 0 -0.021202776702285708 -0.034126889510486515 0 -0.021305370593065597 -0.034121149727485138 0 -0.021318740104097136 -0.033964069968062872 0 -0.021305370593065597 -0.034121149727485138 0 -0.021373913011046054 -0.033918380837155614 0 -0.021318740104097136 -0.033964069968062872 0 -0.021305370593065597 -0.034121149727485138 0 -0.0214795259015895 -0.034022978452284365 0 -0.021373913011046054 -0.033918380837155614 0 -0.021305370593065597 -0.034121149727485138 0 -0.0214795259015895 -0.034022978452284365 0 -0.021865693965493677 -0.033954058244083853 0 -0.0214795259015895 -0.034022978452284365 0 -0.021409909919967277 -0.034040380205913955 0 -0.021211883958430336 -0.033703631873843197 0 -0.0214795259015895 -0.034022978452284365 0 -0.021409909919967277 -0.034040380205913955 0 -0.021865693965493677 -0.033954058244083853 0 -0.028702711978635623 -0.03097211864231383 0 -0.026944890173732968 -0.032544214671114548 0 -0.027362951175692145 -0.033551206263543257 0 -0.028702711978635623 -0.03097211864231383 0 -0.026974918989033321 -0.030010773845415575 0 -0.027449491152633475 -0.028963111277015022 0 -0.026974918989033321 -0.030010773845415575 0 -0.026944890173732968 -0.032544214671114548 0 -0.024288008797697189 -0.031871164546642121 0 -0.028702711978635623 -0.03097211864231383 0 -0.026974918989033321 -0.030010773845415575 0 -0.026944890173732968 -0.032544214671114548 0 -0.026944890173732968 -0.032544214671114548 0 -0.027362951175692145 -0.033551206263543257 0 -0.026655014700348409 -0.034039551431612476 0 -0.026944890173732968 -0.032544214671114548 0 -0.026027176809620765 -0.034020401438600321 0 -0.026655014700348409 -0.034039551431612476 0 -0.026944890173732968 -0.032544214671114548 0 -0.026027176809620765 -0.034020401438600321 0 -0.024288008797697189 -0.031871164546642121 0 -0.026027176809620765 -0.034020401438600321 0 -0.026255075905545041 -0.034722463663173109 0 -0.026655014700348409 -0.034039551431612476 0 -0.026255075905545041 -0.034722463663173109 0 -0.026655014700348409 -0.034039551431612476 0 -0.026752275247430807 -0.034827883112511164 0 -0.027362951175692145 -0.033551206263543257 0 -0.026655014700348409 -0.034039551431612476 0 -0.026752275247430807 -0.034827883112511164 0 -0.021865693965493677 -0.033954058244083853 0 -0.022544128587873302 -0.033751730397145158 0 -0.02251640894059832 -0.03369994003434635 0 -0.024997699819608029 -0.032475356502081859 0 -0.024923220407986162 -0.034376431383181916 0 -0.027362951175692145 -0.033551206263543257 0 -0.027320467493667185 -0.035383295420428944 0 -0.026752275247430807 -0.034827883112511164 0 -0.028702711978635623 -0.03097211864231383 0 -0.027362951175692145 -0.033551206263543257 0 -0.027320467493667185 -0.035383295420428944 0 -0.021409909919967277 -0.034040380205913955 0 -0.021865693965493677 -0.033954058244083853 0 -0.022544128587873302 -0.033751730397145158 0 -0.027320467493667185 -0.035383295420428944 0 -0.026070304087981923 -0.035756674805603204 0 -0.026577026882685546 -0.035394909015249602 0 -0.025004192685033864 -0.034805008387937104 0 -0.022544128587873302 -0.033751730397145158 0 -0.02251640894059832 -0.03369994003434635 0 -0.027320467493667185 -0.035383295420428944 0 -0.026577026882685546 -0.035394909015249602 0 -0.026752275247430807 -0.034827883112511164 0 -0.024921448507281264 -0.035623408242494575 0 -0.024923220407986162 -0.034376431383181916 0 -0.024936945438817776 -0.03586824055943684 0 -0.027320467493667185 -0.035383295420428944 0 -0.026070304087981923 -0.035756674805603204 0 -0.025589342461042473 -0.035894123051386728 0 -0.024936945438817776 -0.03586824055943684 0 -0.026070304087981923 -0.035756674805603204 0 -0.025589342461042473 -0.035894123051386728 0 -0.026070304087981923 -0.035756674805603204 0 -0.025848724430291597 -0.035802464700404893 0 -0.026070304087981923 -0.035756674805603204 0 -0.026188136388242952 -0.035386152599073913 0 -0.025848724430291597 -0.035802464700404893 0 -0.026070304087981923 -0.035756674805603204 0 -0.026188136388242952 -0.035386152599073913 0 -0.026577026882685546 -0.035394909015249602 0 -0.026188136388242952 -0.035386152599073913 0 -0.026577026882685546 -0.035394909015249602 0 -0.026752275247430807 -0.034827883112511164 0 -0.026255075905545041 -0.034722463663173109 0 -0.026188136388242952 -0.035386152599073913 0 -0.026752275247430807 -0.034827883112511164 0 -0.026255075905545041 -0.034722463663173109 0 -0.026188136388242952 -0.035386152599073913 0 -0.025844395885435641 -0.035052009246109475 0 -0.025844395885435641 -0.035052009246109475 0 -0.025848724430291597 -0.035802464700404893 0 -0.025826024321144614 -0.035718577181894688 0 -0.026188136388242952 -0.035386152599073913 0 -0.025844395885435641 -0.035052009246109475 0 -0.025848724430291597 -0.035802464700404893 0 -0.025944691712119473 -0.035909665618776287 0 -0.025848724430291597 -0.035802464700404893 0 -0.025826024321144614 -0.035718577181894688 0 -0.025844395885435641 -0.035052009246109475 0 -0.025826024321144614 -0.035718577181894688 0 -0.025633749422054271 -0.035163587305978093 0 -0.02745331033250328 -0.029939955355162067 0 -0.02672397289072876 -0.029525485494531573 0 -0.028945105376543732 -0.024860575796286838 0 -0.028822919715418435 -0.024992684105288709 0 -0.028949419109715824 -0.024968047644343544 0 -0.025844395885435641 -0.035052009246109475 0 -0.025633749422054271 -0.035163587305978093 0 -0.025835213439653563 -0.033979421277386367 0 -0.026027176809620765 -0.034020401438600321 0 -0.025844395885435641 -0.035052009246109475 0 -0.025835213439653563 -0.033979421277386367 0 -0.026027176809620765 -0.034020401438600321 0 -0.026255075905545041 -0.034722463663173109 0 -0.025844395885435641 -0.035052009246109475 0 -0.026619296615718956 -0.03361229683062622 0 -0.02672397289072876 -0.029525485494531573 0 -0.02672397289072876 -0.029525485494531573 0 -0.027676154167788299 -0.026530657794564406 0 -0.026679543964798685 -0.029892289938777624 0 -0.026256720920393144 -0.028474808284170771 0 -0.026801905235337996 -0.029108701731838837 0 -0.026974918989033321 -0.030010773845415575 0 -0.026679543964798685 -0.029892289938777624 0 -0.026801905235337996 -0.029108701731838837 0 -0.02630976540711541 -0.03034756281087142 0 -0.02672397289072876 -0.029525485494531573 0 -0.028945105376543732 -0.024860575796286838 0 -0.028949419109715824 -0.024968047644343544 0 -0.029081174030740623 -0.024960284998197246 0 -0.028949419109715824 -0.024968047644343544 0 -0.0289549497150846 -0.02505141252094811 0 -0.029081174030740623 -0.024960284998197246 0 -0.028822919715418435 -0.024992684105288709 0 -0.028949419109715824 -0.024968047644343544 0 -0.0289549497150846 -0.02505141252094811 0 -0.027676154167788299 -0.026530657794564406 0 -0.027796814868845575 -0.026067852320970527 0 -0.026256720920393144 -0.028474808284170771 0 -0.026801905235337996 -0.029108701731838837 0 -0.027009001612070562 -0.027993856282613732 0 -0.026801905235337996 -0.029108701731838837 0 -0.027009001612070562 -0.027993856282613732 0 -0.027449491152633475 -0.028963111277015022 0 -0.026256720920393144 -0.028474808284170771 0 -0.027009001612070562 -0.027993856282613732 0 -0.026708963201373708 -0.026965649385342797 0 -0.027009001612070562 -0.027993856282613732 0 -0.026708963201373708 -0.026965649385342797 0 -0.02740640119417076 -0.026585717771537145 0 -0.026708963201373708 -0.026965649385342797 0 -0.026388477596925398 -0.026884272260953083 0 -0.026867620974593866 -0.026075122808728493 0 -0.026256720920393144 -0.028474808284170771 0 -0.026708963201373708 -0.026965649385342797 0 -0.026388477596925398 -0.026884272260953083 0 -0.026708963201373708 -0.026965649385342797 0 -0.026936517232759125 -0.026161049096946064 0 -0.026867620974593866 -0.026075122808728493 0 -0.026936517232759125 -0.026161049096946064 0 -0.026867620974593866 -0.026075122808728493 0 -0.027098365703048639 -0.025910446083263039 0 -0.026936517232759125 -0.026161049096946064 0 -0.027098365703048639 -0.025910446083263039 0 -0.027010062761437588 -0.025992222754872646 0 -0.026936517232759125 -0.026161049096946064 0 -0.027123495655612409 -0.025991785325784493 0 -0.027010062761437588 -0.025992222754872646 0 -0.026936517232759125 -0.026161049096946064 0 -0.027123495655612409 -0.025991785325784493 0 -0.02740640119417076 -0.026585717771537145 0 -0.027472429270169033 -0.027095448534960473 0 -0.027115382377309899 -0.025843508375685328 0 -0.026708963201373708 -0.026965649385342797 0 -0.026936517232759125 -0.026161049096946064 0 -0.02740640119417076 -0.026585717771537145 0 -0.02740640119417076 -0.026585717771537145 0 -0.027866129548234579 -0.025646872090450069 0 -0.028226026602868642 -0.027497267287742051 0 -0.02459864748203907 -0.02982794249054314 0 -0.024410372174130331 -0.030212610496656172 0 -0.026624137985129109 -0.024935966789499636 0 -0.02740640119417076 -0.026585717771537145 0 -0.027866129548234579 -0.025646872090450069 0 -0.020451665200471075 -0.032313859230534453 0 -0.020849997461014281 -0.0323631478777247 0 -0.020682222965385164 -0.031883379831565854 0 -0.021023783318427056 -0.032035590797404541 0 -0.020849997461014281 -0.0323631478777247 0 -0.020682222965385164 -0.031883379831565854 0 -0.021023783318427056 -0.032035590797404541 0 -0.020849997461014281 -0.0323631478777247 0 -0.021103761417388067 -0.032309676111881 0 -0.020849997461014281 -0.0323631478777247 0 -0.021167096629127975 -0.032580445679446651 0 -0.021103761417388067 -0.032309676111881 0 -0.020849997461014281 -0.0323631478777247 0 -0.020940057729191282 -0.032816959262545693 0 -0.021167096629127975 -0.032580445679446651 0 -0.020451665200471075 -0.032313859230534453 0 -0.020940057729191282 -0.032816959262545693 0 -0.020699794948525498 -0.033308984531062229 0 -0.020451665200471075 -0.032313859230534453 0 -0.020849997461014281 -0.0323631478777247 0 -0.020940057729191282 -0.032816959262545693 0 -0.020940057729191282 -0.032816959262545693 0 -0.021125140550335018 -0.033310710271544648 0 -0.021230743609646295 -0.0329600608380793 0 -0.021125140550335018 -0.033310710271544648 0 -0.020699794948525498 -0.033308984531062229 0 -0.021211883958430336 -0.033703631873843197 0 -0.020940057729191282 -0.032816959262545693 0 -0.021125140550335018 -0.033310710271544648 0 -0.020699794948525498 -0.033308984531062229 0 -0.027009001612070562 -0.027993856282613732 0 -0.02740640119417076 -0.026585717771537145 0 -0.028226026602868642 -0.027497267287742051 0 -0.027009001612070562 -0.027993856282613732 0 -0.028226026602868642 -0.027497267287742051 0 -0.027449491152633475 -0.028963111277015022 0 -0.028702711978635623 -0.03097211864231383 0 -0.028226026602868642 -0.027497267287742051 0 -0.027449491152633475 -0.028963111277015022 0 -0.026974918989033321 -0.030010773845415575 0 -0.026801905235337996 -0.029108701731838837 0 -0.027449491152633475 -0.028963111277015022 0 -0.021409909919967277 -0.034040380205913955 0 -0.020699794948525498 -0.033308984531062229 0 -0.021211883958430336 -0.033703631873843197 0 -0.024997699819608029 -0.032475356502081859 0 -0.024410372174130331 -0.030212610496656172 0 -0.021373913011046054 -0.033918380837155614 0 -0.021318740104097136 -0.033964069968062872 0 -0.021375409521756514 -0.033543335977430151 0 -0.021211883958430336 -0.033703631873843197 0 -0.021373913011046054 -0.033918380837155614 0 -0.021375409521756514 -0.033543335977430151 0 -0.0214795259015895 -0.034022978452284365 0 -0.021211883958430336 -0.033703631873843197 0 -0.021373913011046054 -0.033918380837155614 0 -0.021318740104097136 -0.033964069968062872 0 -0.021317442740639042 -0.033849941213465629 0 -0.021375409521756514 -0.033543335977430151 0 -0.021318740104097136 -0.033964069968062872 0 -0.021317442740639042 -0.033849941213465629 0 -0.021255432535977534 -0.033980969557191786 0 -0.021861995217449973 -0.03298172589445645 0 -0.021669626821351252 -0.032916647483002437 0 -0.022361066171451262 -0.032748769515718895 0 -0.021564105131938176 -0.033413976995967022 0 -0.021343638335245729 -0.033537209104042294 0 -0.021861995217449973 -0.03298172589445645 0 -0.021669626821351252 -0.032916647483002437 0 -0.021375409521756514 -0.033543335977430151 0 -0.021317442740639042 -0.033849941213465629 0 -0.021311026974599957 -0.033853467811592847 0 -0.021375409521756514 -0.033543335977430151 0 -0.021317442740639042 -0.033849941213465629 0 -0.021311026974599957 -0.033853467811592847 0 -0.021278134443517258 -0.03389629960346828 0 -0.021669626821351252 -0.032916647483002437 0 -0.021653371052404051 -0.03260658615158335 0 -0.021670081856599393 -0.032475878421266216 0 -0.021669626821351252 -0.032916647483002437 0 -0.021454668214652556 -0.03289248336187154 0 -0.021578858983699205 -0.032680353425639984 0 -0.021669626821351252 -0.032916647483002437 0 -0.021454668214652556 -0.03289248336187154 0 -0.021375409521756514 -0.033543335977430151 0 -0.021454668214652556 -0.03289248336187154 0 -0.021375409521756514 -0.033543335977430151 0 -0.021230743609646295 -0.0329600608380793 0 -0.021125140550335018 -0.033310710271544648 0 -0.021211883958430336 -0.033703631873843197 0 -0.021375409521756514 -0.033543335977430151 0 -0.021125140550335018 -0.033310710271544648 0 -0.021375409521756514 -0.033543335977430151 0 -0.021230743609646295 -0.0329600608380793 0 -0.021230743609646295 -0.0329600608380793 0 -0.021421932432714331 -0.032655299684306791 0 -0.021167096629127975 -0.032580445679446651 0 -0.020940057729191282 -0.032816959262545693 0 -0.021230743609646295 -0.0329600608380793 0 -0.021167096629127975 -0.032580445679446651 0 -0.021454668214652556 -0.03289248336187154 0 -0.021230743609646295 -0.0329600608380793 0 -0.021421932432714331 -0.032655299684306791 0 -0.021421932432714331 -0.032655299684306791 0 -0.02136997664902103 -0.032390974735272297 0 -0.021560027418641929 -0.032440977053806747 0 -0.021421932432714331 -0.032655299684306791 0 -0.021167096629127975 -0.032580445679446651 0 -0.02136997664902103 -0.032390974735272297 0 -0.021167096629127975 -0.032580445679446651 0 -0.021103761417388067 -0.032309676111881 0 -0.02136997664902103 -0.032390974735272297 0 -0.021103761417388067 -0.032309676111881 0 -0.02136997664902103 -0.032390974735272297 0 -0.02131308038798331 -0.032147933871769549 0 -0.02136997664902103 -0.032390974735272297 0 -0.02131308038798331 -0.032147933871769549 0 -0.021527237523048543 -0.03224496604317767 0 -0.021023783318427056 -0.032035590797404541 0 -0.021103761417388067 -0.032309676111881 0 -0.02131308038798331 -0.032147933871769549 0 -0.02136997664902103 -0.032390974735272297 0 -0.021527237523048543 -0.03224496604317767 0 -0.021560027418641929 -0.032440977053806747 0 -0.021527237523048543 -0.03224496604317767 0 -0.021560027418641929 -0.032440977053806747 0 -0.021636767520454219 -0.032306950340393457 0 -0.021527237523048543 -0.03224496604317767 0 -0.021636767520454219 -0.032306950340393457 0 -0.021620067225519984 -0.032197526879582772 0 -0.021560027418641929 -0.032440977053806747 0 -0.021639571766972777 -0.032466282310157989 0 -0.021636767520454219 -0.032306950340393457 0 -0.021421932432714331 -0.032655299684306791 0 -0.021560027418641929 -0.032440977053806747 0 -0.021578858983699205 -0.032680353425639984 0 -0.021669626821351252 -0.032916647483002437 0 -0.021578858983699205 -0.032680353425639984 0 -0.021653371052404051 -0.03260658615158335 0 -0.021454668214652556 -0.03289248336187154 0 -0.021421932432714331 -0.032655299684306791 0 -0.021578858983699205 -0.032680353425639984 0 -0.021578858983699205 -0.032680353425639984 0 -0.021639571766972777 -0.032466282310157989 0 -0.021653371052404051 -0.03260658615158335 0 -0.021560027418641929 -0.032440977053806747 0 -0.021578858983699205 -0.032680353425639984 0 -0.021639571766972777 -0.032466282310157989 0 -0.021639571766972777 -0.032466282310157989 0 -0.021653371052404051 -0.03260658615158335 0 -0.021658209858625359 -0.032494659278515282 0 -0.021653371052404051 -0.03260658615158335 0 -0.021658209858625359 -0.032494659278515282 0 -0.021670081856599393 -0.032475878421266216 0 -0.021658209858625359 -0.032494659278515282 0 -0.021670081856599393 -0.032475878421266216 0 -0.021658302781435167 -0.032355471896658779 0 -0.021670081856599393 -0.032475878421266216 0 -0.021664655957589672 -0.03234760743258594 0 -0.021658302781435167 -0.032355471896658779 0 -0.021670081856599393 -0.032475878421266216 0 -0.021664655957589672 -0.03234760743258594 0 -0.021669202361031908 -0.032306067276047866 0 -0.021664655957589672 -0.03234760743258594 0 -0.021658302781435167 -0.032355471896658779 0 -0.021625639105729993 -0.03225011721692226 0 -0.021639571766972777 -0.032466282310157989 0 -0.021658209858625359 -0.032494659278515282 0 -0.021658302781435167 -0.032355471896658779 0 -0.021658302781435167 -0.032355471896658779 0 -0.021625639105729993 -0.03225011721692226 0 -0.021588075238192537 -0.032202321874106168 0 -0.021598767247793371 -0.032168448319034426 0 -0.021639577152601407 -0.032264821515753772 0 -0.021643248122959858 -0.032253825790286544 0 -0.021598767247793371 -0.032168448319034426 0 -0.021639577152601407 -0.032264821515753772 0 -0.021625639105729993 -0.03225011721692226 0 -0.021664655957589672 -0.03234760743258594 0 -0.021639577152601407 -0.032264821515753772 0 -0.021625639105729993 -0.03225011721692226 0 -0.021664655957589672 -0.03234760743258594 0 -0.021639577152601407 -0.032264821515753772 0 -0.021669202361031908 -0.032306067276047866 0 -0.021639577152601407 -0.032264821515753772 0 -0.021669202361031908 -0.032306067276047866 0 -0.021643248122959858 -0.032253825790286544 0 -0.021598767247793371 -0.032168448319034426 0 -0.021625639105729993 -0.03225011721692226 0 -0.021523023009007547 -0.032132297331445937 0 -0.021588075238192537 -0.032202321874106168 0 -0.021636767520454219 -0.032306950340393457 0 -0.021587462112988388 -0.032214600879320231 0 -0.021625639105729993 -0.03225011721692226 0 -0.021588075238192537 -0.032202321874106168 0 -0.021523023009007547 -0.032132297331445937 0 -0.021658302781435167 -0.032355471896658779 0 -0.021588075238192537 -0.032202321874106168 0 -0.021636767520454219 -0.032306950340393457 0 -0.021639571766972777 -0.032466282310157989 0 -0.021658302781435167 -0.032355471896658779 0 -0.021636767520454219 -0.032306950340393457 0 -0.021620067225519984 -0.032197526879582772 0 -0.021485496371723995 -0.032167152181988838 0 -0.02161257283421639 -0.032186113537217585 0 -0.021587462112988388 -0.032214600879320231 0 -0.021620067225519984 -0.032197526879582772 0 -0.021485496371723995 -0.032167152181988838 0 -0.021636767520454219 -0.032306950340393457 0 -0.021587462112988388 -0.032214600879320231 0 -0.021620067225519984 -0.032197526879582772 0 -0.021588075238192537 -0.032202321874106168 0 -0.021587462112988388 -0.032214600879320231 0 -0.021485496371723995 -0.032167152181988838 0 -0.021485496371723995 -0.032167152181988838 0 -0.02128525467083324 -0.032015231657356438 0 -0.021159458632442577 -0.032107584759956155 0 -0.021485496371723995 -0.032167152181988838 0 -0.021445180977962424 -0.032090766987299027 0 -0.02128525467083324 -0.032015231657356438 0 -0.020637842718010817 -0.031494182633096522 0 -0.020113533462054765 -0.031566008434780558 0 -0.020077316919296331 -0.031663456430644311 0 -0.021598767247793371 -0.032168448319034426 0 -0.021407166839784473 -0.032035481372138103 0 -0.021163789614372718 -0.03181091183784783 0 -0.0200628120935906 -0.031656995915116157 0 -0.019814581998413492 -0.031617649207719221 0 -0.019706756313360992 -0.031684846966700361 0 -0.020819035242766702 -0.031946118922832258 0 -0.020656040651097485 -0.031729776143624364 0 -0.020819035242766702 -0.031946118922832258 0 -0.019830581833596889 -0.031609586864755193 0 -0.021445180977962424 -0.032090766987299027 0 -0.021407166839784473 -0.032035481372138103 0 -0.02128525467083324 -0.032015231657356438 0 -0.021588075238192537 -0.032202321874106168 0 -0.021485496371723995 -0.032167152181988838 0 -0.021445180977962424 -0.032090766987299027 0 -0.021588075238192537 -0.032202321874106168 0 -0.021445180977962424 -0.032090766987299027 0 -0.021523023009007547 -0.032132297331445937 0 -0.021445180977962424 -0.032090766987299027 0 -0.021407166839784473 -0.032035481372138103 0 -0.021523023009007547 -0.032132297331445937 0 -0.021598767247793371 -0.032168448319034426 0 -0.021407166839784473 -0.032035481372138103 0 -0.021523023009007547 -0.032132297331445937 0 -0.019413137041268777 -0.033870578188756419 0 -0.021436789118839419 -0.032484009030186438 0 -0.019868804021127229 -0.03157881260001915 0 -0.019850475590899253 -0.031502270676920678 0 -0.019728865486299253 -0.03155389081789995 0 -0.0200628120935906 -0.031656995915116157 0 -0.019853934145396816 -0.031499895123788577 0 -0.020147960299780672 -0.031643913667648217 0 -0.019814581998413492 -0.031617649207719221 0 -0.019868804021127229 -0.03157881260001915 0 -0.019728865486299253 -0.03155389081789995 0 -0.0200628120935906 -0.031656995915116157 0 -0.019814581998413492 -0.031617649207719221 0 -0.019868804021127229 -0.03157881260001915 0 -0.021310502689596434 -0.033912495076995758 0 -0.021281169798067361 -0.033917799325657548 0 -0.021273994117196712 -0.033892181526094953 0 -0.019372474512933106 -0.032529747373882374 0 -0.019413137041268777 -0.033870578188756419 0 -0.0200628120935906 -0.031656995915116157 0 -0.019868804021127229 -0.03157881260001915 0 -0.019853934145396816 -0.031499895123788577 0 -0.021281169798067361 -0.033917799325657548 0 -0.021273994117196712 -0.033892181526094953 0 -0.02127910111230652 -0.033892706388574785 0 -0.021669626821351252 -0.032916647483002437 0 -0.021670081856599393 -0.032475878421266216 0 -0.021673152691564054 -0.032264742008313405 0 -0.021851574875764279 -0.032808542722771901 0 -0.021436789118839419 -0.032484009030186438 0 -0.020819035242766702 -0.031946118922832258 0 -0.021436789118839419 -0.032484009030186438 0 -0.021456288739108424 -0.03248234957240833 0 -0.021436789118839419 -0.032484009030186438 0 -0.021311026974599957 -0.033853467811592847 0 -0.021273994117196712 -0.033892181526094953 0 -0.02127910111230652 -0.033892706388574785 0 -0.021564105131938176 -0.033413976995967022 0 -0.021436789118839419 -0.032484009030186438 0 -0.021670081856599393 -0.032475878421266216 0 -0.021669202361031908 -0.032306067276047866 0 -0.021673152691564054 -0.032264742008313405 0 -0.021311026974599957 -0.033853467811592847 0 -0.021278134443517258 -0.03389629960346828 0 -0.02127910111230652 -0.033892706388574785 0 -0.021281169798067361 -0.033917799325657548 0 -0.021278134443517258 -0.03389629960346828 0 -0.02127910111230652 -0.033892706388574785 0 -0.021281169798067361 -0.033917799325657548 0 -0.021278134443517258 -0.03389629960346828 0 -0.021255432535977534 -0.033980969557191786 0 -0.021317442740639042 -0.033849941213465629 0 -0.021278134443517258 -0.03389629960346828 0 -0.021255432535977534 -0.033980969557191786 0 -0.019413137041268777 -0.033870578188756419 0 -0.019581739714678505 -0.035709768311393157 0 -0.021310502689596434 -0.033912495076995758 0 -0.021281169798067361 -0.033917799325657548 0 -0.021290388161086742 -0.034070918605168143 0 -0.021281169798067361 -0.033917799325657548 0 -0.021255432535977534 -0.033980969557191786 0 -0.021290388161086742 -0.034070918605168143 0 -0.029864359380896117 -0.024889617638452537 0 -0.029737300788490913 -0.024890281525537926 0 -0.029742741346449702 -0.024894288697356302 0 -0.029864359380896117 -0.024889617638452537 0 -0.029766083421543296 -0.024895101900039764 0 -0.029737300788490913 -0.024890281525537926 0 -0.030663648530880216 -0.025480965091965648 0 -0.031095921125573262 -0.026179467437411102 0 -0.029814546273896039 -0.024903496191098166 0 -0.029766083421543296 -0.024895101900039764 0 -0.029671137590030178 -0.024910677222647545 0 -0.029864359380896117 -0.024889617638452537 0 -0.029814546273896039 -0.024903496191098166 0 -0.029766083421543296 -0.024895101900039764 0 -0.029671137590030178 -0.024910677222647545 0 -0.029737300788490913 -0.024890281525537926 0 -0.029634221017003037 -0.024910314222155731 0 -0.029766083421543296 -0.024895101900039764 0 -0.029671137590030178 -0.024910677222647545 0 -0.029737300788490913 -0.024890281525537926 0 -0.029737300788490913 -0.024890281525537926 0 -0.02972115871168245 -0.024885121620427084 0 -0.029742741346449702 -0.024894288697356302 0 -0.029737300788490913 -0.024890281525537926 0 -0.02972115871168245 -0.024885121620427084 0 -0.029687992085985562 -0.024887863584726146 0 -0.02972115871168245 -0.024885121620427084 0 -0.029721230849273399 -0.024878291925201544 0 -0.029709386790435301 -0.024878647200786985 0 -0.033512642832316565 -0.028103507924353691 0 -0.033442785839603792 -0.02635660022853532 0 -0.032597529025901538 -0.02718609411834437 0 -0.02972115871168245 -0.024885121620427084 0 -0.029721230849273399 -0.024878291925201544 0 -0.029742741346449702 -0.024894288697356302 0 -0.033680456118253765 -0.024131131058732366 0 -0.031095921125573262 -0.026179467437411102 0 -0.035000046166083404 -0.021884168347141741 0 -0.035267641852715262 -0.022956234977474836 0 -0.034998909462790564 -0.023842412518344042 0 -0.033680456118253765 -0.024131131058732366 0 -0.034395625604544754 -0.025247166504522883 0 -0.035780081846651123 -0.022078934517221479 0 -0.035267641852715262 -0.022956234977474836 0 -0.035198944374790389 -0.023871864285309304 0 -0.035000046166083404 -0.021884168347141741 0 -0.035780081846651123 -0.022078934517221479 0 -0.035267641852715262 -0.022956234977474836 0 -0.035267641852715262 -0.022956234977474836 0 -0.035198944374790389 -0.023871864285309304 0 -0.034998909462790564 -0.023842412518344042 0 -0.033442785839603792 -0.02635660022853532 0 -0.032597529025901538 -0.02718609411834437 0 -0.032527995571769594 -0.026319474627102379 0 -0.031479777162543653 -0.026186978119385234 0 -0.032597529025901538 -0.02718609411834437 0 -0.032527995571769594 -0.026319474627102379 0 -0.033442785839603792 -0.02635660022853532 0 -0.032916738325434958 -0.025132263715781103 0 -0.033561051671550331 -0.024253573106874825 0 -0.033442785839603792 -0.02635660022853532 0 -0.032916738325434958 -0.025132263715781103 0 -0.032376232160533022 -0.025511739439268336 0 -0.033442785839603792 -0.02635660022853532 0 -0.032527995571769594 -0.026319474627102379 0 -0.032376232160533022 -0.025511739439268336 0 -0.032916738325434958 -0.025132263715781103 0 -0.032376232160533022 -0.025511739439268336 0 -0.032229829888273338 -0.024374975134078582 0 -0.035198944374790389 -0.023871864285309304 0 -0.034998909462790564 -0.023842412518344042 0 -0.033985177395472493 -0.024277941059017788 0 -0.035198944374790389 -0.023871864285309304 0 -0.033985177395472493 -0.024277941059017788 0 -0.033561051671550331 -0.024253573106874825 0 -0.03499999988841393 -0.023842789852799143 0 -0.034999992989249752 -0.025530259542626183 0 -0.035584877078898049 -0.025644454346951489 0 -0.034999861117520244 -0.023842978807782245 0 -0.034823873516130352 -0.025153593915378029 0 -0.034395625604544754 -0.025247166504522883 0 -0.033653516118805536 -0.024104858882511203 0 -0.034999984960338154 -0.027217728100343428 0 -0.034999992989249752 -0.025530259542626183 0 -0.035584877078898049 -0.025644454346951489 0 -0.032916738325434958 -0.025132263715781103 0 -0.033561051671550331 -0.024253573106874825 0 -0.032229829888273338 -0.024374975134078582 0 -0.032466107799720999 -0.023602089800735276 0 -0.033561051671550331 -0.024253573106874825 0 -0.032229829888273338 -0.024374975134078582 0 -0.031594789346724654 -0.023718171671556557 0 -0.031373658789367757 -0.024764596858499195 0 -0.03044908500509922 -0.024000471566011976 0 -0.031594789346724654 -0.023718171671556557 0 -0.032229829888273338 -0.024374975134078582 0 -0.031373658789367757 -0.024764596858499195 0 -0.032376232160533022 -0.025511739439268336 0 -0.032229829888273338 -0.024374975134078582 0 -0.031373658789367757 -0.024764596858499195 0 -0.031479777162543653 -0.026186978119385234 0 -0.032376232160533022 -0.025511739439268336 0 -0.031373658789367757 -0.024764596858499195 0 -0.031479777162543653 -0.026186978119385234 0 -0.031373658789367757 -0.024764596858499195 0 -0.030222702926395617 -0.024829500364552514 0 -0.030663648530880216 -0.025480965091965648 0 -0.030232467639882198 -0.024907513072434551 0 -0.031479777162543653 -0.026186978119385234 0 -0.032527995571769594 -0.026319474627102379 0 -0.032376232160533022 -0.025511739439268336 0 -0.029864359380896117 -0.024889617638452537 0 -0.029814546273896039 -0.024903496191098166 0 -0.030222702926395617 -0.024829500364552514 0 -0.029814546273896039 -0.024903496191098166 0 -0.030222702926395617 -0.024829500364552514 0 -0.029720692083007778 -0.024498198178008867 0 -0.030222702926395617 -0.024829500364552514 0 -0.03044908500509922 -0.024000471566011976 0 -0.029720692083007778 -0.024498198178008867 0 -0.031373658789367757 -0.024764596858499195 0 -0.030222702926395617 -0.024829500364552514 0 -0.03044908500509922 -0.024000471566011976 0 -0.029843259851256559 -0.023487447537902804 0 -0.029720692083007778 -0.024498198178008867 0 -0.029257093114451932 -0.0243619279275025 0 -0.029720692083007778 -0.024498198178008867 0 -0.029257093114451932 -0.0243619279275025 0 -0.029435190173722769 -0.024734480179573953 0 -0.029257093114451932 -0.0243619279275025 0 -0.029435190173722769 -0.024734480179573953 0 -0.029077554458314236 -0.024687436030131293 0 -0.029814546273896039 -0.024903496191098166 0 -0.029720692083007778 -0.024498198178008867 0 -0.029435190173722769 -0.024734480179573953 0 -0.026281967946847569 -0.035956131460763929 0 -0.025944691712119473 -0.035909665618776287 0 -0.025826024321144614 -0.035718577181894688 0 -0.026281967946847569 -0.035956131460763929 0 -0.025826024321144614 -0.035718577181894688 0 -0.026109279377720458 -0.035921152061112245 0 -0.028119585751145079 -0.030235859791602739 0 -0.027603382120811717 -0.030278408590962948 0 -0.026281967946847569 -0.035956131460763929 0 -0.026922877920202936 -0.036204270941154339 0 -0.026109279377720458 -0.035921152061112245 0 -0.029435190173722769 -0.024734480179573953 0 -0.029077554458314236 -0.024687436030131293 0 -0.029212676761044595 -0.024859244994090486 0 -0.025826024321144614 -0.035718577181894688 0 -0.025633749422054271 -0.035163587305978093 0 -0.026109279377720458 -0.035921152061112245 0 -0.02745331033250328 -0.029939955355162067 0 -0.027603382120811717 -0.030278408590962948 0 -0.028945105376543732 -0.024860575796286838 0 -0.029077554458314236 -0.024687436030131293 0 -0.029212676761044595 -0.024859244994090486 0 -0.028945105376543732 -0.024860575796286838 0 -0.029212676761044595 -0.024859244994090486 0 -0.029081174030740623 -0.024960284998197246 0 -0.029081174030740623 -0.024960284998197246 0 -0.029297498515326332 -0.024967531155743364 0 -0.029146460559968463 -0.025028559260026836 0 -0.029212676761044595 -0.024859244994090486 0 -0.029081174030740623 -0.024960284998197246 0 -0.029297498515326332 -0.024967531155743364 0 -0.029814546273896039 -0.024903496191098166 0 -0.029671137590030178 -0.024910677222647545 0 -0.029496266620663847 -0.024923347472668368 0 -0.029814546273896039 -0.024903496191098166 0 -0.029435190173722769 -0.024734480179573953 0 -0.029496266620663847 -0.024923347472668368 0 -0.029435190173722769 -0.024734480179573953 0 -0.029212676761044595 -0.024859244994090486 0 -0.029496266620663847 -0.024923347472668368 0 -0.029212676761044595 -0.024859244994090486 0 -0.029297498515326332 -0.024967531155743364 0 -0.029496266620663847 -0.024923347472668368 0 -0.029297498515326332 -0.024967531155743364 0 -0.029496266620663847 -0.024923347472668368 0 -0.029478810953940244 -0.024949754479953113 0 -0.029671137590030178 -0.024910677222647545 0 -0.029496266620663847 -0.024923347472668368 0 -0.029478810953940244 -0.024949754479953113 0 -0.029478810953940244 -0.024949754479953113 0 -0.029371255313213471 -0.024975443387992353 0 -0.029522134629324511 -0.024937170737089058 0 -0.029478810953940244 -0.024949754479953113 0 -0.029285935719560709 -0.024990899032221008 0 -0.029371255313213471 -0.024975443387992353 0 -0.029297498515326332 -0.024967531155743364 0 -0.029478810953940244 -0.024949754479953113 0 -0.029285935719560709 -0.024990899032221008 0 -0.029285935719560709 -0.024990899032221008 0 -0.029162395313087296 -0.02503292342563565 0 -0.029371255313213471 -0.024975443387992353 0 -0.029162395313087296 -0.02503292342563565 0 -0.029371255313213471 -0.024975443387992353 0 -0.0292981200428452 -0.024996231746501008 0 -0.029371255313213471 -0.024975443387992353 0 -0.029444981215781995 -0.024958638110366558 0 -0.0292981200428452 -0.024996231746501008 0 -0.029371255313213471 -0.024975443387992353 0 -0.029444981215781995 -0.024958638110366558 0 -0.029522134629324511 -0.024937170737089058 0 -0.0289549497150846 -0.02505141252094811 0 -0.029146460559968463 -0.025028559260026836 0 -0.02907486353895998 -0.025076571498513681 0 -0.0289549497150846 -0.02505141252094811 0 -0.029081174030740623 -0.024960284998197246 0 -0.029146460559968463 -0.025028559260026836 0 -0.029297498515326332 -0.024967531155743364 0 -0.029285935719560709 -0.024990899032221008 0 -0.029146460559968463 -0.025028559260026836 0 -0.029162395313087296 -0.02503292342563565 0 -0.029146460559968463 -0.025028559260026836 0 -0.02907486353895998 -0.025076571498513681 0 -0.029162395313087296 -0.02503292342563565 0 -0.02907486353895998 -0.025076571498513681 0 -0.029083783002284303 -0.025056708870844217 0 -0.029285935719560709 -0.024990899032221008 0 -0.029162395313087296 -0.02503292342563565 0 -0.029146460559968463 -0.025028559260026836 0 -0.027796814868845575 -0.026067852320970527 0 -0.028198319531730635 -0.025473792213994446 0 -0.026388477596925398 -0.026884272260953083 0 -0.026867620974593866 -0.026075122808728493 0 -0.027170580617336529 -0.025745166513732085 0 -0.026867620974593866 -0.026075122808728493 0 -0.027170580617336529 -0.025745166513732085 0 -0.027626497026676328 -0.025620367134533268 0 -0.029162395313087296 -0.02503292342563565 0 -0.029083783002284303 -0.025056708870844217 0 -0.029072234375302371 -0.025053521793872338 0 -0.027626497026676328 -0.025620367134533268 0 -0.028801057115174937 -0.025237265829827809 0 -0.027723692380604053 -0.02586854627539829 0 -0.028198319531730635 -0.025473792213994446 0 -0.028753658829430314 -0.025389901854644622 0 -0.027170580617336529 -0.025745166513732085 0 -0.027626497026676328 -0.025620367134533268 0 -0.028801057115174937 -0.025237265829827809 0 -0.026867620974593866 -0.026075122808728493 0 -0.027626497026676328 -0.025620367134533268 0 -0.027098365703048639 -0.025910446083263039 0 -0.027626497026676328 -0.025620367134533268 0 -0.027098365703048639 -0.025910446083263039 0 -0.027723692380604053 -0.02586854627539829 0 -0.0292981200428452 -0.024996231746501008 0 -0.029335403251640222 -0.025083288820879353 0 -0.029472078288655678 -0.024974796177467767 0 -0.029444981215781995 -0.024958638110366558 0 -0.0292981200428452 -0.024996231746501008 0 -0.029472078288655678 -0.024974796177467767 0 -0.0292981200428452 -0.024996231746501008 0 -0.029072234375302371 -0.025053521793872338 0 -0.029335403251640222 -0.025083288820879353 0 -0.029162395313087296 -0.02503292342563565 0 -0.0292981200428452 -0.024996231746501008 0 -0.029072234375302371 -0.025053521793872338 0 -0.029083783002284303 -0.025056708870844217 0 -0.029072234375302371 -0.025053521793872338 0 -0.028801057115174937 -0.025237265829827809 0 -0.028801057115174937 -0.025237265829827809 0 -0.029335403251640222 -0.025083288820879353 0 -0.029182958717438128 -0.025417045104840021 0 -0.029072234375302371 -0.025053521793872338 0 -0.028801057115174937 -0.025237265829827809 0 -0.029335403251640222 -0.025083288820879353 0 -0.029335403251640222 -0.025083288820879353 0 -0.029493505650453358 -0.024943746630256461 0 -0.029445753628851674 -0.02495102649556219 0 -0.029493505650453358 -0.024943746630256461 0 -0.029602124581996771 -0.024904914742661731 0 -0.029472078288655678 -0.024974796177467767 0 -0.029335403251640222 -0.025083288820879353 0 -0.029493505650453358 -0.024943746630256461 0 -0.029472078288655678 -0.024974796177467767 0 -0.029493505650453358 -0.024943746630256461 0 -0.029602124581996771 -0.024904914742661731 0 -0.029657675723864255 -0.024855443128568227 0 -0.029602124581996771 -0.024904914742661731 0 -0.029548392992257956 -0.024931724350775914 0 -0.029628441479136309 -0.024900466738661971 0 -0.029602124581996771 -0.024904914742661731 0 -0.029628441479136309 -0.024900466738661971 0 -0.029653780305711405 -0.024885664991161953 0 -0.029602124581996771 -0.024904914742661731 0 -0.029472078288655678 -0.024974796177467767 0 -0.029548392992257956 -0.024931724350775914 0 -0.029444981215781995 -0.024958638110366558 0 -0.029472078288655678 -0.024974796177467767 0 -0.029548392992257956 -0.024931724350775914 0 -0.029444981215781995 -0.024958638110366558 0 -0.029548392992257956 -0.024931724350775914 0 -0.029522134629324511 -0.024937170737089058 0 -0.029548392992257956 -0.024931724350775914 0 -0.029522134629324511 -0.024937170737089058 0 -0.029621463700363414 -0.024906215924304375 0 -0.029548392992257956 -0.024931724350775914 0 -0.029628441479136309 -0.024900466738661971 0 -0.029621463700363414 -0.024906215924304375 0 -0.029628441479136309 -0.024900466738661971 0 -0.029660266320819507 -0.024891331887084582 0 -0.029665435915785035 -0.024885523535461408 0 -0.029628441479136309 -0.024900466738661971 0 -0.029665435915785035 -0.024885523535461408 0 -0.029653780305711405 -0.024885664991161953 0 -0.029628441479136309 -0.024900466738661971 0 -0.029660266320819507 -0.024891331887084582 0 -0.029621463700363414 -0.024906215924304375 0 -0.029737300788490913 -0.024890281525537926 0 -0.029687992085985562 -0.024887863584726146 0 -0.029634221017003037 -0.024910314222155731 0 -0.029621463700363414 -0.024906215924304375 0 -0.029687992085985562 -0.024887863584726146 0 -0.029634221017003037 -0.024910314222155731 0 -0.029660266320819507 -0.024891331887084582 0 -0.029621463700363414 -0.024906215924304375 0 -0.029687992085985562 -0.024887863584726146 0 -0.029478810953940244 -0.024949754479953113 0 -0.029522134629324511 -0.024937170737089058 0 -0.029634221017003037 -0.024910314222155731 0 -0.029671137590030178 -0.024910677222647545 0 -0.029478810953940244 -0.024949754479953113 0 -0.029634221017003037 -0.024910314222155731 0 -0.029522134629324511 -0.024937170737089058 0 -0.029621463700363414 -0.024906215924304375 0 -0.029634221017003037 -0.024910314222155731 0 -0.033680456118253765 -0.024131131058732366 0 -0.032627223832698109 -0.022724634937686467 0 -0.029721230849273399 -0.024878291925201544 0 -0.029709386790435301 -0.024878647200786985 0 -0.029705978216159813 -0.024864172016723109 0 -0.035803610861631925 -0.022005281215700983 0 -0.034999947177724526 -0.021142640133306315 0 -0.035715629903274551 -0.020624549628654554 0 -0.033680456118253765 -0.024131131058732366 0 -0.035049098686942066 -0.021274972849631143 0 -0.035000046166083404 -0.021884168347141741 0 -0.035780081846651123 -0.022078934517221479 0 -0.034999978267517849 -0.021142510805743146 0 -0.02972115871168245 -0.024885121620427084 0 -0.029687992085985562 -0.024887863584726146 0 -0.029709386790435301 -0.024878647200786985 0 -0.029687992085985562 -0.024887863584726146 0 -0.029709386790435301 -0.024878647200786985 0 -0.029689682643464506 -0.024878576350029186 0 -0.029660266320819507 -0.024891331887084582 0 -0.029687992085985562 -0.024887863584726146 0 -0.029689682643464506 -0.024878576350029186 0 -0.029709386790435301 -0.024878647200786985 0 -0.029689682643464506 -0.024878576350029186 0 -0.029705978216159813 -0.024864172016723109 0 -0.029689682643464506 -0.024878576350029186 0 -0.029682155614446711 -0.024875067637041122 0 -0.029705978216159813 -0.024864172016723109 0 -0.029660266320819507 -0.024891331887084582 0 -0.029689682643464506 -0.024878576350029186 0 -0.029665435915785035 -0.024885523535461408 0 -0.029689682643464506 -0.024878576350029186 0 -0.029665435915785035 -0.024885523535461408 0 -0.029682155614446711 -0.024875067637041122 0 -0.029665435915785035 -0.024885523535461408 0 -0.029682155614446711 -0.024875067637041122 0 -0.029653780305711405 -0.024885664991161953 0 -0.029682155614446711 -0.024875067637041122 0 -0.029705978216159813 -0.024864172016723109 0 -0.02970238404965889 -0.024865302800820367 0 -0.032627223832698109 -0.022724634937686467 0 -0.033738639961511954 -0.021392745358007316 0 -0.035715629903274551 -0.020624549628654554 0 -0.034999991607058391 -0.019924836226959373 0 -0.035596786231755245 -0.01929512342564212 0 -0.034999947177724526 -0.021142640133306315 0 -0.035715629903274551 -0.020624549628654554 0 -0.034999991607058391 -0.019924836226959373 0 -0.034999972904147872 -0.01992445917397272 0 -0.035523973673718012 -0.019147684833727616 0 -0.035469350477423223 -0.018821706136916885 0 -0.034999972904147872 -0.01992445917397272 0 -0.035469350477423223 -0.018821706136916885 0 -0.034999673420003881 -0.01813366601415559 0 -0.035522083834479502 -0.019083355540280438 0 -0.035469350477423223 -0.018821706136916885 0 -0.035982949267905268 -0.017574599904433805 0 -0.035001189083400643 -0.019923439402128162 0 -0.033738639961511954 -0.021392745358007316 0 -0.033738639961511954 -0.021392745358007316 0 -0.033962204581908711 -0.020243553957994223 0 -0.02970238404965889 -0.024865302800820367 0 -0.029667775586549306 -0.024875580823989059 0 -0.029657675723864255 -0.024855443128568227 0 -0.029682155614446711 -0.024875067637041122 0 -0.029653780305711405 -0.024885664991161953 0 -0.029667775586549306 -0.024875580823989059 0 -0.029682155614446711 -0.024875067637041122 0 -0.02970238404965889 -0.024865302800820367 0 -0.029667775586549306 -0.024875580823989059 0 -0.029602124581996771 -0.024904914742661731 0 -0.029653780305711405 -0.024885664991161953 0 -0.029667775586549306 -0.024875580823989059 0 -0.035469350477423223 -0.018821706136916885 0 -0.035982949267905268 -0.017574599904433805 0 -0.035462086897866979 -0.017449985862118954 0 -0.033738639961511954 -0.021392745358007316 0 -0.032562122685583471 -0.021404274659993446 0 -0.029602124581996771 -0.024904914742661731 0 -0.029667775586549306 -0.024875580823989059 0 -0.029657675723864255 -0.024855443128568227 0 -0.035469350477423223 -0.018821706136916885 0 -0.034999673420003881 -0.01813366601415559 0 -0.035462086897866979 -0.017449985862118954 0 -0.035462086897866979 -0.017449985862118954 0 -0.035702531592026951 -0.016534594560092191 0 -0.034999593699610379 -0.016342650674145975 0 -0.034999673420003881 -0.01813366601415559 0 -0.035462086897866979 -0.017449985862118954 0 -0.034999593699610379 -0.016342650674145975 0 -0.035982949267905268 -0.017574599904433805 0 -0.035462086897866979 -0.017449985862118954 0 -0.035702531592026951 -0.016534594560092191 0 -0.035702531592026951 -0.016534594560092191 0 -0.035697815500952058 -0.015897556559110668 0 -0.035471354160091347 -0.015537411416159981 0 -0.034999593699610379 -0.016342650674145975 0 -0.034999915035105425 -0.014555595029586072 0 -0.035471354160091347 -0.015537411416159981 0 -0.035702531592026951 -0.016534594560092191 0 -0.034999593699610379 -0.016342650674145975 0 -0.035471354160091347 -0.015537411416159981 0 -0.029493505650453358 -0.024943746630256461 0 -0.029446501435110496 -0.024788941746455934 0 -0.029445753628851674 -0.02495102649556219 0 -0.029446501435110496 -0.024788941746455934 0 -0.029482432212319543 -0.024659259145683014 0 -0.029445753628851674 -0.02495102649556219 0 -0.032562122685583471 -0.021404274659993446 0 -0.032696453400933544 -0.020665015172702642 0 -0.035982949267905268 -0.017574599904433805 0 -0.035702531592026951 -0.016534594560092191 0 -0.03588958374019461 -0.016619979534684394 0 -0.029493505650453358 -0.024943746630256461 0 -0.029657675723864255 -0.024855443128568227 0 -0.029446501435110496 -0.024788941746455934 0 -0.035702531592026951 -0.016534594560092191 0 -0.03588958374019461 -0.016619979534684394 0 -0.035697815500952058 -0.015897556559110668 0 -0.03588958374019461 -0.016619979534684394 0 -0.035775672135854107 -0.016209540184405017 0 -0.035697815500952058 -0.015897556559110668 0 -0.029446501435110496 -0.024788941746455934 0 -0.029516952372834977 -0.024091793335884966 0 -0.029482432212319543 -0.024659259145683014 0 -0.029446501435110496 -0.024788941746455934 0 -0.029516952372834977 -0.024091793335884966 0 -0.029568712122949776 -0.023908906322922797 0 -0.03588958374019461 -0.016619979534684394 0 -0.035775672135854107 -0.016209540184405017 0 -0.035393790660063283 -0.016156183204979305 0 -0.032696453400933544 -0.020665015172702642 0 -0.032486400231493441 -0.020047929604468304 0 -0.035736706490560176 -0.016228034437003064 0 -0.035729335613654808 -0.015964477033420327 0 -0.035969698250196414 -0.015545702737211925 0 -0.035736706490560176 -0.016228034437003064 0 -0.035594071326883629 -0.017696399945793785 0 -0.035335099114185559 -0.016627205007707552 0 -0.035775672135854107 -0.016209540184405017 0 -0.035736706490560176 -0.016228034437003064 0 -0.035393790660063283 -0.016156183204979305 0 -0.035736706490560176 -0.016228034437003064 0 -0.035393790660063283 -0.016156183204979305 0 -0.035335099114185559 -0.016627205007707552 0 -0.035775672135854107 -0.016209540184405017 0 -0.035736706490560176 -0.016228034437003064 0 -0.035729335613654808 -0.015964477033420327 0 -0.035697815500952058 -0.015897556559110668 0 -0.035729335613654808 -0.015964477033420327 0 -0.03567003063598001 -0.015637341448285526 0 -0.035775672135854107 -0.016209540184405017 0 -0.035697815500952058 -0.015897556559110668 0 -0.035729335613654808 -0.015964477033420327 0 -0.03567003063598001 -0.015637341448285526 0 -0.035686762406359089 -0.015391486552711728 0 -0.035969698250196414 -0.015545702737211925 0 -0.03567003063598001 -0.015637341448285526 0 -0.035686762406359089 -0.015391486552711728 0 -0.035439541916434038 -0.015230300856288272 0 -0.035729335613654808 -0.015964477033420327 0 -0.03567003063598001 -0.015637341448285526 0 -0.035969698250196414 -0.015545702737211925 0 -0.035734297416738552 -0.01584992810341922 0 -0.035938842525581306 -0.017623973556602529 0 -0.034999915035105425 -0.014555595029586072 0 -0.035471354160091347 -0.015537411416159981 0 -0.035439541916434038 -0.015230300856288272 0 -0.035697815500952058 -0.015897556559110668 0 -0.035471354160091347 -0.015537411416159981 0 -0.035439541916434038 -0.015230300856288272 0 -0.035697815500952058 -0.015897556559110668 0 -0.03567003063598001 -0.015637341448285526 0 -0.035439541916434038 -0.015230300856288272 0 -0.035000108241326801 -0.014552443292779139 0 -0.035909085440929113 -0.014495357278393625 0 -0.034999995973460755 -0.014552385109457255 0 -0.0363026491943838 -0.013451578415870847 0 -0.034999984651227223 -0.012675879524987539 0 -0.0363026491943838 -0.013451578415870847 0 -0.034999984651227223 -0.012675879524987539 0 -0.03622780012376739 -0.011603883719134536 0 -0.034999984651227223 -0.012675879524987539 0 -0.03622780012376739 -0.011603883719134536 0 -0.034999988717098474 -0.010799356492215154 0 -0.03622780012376739 -0.011603883719134536 0 -0.037601298274302974 -0.012353141071260832 0 -0.037337514551238703 -0.010540156539022216 0 -0.035909085440929113 -0.014495357278393625 0 -0.035644998942462383 -0.012334008139823676 0 -0.0363026491943838 -0.013451578415870847 0 -0.03622780012376739 -0.011603883719134536 0 -0.037601298274302974 -0.012353141071260832 0 -0.035439541916434038 -0.015230300856288272 0 -0.035645879178429284 -0.015252776013005167 0 -0.035647018321371564 -0.01524569731765099 0 -0.035686762406359089 -0.015391486552711728 0 -0.035439541916434038 -0.015230300856288272 0 -0.035645879178429284 -0.015252776013005167 0 -0.035686762406359089 -0.015391486552711728 0 -0.035722129896447935 -0.015302002200954722 0 -0.035645879178429284 -0.015252776013005167 0 -0.035686762406359089 -0.015391486552711728 0 -0.035722129896447935 -0.015302002200954722 0 -0.035825442687185412 -0.015327654309398048 0 -0.035722129896447935 -0.015302002200954722 0 -0.035741553759203994 -0.015237463709573681 0 -0.035825442687185412 -0.015327654309398048 0 -0.035741553759203994 -0.015237463709573681 0 -0.035645879178429284 -0.015252776013005167 0 -0.035639513291389605 -0.015224836464131242 0 -0.035722129896447935 -0.015302002200954722 0 -0.035741553759203994 -0.015237463709573681 0 -0.035645879178429284 -0.015252776013005167 0 -0.035741553759203994 -0.015237463709573681 0 -0.035639513291389605 -0.015224836464131242 0 -0.035736533087959807 -0.015105615581634382 0 -0.034941480304881291 -0.0099012655613427963 0 -0.035064831817274766 -0.009673910528701939 0 -0.035213290277171794 -0.0096753456010409827 0 -0.035644998942462383 -0.012334008139823676 0 -0.034849663356798795 -0.010944021541298178 0 -0.035669689367783447 -0.012558358720982767 0 -0.035644998942462383 -0.012334008139823676 0 -0.035938842525581306 -0.017623973556602529 0 -0.032574290080188806 -0.011971868676514603 0 -0.035686762406359089 -0.015391486552711728 0 -0.035969698250196414 -0.015545702737211925 0 -0.035825442687185412 -0.015327654309398048 0 -0.035969698250196414 -0.015545702737211925 0 -0.035825442687185412 -0.015327654309398048 0 -0.035974013401697112 -0.015087807072285398 0 -0.035594071326883629 -0.017696399945793785 0 -0.035485457314906342 -0.018918056394032687 0 -0.034980610802079523 -0.018247519604585552 0 -0.035741553759203994 -0.015237463709573681 0 -0.035974013401697112 -0.015087807072285398 0 -0.035736533087959807 -0.015105615581634382 0 -0.035741553759203994 -0.015237463709573681 0 -0.035825442687185412 -0.015327654309398048 0 -0.035974013401697112 -0.015087807072285398 0 -0.032574290080188806 -0.011971868676514603 0 -0.032283466589410191 -0.0066552696792774564 0 -0.03326160767063098 -0.0098281970866229557 0 -0.033259415457648336 -0.0096513734773149961 0 -0.033074360582412594 -0.0098343253858368743 0 -0.032574290080188806 -0.011971868676514603 0 -0.034849663356798795 -0.010944021541298178 0 -0.032283466589410191 -0.0066552696792774564 0 -0.034849663356798795 -0.010944021541298178 0 -0.035707652582992189 -0.0092188729857376247 0 -0.03520859251121268 -0.0096680032075915114 0 -0.03513782904984198 -0.0091939385333732662 0 -0.035644998942462383 -0.012334008139823676 0 -0.036030047165328795 -0.0094315390144628277 0 -0.035064831817274766 -0.009673910528701939 0 -0.03513782904984198 -0.0091939385333732662 0 -0.034807171287680086 -0.008868437798712896 0 -0.034941480304881291 -0.0099012655613427963 0 -0.035064831817274766 -0.009673910528701939 0 -0.034807171287680086 -0.008868437798712896 0 -0.035064831817274766 -0.009673910528701939 0 -0.03520859251121268 -0.0096680032075915114 0 -0.03513782904984198 -0.0091939385333732662 0 -0.034956936673243628 -0.010783411630374405 0 -0.034849663356798795 -0.010944021541298178 0 -0.03513782904984198 -0.0091939385333732662 0 -0.034807171287680086 -0.008868437798712896 0 -0.035187074517280578 -0.008403788322879642 0 -0.035707652582992189 -0.0092188729857376247 0 -0.03513782904984198 -0.0091939385333732662 0 -0.035714907553177799 -0.0084915836136413205 0 -0.032283466589410191 -0.0066552696792774564 0 -0.033854275916822142 -0.0069358722712060603 0 -0.03513782904984198 -0.0091939385333732662 0 -0.035714907553177799 -0.0084915836136413205 0 -0.035187074517280578 -0.008403788322879642 0 -0.035714907553177799 -0.0084915836136413205 0 -0.035187074517280578 -0.008403788322879642 0 -0.035719990875096891 -0.0077823884276117077 0 -0.033854275916822142 -0.0069358722712060603 0 -0.03499209257105769 -0.0068206465517070703 0 -0.031968114787445503 -0.0052665969773574954 0 -0.031581878913112281 -0.005734698426475845 0 -0.031987598197048245 -0.0061346699074494087 0 -0.036030047165328795 -0.0094315390144628277 0 -0.036708954307728477 -0.0084080052938040467 0 -0.035187074517280578 -0.008403788322879642 0 -0.034682796148426877 -0.0078884688004149488 0 -0.035719990875096891 -0.0077823884276117077 0 -0.034807171287680086 -0.008868437798712896 0 -0.035187074517280578 -0.008403788322879642 0 -0.034682796148426877 -0.0078884688004149488 0 -0.037337514551238703 -0.010540156539022216 0 -0.036126169453041389 -0.0099652124058166609 0 -0.037070347841916068 -0.0087407692492264873 0 -0.034999988851317484 -0.0089228817252831032 0 -0.036126169453041389 -0.0099652124058166609 0 -0.037070347841916068 -0.0087407692492264873 0 -0.035000972128259242 -0.0089229985010415153 0 -0.036708954307728477 -0.0084080052938040467 0 -0.034999988851317484 -0.0089228817252831032 0 -0.034999988717098474 -0.010799356492215154 0 -0.036126169453041389 -0.0099652124058166609 0 -0.03622780012376739 -0.011603883719134536 0 -0.034999988717098474 -0.010799356492215154 0 -0.036126169453041389 -0.0099652124058166609 0 -0.03622780012376739 -0.011603883719134536 0 -0.037337514551238703 -0.010540156539022216 0 -0.036126169453041389 -0.0099652124058166609 0 -0.026172854364379754 -0.0047017379557585314 0 -0.025607150416145672 -0.0048835663311580148 0 -0.025847270920752438 -0.0042327581636746724 0 -0.026172854364379754 -0.0047017379557585314 0 -0.026498268560988733 -0.004301996022091522 0 -0.025847270920752438 -0.0042327581636746724 0 -0.023128565420942254 -0.0073258694934981699 0 -0.023304367162565315 -0.0064709066488183552 0 -0.025031247116566496 -0.004696818958691595 0 -0.025607150416145672 -0.0048835663311580148 0 -0.025847270920752438 -0.0042327581636746724 0 -0.021164708380909069 -0.0097853597466681271 0 -0.020585366914568103 -0.010262975746762416 0 -0.021690329951797024 -0.0097067328110182795 0 -0.021164708380909069 -0.0097853597466681271 0 -0.020639491242446795 -0.0098692300262778684 0 -0.020821566027682932 -0.0096411466466498723 0 -0.021164708380909069 -0.0097853597466681271 0 -0.020639491242446795 -0.0098692300262778684 0 -0.020585366914568103 -0.010262975746762416 0 -0.025607150416145672 -0.0048835663311580148 0 -0.026025942962160421 -0.0054532283185275178 0 -0.025241832852560084 -0.0053693223626430937 0 -0.025031247116566496 -0.004696818958691595 0 -0.025607150416145672 -0.0048835663311580148 0 -0.025143252044630998 -0.0050395973507184385 0 -0.025607150416145672 -0.0048835663311580148 0 -0.025143252044630998 -0.0050395973507184385 0 -0.025241832852560084 -0.0053693223626430937 0 -0.025143252044630998 -0.0050395973507184385 0 -0.024691950874261941 -0.0052118541323718263 0 -0.025241832852560084 -0.0053693223626430937 0 -0.026172854364379754 -0.0047017379557585314 0 -0.025607150416145672 -0.0048835663311580148 0 -0.026025942962160421 -0.0054532283185275178 0 -0.028609122202517722 -0.0047307320383882792 0 -0.028101784266039796 -0.0057895945391115171 0 -0.031247636372342378 -0.0059205984403706592 0 -0.030958553647207687 -0.0052006334038617709 0 -0.030762384224134184 -0.0061394490960766336 0 -0.026172854364379754 -0.0047017379557585314 0 -0.026959379357649891 -0.0048469731412118687 0 -0.026025942962160421 -0.0054532283185275178 0 -0.030958553647207687 -0.0052006334038617709 0 -0.030762384224134184 -0.0061394490960766336 0 -0.029862071143578684 -0.0060238928357316994 0 -0.031968114787445503 -0.0052665969773574954 0 -0.031581878913112281 -0.005734698426475845 0 -0.030958553647207687 -0.0052006334038617709 0 -0.031581878913112281 -0.005734698426475845 0 -0.031247636372342378 -0.0059205984403706592 0 -0.031750996760352056 -0.0061546044074506983 0 -0.031581878913112281 -0.005734698426475845 0 -0.031247636372342378 -0.0059205984403706592 0 -0.030958553647207687 -0.0052006334038617709 0 -0.027920151022523754 -0.0042101999118111886 0 -0.026959379357649891 -0.0048469731412118687 0 -0.027271966213430619 -0.0041347203442218348 0 -0.03197086801272124 -0.0044284211984716359 0 -0.031968114787445503 -0.0052665969773574954 0 -0.030958553647207687 -0.0052006334038617709 0 -0.032283466589410191 -0.0066552696792774564 0 -0.028609122202517722 -0.0047307320383882792 0 -0.026172854364379754 -0.0047017379557585314 0 -0.026959379357649891 -0.0048469731412118687 0 -0.026498268560988733 -0.004301996022091522 0 -0.026959379357649891 -0.0048469731412118687 0 -0.026858130023031064 -0.0042090517415870332 0 -0.027271966213430619 -0.0041347203442218348 0 -0.026959379357649891 -0.0048469731412118687 0 -0.026498268560988733 -0.004301996022091522 0 -0.026858130023031064 -0.0042090517415870332 0 -0.026498268560988733 -0.004301996022091522 0 -0.026858130023031064 -0.0042090517415870332 0 -0.026672008161970174 -0.0037391054917001311 0 -0.026858130023031064 -0.0042090517415870332 0 -0.026672008161970174 -0.0037391054917001311 0 -0.027271966213430619 -0.0041347203442218348 0 -0.027936886114330359 -0.003780282560394318 0 -0.026672008161970174 -0.0037391054917001311 0 -0.027271966213430619 -0.0041347203442218348 0 -0.032574290080188806 -0.011971868676514603 0 -0.029504329610272592 -0.012129647465236277 0 -0.027936886114330359 -0.003780282560394318 0 -0.027920151022523754 -0.0042101999118111886 0 -0.027271966213430619 -0.0041347203442218348 0 -0.035485457314906342 -0.018918056394032687 0 -0.033620550708479607 -0.01890662049954198 0 -0.034209590964033247 -0.018516782385459122 0 -0.035485457314906342 -0.018918056394032687 0 -0.034209590964033247 -0.018516782385459122 0 -0.034980610802079523 -0.018247519604585552 0 -0.034209590964033247 -0.018516782385459122 0 -0.034130694825691275 -0.018071616032128483 0 -0.034650005506767091 -0.01785358927228883 0 -0.034209590964033247 -0.018516782385459122 0 -0.034980610802079523 -0.018247519604585552 0 -0.034650005506767091 -0.01785358927228883 0 -0.033750433260535818 -0.018379939259910546 0 -0.033424694377517897 -0.01874972861915444 0 -0.033896006225735908 -0.017432928748425287 0 -0.033384613361289277 -0.018730650363159615 0 -0.032740032581848162 -0.019293531164185689 0 -0.033522336621412671 -0.01875226079159515 0 -0.033750433260535818 -0.018379939259910546 0 -0.033521723340508541 -0.018645128513725632 0 -0.029504329610272592 -0.012129647465236277 0 -0.03253668353914338 -0.016696925315263622 0 -0.033522336621412671 -0.01875226079159515 0 -0.034209590964033247 -0.018516782385459122 0 -0.033750433260535818 -0.018379939259910546 0 -0.034209590964033247 -0.018516782385459122 0 -0.034130694825691275 -0.018071616032128483 0 -0.033750433260535818 -0.018379939259910546 0 -0.020042330459096602 -0.0090583370609224161 0 -0.020257877688471385 -0.0094103527784464187 0 -0.019651546448888561 -0.0098689508772465961 0 -0.024872415537920769 -0.012645871857343862 0 -0.026672964480610038 -0.015091700867585362 0 -0.033424694377517897 -0.01874972861915444 0 -0.033850141346003289 -0.018091483739188858 0 -0.033415534123478474 -0.021038502985916981 0 -0.033522336621412671 -0.01875226079159515 0 -0.033521723340508541 -0.018645128513725632 0 -0.033850141346003289 -0.018091483739188858 0 -0.033424694377517897 -0.01874972861915444 0 -0.033521723340508541 -0.018645128513725632 0 -0.033850141346003289 -0.018091483739188858 0 -0.033750433260535818 -0.018379939259910546 0 -0.033424694377517897 -0.01874972861915444 0 -0.033521723340508541 -0.018645128513725632 0 -0.023282954490174299 -0.0087039765800528274 0 -0.021526261161289088 -0.0087086160112429412 0 -0.021690329951797024 -0.0097067328110182795 0 -0.026498268560988733 -0.004301996022091522 0 -0.026672008161970174 -0.0037391054917001311 0 -0.025847270920752438 -0.0042327581636746724 0 -0.029504329610272592 -0.012129647465236277 0 -0.024872415537920769 -0.012645871857343862 0 -0.029504329610272592 -0.012129647465236277 0 -0.023304367162565315 -0.0064709066488183552 0 -0.021164708380909069 -0.0097853597466681271 0 -0.021333533010601934 -0.0090868154497673534 0 -0.020946548782055312 -0.0094329376079050637 0 -0.021493325452139698 -0.0089538161281814254 0 -0.024872415537920769 -0.012645871857343862 0 -0.021164708380909069 -0.0097853597466681271 0 -0.021526261161289088 -0.0087086160112429412 0 -0.021690329951797024 -0.0097067328110182795 0 -0.021164708380909069 -0.0097853597466681271 0 -0.020821566027682932 -0.0096411466466498723 0 -0.020946548782055312 -0.0094329376079050637 0 -0.020821566027682932 -0.0096411466466498723 0 -0.020946548782055312 -0.0094329376079050637 0 -0.020686046637874243 -0.0093493781663506817 0 -0.020821566027682932 -0.0096411466466498723 0 -0.020686046637874243 -0.0093493781663506817 0 -0.020573967892443815 -0.0095874439456002988 0 -0.020639491242446795 -0.0098692300262778684 0 -0.020821566027682932 -0.0096411466466498723 0 -0.020573967892443815 -0.0095874439456002988 0 -0.021333533010601934 -0.0090868154497673534 0 -0.020889985391734055 -0.0092471742970516406 0 -0.020614040200551607 -0.0091088930617556976 0 -0.024872415537920769 -0.012645871857343862 0 -0.019653907533244239 -0.009799446190836494 0 -0.021333533010601934 -0.0090868154497673534 0 -0.020946548782055312 -0.0094329376079050637 0 -0.020889985391734055 -0.0092471742970516406 0 -0.020686046637874243 -0.0093493781663506817 0 -0.020614040200551607 -0.0091088930617556976 0 -0.020589462643375345 -0.0090850392046086404 0 -0.020686046637874243 -0.0093493781663506817 0 -0.020573967892443815 -0.0095874439456002988 0 -0.020589462643375345 -0.0090850392046086404 0 -0.020946548782055312 -0.0094329376079050637 0 -0.020889985391734055 -0.0092471742970516406 0 -0.020686046637874243 -0.0093493781663506817 0 -0.020889985391734055 -0.0092471742970516406 0 -0.020686046637874243 -0.0093493781663506817 0 -0.020614040200551607 -0.0091088930617556976 0 -0.020614040200551607 -0.0091088930617556976 0 -0.020448899805540131 -0.0091899569639733846 0 -0.020589462643375345 -0.0090850392046086404 0 -0.020257877688471385 -0.0094103527784464187 0 -0.020119297576269665 -0.0097916559601699503 0 -0.020589462643375345 -0.0090850392046086404 0 -0.020119297576269665 -0.0097916559601699503 0 -0.019736213013862906 -0.009857317032675313 0 -0.019803829295733801 -0.0097725291334928438 0 -0.020113385340294061 -0.0097611599888381018 0 -0.02019128256247572 -0.0094031829666261675 0 -0.020448899805540131 -0.0091899569639733846 0 -0.020257877688471385 -0.0094103527784464187 0 -0.020589462643375345 -0.0090850392046086404 0 -0.020614040200551607 -0.0091088930617556976 0 -0.020448899805540131 -0.0091899569639733846 0 -0.020344731617597225 -0.0091950858767390672 0 -0.020448899805540131 -0.0091899569639733846 0 -0.020344731617597225 -0.0091950858767390672 0 -0.020257877688471385 -0.0094103527784464187 0 -0.020042330459096602 -0.0090583370609224161 0 -0.020344731617597225 -0.0091950858767390672 0 -0.020257877688471385 -0.0094103527784464187 0 -0.020042330459096602 -0.0090583370609224161 0 -0.020614040200551607 -0.0091088930617556976 0 -0.020344731617597225 -0.0091950858767390672 0 -0.020119297576269665 -0.0097916559601699503 0 -0.019904736532492535 -0.0096779099035187756 0 -0.019803829295733801 -0.0097725291334928438 0 -0.020122682540632403 -0.0098899961841443923 0 -0.020119297576269665 -0.0097916559601699503 0 -0.019978434173814723 -0.01049192168772402 0 -0.020257877688471385 -0.0094103527784464187 0 -0.020119297576269665 -0.0097916559601699503 0 -0.019651546448888561 -0.0098689508772465961 0 -0.020122682540632403 -0.0098899961841443923 0 -0.020119297576269665 -0.0097916559601699503 0 -0.019904736532492535 -0.0096779099035187756 0 -0.033424694377517897 -0.01874972861915444 0 -0.033415534123478474 -0.021038502985916981 0 -0.031447315534189814 -0.02115285084667928 0 -0.020119297576269665 -0.0097916559601699503 0 -0.019651546448888561 -0.0098689508772465961 0 -0.019978434173814723 -0.01049192168772402 0 -0.026672964480610038 -0.015091700867585362 0 -0.026894314030765684 -0.020390538768804707 0 -0.019651546448888561 -0.0098689508772465961 0 -0.019978434173814723 -0.01049192168772402 0 -0.019143785707234164 -0.011069912443640072 0 -0.019978434173814723 -0.01049192168772402 0 -0.021530630384871741 -0.011001455592113131 0 -0.021788859728614204 -0.0099536934031929022 0 -0.020557875558009021 -0.010616702078255821 0 -0.019557224203513756 -0.0090166780246647739 0 -0.020122682540632403 -0.0098899961841443923 0 -0.019978434173814723 -0.01049192168772402 0 -0.020285802495185253 -0.0099219702002680266 0 -0.035594071326883629 -0.017696399945793785 0 -0.034992198960704768 -0.017020470679129408 0 -0.035335099114185559 -0.016627205007707552 0 -0.035594071326883629 -0.017696399945793785 0 -0.034992198960704768 -0.017020470679129408 0 -0.034650005506767091 -0.01785358927228883 0 -0.035594071326883629 -0.017696399945793785 0 -0.034980610802079523 -0.018247519604585552 0 -0.034650005506767091 -0.01785358927228883 0 -0.034992198960704768 -0.017020470679129408 0 -0.034650005506767091 -0.01785358927228883 0 -0.033896006225735908 -0.017432928748425287 0 -0.033415534123478474 -0.021038502985916981 0 -0.031447315534189814 -0.02115285084667928 0 -0.031113892990415271 -0.023162188664081075 0 -0.034130694825691275 -0.018071616032128483 0 -0.033750433260535818 -0.018379939259910546 0 -0.033896006225735908 -0.017432928748425287 0 -0.034130694825691275 -0.018071616032128483 0 -0.034650005506767091 -0.01785358927228883 0 -0.033896006225735908 -0.017432928748425287 0 -0.033415534123478474 -0.021038502985916981 0 -0.031113892990415271 -0.023162188664081075 0 -0.032297434258709637 -0.0243133843205087 0 -0.031447315534189814 -0.02115285084667928 0 -0.031113892990415271 -0.023162188664081075 0 -0.029568712122949776 -0.023908906322922797 0 -0.034992198960704768 -0.017020470679129408 0 -0.033896006225735908 -0.017432928748425287 0 -0.035393790660063283 -0.016156183204979305 0 -0.032740032581848162 -0.019293531164185689 0 -0.032486400231493441 -0.020047929604468304 0 -0.029516952372834977 -0.024091793335884966 0 -0.031113892990415271 -0.023162188664081075 0 -0.029568712122949776 -0.023908906322922797 0 -0.029516952372834977 -0.024091793335884966 0 -0.031113892990415271 -0.023162188664081075 0 -0.032297434258709637 -0.0243133843205087 0 -0.034992198960704768 -0.017020470679129408 0 -0.035393790660063283 -0.016156183204979305 0 -0.035335099114185559 -0.016627205007707552 0 -0.029516952372834977 -0.024091793335884966 0 -0.029457234753001299 -0.024809935698456579 0 -0.029634545535570451 -0.024830951581346558 0 -0.031364867584627601 -0.025342393612587895 0 -0.026894314030765684 -0.020390538768804707 0 -0.029482432212319543 -0.024659259145683014 0 -0.029457234753001299 -0.024809935698456579 0 -0.029445753628851674 -0.02495102649556219 0 -0.029516952372834977 -0.024091793335884966 0 -0.029482432212319543 -0.024659259145683014 0 -0.029457234753001299 -0.024809935698456579 0 -0.028571711437162303 -0.026765569752959614 0 -0.029182958717438128 -0.025417045104840021 0 -0.028077916790414496 -0.026171924170822498 0 -0.029457234753001299 -0.024809935698456579 0 -0.029634545535570451 -0.024830951581346558 0 -0.029182958717438128 -0.025417045104840021 0 -0.026894314030765684 -0.020390538768804707 0 -0.028913312340396249 -0.027002483757886702 0 -0.028801057115174937 -0.025237265829827809 0 -0.029182958717438128 -0.025417045104840021 0 -0.027723692380604053 -0.02586854627539829 0 -0.029457234753001299 -0.024809935698456579 0 -0.029182958717438128 -0.025417045104840021 0 -0.029445753628851674 -0.02495102649556219 0 -0.029335403251640222 -0.025083288820879353 0 -0.029182958717438128 -0.025417045104840021 0 -0.029445753628851674 -0.02495102649556219 0 -0.019978434173814723 -0.01049192168772402 0 -0.020552984470358138 -0.011397911699902469 0 -0.021530630384871741 -0.011001455592113131 0 -0.026894314030765684 -0.020390538768804707 0 -0.023532466894509375 -0.018863044697310562 0 -0.019978434173814723 -0.01049192168772402 0 -0.019143785707234164 -0.011069912443640072 0 -0.020552984470358138 -0.011397911699902469 0 -0.027231286031493749 -0.02637098286026816 0 -0.028077916790414496 -0.026171924170822498 0 -0.027723692380604053 -0.02586854627539829 0 -0.028571711437162303 -0.026765569752959614 0 -0.027231286031493749 -0.02637098286026816 0 -0.028077916790414496 -0.026171924170822498 0 -0.029182958717438128 -0.025417045104840021 0 -0.028077916790414496 -0.026171924170822498 0 -0.027723692380604053 -0.02586854627539829 0 -0.027231286031493749 -0.02637098286026816 0 -0.027723692380604053 -0.02586854627539829 0 -0.02727785190502368 -0.026033843446409324 0 -0.027098365703048639 -0.025910446083263039 0 -0.027723692380604053 -0.02586854627539829 0 -0.02727785190502368 -0.026033843446409324 0 -0.027231286031493749 -0.02637098286026816 0 -0.02727785190502368 -0.026033843446409324 0 -0.027085585382535492 -0.02604891252150255 0 -0.027098365703048639 -0.025910446083263039 0 -0.02727785190502368 -0.026033843446409324 0 -0.027085585382535492 -0.02604891252150255 0 -0.027098365703048639 -0.025910446083263039 0 -0.027010062761437588 -0.025992222754872646 0 -0.027085585382535492 -0.02604891252150255 0 -0.027010062761437588 -0.025992222754872646 0 -0.027085585382535492 -0.02604891252150255 0 -0.026916815361251307 -0.026046686088193015 0 -0.023532466894509375 -0.018863044697310562 0 -0.023555587251259093 -0.017398040221064767 0 -0.020552984470358138 -0.011397911699902469 0 -0.021530630384871741 -0.011001455592113131 0 -0.022392174040406349 -0.011717590600472685 0 -0.027231286031493749 -0.02637098286026816 0 -0.027085585382535492 -0.02604891252150255 0 -0.026916815361251307 -0.026046686088193015 0 -0.018004022610360732 -0.010186935020669502 0 -0.0179363578082204 -0.010168247874232672 0 -0.017934357770438898 -0.010165787591513894 0 -0.023555587251259093 -0.017398040221064767 0 -0.021276668097345824 -0.023751793012297913 0 -0.026624137985129109 -0.024935966789499636 0 -0.025892052062589262 -0.022970908319903206 0 -0.0274449550223291 -0.023203857941510943 0 -0.027123495655612409 -0.025991785325784493 0 -0.027010062761437588 -0.025992222754872646 0 -0.026916815361251307 -0.026046686088193015 0 -0.027472429270169033 -0.027095448534960473 0 -0.023555587251259093 -0.017398040221064767 0 -0.026624137985129109 -0.024935966789499636 0 -0.027866129548234579 -0.025646872090450069 0 -0.0274449550223291 -0.023203857941510943 0 -0.020451665200471075 -0.032313859230534453 0 -0.020682222965385164 -0.031883379831565854 0 -0.020293037024919917 -0.031355326989415462 0 -0.02459864748203907 -0.02982794249054314 0 -0.021276668097345824 -0.023751793012297913 0 -0.020682222965385164 -0.031883379831565854 0 -0.020293037024919917 -0.031355326989415462 0 -0.020632165728575503 -0.031428914212714446 0 -0.019081880282981935 -0.021164125748743653 0 -0.019615015352540701 -0.020895754360086699 0 -0.020940613500149911 -0.031779139639232852 0 -0.020632165728575503 -0.031428914212714446 0 -0.021395405875041344 -0.031779420244848561 0 -0.021023783318427056 -0.032035590797404541 0 -0.020682222965385164 -0.031883379831565854 0 -0.020940613500149911 -0.031779139639232852 0 -0.020682222965385164 -0.031883379831565854 0 -0.020940613500149911 -0.031779139639232852 0 -0.020632165728575503 -0.031428914212714446 0 -0.01788724371436428 -0.010153790050759092 0 -0.017867308314530046 -0.010136572422573081 0 -0.017819498388833885 -0.010105666831425063 0 -0.01788724371436428 -0.010153790050759092 0 -0.017804878509067784 -0.01011285647349964 0 -0.017819498388833885 -0.010105666831425063 0 -0.0179363578082204 -0.010168247874232672 0 -0.01788724371436428 -0.010153790050759092 0 -0.017934357770438898 -0.010165787591513894 0 -0.01788724371436428 -0.010153790050759092 0 -0.017934357770438898 -0.010165787591513894 0 -0.017867308314530046 -0.010136572422573081 0 -0.021276668097345824 -0.023751793012297913 0 -0.019081880282981935 -0.021164125748743653 0 -0.017934357770438898 -0.010165787591513894 0 -0.017867308314530046 -0.010136572422573081 0 -0.017917945903305171 -0.010179075731666026 0 -0.017867308314530046 -0.010136572422573081 0 -0.017804862949347296 -0.010079732523806839 0 -0.017819498388833885 -0.010105666831425063 0 -0.018117286432347609 -0.0097629137883136728 0 -0.018249789065095147 -0.0098113149634209539 0 -0.017867308314530046 -0.010136572422573081 0 -0.017804862949347296 -0.010079732523806839 0 -0.017917945903305171 -0.010179075731666026 0 -0.018321595373611412 -0.0094683304431057817 0 -0.018905160552249101 -0.0092773390166408908 0 -0.018687741403257564 -0.0097760843102890054 0 -0.018905160552249101 -0.0092773390166408908 0 -0.019378812345935404 -0.009485866330605679 0 -0.019665435971995663 -0.0090324534112698179 0 -0.018905160552249101 -0.0092773390166408908 0 -0.019378812345935404 -0.009485866330605679 0 -0.019113891731053285 -0.0096542958424030868 0 -0.018249789065095147 -0.0098113149634209539 0 -0.019557224203513756 -0.0090166780246647739 0 -0.0200001596170645 -0.009845258832501546 0 -0.019557224203513756 -0.0090166780246647739 0 -0.020122682540632403 -0.0098899961841443923 0 -0.019904736532492535 -0.0096779099035187756 0 -0.020285802495185253 -0.0099219702002680266 0 -0.019378812345935404 -0.009485866330605679 0 -0.019904736532492535 -0.0096779099035187756 0 -0.019665435971995663 -0.0090324534112698179 0 -0.023555587251259093 -0.017398040221064767 0 -0.019557224203513756 -0.0090166780246647739 0 -0.021530630384871741 -0.011001455592113131 0 -0.022392174040406349 -0.011717590600472685 0 -0.021788859728614204 -0.0099536934031929022 0 -0.018004022610360732 -0.010186935020669502 0 -0.017934357770438898 -0.010165787591513894 0 -0.018013773780945219 -0.010200254604116549 0 -0.017934357770438898 -0.010165787591513894 0 -0.017917945903305171 -0.010179075731666026 0 -0.018013773780945219 -0.010200254604116549 0 -0.017623414273809781 -0.010053951567652904 0 -0.017711601439464389 -0.010053755731942771 0 -0.017552185300541558 -0.009969485160621433 0 -0.019628447305078966 -0.021123196668017232 0 -0.019296745275384622 -0.021199477652130021 0 -0.021485496371723995 -0.032167152181988838 0 -0.02161257283421639 -0.032186113537217585 0 -0.021064033185463859 -0.032462090030762017 0 -0.017623414273809781 -0.010053951567652904 0 -0.017711601439464389 -0.010053755731942771 0 -0.017726564554199433 -0.010063006651847426 0 -0.017711601439464389 -0.010053755731942771 0 -0.017726564554199433 -0.010063006651847426 0 -0.017804878509067784 -0.01011285647349964 0 -0.017726564554199433 -0.010063006651847426 0 -0.017804878509067784 -0.01011285647349964 0 -0.017772870052753909 -0.010051712272723027 0 -0.021527237523048543 -0.03224496604317767 0 -0.021620067225519984 -0.032197526879582772 0 -0.021395405875041344 -0.031779420244848561 0 -0.019628447305078966 -0.021123196668017232 0 -0.019615015352540701 -0.020895754360086699 0 -0.021620067225519984 -0.032197526879582772 0 -0.02161257283421639 -0.032186113537217585 0 -0.021395405875041344 -0.031779420244848561 0 -0.021023783318427056 -0.032035590797404541 0 -0.020940613500149911 -0.031779139639232852 0 -0.021395405875041344 -0.031779420244848561 0 -0.021023783318427056 -0.032035590797404541 0 -0.02131308038798331 -0.032147933871769549 0 -0.021395405875041344 -0.031779420244848561 0 -0.02131308038798331 -0.032147933871769549 0 -0.021527237523048543 -0.03224496604317767 0 -0.021395405875041344 -0.031779420244848561 0 -0.017804878509067784 -0.01011285647349964 0 -0.017819498388833885 -0.010105666831425063 0 -0.017772870052753909 -0.010051712272723027 0 -0.017804862949347296 -0.010079732523806839 0 -0.017819498388833885 -0.010105666831425063 0 -0.017772870052753909 -0.010051712272723027 0 -0.017804862949347296 -0.010079732523806839 0 -0.017772870052753909 -0.010051712272723027 0 -0.017813071185442772 -0.0098722586898347415 0 -0.017772870052753909 -0.010051712272723027 0 -0.017709844535301705 -0.0099787350426898212 0 -0.017813071185442772 -0.0098722586898347415 0 -0.017726564554199433 -0.010063006651847426 0 -0.017772870052753909 -0.010051712272723027 0 -0.017653447634659748 -0.010054535629848996 0 -0.017623414273809781 -0.010053951567652904 0 -0.017726564554199433 -0.010063006651847426 0 -0.017653447634659748 -0.010054535629848996 0 -0.017653447634659748 -0.010054535629848996 0 -0.017709844535301705 -0.0099787350426898212 0 -0.017562520231262702 -0.010033421951459287 0 -0.017772870052753909 -0.010051712272723027 0 -0.017653447634659748 -0.010054535629848996 0 -0.017709844535301705 -0.0099787350426898212 0 -0.017653447634659748 -0.010054535629848996 0 -0.017547470251664907 -0.010094218228035644 0 -0.017515975676005192 -0.010111277253352261 0 -0.017653447634659748 -0.010054535629848996 0 -0.017547470251664907 -0.010094218228035644 0 -0.017562520231262702 -0.010033421951459287 0 -0.017623414273809781 -0.010053951567652904 0 -0.017653447634659748 -0.010054535629848996 0 -0.017515975676005192 -0.010111277253352261 0 -0.017417006696070943 -0.010077676932142246 0 -0.017480193548155797 -0.0099784427970328309 0 -0.017298320298762316 -0.010007957360378926 0 -0.017417006696070943 -0.010077676932142246 0 -0.017562520231262702 -0.010033421951459287 0 -0.017480193548155797 -0.0099784427970328309 0 -0.017547470251664907 -0.010094218228035644 0 -0.017562520231262702 -0.010033421951459287 0 -0.017433428174016656 -0.01017062773252264 0 -0.017417006696070943 -0.010077676932142246 0 -0.017562520231262702 -0.010033421951459287 0 -0.017433428174016656 -0.01017062773252264 0 -0.017709844535301705 -0.0099787350426898212 0 -0.017562520231262702 -0.010033421951459287 0 -0.01770865867018618 -0.0099296627436609945 0 -0.017562520231262702 -0.010033421951459287 0 -0.01770865867018618 -0.0099296627436609945 0 -0.017480193548155797 -0.0099784427970328309 0 -0.01770865867018618 -0.0099296627436609945 0 -0.017926909211971598 -0.0099639976421008868 0 -0.017480193548155797 -0.0099784427970328309 0 -0.01770865867018618 -0.0099296627436609945 0 -0.017813071185442772 -0.0098722586898347415 0 -0.018100469151429949 -0.0098611236025683904 0 -0.017709844535301705 -0.0099787350426898212 0 -0.01770865867018618 -0.0099296627436609945 0 -0.017813071185442772 -0.0098722586898347415 0 -0.018321595373611412 -0.0094683304431057817 0 -0.017813071185442772 -0.0098722586898347415 0 -0.018100469151429949 -0.0098611236025683904 0 -0.018117286432347609 -0.0097629137883136728 0 -0.01783455871370198 -0.0098602126733452183 0 -0.018100469151429949 -0.0098611236025683904 0 -0.017926909211971598 -0.0099639976421008868 0 -0.018476239195959119 -0.010025114941133156 0 -0.01770865867018618 -0.0099296627436609945 0 -0.018100469151429949 -0.0098611236025683904 0 -0.017926909211971598 -0.0099639976421008868 0 -0.017926909211971598 -0.0099639976421008868 0 -0.018125495860388915 -0.010151115927232694 0 -0.018336428538378014 -0.01011220964185329 0 -0.017926909211971598 -0.0099639976421008868 0 -0.018125495860388915 -0.010151115927232694 0 -0.017653019467231214 -0.0099702491624359298 0 -0.018125495860388915 -0.010151115927232694 0 -0.017653019467231214 -0.0099702491624359298 0 -0.01790217025789996 -0.010258613522753788 0 -0.017926909211971598 -0.0099639976421008868 0 -0.017653019467231214 -0.0099702491624359298 0 -0.017480193548155797 -0.0099784427970328309 0 -0.017653019467231214 -0.0099702491624359298 0 -0.017480193548155797 -0.0099784427970328309 0 -0.017354547153857116 -0.0099239765436514391 0 -0.017653019467231214 -0.0099702491624359298 0 -0.017354547153857116 -0.0099239765436514391 0 -0.017275277410731454 -0.0099434511407479869 0 -0.017354547153857116 -0.0099239765436514391 0 -0.017260635492078159 -0.0096680266732227949 0 -0.017275277410731454 -0.0099434511407479869 0 -0.017354547153857116 -0.0099239765436514391 0 -0.017260635492078159 -0.0096680266732227949 0 -0.017298320298762316 -0.010007957360378926 0 -0.017480193548155797 -0.0099784427970328309 0 -0.017354547153857116 -0.0099239765436514391 0 -0.017298320298762316 -0.010007957360378926 0 -0.019083899881028626 -0.0098914426748059822 0 -0.019394159299813109 -0.0099421908396881073 0 -0.019113564813492193 -0.010072972964147622 0 -0.019083899881028626 -0.0098914426748059822 0 -0.019394159299813109 -0.0099421908396881073 0 -0.0194679377965453 -0.0097718923285976533 0 -0.019083899881028626 -0.0098914426748059822 0 -0.018848649304575464 -0.0099895746585067103 0 -0.019113564813492193 -0.010072972964147622 0 -0.019394159299813109 -0.0099421908396881073 0 -0.019736213013862906 -0.009857317032675313 0 -0.019327563259530372 -0.010165984916417245 0 -0.020573967892443815 -0.0095874439456002988 0 -0.020589462643375345 -0.0090850392046086404 0 -0.020236004337881346 -0.0099397901659375575 0 -0.02019128256247572 -0.0094031829666261675 0 -0.019586806673082935 -0.010407823489343517 0 -0.019394159299813109 -0.0099421908396881073 0 -0.019113564813492193 -0.010072972964147622 0 -0.019327563259530372 -0.010165984916417245 0 -0.019394159299813109 -0.0099421908396881073 0 -0.019603625518464996 -0.0098373506578700379 0 -0.019736213013862906 -0.009857317032675313 0 -0.019394159299813109 -0.0099421908396881073 0 -0.0194679377965453 -0.0097718923285976533 0 -0.019603625518464996 -0.0098373506578700379 0 -0.0194679377965453 -0.0097718923285976533 0 -0.019603625518464996 -0.0098373506578700379 0 -0.019803829295733801 -0.0097725291334928438 0 -0.019603625518464996 -0.0098373506578700379 0 -0.019736213013862906 -0.009857317032675313 0 -0.019803829295733801 -0.0097725291334928438 0 -0.019904736532492535 -0.0096779099035187756 0 -0.0194679377965453 -0.0097718923285976533 0 -0.019803829295733801 -0.0097725291334928438 0 -0.019378812345935404 -0.009485866330605679 0 -0.019904736532492535 -0.0096779099035187756 0 -0.0194679377965453 -0.0097718923285976533 0 -0.019083899881028626 -0.0098914426748059822 0 -0.019113891731053285 -0.0096542958424030868 0 -0.018687741403257564 -0.0097760843102890054 0 -0.019378812345935404 -0.009485866330605679 0 -0.0194679377965453 -0.0097718923285976533 0 -0.019113891731053285 -0.0096542958424030868 0 -0.019083899881028626 -0.0098914426748059822 0 -0.0194679377965453 -0.0097718923285976533 0 -0.019113891731053285 -0.0096542958424030868 0 -0.018905160552249101 -0.0092773390166408908 0 -0.019113891731053285 -0.0096542958424030868 0 -0.018687741403257564 -0.0097760843102890054 0 -0.018321595373611412 -0.0094683304431057817 0 -0.018100469151429949 -0.0098611236025683904 0 -0.018687741403257564 -0.0097760843102890054 0 -0.018100469151429949 -0.0098611236025683904 0 -0.018687741403257564 -0.0097760843102890054 0 -0.018476239195959119 -0.010025114941133156 0 -0.019083899881028626 -0.0098914426748059822 0 -0.018687741403257564 -0.0097760843102890054 0 -0.018848649304575464 -0.0099895746585067103 0 -0.018687741403257564 -0.0097760843102890054 0 -0.018848649304575464 -0.0099895746585067103 0 -0.018476239195959119 -0.010025114941133156 0 -0.018878252139924612 -0.010149666209075797 0 -0.018476239195959119 -0.010025114941133156 0 -0.01868910358055333 -0.010236548080597613 0 -0.018848649304575464 -0.0099895746585067103 0 -0.018878252139924612 -0.010149666209075797 0 -0.018476239195959119 -0.010025114941133156 0 -0.017926909211971598 -0.0099639976421008868 0 -0.018476239195959119 -0.010025114941133156 0 -0.018336428538378014 -0.01011220964185329 0 -0.018476239195959119 -0.010025114941133156 0 -0.018336428538378014 -0.01011220964185329 0 -0.01868910358055333 -0.010236548080597613 0 -0.018336428538378014 -0.01011220964185329 0 -0.01868910358055333 -0.010236548080597613 0 -0.018535850415538103 -0.010325564979515905 0 -0.018125495860388915 -0.010151115927232694 0 -0.018336428538378014 -0.01011220964185329 0 -0.018535850415538103 -0.010325564979515905 0 -0.018878252139924612 -0.010149666209075797 0 -0.01868910358055333 -0.010236548080597613 0 -0.018944584717126924 -0.010257224350899654 0 -0.01868910358055333 -0.010236548080597613 0 -0.018905641709377873 -0.010319813424644712 0 -0.018944584717126924 -0.010257224350899654 0 -0.018905641709377873 -0.010319813424644712 0 -0.019060501867485719 -0.010341139402870245 0 -0.018944584717126924 -0.010257224350899654 0 -0.019060501867485719 -0.010341139402870245 0 -0.018944584717126924 -0.010257224350899654 0 -0.019067672310476982 -0.010205038961278678 0 -0.018878252139924612 -0.010149666209075797 0 -0.018944584717126924 -0.010257224350899654 0 -0.019067672310476982 -0.010205038961278678 0 -0.019060501867485719 -0.010341139402870245 0 -0.019067672310476982 -0.010205038961278678 0 -0.019327563259530372 -0.010165984916417245 0 -0.019067672310476982 -0.010205038961278678 0 -0.019113564813492193 -0.010072972964147622 0 -0.019327563259530372 -0.010165984916417245 0 -0.018848649304575464 -0.0099895746585067103 0 -0.018878252139924612 -0.010149666209075797 0 -0.019113564813492193 -0.010072972964147622 0 -0.018878252139924612 -0.010149666209075797 0 -0.019067672310476982 -0.010205038961278678 0 -0.019113564813492193 -0.010072972964147622 0 -0.020585366914568103 -0.010262975746762416 0 -0.019953889430319758 -0.010679162398719128 0 -0.020236004337881346 -0.0099397901659375575 0 -0.020639491242446795 -0.0098692300262778684 0 -0.020585366914568103 -0.010262975746762416 0 -0.020236004337881346 -0.0099397901659375575 0 -0.020639491242446795 -0.0098692300262778684 0 -0.020573967892443815 -0.0095874439456002988 0 -0.020236004337881346 -0.0099397901659375575 0 -0.023128565420942254 -0.0073258694934981699 0 -0.02077524776158687 -0.0088589501210785213 0 -0.025031247116566496 -0.004696818958691595 0 -0.024196551877150918 -0.0051160104906989908 0 -0.024691950874261941 -0.0052118541323718263 0 -0.025031247116566496 -0.004696818958691595 0 -0.025143252044630998 -0.0050395973507184385 0 -0.024691950874261941 -0.0052118541323718263 0 -0.02077524776158687 -0.0088589501210785213 0 -0.019586806673082935 -0.010407823489343517 0 -0.024691950874261941 -0.0052118541323718263 0 -0.024858753236626178 -0.0055617296218871534 0 -0.025241832852560084 -0.0053693223626430937 0 -0.024196551877150918 -0.0051160104906989908 0 -0.024691950874261941 -0.0052118541323718263 0 -0.024401637704688856 -0.0055487819209943277 0 -0.024691950874261941 -0.0052118541323718263 0 -0.024858753236626178 -0.0055617296218871534 0 -0.024401637704688856 -0.0055487819209943277 0 -0.024401637704688856 -0.0055487819209943277 0 -0.024426684496746787 -0.0061070007577344902 0 -0.025193747454031728 -0.0060589799865890413 0 -0.024858753236626178 -0.0055617296218871534 0 -0.024401637704688856 -0.0055487819209943277 0 -0.025105732052007241 -0.0061361341328757544 0 -0.024156754104848729 -0.0054107383121597989 0 -0.026294032861032574 -0.0062710214040577455 0 -0.024426684496746787 -0.0061070007577344902 0 -0.02460710880071312 -0.0067003428691992427 0 -0.025193747454031728 -0.0060589799865890413 0 -0.02460710880071312 -0.0067003428691992427 0 -0.025954584935794552 -0.0069434481179716677 0 -0.026308614442635977 -0.0053784751810954179 0 -0.024662297202243142 -0.0065986169974592808 0 -0.026294032861032574 -0.0062710214040577455 0 -0.024426684496746787 -0.0061070007577344902 0 -0.02460710880071312 -0.0067003428691992427 0 -0.023253852347593255 -0.0061497463827610774 0 -0.024401637704688856 -0.0055487819209943277 0 -0.024426684496746787 -0.0061070007577344902 0 -0.023253852347593255 -0.0061497463827610774 0 -0.02460710880071312 -0.0067003428691992427 0 -0.023253852347593255 -0.0061497463827610774 0 -0.023562477162109668 -0.0075627091525942262 0 -0.02077524776158687 -0.0088589501210785213 0 -0.021367317612914428 -0.0080992379063531753 0 -0.019419313582087518 -0.0099749390947278718 0 -0.019124993411531854 -0.010615628945798157 0 -0.018859436807960803 -0.010409789795198854 0 -0.018905641709377873 -0.010319813424644712 0 -0.019060501867485719 -0.010341139402870245 0 -0.018859436807960803 -0.010409789795198854 0 -0.024196551877150918 -0.0051160104906989908 0 -0.024401637704688856 -0.0055487819209943277 0 -0.023253852347593255 -0.0061497463827610774 0 -0.02077524776158687 -0.0088589501210785213 0 -0.01822263824035739 -0.010925801300897932 0 -0.01868910358055333 -0.010236548080597613 0 -0.018859436807960803 -0.010409789795198854 0 -0.018535850415538103 -0.010325564979515905 0 -0.01868910358055333 -0.010236548080597613 0 -0.018905641709377873 -0.010319813424644712 0 -0.018859436807960803 -0.010409789795198854 0 -0.018859436807960803 -0.010409789795198854 0 -0.018535850415538103 -0.010325564979515905 0 -0.018782681805934953 -0.010636363819283448 0 -0.018535850415538103 -0.010325564979515905 0 -0.018782681805934953 -0.010636363819283448 0 -0.01837572203558957 -0.010534566974682073 0 -0.018782681805934953 -0.010636363819283448 0 -0.01837572203558957 -0.010534566974682073 0 -0.018517217075971433 -0.010930146167586035 0 -0.019124993411531854 -0.010615628945798157 0 -0.018859436807960803 -0.010409789795198854 0 -0.018782681805934953 -0.010636363819283448 0 -0.019124993411531854 -0.010615628945798157 0 -0.018782681805934953 -0.010636363819283448 0 -0.019156894037630327 -0.011093506902917494 0 -0.021367317612914428 -0.0080992379063531753 0 -0.020277790284593301 -0.0099579827851447918 0 -0.018782681805934953 -0.010636363819283448 0 -0.019156894037630327 -0.011093506902917494 0 -0.018517217075971433 -0.010930146167586035 0 -0.019156894037630327 -0.011093506902917494 0 -0.018517217075971433 -0.010930146167586035 0 -0.018822704737318126 -0.011465006187343276 0 -0.021485005657298668 -0.0084819695917272824 0 -0.023455933657663318 -0.008888043275677153 0 -0.02239485712778231 -0.010359188934057481 0 -0.021485005657298668 -0.0084819695917272824 0 -0.023455933657663318 -0.008888043275677153 0 -0.023562477162109668 -0.0075627091525942262 0 -0.023455933657663318 -0.008888043275677153 0 -0.024012415092085362 -0.0099943161696625198 0 -0.02239485712778231 -0.010359188934057481 0 -0.023455933657663318 -0.008888043275677153 0 -0.024012415092085362 -0.0099943161696625198 0 -0.024908577869242086 -0.0091809571624294466 0 -0.024012415092085362 -0.0099943161696625198 0 -0.024908577869242086 -0.0091809571624294466 0 -0.025919150702846016 -0.0098088923187161642 0 -0.024908577869242086 -0.0091809571624294466 0 -0.025919150702846016 -0.0098088923187161642 0 -0.025937620795491483 -0.009246726063602077 0 -0.025919150702846016 -0.0098088923187161642 0 -0.025937620795491483 -0.009246726063602077 0 -0.026272762371017364 -0.0097422132659963131 0 -0.024908577869242086 -0.0091809571624294466 0 -0.025937620795491483 -0.009246726063602077 0 -0.025809595831179262 -0.0085870145283185786 0 -0.025937620795491483 -0.009246726063602077 0 -0.025809595831179262 -0.0085870145283185786 0 -0.026415348027339799 -0.0091530695444404092 0 -0.025809595831179262 -0.0085870145283185786 0 -0.026070902844533124 -0.0078638820494222189 0 -0.026410492114685255 -0.0085121021551921479 0 -0.023455933657663318 -0.008888043275677153 0 -0.024908577869242086 -0.0091809571624294466 0 -0.024882135678484497 -0.0078773467063402245 0 -0.024908577869242086 -0.0091809571624294466 0 -0.025809595831179262 -0.0085870145283185786 0 -0.024882135678484497 -0.0078773467063402245 0 -0.024882135678484497 -0.0078773467063402245 0 -0.026070902844533124 -0.0078638820494222189 0 -0.025954584935794552 -0.0069434481179716677 0 -0.025809595831179262 -0.0085870145283185786 0 -0.024882135678484497 -0.0078773467063402245 0 -0.026070902844533124 -0.0078638820494222189 0 -0.02460710880071312 -0.0067003428691992427 0 -0.024882135678484497 -0.0078773467063402245 0 -0.023562477162109668 -0.0075627091525942262 0 -0.02460710880071312 -0.0067003428691992427 0 -0.024882135678484497 -0.0078773467063402245 0 -0.025954584935794552 -0.0069434481179716677 0 -0.023253852347593255 -0.0061497463827610774 0 -0.021485005657298668 -0.0084819695917272824 0 -0.023562477162109668 -0.0075627091525942262 0 -0.023455933657663318 -0.008888043275677153 0 -0.024882135678484497 -0.0078773467063402245 0 -0.023562477162109668 -0.0075627091525942262 0 -0.017206162957722034 -0.0093934446593781085 0 -0.017260635492078159 -0.0096680266732227949 0 -0.017224065260020738 -0.009199656372490506 0 -0.017206162957722034 -0.0093934446593781085 0 -0.017260635492078159 -0.0096680266732227949 0 -0.017275277410731454 -0.0099434511407479869 0 -0.017206162957722034 -0.0093934446593781085 0 -0.017275277410731454 -0.0099434511407479869 0 -0.016794999433856463 -0.009263817443775477 0 -0.017259660636202857 -0.0099247100194041898 0 -0.017282848161674972 -0.010014233565046033 0 -0.017275277410731454 -0.0099434511407479869 0 -0.017744723035720208 -0.010743761638934644 0 -0.01790217025789996 -0.010258613522753788 0 -0.017744723035720208 -0.010743761638934644 0 -0.01790217025789996 -0.010258613522753788 0 -0.01837572203558957 -0.010534566974682073 0 -0.017653019467231214 -0.0099702491624359298 0 -0.017275277410731454 -0.0099434511407479869 0 -0.01790217025789996 -0.010258613522753788 0 -0.018125495860388915 -0.010151115927232694 0 -0.018535850415538103 -0.010325564979515905 0 -0.01837572203558957 -0.010534566974682073 0 -0.018125495860388915 -0.010151115927232694 0 -0.01790217025789996 -0.010258613522753788 0 -0.01837572203558957 -0.010534566974682073 0 -0.017744723035720208 -0.010743761638934644 0 -0.01837572203558957 -0.010534566974682073 0 -0.018517217075971433 -0.010930146167586035 0 -0.017744723035720208 -0.010743761638934644 0 -0.018517217075971433 -0.010930146167586035 0 -0.018096603080895248 -0.0112428677548513 0 -0.018517217075971433 -0.010930146167586035 0 -0.018096603080895248 -0.0112428677548513 0 -0.018822704737318126 -0.011465006187343276 0 -0.016659442757949037 -0.0088335433687489386 0 -0.016931748354796751 -0.0087425976060852909 0 -0.016869550548124744 -0.0085976337265882344 0 -0.017282848161674972 -0.010014233565046033 0 -0.017364297845904323 -0.0099299585842811209 0 -0.016794999433856463 -0.009263817443775477 0 -0.016659442757949037 -0.0088335433687489386 0 -0.017003046127980155 -0.0089786996711510286 0 -0.017206162957722034 -0.0093934446593781085 0 -0.016794999433856463 -0.009263817443775477 0 -0.017003046127980155 -0.0089786996711510286 0 -0.016659442757949037 -0.0088335433687489386 0 -0.017003046127980155 -0.0089786996711510286 0 -0.016931748354796751 -0.0087425976060852909 0 -0.017003046127980155 -0.0089786996711510286 0 -0.016931748354796751 -0.0087425976060852909 0 -0.017124322042569744 -0.0087755652915553137 0 -0.017003046127980155 -0.0089786996711510286 0 -0.017124322042569744 -0.0087755652915553137 0 -0.017198039800484656 -0.0090085850804823217 0 -0.017206162957722034 -0.0093934446593781085 0 -0.017003046127980155 -0.0089786996711510286 0 -0.017198039800484656 -0.0090085850804823217 0 -0.017109485612610244 -0.0083058936245532164 0 -0.017141709168824747 -0.0084572320679644729 0 -0.017267230180696695 -0.0083595009273576965 0 -0.017109485612610244 -0.0083058936245532164 0 -0.01716739389586705 -0.0081198169482771618 0 -0.017267230180696695 -0.0083595009273576965 0 -0.017109485612610244 -0.0083058936245532164 0 -0.017025999630942538 -0.008409336792561041 0 -0.016989833469089131 -0.0082134194025223119 0 -0.017109485612610244 -0.0083058936245532164 0 -0.017025999630942538 -0.008409336792561041 0 -0.017141709168824747 -0.0084572320679644729 0 -0.017025999630942538 -0.008409336792561041 0 -0.017141709168824747 -0.0084572320679644729 0 -0.017100276509115348 -0.0085730574253101138 0 -0.017141709168824747 -0.0084572320679644729 0 -0.017100276509115348 -0.0085730574253101138 0 -0.017207278018805429 -0.0086125570739524794 0 -0.017124322042569744 -0.0087755652915553137 0 -0.017100276509115348 -0.0085730574253101138 0 -0.017207278018805429 -0.0086125570739524794 0 -0.017124322042569744 -0.0087755652915553137 0 -0.017100276509115348 -0.0085730574253101138 0 -0.017006558431053961 -0.0085898968557164834 0 -0.017025999630942538 -0.008409336792561041 0 -0.017100276509115348 -0.0085730574253101138 0 -0.017006558431053961 -0.0085898968557164834 0 -0.016931748354796751 -0.0087425976060852909 0 -0.017124322042569744 -0.0087755652915553137 0 -0.017006558431053961 -0.0085898968557164834 0 -0.017025999630942538 -0.008409336792561041 0 -0.017006558431053961 -0.0085898968557164834 0 -0.016963001561311562 -0.0084483536898279452 0 -0.016931748354796751 -0.0087425976060852909 0 -0.017006558431053961 -0.0085898968557164834 0 -0.016869550548124744 -0.0085976337265882344 0 -0.017006558431053961 -0.0085898968557164834 0 -0.016963001561311562 -0.0084483536898279452 0 -0.016869550548124744 -0.0085976337265882344 0 -0.016963001561311562 -0.0084483536898279452 0 -0.016926476321827755 -0.0083054157275962142 0 -0.016884010672146888 -0.0082281420880855431 0 -0.016963001561311562 -0.0084483536898279452 0 -0.016927249384993296 -0.0082122869760475822 0 -0.017177448882382675 -0.0080607799187474172 0 -0.016919010625099564 -0.0084700023428773662 0 -0.017774391610345434 -0.0080811329199970867 0 -0.017025999630942538 -0.008409336792561041 0 -0.016963001561311562 -0.0084483536898279452 0 -0.016926476321827755 -0.0083054157275962142 0 -0.017025999630942538 -0.008409336792561041 0 -0.016926476321827755 -0.0083054157275962142 0 -0.016989833469089131 -0.0082134194025223119 0 -0.016927249384993296 -0.0082122869760475822 0 -0.016800881148844423 -0.0081414774552445723 0 -0.01677479154979495 -0.0084482233484489463 0 -0.016800881148844423 -0.0081414774552445723 0 -0.01677479154979495 -0.0084482233484489463 0 -0.016692378591042969 -0.0083069298816897431 0 -0.016963001561311562 -0.0084483536898279452 0 -0.016927249384993296 -0.0082122869760475822 0 -0.01677479154979495 -0.0084482233484489463 0 -0.016963001561311562 -0.0084483536898279452 0 -0.016869550548124744 -0.0085976337265882344 0 -0.01677479154979495 -0.0084482233484489463 0 -0.016659442757949037 -0.0088335433687489386 0 -0.016869550548124744 -0.0085976337265882344 0 -0.01677479154979495 -0.0084482233484489463 0 -0.018387805781586344 -0.012156194960376954 0 -0.018822704737318126 -0.011465006187343276 0 -0.018965249686424986 -0.012374012618954166 0 -0.017364297845904323 -0.0099299585842811209 0 -0.017348870698710609 -0.01091701970602622 0 -0.016659442757949037 -0.0088335433687489386 0 -0.01677479154979495 -0.0084482233484489463 0 -0.016553669310554169 -0.0084435802436312185 0 -0.018096603080895248 -0.0112428677548513 0 -0.018387805781586344 -0.012156194960376954 0 -0.018822704737318126 -0.011465006187343276 0 -0.017348870698710609 -0.01091701970602622 0 -0.019660326238666165 -0.0076514877854890308 0 -0.016553669310554169 -0.0084435802436312185 0 -0.016643228070703266 -0.0081389100937119905 0 -0.016400535013590341 -0.0079552680838989101 0 -0.018387805781586344 -0.012156194960376954 0 -0.018903501659887849 -0.013179346080714551 0 -0.019023921413321241 -0.013932225386518548 0 -0.018387805781586344 -0.012156194960376954 0 -0.018965249686424986 -0.012374012618954166 0 -0.018903501659887849 -0.013179346080714551 0 -0.01677479154979495 -0.0084482233484489463 0 -0.016553669310554169 -0.0084435802436312185 0 -0.016692378591042969 -0.0083069298816897431 0 -0.016553669310554169 -0.0084435802436312185 0 -0.016692378591042969 -0.0083069298816897431 0 -0.016643228070703266 -0.0081389100937119905 0 -0.016800881148844423 -0.0081414774552445723 0 -0.016692378591042969 -0.0083069298816897431 0 -0.016643228070703266 -0.0081389100937119905 0 -0.016743966605407251 -0.0079369777919983311 0 -0.016712422779447258 -0.0077326216252831589 0 -0.016400535013590341 -0.0079552680838989101 0 -0.016643228070703266 -0.0081389100937119905 0 -0.016743966605407251 -0.0079369777919983311 0 -0.016400535013590341 -0.0079552680838989101 0 -0.016800881148844423 -0.0081414774552445723 0 -0.016643228070703266 -0.0081389100937119905 0 -0.016743966605407251 -0.0079369777919983311 0 -0.016743966605407251 -0.0079369777919983311 0 -0.016712422779447258 -0.0077326216252831589 0 -0.016833454279441648 -0.0078003045460768037 0 -0.016104459394644097 -0.0083001350467116312 0 -0.019660326238666165 -0.0076514877854890308 0 -0.016723108142524794 -0.0076474939849834429 0 -0.016712422779447258 -0.0077326216252831589 0 -0.016831328905204862 -0.0076055848330852461 0 -0.016723108142524794 -0.0076474939849834429 0 -0.016712422779447258 -0.0077326216252831589 0 -0.016711317139674355 -0.0077332041501437304 0 -0.016831328905204862 -0.0076055848330852461 0 -0.016953602668197804 -0.0078121043587262755 0 -0.017158843568685141 -0.0077835754163019921 0 -0.016712422779447258 -0.0077326216252831589 0 -0.016833454279441648 -0.0078003045460768037 0 -0.016831328905204862 -0.0076055848330852461 0 -0.024153298896414668 3.2272966090438048e-05 0 -0.024902594266120119 -0.00049193340492592619 0 -0.024566113158314817 0.00012455340522445481 0 -0.020625521532476741 -0.0038461544225372232 0 -0.02058119673312352 -0.0040390913759276795 0 -0.016833454279441648 -0.0078003045460768037 0 -0.016831328905204862 -0.0076055848330852461 0 -0.016953602668197804 -0.0078121043587262755 0 -0.016953602668197804 -0.0078121043587262755 0 -0.016908545347431348 -0.0079776842869330421 0 -0.017045615937255749 -0.0079344913653112623 0 -0.016833454279441648 -0.0078003045460768037 0 -0.016953602668197804 -0.0078121043587262755 0 -0.016908545347431348 -0.0079776842869330421 0 -0.016743966605407251 -0.0079369777919983311 0 -0.016833454279441648 -0.0078003045460768037 0 -0.016908545347431348 -0.0079776842869330421 0 -0.016800881148844423 -0.0081414774552445723 0 -0.016743966605407251 -0.0079369777919983311 0 -0.016908545347431348 -0.0079776842869330421 0 -0.016927249384993296 -0.0082122869760475822 0 -0.016908545347431348 -0.0079776842869330421 0 -0.017011338323827594 -0.0080446981222878633 0 -0.016927249384993296 -0.0082122869760475822 0 -0.016800881148844423 -0.0081414774552445723 0 -0.016908545347431348 -0.0079776842869330421 0 -0.016908545347431348 -0.0079776842869330421 0 -0.017011338323827594 -0.0080446981222878633 0 -0.017045615937255749 -0.0079344913653112623 0 -0.016927249384993296 -0.0082122869760475822 0 -0.017011338323827594 -0.0080446981222878633 0 -0.017177448882382675 -0.0080607799187474172 0 -0.017011338323827594 -0.0080446981222878633 0 -0.017177448882382675 -0.0080607799187474172 0 -0.017045615937255749 -0.0079344913653112623 0 -0.016871740581621726 -0.0081704569699721473 0 -0.01693025041867717 -0.0080978098167863825 0 -0.016989833469089131 -0.0082134194025223119 0 -0.017484468200782016 -0.0081910051020986432 0 -0.017774391610345434 -0.0080811329199970867 0 -0.016926476321827755 -0.0083054157275962142 0 -0.016871740581621726 -0.0081704569699721473 0 -0.016989833469089131 -0.0082134194025223119 0 -0.017774391610345434 -0.0080811329199970867 0 -0.02058119673312352 -0.0040390913759276795 0 -0.017774391610345434 -0.0080811329199970867 0 -0.018810592698519996 -0.0057143225703714801 0 -0.016871740581621726 -0.0081704569699721473 0 -0.01693025041867717 -0.0080978098167863825 0 -0.016899514873759191 -0.007991640501124506 0 -0.01909653034653094 -0.0076777966412455096 0 -0.019675502696293121 -0.0053006642788086828 0 -0.018810343979898746 -0.0047721490863903262 0 -0.016953602668197804 -0.0078121043587262755 0 -0.017045615937255749 -0.0079344913653112623 0 -0.017158843568685141 -0.0077835754163019921 0 -0.017177448882382675 -0.0080607799187474172 0 -0.017045615937255749 -0.0079344913653112623 0 -0.017158843568685141 -0.0077835754163019921 0 -0.024902594266120119 -0.00049193340492592619 0 -0.024566113158314817 0.00012455340522445481 0 -0.024849849469810583 0.00053622752804190102 0 -0.020342806680719694 -0.0016947814353337985 0 -0.02003929375921587 -0.0028926602254435605 0 -0.019839560353526343 -0.0004136299316300924 0 -0.020435392944768638 -0.0031299970105744704 0 -0.020342806680719694 -0.0016947814353337985 0 -0.021024479653445064 -0.00049097871573824947 0 -0.02058119673312352 -0.0040390913759276795 0 -0.022548272845053573 0.00068153572963510997 0 -0.020435392944768638 -0.0031299970105744704 0 -0.020342806680719694 -0.0016947814353337985 0 -0.02003929375921587 -0.0028926602254435605 0 -0.018810592698519996 -0.0057143225703714801 0 -0.02058119673312352 -0.0040390913759276795 0 -0.016630847369812501 -0.0079026939391934944 0 -0.016975357457708101 -0.0078243242951424596 0 -0.017029206542889315 -0.0075017811177882842 0 -0.016630847369812501 -0.0079026939391934944 0 -0.017029206542889315 -0.0075017811177882842 0 -0.016740873296105706 -0.0066458784663077971 0 -0.018810592698519996 -0.0057143225703714801 0 -0.018843461440623828 -0.0035184322774641907 0 -0.017029206542889315 -0.0075017811177882842 0 -0.017221354411524701 -0.0078365755009443348 0 -0.017632993287331301 -0.0072291526310457946 0 -0.016975357457708101 -0.0078243242951424596 0 -0.017029206542889315 -0.0075017811177882842 0 -0.017221354411524701 -0.0078365755009443348 0 -0.017221354411524701 -0.0078365755009443348 0 -0.016969500879313374 -0.0080394024307629004 0 -0.01716739389586705 -0.0081198169482771618 0 -0.016630847369812501 -0.0079026939391934944 0 -0.016975357457708101 -0.0078243242951424596 0 -0.016969500879313374 -0.0080394024307629004 0 -0.016975357457708101 -0.0078243242951424596 0 -0.017221354411524701 -0.0078365755009443348 0 -0.016969500879313374 -0.0080394024307629004 0 -0.018810592698519996 -0.0057143225703714801 0 -0.017693990032097609 -0.0066995142872751023 0 -0.01693025041867717 -0.0080978098167863825 0 -0.016899514873759191 -0.007991640501124506 0 -0.016969500879313374 -0.0080394024307629004 0 -0.01693025041867717 -0.0080978098167863825 0 -0.016969500879313374 -0.0080394024307629004 0 -0.016989833469089131 -0.0082134194025223119 0 -0.016969500879313374 -0.0080394024307629004 0 -0.016989833469089131 -0.0082134194025223119 0 -0.01716739389586705 -0.0081198169482771618 0 -0.017109485612610244 -0.0083058936245532164 0 -0.016989833469089131 -0.0082134194025223119 0 -0.01716739389586705 -0.0081198169482771618 0 -0.024828407882345357 -0.01116769837710384 0 -0.024893947092349548 -0.01052630881376782 0 -0.023841209327752331 -0.011247434533393927 0 -0.024828407882345357 -0.01116769837710384 0 -0.025794255492158337 -0.011099919280752869 0 -0.024893947092349548 -0.01052630881376782 0 -0.024511591441389459 -0.0077774353596095471 0 -0.028550392021505503 -0.0053044557944241988 0 -0.025794255492158337 -0.011099919280752869 0 -0.025695522638327382 -0.010298865572482411 0 -0.024893947092349548 -0.01052630881376782 0 -0.025902798688975937 -0.0098205803984654835 0 -0.023932699511286581 -0.011420077141254585 0 -0.024012415092085362 -0.0099943161696625198 0 -0.025919150702846016 -0.0098088923187161642 0 -0.023388738998997582 -0.01183435654711939 0 -0.025919150702846016 -0.0098088923187161642 0 -0.025695522638327382 -0.010298865572482411 0 -0.024893947092349548 -0.01052630881376782 0 -0.028550392021505503 -0.0053044557944241988 0 -0.02535584282705999 -0.012418693038643062 0 -0.025794255492158337 -0.011099919280752869 0 -0.025695522638327382 -0.010298865572482411 0 -0.026272762371017364 -0.0097422132659963131 0 -0.026114761563058576 -0.011664008313237889 0 -0.026863407746467279 -0.010872729665342921 0 -0.026272762371017364 -0.0097422132659963131 0 -0.025919150702846016 -0.0098088923187161642 0 -0.025695522638327382 -0.010298865572482411 0 -0.026272762371017364 -0.0097422132659963131 0 -0.023388738998997582 -0.01183435654711939 0 -0.02239485712778231 -0.010359188934057481 0 -0.021484352671141415 -0.011908783255926836 0 -0.024012415092085362 -0.0099943161696625198 0 -0.023388738998997582 -0.01183435654711939 0 -0.02239485712778231 -0.010359188934057481 0 -0.021485005657298668 -0.0084819695917272824 0 -0.02239485712778231 -0.010359188934057481 0 -0.019562760736839661 -0.011925918943012396 0 -0.020277790284593301 -0.0099579827851447918 0 -0.019579583512090288 -0.011823419231324626 0 -0.02239485712778231 -0.010359188934057481 0 -0.021484352671141415 -0.011908783255926836 0 -0.019562760736839661 -0.011925918943012396 0 -0.018822704737318126 -0.011465006187343276 0 -0.019562760736839661 -0.011925918943012396 0 -0.018965249686424986 -0.012374012618954166 0 -0.019156894037630327 -0.011093506902917494 0 -0.018822704737318126 -0.011465006187343276 0 -0.019562760736839661 -0.011925918943012396 0 -0.018965249686424986 -0.012374012618954166 0 -0.018903501659887849 -0.013179346080714551 0 -0.020601863694504969 -0.013417181757106588 0 -0.019562760736839661 -0.011925918943012396 0 -0.018965249686424986 -0.012374012618954166 0 -0.020601863694504969 -0.013417181757106588 0 -0.01820090622370334 -0.013401499796731853 0 -0.022892923914380824 -0.010605565876956333 0 -0.024511591441389459 -0.0077774353596095471 0 -0.022892923914380824 -0.010605565876956333 0 -0.023388738998997582 -0.01183435654711939 0 -0.021484352671141415 -0.011908783255926836 0 -0.020601863694504969 -0.013417181757106588 0 -0.023932699511286581 -0.011420077141254585 0 -0.022892923914380824 -0.010605565876956333 0 -0.021484352671141415 -0.011908783255926836 0 -0.019562760736839661 -0.011925918943012396 0 -0.020601863694504969 -0.013417181757106588 0 -0.024813739016503338 -0.0043501170970627161 0 -0.025194930638662974 -0.00433332175954262 0 -0.02509651917559633 -0.0038601198027829044 0 -0.025194930638662974 -0.00433332175954262 0 -0.025562455125020717 -0.0040710565728623261 0 -0.02509651917559633 -0.0038601198027829044 0 -0.022892923914380824 -0.010605565876956333 0 -0.019660326238666165 -0.0076514877854890308 0 -0.018903501659887849 -0.013179346080714551 0 -0.020429968275559804 -0.012967058429795519 0 -0.019023921413321241 -0.013932225386518548 0 -0.016723108142524794 -0.0076474939849834429 0 -0.016711317139674355 -0.0077332041501437304 0 -0.016685804123776588 -0.0075812235324848329 0 -0.019660326238666165 -0.0076514877854890308 0 -0.021266406442700139 -0.0055023057391403495 0 -0.025562455125020717 -0.0040710565728623261 0 -0.02509651917559633 -0.0038601198027829044 0 -0.025398600055438949 -0.0034403454939240874 0 -0.02509651917559633 -0.0038601198027829044 0 -0.024992529084237585 -0.0033324158252532017 0 -0.025398600055438949 -0.0034403454939240874 0 -0.02509651917559633 -0.0038601198027829044 0 -0.024563746237553478 -0.003677313434590824 0 -0.024992529084237585 -0.0033324158252532017 0 -0.024813739016503338 -0.0043501170970627161 0 -0.02509651917559633 -0.0038601198027829044 0 -0.024563746237553478 -0.003677313434590824 0 -0.028550392021505503 -0.0053044557944241988 0 -0.030111780307026197 0.00015563857608074633 0 -0.024813739016503338 -0.0043501170970627161 0 -0.024428162406564587 -0.0043782281402120144 0 -0.024563746237553478 -0.003677313434590824 0 -0.035375597509763816 0.0026653022526284542 0 -0.035111047892225605 0.0018665736969742473 0 -0.036177498776521128 0.0021890018619952095 0 -0.035111047892225605 0.0018665736969742473 0 -0.036177498776521128 0.0021890018619952095 0 -0.035603773805202167 0.0012845574826687307 0 -0.03618729013652535 0.0021157435950344672 0 -0.03615073245672492 0.002019298759367549 0 -0.036434606282433959 0.0022478477932628338 0 -0.036177498776521128 0.0021890018619952095 0 -0.036685661919054494 0.0023291838417825684 0 -0.036434606282433959 0.0022478477932628338 0 -0.036177498776521128 0.0021890018619952095 0 -0.036471756755902654 0.002335958795989451 0 -0.036177498776521128 0.0021890018619952095 0 -0.036101704174189238 0.0026277155838364255 0 -0.036471756755902654 0.002335958795989451 0 -0.028550392021505503 -0.0053044557944241988 0 -0.032533005159588617 -0.0043723225796988494 0 -0.035375597509763816 0.0026653022526284542 0 -0.036177498776521128 0.0021890018619952095 0 -0.036101704174189238 0.0026277155838364255 0 -0.026114761563058576 -0.011664008313237889 0 -0.027975964222711168 -0.011558156599848832 0 -0.026863407746467279 -0.010872729665342921 0 -0.027975964222711168 -0.011558156599848832 0 -0.028614852153064394 -0.010422806132448692 0 -0.030115772771931462 -0.011360353238124352 0 -0.032533005159588617 -0.0043723225796988494 0 -0.03306571733818451 -0.0042963770332144534 0 -0.027975964222711168 -0.011558156599848832 0 -0.028614852153064394 -0.010422806132448692 0 -0.027549137090218591 -0.010366308273607587 0 -0.028614852153064394 -0.010422806132448692 0 -0.027909499837658235 -0.0094100698801871281 0 -0.029028217092328095 -0.0093132588147026834 0 -0.028614852153064394 -0.010422806132448692 0 -0.029589702841027157 -0.010134397961459549 0 -0.029028217092328095 -0.0093132588147026834 0 -0.028614852153064394 -0.010422806132448692 0 -0.027549137090218591 -0.010366308273607587 0 -0.027909499837658235 -0.0094100698801871281 0 -0.027549137090218591 -0.010366308273607587 0 -0.026961192721407432 -0.010164921025770908 0 -0.027008345122635637 -0.0096690214059847231 0 -0.027549137090218591 -0.010366308273607587 0 -0.027008345122635637 -0.0096690214059847231 0 -0.027909499837658235 -0.0094100698801871281 0 -0.026961192721407432 -0.010164921025770908 0 -0.027008345122635637 -0.0096690214059847231 0 -0.026272762371017364 -0.0097422132659963131 0 -0.026961192721407432 -0.010164921025770908 0 -0.026863407746467279 -0.010872729665342921 0 -0.026272762371017364 -0.0097422132659963131 0 -0.027975964222711168 -0.011558156599848832 0 -0.027549137090218591 -0.010366308273607587 0 -0.026863407746467279 -0.010872729665342921 0 -0.027549137090218591 -0.010366308273607587 0 -0.026961192721407432 -0.010164921025770908 0 -0.026863407746467279 -0.010872729665342921 0 -0.03174962086149543 -0.0091933581780168985 0 -0.032107613837159578 -0.01021822649086079 0 -0.030638099847402862 -0.0091117640809814642 0 -0.03513370040666048 -0.005689779644654184 0 -0.030283566534498693 -0.010035101858736736 0 -0.030115772771931462 -0.011360353238124352 0 -0.032251637467639135 -0.011109967843780771 0 -0.03047548362199725 -0.0095814820205908577 0 -0.029589702841027157 -0.010134397961459549 0 -0.030115772771931462 -0.011360353238124352 0 -0.03047548362199725 -0.0095814820205908577 0 -0.028614852153064394 -0.010422806132448692 0 -0.029589702841027157 -0.010134397961459549 0 -0.030115772771931462 -0.011360353238124352 0 -0.029589702841027157 -0.010134397961459549 0 -0.029028217092328095 -0.0093132588147026834 0 -0.03047548362199725 -0.0095814820205908577 0 -0.036101704174189238 0.0026277155838364255 0 -0.036487374832201422 0.0025375782354809693 0 -0.036471756755902654 0.002335958795989451 0 -0.03306571733818451 -0.0042963770332144534 0 -0.03513370040666048 -0.005689779644654184 0 -0.036487374832201422 0.0025375782354809693 0 -0.036655779455555197 0.0023772860621585892 0 -0.036676336193090783 0.0024758413859803608 0 -0.036655779455555197 0.0023772860621585892 0 -0.036471756755902654 0.002335958795989451 0 -0.036614186580784212 0.0023023779670408389 0 -0.036487374832201422 0.0025375782354809693 0 -0.036655779455555197 0.0023772860621585892 0 -0.036471756755902654 0.002335958795989451 0 -0.036434606282433959 0.0022478477932628338 0 -0.036471756755902654 0.002335958795989451 0 -0.036614186580784212 0.0023023779670408389 0 -0.036655779455555197 0.0023772860621585892 0 -0.036614186580784212 0.0023023779670408389 0 -0.036745710874030869 0.0023223087065190897 0 -0.036614186580784212 0.0023023779670408389 0 -0.036745710874030869 0.0023223087065190897 0 -0.036735756783936008 0.002299986411973402 0 -0.036745710874030869 0.0023223087065190897 0 -0.036849132424149479 0.0023122899442330402 0 -0.036813300373125649 0.0022789640115332874 0 -0.036745710874030869 0.0023223087065190897 0 -0.036785840955261703 0.0023770155495428553 0 -0.036849132424149479 0.0023122899442330402 0 -0.036655779455555197 0.0023772860621585892 0 -0.036745710874030869 0.0023223087065190897 0 -0.036785840955261703 0.0023770155495428553 0 -0.035636386940389307 -0.00074658203938957589 0 -0.035000007287357603 -0.0012205070804490329 0 -0.034999992236146291 0.00070506870055994143 0 -0.035636386940389307 -0.00074658203938957589 0 -0.03651277554537475 -0.00069520355950412958 0 -0.034999992236146291 0.00070506870055994143 0 -0.035636386940389307 -0.00074658203938957589 0 -0.03651277554537475 -0.00069520355950412958 0 -0.035791625886458754 -0.0016083623211581362 0 -0.036371917417291587 0.00027683313746424158 0 -0.03673243860400259 0.0018656980198225369 0 -0.036344252932716342 -0.0010069464156301478 0 -0.036544051041104864 -0.002137378301262957 0 -0.035711305657591327 -0.0018169426968045964 0 -0.037315312223681597 0.0008821957415052873 0 -0.036371917417291587 0.00027683313746424158 0 -0.037504342235473297 -0.0021183171161509059 0 -0.036344252932716342 -0.0010069464156301478 0 -0.036544051041104864 -0.002137378301262957 0 -0.036544051041104864 -0.002137378301262957 0 -0.035711305657591327 -0.0018169426968045964 0 -0.035803848000775303 -0.0024810138386453578 0 -0.036371917417291587 0.00027683313746424158 0 -0.035635760125158455 -0.0018306007173064058 0 -0.035791625886458754 -0.0016083623211581362 0 -0.035000007287357603 -0.0012205070804490329 0 -0.035067787747872343 -0.0025239034562178093 0 -0.035711305657591327 -0.0018169426968045964 0 -0.035067787747872343 -0.0025239034562178093 0 -0.035803848000775303 -0.0024810138386453578 0 -0.035635760125158455 -0.0018306007173064058 0 -0.035183168076464502 -0.0023947149552273807 0 -0.035636386940389307 -0.00074658203938957589 0 -0.035791625886458754 -0.0016083623211581362 0 -0.035000007287357603 -0.0012205070804490329 0 -0.035000007287357603 -0.0012205070804490329 0 -0.034999955288243421 -0.0031462637132053466 0 -0.035067787747872343 -0.0025239034562178093 0 -0.034999955288243421 -0.0031462637132053466 0 -0.035067787747872343 -0.0025239034562178093 0 -0.035644399376733783 -0.0030864496227379704 0 -0.035067787747872343 -0.0025239034562178093 0 -0.035803848000775303 -0.0024810138386453578 0 -0.035644399376733783 -0.0030864496227379704 0 -0.035803848000775303 -0.0024810138386453578 0 -0.035644399376733783 -0.0030864496227379704 0 -0.036241489838009462 -0.0029443958632109075 0 -0.035644399376733783 -0.0030864496227379704 0 -0.036241489838009462 -0.0029443958632109075 0 -0.035834044675771032 -0.003832026107156692 0 -0.036544051041104864 -0.002137378301262957 0 -0.036241489838009462 -0.0029443958632109075 0 -0.037291801702537292 -0.0033959874727915802 0 -0.036544051041104864 -0.002137378301262957 0 -0.035803848000775303 -0.0024810138386453578 0 -0.036241489838009462 -0.0029443958632109075 0 -0.036241489838009462 -0.0029443958632109075 0 -0.036608821230595952 -0.003843961250764688 0 -0.037291801702537292 -0.0033959874727915802 0 -0.036608821230595952 -0.003843961250764688 0 -0.037217308770726584 -0.0043088307070617508 0 -0.036415444617468137 -0.0047124517826780668 0 -0.036608821230595952 -0.003843961250764688 0 -0.035834044675771032 -0.003832026107156692 0 -0.036415444617468137 -0.0047124517826780668 0 -0.036241489838009462 -0.0029443958632109075 0 -0.036608821230595952 -0.003843961250764688 0 -0.035834044675771032 -0.003832026107156692 0 -0.034999955288243421 -0.0031462637132053466 0 -0.035834044675771032 -0.003832026107156692 0 -0.034999956199450552 -0.0050715603977972397 0 -0.034999955288243421 -0.0031462637132053466 0 -0.035644399376733783 -0.0030864496227379704 0 -0.035834044675771032 -0.003832026107156692 0 -0.03513370040666048 -0.005689779644654184 0 -0.038775556337503729 -0.0029581897478236194 0 -0.037315312223681597 0.0008821957415052873 0 -0.03513370040666048 -0.005689779644654184 0 -0.036655779455555197 0.0023772860621585892 0 -0.036785840955261703 0.0023770155495428553 0 -0.036676336193090783 0.0024758413859803608 0 -0.037504342235473297 -0.0021183171161509059 0 -0.0386612550181991 -0.0032657688414678048 0 -0.037291801702537292 -0.0033959874727915802 0 -0.037504342235473297 -0.0021183171161509059 0 -0.036544051041104864 -0.002137378301262957 0 -0.037291801702537292 -0.0033959874727915802 0 -0.036608821230595952 -0.003843961250764688 0 -0.037291801702537292 -0.0033959874727915802 0 -0.037217308770726584 -0.0043088307070617508 0 -0.037291801702537292 -0.0033959874727915802 0 -0.037217308770726584 -0.0043088307070617508 0 -0.037884283001484345 -0.0041015145425623012 0 -0.038473437257467651 -0.003366612628171891 0 -0.037884283001484345 -0.0041015145425623012 0 -0.03841561348017028 -0.0048281700842770199 0 -0.038473437257467651 -0.003366612628171891 0 -0.037291801702537292 -0.0033959874727915802 0 -0.037884283001484345 -0.0041015145425623012 0 -0.03174962086149543 -0.0091933581780168985 0 -0.032107613837159578 -0.01021822649086079 0 -0.032055032618506951 -0.0086405312629341448 0 -0.03513370040666048 -0.005689779644654184 0 -0.035261035314120032 -0.0069901430596453059 0 -0.03841561348017028 -0.0048281700842770199 0 -0.037745103934353472 -0.004769139129254224 0 -0.037812268121483618 -0.0053771312826433109 0 -0.037884283001484345 -0.0041015145425623012 0 -0.03841561348017028 -0.0048281700842770199 0 -0.037745103934353472 -0.004769139129254224 0 -0.037217308770726584 -0.0043088307070617508 0 -0.037745103934353472 -0.004769139129254224 0 -0.037221454643383382 -0.0052014270351002818 0 -0.037217308770726584 -0.0043088307070617508 0 -0.037884283001484345 -0.0041015145425623012 0 -0.037745103934353472 -0.004769139129254224 0 -0.037217308770726584 -0.0043088307070617508 0 -0.037221454643383382 -0.0052014270351002818 0 -0.036415444617468137 -0.0047124517826780668 0 -0.037745103934353472 -0.004769139129254224 0 -0.037221454643383382 -0.0052014270351002818 0 -0.037812268121483618 -0.0053771312826433109 0 -0.037221454643383382 -0.0052014270351002818 0 -0.037504613299895698 -0.0059584512460170028 0 -0.036639802146750597 -0.0062020425560825885 0 -0.037221454643383382 -0.0052014270351002818 0 -0.037504613299895698 -0.0059584512460170028 0 -0.037812268121483618 -0.0053771312826433109 0 -0.032055032618506951 -0.0086405312629341448 0 -0.032019709541632822 -0.0073694148080490169 0 -0.031438832513914397 -0.00815323848608656 0 -0.03841561348017028 -0.0048281700842770199 0 -0.037812268121483618 -0.0053771312826433109 0 -0.038338667106626444 -0.0062147474648643281 0 -0.037504613299895698 -0.0059584512460170028 0 -0.037812268121483618 -0.0053771312826433109 0 -0.038338667106626444 -0.0062147474648643281 0 -0.035261035314120032 -0.0069901430596453059 0 -0.035195954342867354 -0.0067393187547022341 0 -0.035834044675771032 -0.003832026107156692 0 -0.034999956199450552 -0.0050715603977972397 0 -0.036415444617468137 -0.0047124517826780668 0 -0.034999956199450552 -0.0050715603977972397 0 -0.036415444617468137 -0.0047124517826780668 0 -0.035826693379559585 -0.0058682769900022403 0 -0.036426772739010835 -0.0048199774721639742 0 -0.036738727993667689 -0.0064086015990730593 0 -0.036415444617468137 -0.0047124517826780668 0 -0.035826693379559585 -0.0058682769900022403 0 -0.036783473907697123 -0.0067439026816684122 0 -0.037221454643383382 -0.0052014270351002818 0 -0.036415444617468137 -0.0047124517826780668 0 -0.036639802146750597 -0.0062020425560825885 0 -0.035826693379559585 -0.0058682769900022403 0 -0.03499996664400376 -0.0069972651416738505 0 -0.036783473907697123 -0.0067439026816684122 0 -0.034999956199450552 -0.0050715603977972397 0 -0.035826693379559585 -0.0058682769900022403 0 -0.03499996664400376 -0.0069972651416738505 0 -0.03499996664400376 -0.0069972651416738505 0 -0.036783473907697123 -0.0067439026816684122 0 -0.035966264088536336 -0.0078450482129768986 0 -0.036783473907697123 -0.0067439026816684122 0 -0.037080243178588886 -0.0087176597375281748 0 -0.035966264088536336 -0.0078450482129768986 0 -0.036738727993667689 -0.0064086015990730593 0 -0.036708954307728477 -0.0084080052938040467 0 -0.03500000212453859 -0.008922817693987983 0 -0.037080243178588886 -0.0087176597375281748 0 -0.035966264088536336 -0.0078450482129768986 0 -0.03500000212453859 -0.008922817693987983 0 -0.03499996664400376 -0.0069972651416738505 0 -0.035966264088536336 -0.0078450482129768986 0 -0.038338667106626444 -0.0062147474648643281 0 -0.037506268276533472 -0.006782393586275806 0 -0.038288678967291268 -0.0075320561583113533 0 -0.037504613299895698 -0.0059584512460170028 0 -0.038338667106626444 -0.0062147474648643281 0 -0.037506268276533472 -0.006782393586275806 0 -0.037504613299895698 -0.0059584512460170028 0 -0.036639802146750597 -0.0062020425560825885 0 -0.037506268276533472 -0.006782393586275806 0 -0.036853959036552711 -0.0076727214445608035 0 -0.037506268276533472 -0.006782393586275806 0 -0.038288678967291268 -0.0075320561583113533 0 -0.036639802146750597 -0.0062020425560825885 0 -0.036853959036552711 -0.0076727214445608035 0 -0.037506268276533472 -0.006782393586275806 0 -0.036708954307728477 -0.0084080052938040467 0 -0.03499209257105769 -0.0068206465517070703 0 -0.032019709541632822 -0.0073694148080490169 0 -0.032006016224391247 -0.0061322775420450028 0 -0.031750996760352056 -0.0061546044074506983 0 -0.035195954342867354 -0.0067393187547022341 0 -0.03499209257105769 -0.0068206465517070703 0 -0.03499209257105769 -0.0068206465517070703 0 -0.033089018403954201 -0.0067813846624218766 0 -0.031581878913112281 -0.005734698426475845 0 -0.031987598197048245 -0.0061346699074494087 0 -0.031750996760352056 -0.0061546044074506983 0 -0.031750996760352056 -0.0061546044074506983 0 -0.03116588165156025 -0.0064866037917160778 0 -0.031338512304139796 -0.007022738869152341 0 -0.031247636372342378 -0.0059205984403706592 0 -0.03116588165156025 -0.0064866037917160778 0 -0.030762384224134184 -0.0061394490960766336 0 -0.031247636372342378 -0.0059205984403706592 0 -0.031750996760352056 -0.0061546044074506983 0 -0.03116588165156025 -0.0064866037917160778 0 -0.032019709541632822 -0.0073694148080490169 0 -0.031750996760352056 -0.0061546044074506983 0 -0.031338512304139796 -0.007022738869152341 0 -0.032019709541632822 -0.0073694148080490169 0 -0.031338512304139796 -0.007022738869152341 0 -0.031133931954977975 -0.0074938935687192945 0 -0.03116588165156025 -0.0064866037917160778 0 -0.031338512304139796 -0.007022738869152341 0 -0.03079995969115655 -0.0069162140094520142 0 -0.031338512304139796 -0.007022738869152341 0 -0.031133931954977975 -0.0074938935687192945 0 -0.03079995969115655 -0.0069162140094520142 0 -0.030650300069572697 -0.0072932019038047958 0 -0.030146034067045129 -0.0071010489831038991 0 -0.030521607548726588 -0.0076622591112412448 0 -0.031133931954977975 -0.0074938935687192945 0 -0.030650300069572697 -0.0072932019038047958 0 -0.030521607548726588 -0.0076622591112412448 0 -0.031133931954977975 -0.0074938935687192945 0 -0.030650300069572697 -0.0072932019038047958 0 -0.03079995969115655 -0.0069162140094520142 0 -0.03079995969115655 -0.0069162140094520142 0 -0.030372405426404944 -0.0065596058148320894 0 -0.030146034067045129 -0.0071010489831038991 0 -0.030650300069572697 -0.0072932019038047958 0 -0.03079995969115655 -0.0069162140094520142 0 -0.030146034067045129 -0.0071010489831038991 0 -0.030372405426404944 -0.0065596058148320894 0 -0.030762384224134184 -0.0061394490960766336 0 -0.029862071143578684 -0.0060238928357316994 0 -0.030372405426404944 -0.0065596058148320894 0 -0.030775470907989287 -0.0065250810846857283 0 -0.030762384224134184 -0.0061394490960766336 0 -0.03116588165156025 -0.0064866037917160778 0 -0.030775470907989287 -0.0065250810846857283 0 -0.030762384224134184 -0.0061394490960766336 0 -0.03079995969115655 -0.0069162140094520142 0 -0.030372405426404944 -0.0065596058148320894 0 -0.030775470907989287 -0.0065250810846857283 0 -0.03116588165156025 -0.0064866037917160778 0 -0.03079995969115655 -0.0069162140094520142 0 -0.030775470907989287 -0.0065250810846857283 0 -0.029862071143578684 -0.0060238928357316994 0 -0.02983928931698062 -0.0066502039277145531 0 -0.02873536456907513 -0.0069093012758558109 0 -0.030372405426404944 -0.0065596058148320894 0 -0.029862071143578684 -0.0060238928357316994 0 -0.02983928931698062 -0.0066502039277145531 0 -0.026025942962160421 -0.0054532283185275178 0 -0.025241832852560084 -0.0053693223626430937 0 -0.025105732052007241 -0.0061361341328757544 0 -0.024858753236626178 -0.0055617296218871534 0 -0.025241832852560084 -0.0053693223626430937 0 -0.025105732052007241 -0.0061361341328757544 0 -0.028101784266039796 -0.0057895945391115171 0 -0.026294032861032574 -0.0062710214040577455 0 -0.026308614442635977 -0.0053784751810954179 0 -0.026767141060581194 -0.0060319319150236896 0 -0.028370545343223447 -0.0068021114092751307 0 -0.02873536456907513 -0.0069093012758558109 0 -0.02961890986992172 -0.0070796416873779569 0 -0.02974963002597018 -0.0076581220401744123 0 -0.02983928931698062 -0.0066502039277145531 0 -0.02873536456907513 -0.0069093012758558109 0 -0.02961890986992172 -0.0070796416873779569 0 -0.026294032861032574 -0.0062710214040577455 0 -0.029265637682323264 -0.0072785160764949342 0 -0.025954584935794552 -0.0069434481179716677 0 -0.026308614442635977 -0.0053784751810954179 0 -0.026767141060581194 -0.0060319319150236896 0 -0.02983928931698062 -0.0066502039277145531 0 -0.030146034067045129 -0.0071010489831038991 0 -0.02961890986992172 -0.0070796416873779569 0 -0.030372405426404944 -0.0065596058148320894 0 -0.02983928931698062 -0.0066502039277145531 0 -0.030146034067045129 -0.0071010489831038991 0 -0.030146034067045129 -0.0071010489831038991 0 -0.02961890986992172 -0.0070796416873779569 0 -0.02974963002597018 -0.0076581220401744123 0 -0.030146034067045129 -0.0071010489831038991 0 -0.02974963002597018 -0.0076581220401744123 0 -0.030521607548726588 -0.0076622591112412448 0 -0.026767141060581194 -0.0060319319150236896 0 -0.028370545343223447 -0.0068021114092751307 0 -0.028837004094034658 -0.0076964865023810419 0 -0.026879357561571574 -0.0061534679752971513 0 -0.028756469327315057 -0.0076855396858866963 0 -0.026767141060581194 -0.0060319319150236896 0 -0.028725726346477846 -0.0079628189618101471 0 -0.027645031835859629 -0.0076485100811077705 0 -0.028370545343223447 -0.0068021114092751307 0 -0.028837004094034658 -0.0076964865023810419 0 -0.030226070269888019 -0.0080794874952245053 0 -0.027645031835859629 -0.0076485100811077705 0 -0.02748389760513437 -0.0083826987460461112 0 -0.028171446882939155 -0.0085591926832527289 0 -0.028725726346477846 -0.0079628189618101471 0 -0.027645031835859629 -0.0076485100811077705 0 -0.028171446882939155 -0.0085591926832527289 0 -0.026070902844533124 -0.0078638820494222189 0 -0.025954584935794552 -0.0069434481179716677 0 -0.026533034829232888 -0.0074633320086616361 0 -0.025954584935794552 -0.0069434481179716677 0 -0.026767141060581194 -0.0060319319150236896 0 -0.026924368260956615 -0.0070678757789109483 0 -0.025954584935794552 -0.0069434481179716677 0 -0.026533034829232888 -0.0074633320086616361 0 -0.026924368260956615 -0.0070678757789109483 0 -0.026533034829232888 -0.0074633320086616361 0 -0.026924368260956615 -0.0070678757789109483 0 -0.027129336526274615 -0.007673891343988902 0 -0.026767141060581194 -0.0060319319150236896 0 -0.026924368260956615 -0.0070678757789109483 0 -0.027645031835859629 -0.0076485100811077705 0 -0.026924368260956615 -0.0070678757789109483 0 -0.027645031835859629 -0.0076485100811077705 0 -0.027129336526274615 -0.007673891343988902 0 -0.027645031835859629 -0.0076485100811077705 0 -0.027129336526274615 -0.007673891343988902 0 -0.02748389760513437 -0.0083826987460461112 0 -0.027129336526274615 -0.007673891343988902 0 -0.0268327000026936 -0.0080381753576442023 0 -0.02748389760513437 -0.0083826987460461112 0 -0.026533034829232888 -0.0074633320086616361 0 -0.027129336526274615 -0.007673891343988902 0 -0.0268327000026936 -0.0080381753576442023 0 -0.026070902844533124 -0.0078638820494222189 0 -0.0268327000026936 -0.0080381753576442023 0 -0.026410492114685255 -0.0085121021551921479 0 -0.026070902844533124 -0.0078638820494222189 0 -0.026533034829232888 -0.0074633320086616361 0 -0.0268327000026936 -0.0080381753576442023 0 -0.0268327000026936 -0.0080381753576442023 0 -0.026410492114685255 -0.0085121021551921479 0 -0.026908538814001813 -0.00891106775159713 0 -0.025809595831179262 -0.0085870145283185786 0 -0.026410492114685255 -0.0085121021551921479 0 -0.026415348027339799 -0.0091530695444404092 0 -0.026410492114685255 -0.0085121021551921479 0 -0.026908538814001813 -0.00891106775159713 0 -0.026415348027339799 -0.0091530695444404092 0 -0.0268327000026936 -0.0080381753576442023 0 -0.026908538814001813 -0.00891106775159713 0 -0.02748389760513437 -0.0083826987460461112 0 -0.026908538814001813 -0.00891106775159713 0 -0.02748389760513437 -0.0083826987460461112 0 -0.027909499837658235 -0.0094100698801871281 0 -0.026908538814001813 -0.00891106775159713 0 -0.027008345122635637 -0.0096690214059847231 0 -0.027909499837658235 -0.0094100698801871281 0 -0.026908538814001813 -0.00891106775159713 0 -0.027008345122635637 -0.0096690214059847231 0 -0.026415348027339799 -0.0091530695444404092 0 -0.027008345122635637 -0.0096690214059847231 0 -0.026272762371017364 -0.0097422132659963131 0 -0.026415348027339799 -0.0091530695444404092 0 -0.025937620795491483 -0.009246726063602077 0 -0.026272762371017364 -0.0097422132659963131 0 -0.026415348027339799 -0.0091530695444404092 0 -0.028725726346477846 -0.0079628189618101471 0 -0.028171446882939155 -0.0085591926832527289 0 -0.029028217092328095 -0.0093132588147026834 0 -0.02748389760513437 -0.0083826987460461112 0 -0.028171446882939155 -0.0085591926832527289 0 -0.027909499837658235 -0.0094100698801871281 0 -0.028171446882939155 -0.0085591926832527289 0 -0.027909499837658235 -0.0094100698801871281 0 -0.029028217092328095 -0.0093132588147026834 0 -0.028725726346477846 -0.0079628189618101471 0 -0.029028217092328095 -0.0093132588147026834 0 -0.03047548362199725 -0.0095814820205908577 0 -0.028756469327315057 -0.0076855396858866963 0 -0.030283566534498693 -0.010035101858736736 0 -0.028837004094034658 -0.0076964865023810419 0 -0.030638099847402862 -0.0091117640809814642 0 -0.030226070269888019 -0.0080794874952245053 0 -0.031687449722202672 -0.0091436332137229907 0 -0.030454298132929488 -0.0082334937514378561 0 -0.03174962086149543 -0.0091933581780168985 0 -0.030735178270796366 -0.0083919285889382383 0 -0.031438832513914397 -0.00815323848608656 0 -0.03174962086149543 -0.0091933581780168985 0 -0.032055032618506951 -0.0086405312629341448 0 -0.031438832513914397 -0.00815323848608656 0 -0.03174962086149543 -0.0091933581780168985 0 -0.030638099847402862 -0.0091117640809814642 0 -0.030226070269888019 -0.0080794874952245053 0 -0.032019709541632822 -0.0073694148080490169 0 -0.031133931954977975 -0.0074938935687192945 0 -0.031438832513914397 -0.00815323848608656 0 -0.030735178270796366 -0.0083919285889382383 0 -0.031438832513914397 -0.00815323848608656 0 -0.030948494843708787 -0.0079274055899201997 0 -0.031133931954977975 -0.0074938935687192945 0 -0.031438832513914397 -0.00815323848608656 0 -0.030948494843708787 -0.0079274055899201997 0 -0.029265637682323264 -0.0072785160764949342 0 -0.030454298132929488 -0.0082334937514378561 0 -0.031133931954977975 -0.0074938935687192945 0 -0.030521607548726588 -0.0076622591112412448 0 -0.030948494843708787 -0.0079274055899201997 0 -0.02974963002597018 -0.0076581220401744123 0 -0.030735178270796366 -0.0083919285889382383 0 -0.030521607548726588 -0.0076622591112412448 0 -0.030735178270796366 -0.0083919285889382383 0 -0.030521607548726588 -0.0076622591112412448 0 -0.030948494843708787 -0.0079274055899201997 0 -0.0063367112084789139 -0.013241172577233409 0 -0.0085114656653391407 -0.01251133091284945 0 -0.0064851688540701457 -0.011208457421828737 0 -0.0072422946895520967 -0.0093972665449731946 0 -0.0088744046769161956 -0.0083050488314747976 0 -0.0063367112084789139 -0.013241172577233409 0 -0.0064851688540701457 -0.011208457421828737 0 -0.0051273131735133509 -0.012917891743115716 0 -0.008205182638903661 -0.0050088786925450548 0 -0.009953122686222074 -0.0044109144588057514 0 -0.010068411008351557 -0.0065516779921828382 0 -0.008205182638903661 -0.0050088786925450548 0 -0.0081255017809772293 -0.006172793837265946 0 -0.010068411008351557 -0.0065516779921828382 0 -0.011921155648822658 -0.0060776254063049911 0 -0.009953122686222074 -0.0044109144588057514 0 -0.010068411008351557 -0.0065516779921828382 0 -0.011921155648822658 -0.0060776254063049911 0 -0.009953122686222074 -0.0044109144588057514 0 -0.012177282772660239 -0.0036576024797558685 0 -0.0088744046769161956 -0.0083050488314747976 0 -0.013450208739636239 -0.0089466945828196292 0 -0.0085114656653391407 -0.01251133091284945 0 -0.010722368519040891 -0.01174359149826904 0 -0.0090481058379699043 -0.01047565977208492 0 -0.013450208739636239 -0.0089466945828196292 0 -0.010986378679199646 -0.010299940537739898 0 -0.014022819072085779 -0.01076022866509733 0 -0.013852872567678245 -0.0099563150559905337 0 -0.014617876459944548 -0.0097281393007365696 0 -0.014022819072085779 -0.01076022866509733 0 -0.013852872567678245 -0.0099563150559905337 0 -0.012951233834808284 -0.010004761263143891 0 -0.013852872567678245 -0.0099563150559905337 0 -0.012975032507276784 -0.0091294834597835297 0 -0.014086178087386958 -0.0091533473041890585 0 -0.012951233834808284 -0.010004761263143891 0 -0.011790850392207806 -0.0091624102380248266 0 -0.012975032507276784 -0.0091294834597835297 0 -0.013852872567678245 -0.0099563150559905337 0 -0.012951233834808284 -0.010004761263143891 0 -0.012975032507276784 -0.0091294834597835297 0 -0.0090481058379699043 -0.01047565977208492 0 -0.0064851688540701457 -0.011208457421828737 0 -0.0073987315926241359 -0.0092265115959028476 0 -0.010986378679199646 -0.010299940537739898 0 -0.0087311539923113999 -0.01100519946515518 0 -0.0085114656653391407 -0.01251133091284945 0 -0.0090481058379699043 -0.01047565977208492 0 -0.0064851688540701457 -0.011208457421828737 0 -0.0064851688540701457 -0.011208457421828737 0 -0.0057892927947140651 -0.0092855279459164164 0 -0.0073987315926241359 -0.0092265115959028476 0 -0.0064851688540701457 -0.011208457421828737 0 -0.0050188003995411453 -0.010381804712573637 0 -0.0057892927947140651 -0.0092855279459164164 0 -0.0050188003995411453 -0.010381804712573637 0 -0.0057892927947140651 -0.0092855279459164164 0 -0.0041978649800091805 -0.0093620389787346884 0 0.00199441665082754 -0.018762012439401014 0 0.0017933927270889645 -0.018485221588976551 0 0.0016958791950274148 -0.01848175426355984 0 0.001994658535805448 -0.018636465464085053 0 0.00199441665082754 -0.018762012439401014 0 0.0017933927270889645 -0.018485221588976551 0 0.0017922956857312473 -0.014791445880567968 0 -0.001535357582581542 -0.016372293869725239 0 -0.0050188003995411453 -0.010381804712573637 0 -0.0029479717118708762 -0.010824682204292498 0 -0.0041978649800091805 -0.0093620389787346884 0 0.0042636966317570442 -0.023798612545642337 0 0.0028135426891867463 -0.022693665643145011 0 0.0041601755602704909 -0.024843028742309214 0 0.0041841088089459768 -0.024074324530868014 0 0.0031556943840509101 -0.023939146278750573 0 -0.0050188003995411453 -0.010381804712573637 0 -0.0047310894325602194 -0.011581438213840818 0 -0.0029479717118708762 -0.010824682204292498 0 -0.0047310894325602194 -0.011581438213840818 0 -0.0029479717118708762 -0.010824682204292498 0 -0.003929718733306756 -0.012589414072424117 0 -0.0029479717118708762 -0.010824682204292498 0 -0.003041994748283058 -0.012637485525975288 0 -0.003929718733306756 -0.012589414072424117 0 -0.0064851688540701457 -0.011208457421828737 0 -0.0047310894325602194 -0.011581438213840818 0 -0.0051273131735133509 -0.012917891743115716 0 -0.0064851688540701457 -0.011208457421828737 0 -0.0050188003995411453 -0.010381804712573637 0 -0.0047310894325602194 -0.011581438213840818 0 0.0055250089291155446 -0.032285887127087048 0 0.0056108695078520574 -0.032498507730096132 0 0.0057134219518584139 -0.032231440281251182 0 0.0056108695078520574 -0.032498507730096132 0 0.0057134219518584139 -0.032231440281251182 0 0.0060012209144163541 -0.032225130258294696 0 0.011550795680337341 -0.021679471770353037 0 0.010843850031841063 -0.028385430929843799 0 0.020822234943860207 -0.017310437440690451 0 0.015397555561644868 -0.023578840752885612 0 0.016412231655287879 -0.01860440891924672 0 0.0055250089291155446 -0.032285887127087048 0 0.005310660401696401 -0.03232018228931903 0 0.0056108695078520574 -0.032498507730096132 0 0.0042636966317570442 -0.023798612545642337 0 0.011550795680337341 -0.021679471770353037 0 0.0064263501634823951 -0.018556501623079442 0 0.0064177146949695113 -0.019092793919154593 0 0.0074423984446334839 -0.019411170201203466 0 0.0055250089291155446 -0.032285887127087048 0 0.0053789504281471058 -0.032253090199902287 0 0.005348226874403764 -0.032184569287849248 0 0.0055250089291155446 -0.032285887127087048 0 0.0053789504281471058 -0.032253090199902287 0 0.005310660401696401 -0.03232018228931903 0 0.0053789504281471058 -0.032253090199902287 0 0.005310660401696401 -0.03232018228931903 0 0.0052634266133283949 -0.032219667492828015 0 0.0042636966317570442 -0.023798612545642337 0 0.0036568205873376688 -0.026977702755984764 0 0.0042636966317570442 -0.023798612545642337 0 0.0017922956857312473 -0.014791445880567968 0 0.0017922956857312473 -0.014791445880567968 0 -0.00014993386943502974 -0.012159565213100696 0 0.0030699044953138334 -0.014398457693628719 0 0.0028978412808652694 -0.0141827965739085 0 0.0030746076208917972 -0.013942020981073814 0 0.0017922956857312473 -0.014791445880567968 0 0.0093694022179729303 -0.015670532564819501 0 0.0064177146949695113 -0.019092793919154593 0 0.0070812651672748465 -0.019813276925435132 0 0.0074423984446334839 -0.019411170201203466 0 0.0093694022179729303 -0.015670532564819501 0 0.011550795680337341 -0.021679471770353037 0 0.022706583034420354 -0.01510139904207786 0 0.01925264620407352 -0.014869247113225454 0 0.017550411863511469 -0.011760121848484441 0 0.022706583034420354 -0.01510139904207786 0 0.020095364454400775 -0.016561656431039937 0 0.020913221221397497 -0.017310593188772257 0 0.013063842293781842 -0.021693062337670696 0 0.011550795680337341 -0.021679471770353037 0 0.022706583034420354 -0.01510139904207786 0 0.020095364454400775 -0.016561656431039937 0 0.01925264620407352 -0.014869247113225454 0 0.020095364454400775 -0.016561656431039937 0 0.01925264620407352 -0.014869247113225454 0 0.016801653076877868 -0.015988256646596873 0 0.01925264620407352 -0.014869247113225454 0 0.017550411863511469 -0.011760121848484441 0 0.016801653076877868 -0.015988256646596873 0 0.020095364454400775 -0.016561656431039937 0 0.020822234943860207 -0.017310437440690451 0 0.016412231655287879 -0.01860440891924672 0 0.020095364454400775 -0.016561656431039937 0 0.016801653076877868 -0.015988256646596873 0 0.016412231655287879 -0.01860440891924672 0 0.022706583034420354 -0.01510139904207786 0 0.017550411863511469 -0.011760121848484441 0 0.016940547756968877 -0.0084324461191889778 0 0.0093694022179729303 -0.015670532564819501 0 0.0063709998539320627 -0.0085414364470280946 0 0.0042214674850324704 -0.01106163773053548 0 0.0036314367048175685 -0.011678076235600843 0 0.0051510553397527874 -0.012108740002163347 0 0.0036314367048175685 -0.011678076235600843 0 0.0035956687932176068 -0.012189785132862325 0 0.0051510553397527874 -0.012108740002163347 0 0.0093694022179729303 -0.015670532564819501 0 -0.00014993386943502974 -0.012159565213100696 0 -0.00014993386943502974 -0.012159565213100696 0 -0.0033201302042135503 -0.0082268286137670808 0 -0.0055530235427532866 -0.0045469014539910703 0 -0.0047986054099107243 -0.0052101947227254633 0 -0.0057598181932259325 -0.005776480663048999 0 -0.0033201302042135503 -0.0082268286137670808 0 -0.006363060914676936 -0.0053101308587530744 0 -0.0033201302042135503 -0.0082268286137670808 0 0.0063709998539320627 -0.0085414364470280946 0 -0.0047986054099107243 -0.0052101947227254633 0 -0.0039603296379755589 -0.0045881830664698028 0 -0.0039426744143572423 -0.0055856967920297328 0 -0.0055530235427532866 -0.0045469014539910703 0 -0.0047986054099107243 -0.0052101947227254633 0 -0.0039603296379755589 -0.0045881830664698028 0 -0.0047310894325602194 -0.011581438213840818 0 -0.0051273131735133509 -0.012917891743115716 0 -0.003929718733306756 -0.012589414072424117 0 -0.00014993386943502974 -0.012159565213100696 0 -0.0042935929773203901 -0.010669838781610073 0 -0.0021273778307140841 -0.010372952798611021 0 -0.0021500340094761459 -0.010744066267210348 0 -0.0024857114429199995 -0.010761856728630472 0 -0.003041994748283058 -0.012637485525975288 0 -0.003929718733306756 -0.012589414072424117 0 -0.0037646101625111493 -0.013435952874037227 0 -0.0051273131735133509 -0.012917891743115716 0 -0.003929718733306756 -0.012589414072424117 0 -0.0040229954256555097 -0.013448020439822352 0 -0.003929718733306756 -0.012589414072424117 0 -0.0040229954256555097 -0.013448020439822352 0 -0.0037646101625111493 -0.013435952874037227 0 -0.006377331607671061 -0.0053649719331286148 0 -0.0067869065333030672 -0.0056319000465923528 0 -0.0067487667386671463 -0.0060297807824956076 0 -0.0051273131735133509 -0.012917891743115716 0 -0.0040229954256555097 -0.013448020439822352 0 -0.0042125984341623741 -0.013935253669070965 0 -0.004210710400664573 -0.01093403134276014 0 -0.0042935929773203901 -0.010669838781610073 0 -0.0066883643451902544 -0.0053811046825054873 0 -0.0068899825105245014 -0.0055995196542172132 0 -0.0067869065333030672 -0.0056319000465923528 0 -0.0042935929773203901 -0.010669838781610073 0 -0.0058119888771705364 -0.0078520545889992199 0 -0.0040229954256555097 -0.013448020439822352 0 -0.0037711298319886492 -0.013430482652245014 0 -0.0042125984341623741 -0.013935253669070965 0 -0.0033201302042135503 -0.0082268286137670808 0 -0.0042935929773203901 -0.010669838781610073 0 -0.006377331607671061 -0.0053649719331286148 0 -0.0066883643451902544 -0.0053811046825054873 0 -0.0067869065333030672 -0.0056319000465923528 0 -0.0067869065333030672 -0.0056319000465923528 0 -0.0068536754645931218 -0.0058313843787985388 0 -0.0067487667386671463 -0.0060297807824956076 0 -0.0058119888771705364 -0.0078520545889992199 0 -0.0059171852816848683 -0.006918482121854138 0 -0.0058119888771705364 -0.0078520545889992199 0 -0.0062856654121325366 -0.007499757103268328 0 -0.0069091512132128134 -0.0055822019121427886 0 -0.0067869065333030672 -0.0056319000465923528 0 -0.0068536754645931218 -0.0058313843787985388 0 -0.0069091512132128134 -0.0055822019121427886 0 -0.0068536754645931218 -0.0058313843787985388 0 -0.0070781865931190758 -0.0057354293854385225 0 -0.008205182638903661 -0.0050088786925450548 0 -0.0070781865931190758 -0.0057354293854385225 0 -0.0081255017809772293 -0.006172793837265946 0 -0.008205182638903661 -0.0050088786925450548 0 -0.0068721395108988677 -0.0055079586362196372 0 -0.0070781865931190758 -0.0057354293854385225 0 -0.0063367112084789139 -0.013241172577233409 0 -0.0051273131735133509 -0.012917891743115716 0 -0.0042125984341623741 -0.013935253669070965 0 -0.0072422946895520967 -0.0093972665449731946 0 -0.0058119888771705364 -0.0078520545889992199 0 -0.0073215212205135615 -0.0063250984574048487 0 -0.007809815948004689 -0.0069657726669823854 0 -0.0081255017809772293 -0.006172793837265946 0 -0.0070781865931190758 -0.0057354293854385225 0 -0.0073215212205135615 -0.0063250984574048487 0 -0.0081255017809772293 -0.006172793837265946 0 -0.0070781865931190758 -0.0057354293854385225 0 -0.0073215212205135615 -0.0063250984574048487 0 -0.0067487667386671463 -0.0060297807824956076 0 -0.006377331607671061 -0.0053649719331286148 0 -0.0067487667386671463 -0.0060297807824956076 0 -0.0064117139499905553 -0.0062485618398145735 0 -0.0073215212205135615 -0.0063250984574048487 0 -0.0067487667386671463 -0.0060297807824956076 0 -0.0068329438903037797 -0.0066755006157041543 0 -0.0068536754645931218 -0.0058313843787985388 0 -0.0070781865931190758 -0.0057354293854385225 0 -0.0067487667386671463 -0.0060297807824956076 0 -0.0067487667386671463 -0.0060297807824956076 0 -0.0068329438903037797 -0.0066755006157041543 0 -0.0064117139499905553 -0.0062485618398145735 0 -0.0068329438903037797 -0.0066755006157041543 0 -0.0064117139499905553 -0.0062485618398145735 0 -0.0061763264310401795 -0.0070525772941675098 0 -0.0073215212205135615 -0.0063250984574048487 0 -0.0068329438903037797 -0.0066755006157041543 0 -0.007809815948004689 -0.0069657726669823854 0 -0.0047986054099107243 -0.0052101947227254633 0 -0.0045529255634155982 -0.0063037371067825214 0 -0.0039426744143572423 -0.0055856967920297328 0 -0.0047986054099107243 -0.0052101947227254633 0 -0.0057598181932259325 -0.005776480663048999 0 -0.0045529255634155982 -0.0063037371067825214 0 -0.006363060914676936 -0.0053101308587530744 0 -0.0061105412175460529 -0.0073303570146052936 0 -0.0057598181932259325 -0.005776480663048999 0 -0.0045529255634155982 -0.0063037371067825214 0 -0.0061763264310401795 -0.0070525772941675098 0 -0.0045529255634155982 -0.0063037371067825214 0 -0.0052075209510565575 -0.0073286870845913751 0 -0.0041496473457443422 -0.00696058652185112 0 -0.0052075209510565575 -0.0073286870845913751 0 -0.0061763264310401795 -0.0070525772941675098 0 -0.0063112202587272698 -0.0078100265230414195 0 -0.0045529255634155982 -0.0063037371067825214 0 -0.0052075209510565575 -0.0073286870845913751 0 -0.0061763264310401795 -0.0070525772941675098 0 -0.0052075209510565575 -0.0073286870845913751 0 -0.0063112202587272698 -0.0078100265230414195 0 -0.0056121881029343249 -0.0080992341898315466 0 -0.0052075209510565575 -0.0073286870845913751 0 -0.0045695000429050057 -0.0076293465457058108 0 -0.0056121881029343249 -0.0080992341898315466 0 -0.007809815948004689 -0.0069657726669823854 0 -0.007161108227235302 -0.0075380034495495501 0 -0.0079461621491596184 -0.0076940193325991009 0 -0.0068329438903037797 -0.0066755006157041543 0 -0.007809815948004689 -0.0069657726669823854 0 -0.007161108227235302 -0.0075380034495495501 0 -0.0068329438903037797 -0.0066755006157041543 0 -0.0061763264310401795 -0.0070525772941675098 0 -0.007161108227235302 -0.0075380034495495501 0 -0.0061763264310401795 -0.0070525772941675098 0 -0.007161108227235302 -0.0075380034495495501 0 -0.0063112202587272698 -0.0078100265230414195 0 -0.007161108227235302 -0.0075380034495495501 0 -0.0063112202587272698 -0.0078100265230414195 0 -0.0071696129634884649 -0.0082851596888354438 0 -0.007161108227235302 -0.0075380034495495501 0 -0.0077525295998004222 -0.0082415421181228788 0 -0.0079461621491596184 -0.0076940193325991009 0 -0.007161108227235302 -0.0075380034495495501 0 -0.0077525295998004222 -0.0082415421181228788 0 -0.0071696129634884649 -0.0082851596888354438 0 -0.0083272932836889208 -0.0081282883636339051 0 -0.0079461621491596184 -0.0076940193325991009 0 -0.0085449970957040995 -0.0075646473630778992 0 -0.0077525295998004222 -0.0082415421181228788 0 -0.0083272932836889208 -0.0081282883636339051 0 -0.0079461621491596184 -0.0076940193325991009 0 -0.0083272932836889208 -0.0081282883636339051 0 -0.0089951045832572379 -0.0082961853902871543 0 -0.0085449970957040995 -0.0075646473630778992 0 -0.0089951045832572379 -0.0082961853902871543 0 -0.0092701357676222753 -0.0073305810637390671 0 -0.0085449970957040995 -0.0075646473630778992 0 -0.0093417808282046551 -0.0091556105310284762 0 -0.0096843268114714838 -0.0079830189359812731 0 -0.0092701357676222753 -0.0073305810637390671 0 -0.0085449970957040995 -0.0075646473630778992 0 -0.0087515775091585347 -0.0069160513960867366 0 -0.007809815948004689 -0.0069657726669823854 0 -0.0079461621491596184 -0.0076940193325991009 0 -0.0085449970957040995 -0.0075646473630778992 0 -0.007809815948004689 -0.0069657726669823854 0 -0.0087515775091585347 -0.0069160513960867366 0 -0.0081255017809772293 -0.006172793837265946 0 -0.007809815948004689 -0.0069657726669823854 0 -0.0085449970957040995 -0.0075646473630778992 0 -0.0087515775091585347 -0.0069160513960867366 0 -0.0092701357676222753 -0.0073305810637390671 0 -0.0087515775091585347 -0.0069160513960867366 0 -0.010068411008351557 -0.0065516779921828382 0 -0.0087515775091585347 -0.0069160513960867366 0 -0.0081255017809772293 -0.006172793837265946 0 -0.010068411008351557 -0.0065516779921828382 0 -0.011921155648822658 -0.0060776254063049911 0 -0.011151799632708331 -0.0079532470689728518 0 -0.012801261692186138 -0.0079660821260935776 0 -0.011921155648822658 -0.0060776254063049911 0 -0.010068411008351557 -0.0065516779921828382 0 -0.011151799632708331 -0.0079532470689728518 0 -0.0096843268114714838 -0.0079830189359812731 0 -0.010041372302548843 -0.0065755585768107446 0 -0.010045430000858486 -0.008744205293042942 0 -0.010068411008351557 -0.0065516779921828382 0 -0.011151799632708331 -0.0079532470689728518 0 -0.010045430000858486 -0.008744205293042942 0 -0.011151799632708331 -0.0079532470689728518 0 -0.011634503329474933 -0.009127179352927884 0 -0.011151799632708331 -0.0079532470689728518 0 -0.011634503329474933 -0.009127179352927884 0 -0.012801261692186138 -0.0079660821260935776 0 -0.010045430000858486 -0.008744205293042942 0 -0.011634503329474933 -0.009127179352927884 0 -0.010571308856717235 -0.009590532795915185 0 -0.0098033854216109263 -0.0099675658623474758 0 -0.010045430000858486 -0.008744205293042942 0 -0.010571308856717235 -0.009590532795915185 0 -0.010571308856717235 -0.009590532795915185 0 -0.011161520730019288 -0.009905024853837362 0 -0.010336577553485837 -0.010141852394921463 0 -0.0098033854216109263 -0.0099675658623474758 0 -0.010571308856717235 -0.009590532795915185 0 -0.010336577553485837 -0.010141852394921463 0 -0.011634503329474933 -0.009127179352927884 0 -0.011161520730019288 -0.009905024853837362 0 -0.012979284976515182 -0.01016387809620947 0 -0.011378227871759001 -0.0098504284506006397 0 -0.012982865041888893 -0.0093311307982595782 0 -0.011634503329474933 -0.009127179352927884 0 -0.010571308856717235 -0.009590532795915185 0 -0.011161520730019288 -0.009905024853837362 0 -0.011161520730019288 -0.009905024853837362 0 -0.012720826791396307 -0.009663674483723508 0 -0.012889969616235581 -0.0085380255136002555 0 -0.012720826791396307 -0.009663674483723508 0 -0.012889969616235581 -0.0085380255136002555 0 -0.013808233073388727 -0.009743170704535991 0 -0.011634503329474933 -0.009127179352927884 0 -0.012979284976515182 -0.01016387809620947 0 -0.013679396604937161 -0.0090388600587997317 0 -0.012979284976515182 -0.01016387809620947 0 -0.013679396604937161 -0.0090388600587997317 0 -0.014948140596303295 -0.0099127474665270821 0 -0.013679396604937161 -0.0090388600587997317 0 -0.014948140596303295 -0.0099127474665270821 0 -0.015411392153210015 -0.0089132418783180491 0 -0.012889969616235581 -0.0085380255136002555 0 -0.015077820275974069 -0.0088588128598575643 0 -0.013808233073388727 -0.009743170704535991 0 -0.012889969616235581 -0.0085380255136002555 0 -0.0155265808836056 -0.0072388512911966164 0 -0.015077820275974069 -0.0088588128598575643 0 -0.012982865041888893 -0.0093311307982595782 0 -0.01527304867124688 -0.0085252131105848644 0 -0.0155265808836056 -0.0072388512911966164 0 -0.015077820275974069 -0.0088588128598575643 0 -0.017197726618058466 -0.0075041692335145972 0 -0.015077820275974069 -0.0088588128598575643 0 -0.017023522107962527 -0.0091170024524698107 0 -0.017197726618058466 -0.0075041692335145972 0 -0.017023522107962527 -0.0091170024524698107 0 -0.017197726618058466 -0.0075041692335145972 0 -0.019161119802257549 -0.0068800496324869266 0 -0.018095301398305435 -0.0080627891569004535 0 -0.019028165146374475 -0.0070093727466496811 0 -0.018852723615633615 -0.0070534689407308233 0 -0.01934823066287631 -0.0069747949101580855 0 -0.019161119802257549 -0.0068800496324869266 0 -0.018236719134433397 -0.0063565953515162931 0 -0.017197726618058466 -0.0075041692335145972 0 -0.019161119802257549 -0.0068800496324869266 0 -0.0155265808836056 -0.0072388512911966164 0 -0.018236719134433397 -0.0063565953515162931 0 -0.017197726618058466 -0.0075041692335145972 0 -0.017374612734869732 -0.0083334172304209923 0 -0.015347034998983759 -0.0088924267309302835 0 -0.01527304867124688 -0.0085252131105848644 0 -0.017374612734869732 -0.0083334172304209923 0 -0.014948140596303295 -0.0099127474665270821 0 -0.016589181415855594 -0.0093616281738462381 0 -0.015411392153210015 -0.0089132418783180491 0 -0.016263365288523485 -0.0086752605226944786 0 -0.016485756429253574 -0.0082863627829902857 0 -0.015652767416271352 -0.0081678280409328702 0 -0.016323221979155183 -0.0091650620290031834 0 -0.015411392153210015 -0.0089132418783180491 0 -0.016263365288523485 -0.0086752605226944786 0 -0.015411392153210015 -0.0089132418783180491 0 -0.016263365288523485 -0.0086752605226944786 0 -0.015652767416271352 -0.0081678280409328702 0 -0.016323221979155183 -0.0091650620290031834 0 -0.016263365288523485 -0.0086752605226944786 0 -0.016988610710720085 -0.0088028034816617397 0 -0.016263365288523485 -0.0086752605226944786 0 -0.016485756429253574 -0.0082863627829902857 0 -0.016988610710720085 -0.0088028034816617397 0 -0.016485756429253574 -0.0082863627829902857 0 -0.016951585206512278 -0.0084216783759058413 0 -0.016589558285578527 -0.008194285123305084 0 -0.016485756429253574 -0.0082863627829902857 0 -0.016137408110206527 -0.0074903628273750664 0 -0.016589558285578527 -0.008194285123305084 0 -0.016485756429253574 -0.0082863627829902857 0 -0.015652767416271352 -0.0081678280409328702 0 -0.016137408110206527 -0.0074903628273750664 0 -0.015652767416271352 -0.0081678280409328702 0 -0.01416294114504312 -0.0072941206327631885 0 -0.014294737806509033 -0.0082402245781354223 0 -0.015652767416271352 -0.0081678280409328702 0 -0.01416294114504312 -0.0072941206327631885 0 -0.016137408110206527 -0.0074903628273750664 0 -0.011921155648822658 -0.0060776254063049911 0 -0.01416294114504312 -0.0072941206327631885 0 -0.012801261692186138 -0.0079660821260935776 0 -0.01416294114504312 -0.0072941206327631885 0 -0.012801261692186138 -0.0079660821260935776 0 -0.014294737806509033 -0.0082402245781354223 0 -0.013679396604937161 -0.0090388600587997317 0 -0.012801261692186138 -0.0079660821260935776 0 -0.014294737806509033 -0.0082402245781354223 0 -0.011634503329474933 -0.009127179352927884 0 -0.013679396604937161 -0.0090388600587997317 0 -0.012801261692186138 -0.0079660821260935776 0 -0.013679396604937161 -0.0090388600587997317 0 -0.015411392153210015 -0.0089132418783180491 0 -0.014294737806509033 -0.0082402245781354223 0 -0.015411392153210015 -0.0089132418783180491 0 -0.015652767416271352 -0.0081678280409328702 0 -0.014294737806509033 -0.0082402245781354223 0 -0.017445223948482642 -0.0079981845989034097 0 -0.017484180608743214 -0.0082494870133151283 0 -0.017267230180696695 -0.0083595009273576965 0 -0.01716739389586705 -0.0081198169482771618 0 -0.017445223948482642 -0.0079981845989034097 0 -0.017267230180696695 -0.0083595009273576965 0 -0.017221354411524701 -0.0078365755009443348 0 -0.01716739389586705 -0.0081198169482771618 0 -0.017445223948482642 -0.0079981845989034097 0 -0.017221354411524701 -0.0078365755009443348 0 -0.017445223948482642 -0.0079981845989034097 0 -0.017632993287331301 -0.0072291526310457946 0 -0.017445223948482642 -0.0079981845989034097 0 -0.017706907745470124 -0.0077678743525392479 0 -0.017632993287331301 -0.0072291526310457946 0 -0.018281907709198204 -0.0074517126342905967 0 -0.017640763300442262 -0.0072275147965288255 0 -0.017706907745470124 -0.0077678743525392479 0 -0.017484180608743214 -0.0082494870133151283 0 -0.017724261858288615 -0.0081752689548551683 0 -0.017445223948482642 -0.0079981845989034097 0 -0.017706907745470124 -0.0077678743525392479 0 -0.017484180608743214 -0.0082494870133151283 0 -0.017724261858288615 -0.0081752689548551683 0 -0.018038978973659765 -0.0079783615635868211 0 -0.018082372963548751 -0.0083439344645460638 0 -0.017706907745470124 -0.0077678743525392479 0 -0.017724261858288615 -0.0081752689548551683 0 -0.018038978973659765 -0.0079783615635868211 0 -0.018281907709198204 -0.0074517126342905967 0 -0.018962224113899175 -0.0073861322544979706 0 -0.019006215827025722 -0.0072027906563480945 0 -0.01952339922028332 -0.0069548091987608075 0 -0.019291670215921802 -0.0067196712546481454 0 -0.019006215827025722 -0.0072027906563480945 0 -0.01952339922028332 -0.0069548091987608075 0 -0.019652700312078841 -0.00696016924258408 0 -0.01952339922028332 -0.0069548091987608075 0 -0.019472627522794505 -0.0066724273986001866 0 -0.019291670215921802 -0.0067196712546481454 0 -0.01952339922028332 -0.0069548091987608075 0 -0.019161119802257549 -0.0068800496324869266 0 -0.019652700312078841 -0.00696016924258408 0 -0.01952339922028332 -0.0069548091987608075 0 -0.01934823066287631 -0.0069747949101580855 0 -0.019472627522794505 -0.0066724273986001866 0 -0.01952339922028332 -0.0069548091987608075 0 -0.01934823066287631 -0.0069747949101580855 0 -0.019161119802257549 -0.0068800496324869266 0 -0.018236719134433397 -0.0063565953515162931 0 -0.019161119802257549 -0.0068800496324869266 0 -0.019652700312078841 -0.00696016924258408 0 -0.017374612734869732 -0.0083334172304209923 0 -0.017514223171398838 -0.0086102040492170955 0 -0.017374612734869732 -0.0083334172304209923 0 -0.018962224113899175 -0.0073861322544979706 0 -0.018501839273115422 -0.0081718587825419034 0 -0.018038978973659765 -0.0079783615635868211 0 -0.018082372963548751 -0.0083439344645460638 0 -0.016485756429253574 -0.0082863627829902857 0 -0.016988610710720085 -0.0088028034816617397 0 -0.016951585206512278 -0.0084216783759058413 0 -0.016951585206512278 -0.0084216783759058413 0 -0.017452837133335532 -0.0085630219533133593 0 -0.017208320802306765 -0.0086535195820601537 0 -0.017724261858288615 -0.0081752689548551683 0 -0.018082372963548751 -0.0083439344645460638 0 -0.017452837133335532 -0.0085630219533133593 0 -0.017514223171398838 -0.0086102040492170955 0 -0.017468844716092943 -0.0085616895357688867 0 -0.016988610710720085 -0.0088028034816617397 0 -0.016951585206512278 -0.0084216783759058413 0 -0.017452837133335532 -0.0085630219533133593 0 -0.017484180608743214 -0.0082494870133151283 0 -0.017452837133335532 -0.0085630219533133593 0 -0.017333740325464805 -0.0085876433621171946 0 -0.017484180608743214 -0.0082494870133151283 0 -0.017724261858288615 -0.0081752689548551683 0 -0.017452837133335532 -0.0085630219533133593 0 -0.017333740325464805 -0.0085876433621171946 0 -0.017236541458749671 -0.0087550594513967316 0 -0.017208320802306765 -0.0086535195820601537 0 -0.017452837133335532 -0.0085630219533133593 0 -0.017333740325464805 -0.0085876433621171946 0 -0.017208320802306765 -0.0086535195820601537 0 -0.017333740325464805 -0.0085876433621171946 0 -0.017207278018805429 -0.0086125570739524794 0 -0.017236541458749671 -0.0087550594513967316 0 -0.017333740325464805 -0.0085876433621171946 0 -0.017207278018805429 -0.0086125570739524794 0 -0.017267230180696695 -0.0083595009273576965 0 -0.017141709168824747 -0.0084572320679644729 0 -0.017207278018805429 -0.0086125570739524794 0 -0.017267230180696695 -0.0083595009273576965 0 -0.017484180608743214 -0.0082494870133151283 0 -0.017333740325464805 -0.0085876433621171946 0 -0.017267230180696695 -0.0083595009273576965 0 -0.017198039800484656 -0.0090085850804823217 0 -0.017204138736648149 -0.0089199956787129869 0 -0.017224065260020738 -0.009199656372490506 0 -0.017198039800484656 -0.0090085850804823217 0 -0.017236541458749671 -0.0087550594513967316 0 -0.017204138736648149 -0.0089199956787129869 0 -0.017124322042569744 -0.0087755652915553137 0 -0.017198039800484656 -0.0090085850804823217 0 -0.017236541458749671 -0.0087550594513967316 0 -0.017124322042569744 -0.0087755652915553137 0 -0.017207278018805429 -0.0086125570739524794 0 -0.017236541458749671 -0.0087550594513967316 0 -0.017236541458749671 -0.0087550594513967316 0 -0.017208320802306765 -0.0086535195820601537 0 -0.017204138736648149 -0.0089199956787129869 0 -0.017208320802306765 -0.0086535195820601537 0 -0.017108783825879038 -0.0088650708818865023 0 -0.017204138736648149 -0.0089199956787129869 0 -0.017108783825879038 -0.0088650708818865023 0 -0.017204138736648149 -0.0089199956787129869 0 -0.017224065260020738 -0.009199656372490506 0 -0.017108783825879038 -0.0088650708818865023 0 -0.016852606783436679 -0.0086097651967351266 0 -0.017040995087861267 -0.0090489254934707428 0 -0.017208320802306765 -0.0086535195820601537 0 -0.017108783825879038 -0.0088650708818865023 0 -0.016852606783436679 -0.0086097651967351266 0 -0.016951585206512278 -0.0084216783759058413 0 -0.017208320802306765 -0.0086535195820601537 0 -0.016852606783436679 -0.0086097651967351266 0 -0.016951585206512278 -0.0084216783759058413 0 -0.016852606783436679 -0.0086097651967351266 0 -0.016589558285578527 -0.008194285123305084 0 -0.016852606783436679 -0.0086097651967351266 0 -0.016725421713171606 -0.0089017226161378846 0 -0.016538372222545106 -0.0084891600294004499 0 -0.016853503079737275 -0.0090704642405347851 0 -0.017040995087861267 -0.0090489254934707428 0 -0.017283451175556644 -0.0094743965291602741 0 -0.016725421713171606 -0.0089017226161378846 0 -0.016853503079737275 -0.0090704642405347851 0 -0.017040995087861267 -0.0090489254934707428 0 -0.016852606783436679 -0.0086097651967351266 0 -0.016725421713171606 -0.0089017226161378846 0 -0.017040995087861267 -0.0090489254934707428 0 -0.017108783825879038 -0.0088650708818865023 0 -0.017040995087861267 -0.0090489254934707428 0 -0.017224065260020738 -0.009199656372490506 0 -0.017040995087861267 -0.0090489254934707428 0 -0.017224065260020738 -0.009199656372490506 0 -0.017283451175556644 -0.0094743965291602741 0 -0.017260635492078159 -0.0096680266732227949 0 -0.017224065260020738 -0.009199656372490506 0 -0.017283451175556644 -0.0094743965291602741 0 -0.017206162957722034 -0.0093934446593781085 0 -0.017198039800484656 -0.0090085850804823217 0 -0.017224065260020738 -0.009199656372490506 0 -0.017193784548889986 -0.008198913049163703 0 -0.016137408110206527 -0.0074903628273750664 0 -0.016725277616692881 -0.0085369581941885046 0 -0.017193784548889986 -0.008198913049163703 0 -0.016725277616692881 -0.0085369581941885046 0 -0.017028038973597798 -0.0089391269574355878 0 -0.013450208739636239 -0.0089466945828196292 0 -0.01569970452355611 -0.0063176689712144346 0 -0.011921155648822658 -0.0060776254063049911 0 -0.012177282772660239 -0.0036576024797558685 0 -0.014017135836232913 -0.0050878382426389713 0 -0.011921155648822658 -0.0060776254063049911 0 -0.01416294114504312 -0.0072941206327631885 0 -0.014017135836232913 -0.0050878382426389713 0 -0.01416294114504312 -0.0072941206327631885 0 -0.014017135836232913 -0.0050878382426389713 0 -0.016137408110206527 -0.0074903628273750664 0 -0.01569970452355611 -0.0063176689712144346 0 -0.01611063943940521 -0.0074808655211248852 0 -0.016137408110206527 -0.0074903628273750664 0 -0.016589558285578527 -0.008194285123305084 0 -0.016538372222545106 -0.0084891600294004499 0 -0.016852606783436679 -0.0086097651967351266 0 -0.016589558285578527 -0.008194285123305084 0 -0.016538372222545106 -0.0084891600294004499 0 -0.016137408110206527 -0.0074903628273750664 0 -0.016538372222545106 -0.0084891600294004499 0 -0.016725277616692881 -0.0085369581941885046 0 -0.016538372222545106 -0.0084891600294004499 0 -0.016725277616692881 -0.0085369581941885046 0 -0.016516085847138449 -0.0092528771246647348 0 -0.016725277616692881 -0.0085369581941885046 0 -0.016516085847138449 -0.0092528771246647348 0 -0.017028038973597798 -0.0089391269574355878 0 -0.016725421713171606 -0.0089017226161378846 0 -0.016538372222545106 -0.0084891600294004499 0 -0.016516085847138449 -0.0092528771246647348 0 -0.016853503079737275 -0.0090704642405347851 0 -0.016516085847138449 -0.0092528771246647348 0 -0.016691100735097403 -0.008851231805310153 0 -0.016725421713171606 -0.0089017226161378846 0 -0.016853503079737275 -0.0090704642405347851 0 -0.016516085847138449 -0.0092528771246647348 0 -0.016516085847138449 -0.0092528771246647348 0 -0.015667802075930749 -0.0094080726078204623 0 -0.015305378771317898 -0.010226654702702944 0 -0.016516085847138449 -0.0092528771246647348 0 -0.015667802075930749 -0.0094080726078204623 0 -0.01620698787817278 -0.008926712195166735 0 -0.01626573409430308 -0.009331200030960881 0 -0.01666078399622067 -0.0095919531970412621 0 -0.015667802075930749 -0.0094080726078204623 0 -0.015305378771317898 -0.010226654702702944 0 -0.014617876459944548 -0.0097281393007365696 0 -0.015667802075930749 -0.0094080726078204623 0 -0.014617876459944548 -0.0097281393007365696 0 -0.015043130289233701 -0.0093114109092828183 0 -0.017685553224016579 -0.008663657583548574 0 -0.017193784548889986 -0.008198913049163703 0 -0.017028038973597798 -0.0089391269574355878 0 -0.013450208739636239 -0.0089466945828196292 0 -0.01666078399622067 -0.0095919531970412621 0 -0.014022819072085779 -0.01076022866509733 0 -0.015305378771317898 -0.010226654702702944 0 -0.014617876459944548 -0.0097281393007365696 0 -0.013852872567678245 -0.0099563150559905337 0 -0.014617876459944548 -0.0097281393007365696 0 -0.014086178087386958 -0.0091533473041890585 0 -0.014928575354607967 -0.0093515063543208928 0 -0.013771395875225264 -0.0094731261163779647 0 -0.014164373648313557 -0.0087048700215540935 0 -0.015043130289233701 -0.0093114109092828183 0 -0.01365547686240961 -0.0097937494262850672 0 -0.014617876459944548 -0.0097281393007365696 0 -0.015043130289233701 -0.0093114109092828183 0 -0.014086178087386958 -0.0091533473041890585 0 -0.014164373648313557 -0.0087048700215540935 0 -0.0151175131013652 -0.0085767042290563599 0 -0.015041657002474609 -0.0072701590154275551 0 -0.014164373648313557 -0.0087048700215540935 0 -0.0151175131013652 -0.0085767042290563599 0 -0.015043130289233701 -0.0093114109092828183 0 -0.0151175131013652 -0.0085767042290563599 0 -0.015041657002474609 -0.0072701590154275551 0 -0.015499587777002244 -0.0079162420870622641 0 -0.0151175131013652 -0.0085767042290563599 0 -0.015770263247002453 -0.0084660980807151117 0 -0.015499587777002244 -0.0079162420870622641 0 -0.0151175131013652 -0.0085767042290563599 0 -0.015649448522703974 -0.0089856470443384576 0 -0.015770263247002453 -0.0084660980807151117 0 -0.0151175131013652 -0.0085767042290563599 0 -0.015649448522703974 -0.0089856470443384576 0 -0.015043130289233701 -0.0093114109092828183 0 -0.015667802075930749 -0.0094080726078204623 0 -0.015649448522703974 -0.0089856470443384576 0 -0.015043130289233701 -0.0093114109092828183 0 -0.015667802075930749 -0.0094080726078204623 0 -0.015649448522703974 -0.0089856470443384576 0 -0.01620698787817278 -0.008926712195166735 0 -0.015649448522703974 -0.0089856470443384576 0 -0.01620698787817278 -0.008926712195166735 0 -0.015770263247002453 -0.0084660980807151117 0 -0.01620698787817278 -0.008926712195166735 0 -0.016691100735097403 -0.008851231805310153 0 -0.016289973169816202 -0.00832288757739349 0 -0.016516085847138449 -0.0092528771246647348 0 -0.01620698787817278 -0.008926712195166735 0 -0.016691100735097403 -0.008851231805310153 0 -0.016691100735097403 -0.008851231805310153 0 -0.016744745748262214 -0.0083230630287316424 0 -0.016289973169816202 -0.00832288757739349 0 -0.01620698787817278 -0.008926712195166735 0 -0.015770263247002453 -0.0084660980807151117 0 -0.016289973169816202 -0.00832288757739349 0 -0.015770263247002453 -0.0084660980807151117 0 -0.015924659656194915 -0.0080701366967404434 0 -0.015499587777002244 -0.0079162420870622641 0 -0.015770263247002453 -0.0084660980807151117 0 -0.016289973169816202 -0.00832288757739349 0 -0.015924659656194915 -0.0080701366967404434 0 -0.016289973169816202 -0.00832288757739349 0 -0.015924659656194915 -0.0080701366967404434 0 -0.016157375620624585 -0.0076183021011828585 0 -0.015924659656194915 -0.0080701366967404434 0 -0.016157375620624585 -0.0076183021011828585 0 -0.015499587777002244 -0.0079162420870622641 0 -0.01670728534409776 -0.0091997930390358799 0 -0.016646363117565122 -0.01118086772893389 0 -0.017074151508234648 -0.010636843415249888 0 -0.016580902041526464 -0.010995109943386931 0 -0.016879376103723184 -0.010740222930029098 0 -0.017074151508234648 -0.010636843415249888 0 -0.016879376103723184 -0.010740222930029098 0 -0.017088134430225388 -0.010582656358850638 0 -0.016744745748262214 -0.0083230630287316424 0 -0.016289973169816202 -0.00832288757739349 0 -0.016157375620624585 -0.0076183021011828585 0 -0.016879376103723184 -0.010740222930029098 0 -0.017088134430225388 -0.010582656358850638 0 -0.016960493962487919 -0.010617409594673208 0 -0.016879376103723184 -0.010740222930029098 0 -0.016668101812371713 -0.010785564120167247 0 -0.016960493962487919 -0.010617409594673208 0 -0.016580902041526464 -0.010995109943386931 0 -0.016879376103723184 -0.010740222930029098 0 -0.016668101812371713 -0.010785564120167247 0 -0.016668101812371713 -0.010785564120167247 0 -0.016960493962487919 -0.010617409594673208 0 -0.016807115202946837 -0.010540930700134865 0 -0.016580902041526464 -0.010995109943386931 0 -0.016317522796081084 -0.01096436425904913 0 -0.015777520034352815 -0.011335277828929456 0 -0.016580902041526464 -0.010995109943386931 0 -0.016668101812371713 -0.010785564120167247 0 -0.016317522796081084 -0.01096436425904913 0 -0.016668101812371713 -0.010785564120167247 0 -0.016317522796081084 -0.01096436425904913 0 -0.016470970796408732 -0.01069683639622513 0 -0.016646363117565122 -0.01118086772893389 0 -0.016086978285124408 -0.012353733921909159 0 -0.016317522796081084 -0.01096436425904913 0 -0.015777520034352815 -0.011335277828929456 0 -0.016025953353881014 -0.010885535716485182 0 -0.016165700401887761 -0.012918209503175227 0 -0.014675737399704909 -0.012650314555537305 0 -0.01499465618311608 -0.013536958974698615 0 -0.016165700401887761 -0.012918209503175227 0 -0.01499465618311608 -0.013536958974698615 0 -0.016045032609059248 -0.01433937145780659 0 -0.016165700401887761 -0.012918209503175227 0 -0.014675737399704909 -0.012650314555537305 0 -0.014359824375008623 -0.011674837889741241 0 -0.014675737399704909 -0.012650314555537305 0 -0.01499465618311608 -0.013536958974698615 0 -0.013981028647060982 -0.013105512172821868 0 -0.015588781110015503 -0.010763178429532351 0 -0.012995677859938225 -0.010858201140348951 0 -0.014164373648313557 -0.0087048700215540935 0 -0.015041657002474609 -0.0072701590154275551 0 -0.01236953117784317 -0.0068278919302897081 0 -0.01499465618311608 -0.013536958974698615 0 -0.016045032609059248 -0.01433937145780659 0 -0.014003732847943595 -0.014690350406971321 0 -0.016157375620624585 -0.0076183021011828585 0 -0.015041657002474609 -0.0072701590154275551 0 -0.015499587777002244 -0.0079162420870622641 0 -0.016646363117565122 -0.01118086772893389 0 -0.015588781110015503 -0.010763178429532351 0 -0.01794207462308909 -0.014120263833789309 0 -0.016165700401887761 -0.012918209503175227 0 -0.016045032609059248 -0.01433937145780659 0 -0.017260635492078159 -0.0096680266732227949 0 -0.017298320298762316 -0.010007957360378926 0 -0.017283451175556644 -0.0094743965291602741 0 -0.017298320298762316 -0.010007957360378926 0 -0.017283451175556644 -0.0094743965291602741 0 -0.017328324302494154 -0.01002386110617483 0 -0.017283451175556644 -0.0094743965291602741 0 -0.017328324302494154 -0.01002386110617483 0 -0.017390387007399432 -0.010167241506176017 0 -0.017298320298762316 -0.010007957360378926 0 -0.017328324302494154 -0.01002386110617483 0 -0.017324140343805004 -0.010241066784362785 0 -0.016853503079737275 -0.0090704642405347851 0 -0.017283451175556644 -0.0094743965291602741 0 -0.01704016379730974 -0.0088684107229629969 0 -0.017328324302494154 -0.01002386110617483 0 -0.017284742854949239 -0.010368415976602187 0 -0.017390387007399432 -0.010167241506176017 0 -0.017328324302494154 -0.01002386110617483 0 -0.017284742854949239 -0.010368415976602187 0 -0.017324140343805004 -0.010241066784362785 0 -0.017219108794003856 -0.0094444397009565365 0 -0.017216445150554108 -0.0095400756509671641 0 -0.016853503079737275 -0.0090704642405347851 0 -0.016691100735097403 -0.008851231805310153 0 -0.01704016379730974 -0.0088684107229629969 0 -0.01670728534409776 -0.0091997930390358799 0 -0.017216445150554108 -0.0095400756509671641 0 -0.017074151508234648 -0.010636843415249888 0 -0.017284742854949239 -0.010368415976602187 0 -0.017390387007399432 -0.010167241506176017 0 -0.016691100735097403 -0.008851231805310153 0 -0.016744745748262214 -0.0083230630287316424 0 -0.01704016379730974 -0.0088684107229629969 0 -0.017074151508234648 -0.010636843415249888 0 -0.017284742854949239 -0.010368415976602187 0 -0.017088134430225388 -0.010582656358850638 0 -0.017284742854949239 -0.010368415976602187 0 -0.017088134430225388 -0.010582656358850638 0 -0.017215192105588046 -0.010450056179025264 0 -0.016960493962487919 -0.010617409594673208 0 -0.017215192105588046 -0.010450056179025264 0 -0.0170836977509424 -0.010438139572562359 0 -0.017088134430225388 -0.010582656358850638 0 -0.016960493962487919 -0.010617409594673208 0 -0.017215192105588046 -0.010450056179025264 0 -0.017215192105588046 -0.010450056179025264 0 -0.017343219430212192 -0.010272008325790291 0 -0.017263523625559527 -0.010330566725577951 0 -0.017215192105588046 -0.010450056179025264 0 -0.017263523625559527 -0.010330566725577951 0 -0.0170836977509424 -0.010438139572562359 0 -0.017215192105588046 -0.010450056179025264 0 -0.017324140343805004 -0.010241066784362785 0 -0.017343219430212192 -0.010272008325790291 0 -0.017284742854949239 -0.010368415976602187 0 -0.017215192105588046 -0.010450056179025264 0 -0.017324140343805004 -0.010241066784362785 0 -0.017324140343805004 -0.010241066784362785 0 -0.017343219430212192 -0.010272008325790291 0 -0.01736820855248504 -0.010178412820351423 0 -0.017343219430212192 -0.010272008325790291 0 -0.017433428174016656 -0.01017062773252264 0 -0.017396959192750611 -0.010205105615474191 0 -0.017343219430212192 -0.010272008325790291 0 -0.017433428174016656 -0.01017062773252264 0 -0.01736820855248504 -0.010178412820351423 0 -0.017417006696070943 -0.010077676932142246 0 -0.017433428174016656 -0.01017062773252264 0 -0.01736820855248504 -0.010178412820351423 0 -0.017417006696070943 -0.010077676932142246 0 -0.017298320298762316 -0.010007957360378926 0 -0.01736820855248504 -0.010178412820351423 0 -0.017298320298762316 -0.010007957360378926 0 -0.017324140343805004 -0.010241066784362785 0 -0.01736820855248504 -0.010178412820351423 0 -0.017515975676005192 -0.010111277253352261 0 -0.017387373273062712 -0.010116689370246242 0 -0.017502556893438912 -0.010055888532800802 0 -0.017623414273809781 -0.010053951567652904 0 -0.017515975676005192 -0.010111277253352261 0 -0.017502556893438912 -0.010055888532800802 0 -0.017433428174016656 -0.01017062773252264 0 -0.017515975676005192 -0.010111277253352261 0 -0.017396959192750611 -0.010205105615474191 0 -0.017547470251664907 -0.010094218228035644 0 -0.017433428174016656 -0.01017062773252264 0 -0.017515975676005192 -0.010111277253352261 0 -0.017343219430212192 -0.010272008325790291 0 -0.017396959192750611 -0.010205105615474191 0 -0.017263523625559527 -0.010330566725577951 0 -0.017396959192750611 -0.010205105615474191 0 -0.017291363137717855 -0.010228322127277313 0 -0.017263523625559527 -0.010330566725577951 0 -0.017515975676005192 -0.010111277253352261 0 -0.017396959192750611 -0.010205105615474191 0 -0.017387373273062712 -0.010116689370246242 0 -0.017396959192750611 -0.010205105615474191 0 -0.017387373273062712 -0.010116689370246242 0 -0.017291363137717855 -0.010228322127277313 0 -0.017387373273062712 -0.010116689370246242 0 -0.017166370798946545 -0.010142627284072574 0 -0.017291363137717855 -0.010228322127277313 0 -0.017166370798946545 -0.010142627284072574 0 -0.017291363137717855 -0.010228322127277313 0 -0.017164779207243349 -0.010281169592936739 0 -0.017263523625559527 -0.010330566725577951 0 -0.017164779207243349 -0.010281169592936739 0 -0.0170836977509424 -0.010438139572562359 0 -0.017291363137717855 -0.010228322127277313 0 -0.017263523625559527 -0.010330566725577951 0 -0.017164779207243349 -0.010281169592936739 0 -0.016960493962487919 -0.010617409594673208 0 -0.0170836977509424 -0.010438139572562359 0 -0.016807115202946837 -0.010540930700134865 0 -0.0170836977509424 -0.010438139572562359 0 -0.016966921698105906 -0.010312611973866471 0 -0.016807115202946837 -0.010540930700134865 0 -0.017164779207243349 -0.010281169592936739 0 -0.0170836977509424 -0.010438139572562359 0 -0.016966921698105906 -0.010312611973866471 0 -0.017166370798946545 -0.010142627284072574 0 -0.016966921698105906 -0.010312611973866471 0 -0.016839942106771939 -0.010118377055829599 0 -0.017166370798946545 -0.010142627284072574 0 -0.017164779207243349 -0.010281169592936739 0 -0.016966921698105906 -0.010312611973866471 0 -0.017166370798946545 -0.010142627284072574 0 -0.017009809598169164 -0.0099510097054267346 0 -0.016839942106771939 -0.010118377055829599 0 -0.017009809598169164 -0.0099510097054267346 0 -0.017116387751847123 -0.0098657561509082163 0 -0.017246271604856728 -0.0099625856801548018 0 -0.018500911828676764 -0.021103501633611136 0 -0.017832618582887476 -0.020670787116727624 0 -0.017009809598169164 -0.0099510097054267346 0 -0.016900230145976931 -0.0097443574258655619 0 -0.01668465034735804 -0.00983695096074114 0 -0.016900230145976931 -0.0097443574258655619 0 -0.017116387751847123 -0.0098657561509082163 0 -0.017284332912625315 -0.0098014691337563516 0 -0.016900230145976931 -0.0097443574258655619 0 -0.017284332912625315 -0.0098014691337563516 0 -0.016754882007273927 -0.0095223249661162152 0 -0.017009809598169164 -0.0099510097054267346 0 -0.016900230145976931 -0.0097443574258655619 0 -0.017116387751847123 -0.0098657561509082163 0 -0.017116387751847123 -0.0098657561509082163 0 -0.017284332912625315 -0.0098014691337563516 0 -0.017246271604856728 -0.0099625856801548018 0 -0.017284332912625315 -0.0098014691337563516 0 -0.017246271604856728 -0.0099625856801548018 0 -0.017405120620150667 -0.0099864194219019594 0 -0.017166370798946545 -0.010142627284072574 0 -0.017009809598169164 -0.0099510097054267346 0 -0.017246271604856728 -0.0099625856801548018 0 -0.017387373273062712 -0.010116689370246242 0 -0.017166370798946545 -0.010142627284072574 0 -0.017246271604856728 -0.0099625856801548018 0 -0.017387373273062712 -0.010116689370246242 0 -0.017246271604856728 -0.0099625856801548018 0 -0.017405120620150667 -0.0099864194219019594 0 -0.017387373273062712 -0.010116689370246242 0 -0.017405120620150667 -0.0099864194219019594 0 -0.017502556893438912 -0.010055888532800802 0 -0.018500911828676764 -0.021103501633611136 0 -0.019296745275384622 -0.021199477652130021 0 -0.017284332912625315 -0.0098014691337563516 0 -0.017405120620150667 -0.0099864194219019594 0 -0.017552185300541558 -0.009969485160621433 0 -0.017623414273809781 -0.010053951567652904 0 -0.017552185300541558 -0.009969485160621433 0 -0.017502556893438912 -0.010055888532800802 0 -0.017405120620150667 -0.0099864194219019594 0 -0.017552185300541558 -0.009969485160621433 0 -0.017502556893438912 -0.010055888532800802 0 -0.015659312697995833 -0.01070124464699385 0 -0.015509348406455537 -0.010272531331988471 0 -0.015210422367366722 -0.01076616648952692 0 -0.015659312697995833 -0.01070124464699385 0 -0.015509348406455537 -0.010272531331988471 0 -0.016127535655780949 -0.01039889013743932 0 -0.015509348406455537 -0.010272531331988471 0 -0.016127535655780949 -0.01039889013743932 0 -0.015840202411271237 -0.0099502876020037823 0 -0.014771314494842291 -0.010353783283269729 0 -0.015210422367366722 -0.01076616648952692 0 -0.014791350524454277 -0.011095937547802059 0 -0.014771314494842291 -0.010353783283269729 0 -0.014791350524454277 -0.011095937547802059 0 -0.014214377013395139 -0.011395477047142215 0 -0.015509348406455537 -0.010272531331988471 0 -0.014771314494842291 -0.010353783283269729 0 -0.015210422367366722 -0.01076616648952692 0 -0.015777520034352815 -0.011335277828929456 0 -0.015344209462995367 -0.011111033447030471 0 -0.014359824375008623 -0.011674837889741241 0 -0.015210422367366722 -0.01076616648952692 0 -0.015344209462995367 -0.011111033447030471 0 -0.014791350524454277 -0.011095937547802059 0 -0.016086978285124408 -0.012353733921909159 0 -0.014361016135766652 -0.01152649597101273 0 -0.015659312697995833 -0.01070124464699385 0 -0.015210422367366722 -0.01076616648952692 0 -0.015344209462995367 -0.011111033447030471 0 -0.015344209462995367 -0.011111033447030471 0 -0.014791350524454277 -0.011095937547802059 0 -0.014359824375008623 -0.011674837889741241 0 -0.015659312697995833 -0.01070124464699385 0 -0.016025953353881014 -0.010885535716485182 0 -0.016127535655780949 -0.01039889013743932 0 -0.015777520034352815 -0.011335277828929456 0 -0.015344209462995367 -0.011111033447030471 0 -0.016025953353881014 -0.010885535716485182 0 -0.015659312697995833 -0.01070124464699385 0 -0.015344209462995367 -0.011111033447030471 0 -0.016025953353881014 -0.010885535716485182 0 -0.016025953353881014 -0.010885535716485182 0 -0.016470970796408732 -0.01069683639622513 0 -0.016127535655780949 -0.01039889013743932 0 -0.016317522796081084 -0.01096436425904913 0 -0.016025953353881014 -0.010885535716485182 0 -0.016470970796408732 -0.01069683639622513 0 -0.016966921698105906 -0.010312611973866471 0 -0.016807115202946837 -0.010540930700134865 0 -0.016624143800191574 -0.010340889653682092 0 -0.016668101812371713 -0.010785564120167247 0 -0.016470970796408732 -0.01069683639622513 0 -0.016807115202946837 -0.010540930700134865 0 -0.016470970796408732 -0.01069683639622513 0 -0.016807115202946837 -0.010540930700134865 0 -0.016624143800191574 -0.010340889653682092 0 -0.016624143800191574 -0.010340889653682092 0 -0.016375996868379938 -0.0099840821376327039 0 -0.016839942106771939 -0.010118377055829599 0 -0.016966921698105906 -0.010312611973866471 0 -0.016624143800191574 -0.010340889653682092 0 -0.016839942106771939 -0.010118377055829599 0 -0.016470970796408732 -0.01069683639622513 0 -0.016624143800191574 -0.010340889653682092 0 -0.016127535655780949 -0.01039889013743932 0 -0.016624143800191574 -0.010340889653682092 0 -0.016127535655780949 -0.01039889013743932 0 -0.016375996868379938 -0.0099840821376327039 0 -0.016375996868379938 -0.0099840821376327039 0 -0.015947270845048909 -0.0096643849766232214 0 -0.015840202411271237 -0.0099502876020037823 0 -0.016127535655780949 -0.01039889013743932 0 -0.016375996868379938 -0.0099840821376327039 0 -0.015840202411271237 -0.0099502876020037823 0 -0.016375996868379938 -0.0099840821376327039 0 -0.01668465034735804 -0.00983695096074114 0 -0.016341104087509866 -0.0096399556144433421 0 -0.016375996868379938 -0.0099840821376327039 0 -0.016839942106771939 -0.010118377055829599 0 -0.01668465034735804 -0.00983695096074114 0 -0.017009809598169164 -0.0099510097054267346 0 -0.016839942106771939 -0.010118377055829599 0 -0.01668465034735804 -0.00983695096074114 0 -0.01668465034735804 -0.00983695096074114 0 -0.016341104087509866 -0.0096399556144433421 0 -0.016754882007273927 -0.0095223249661162152 0 -0.016900230145976931 -0.0097443574258655619 0 -0.01668465034735804 -0.00983695096074114 0 -0.016754882007273927 -0.0095223249661162152 0 -0.016341104087509866 -0.0096399556144433421 0 -0.016754882007273927 -0.0095223249661162152 0 -0.015960670223354897 -0.009285490509682439 0 -0.016341104087509866 -0.0096399556144433421 0 -0.015947270845048909 -0.0096643849766232214 0 -0.015960670223354897 -0.009285490509682439 0 -0.016375996868379938 -0.0099840821376327039 0 -0.016341104087509866 -0.0096399556144433421 0 -0.015947270845048909 -0.0096643849766232214 0 -0.013224268880564881 -0.019745032720572046 0 -0.01530330563487672 -0.017358657594955328 0 -0.013163256182917669 -0.017073594749744535 0 -0.015947270845048909 -0.0096643849766232214 0 -0.015245984915915615 -0.0096322457000575078 0 -0.015960670223354897 -0.009285490509682439 0 -0.014496389964134012 -0.013167115635241007 0 -0.016343623489279095 -0.021637991486070172 0 -0.015947270845048909 -0.0096643849766232214 0 -0.015840202411271237 -0.0099502876020037823 0 -0.015245984915915615 -0.0096322457000575078 0 -0.015509348406455537 -0.010272531331988471 0 -0.015840202411271237 -0.0099502876020037823 0 -0.015245984915915615 -0.0096322457000575078 0 -0.015509348406455537 -0.010272531331988471 0 -0.014771314494842291 -0.010353783283269729 0 -0.015245984915915615 -0.0096322457000575078 0 -0.014771314494842291 -0.010353783283269729 0 -0.015245984915915615 -0.0096322457000575078 0 -0.013729576126012489 -0.010038718700752179 0 -0.014496389964134012 -0.013167115635241007 0 -0.012105715915052322 -0.01659608072184347 0 -0.013224268880564881 -0.019745032720572046 0 -0.010828787685729573 -0.018280401422934942 0 -0.013163256182917669 -0.017073594749744535 0 -0.013224268880564881 -0.019745032720572046 0 -0.010828787685729573 -0.018280401422934942 0 -0.010499262272783576 -0.020191613631563746 0 -0.0099711045596927866 -0.019080691436791482 0 -0.0085047019978677849 -0.019610459190266417 0 -0.0086570948907111808 -0.018945099141294757 0 -0.0099711045596927866 -0.019080691436791482 0 -0.0085047019978677849 -0.019610459190266417 0 -0.0083430932522265081 -0.019851349395963943 0 -0.010710540353020799 -0.017911880201989739 0 -0.0083255246436331806 -0.019935841032815045 0 -0.010828787685729573 -0.018280401422934942 0 -0.0083430932522265081 -0.019851349395963943 0 -0.010499262272783576 -0.020191613631563746 0 -0.0085047019978677849 -0.019610459190266417 0 -0.0086570948907111808 -0.018945099141294757 0 -0.0065271705009279654 -0.019175611773348818 0 -0.0083430932522265081 -0.019851349395963943 0 -0.0091175720069039175 -0.020935454532326068 0 -0.010499262272783576 -0.020191613631563746 0 -0.0083430932522265081 -0.019851349395963943 0 -0.0091175720069039175 -0.020935454532326068 0 -0.0078277809087740624 -0.02098848790838051 0 -0.0091175720069039175 -0.020935454532326068 0 -0.0078277809087740624 -0.02098848790838051 0 -0.0084783508673762741 -0.022284013022983454 0 -0.013224268880564881 -0.019745032720572046 0 -0.010499262272783576 -0.020191613631563746 0 -0.011008514042771939 -0.022215888309505095 0 -0.0091175720069039175 -0.020935454532326068 0 -0.010499262272783576 -0.020191613631563746 0 -0.011008514042771939 -0.022215888309505095 0 0.00064141374116084436 -0.02912769285132798 0 -0.0012472672276100116 -0.02967453001635597 0 0.0015041632064571927 -0.031090117596065173 0 -0.0040263934557698633 -0.022758025132245736 0 -0.00041658527168817648 -0.026692718009583359 0 -0.0085047019978677849 -0.019610459190266417 0 -0.0083430932522265081 -0.019851349395963943 0 -0.0064539765812507994 -0.020448622501759856 0 -0.0085047019978677849 -0.019610459190266417 0 -0.0065271705009279654 -0.019175611773348818 0 -0.005777863207040222 -0.021614753813347279 0 -0.0083681907481649668 -0.019716654387766364 0 -0.0059542815599800559 -0.021115116839635541 0 -0.0083430932522265081 -0.019851349395963943 0 -0.0078277809087740624 -0.02098848790838051 0 -0.0064539765812507994 -0.020448622501759856 0 -0.0078277809087740624 -0.02098848790838051 0 -0.0064539765812507994 -0.020448622501759856 0 -0.0067620251432569927 -0.021798812274717718 0 -0.0065271705009279654 -0.019175611773348818 0 -0.005777863207040222 -0.021614753813347279 0 -0.0022655877650274402 -0.021894344936607826 0 -0.0064539765812507994 -0.020448622501759856 0 -0.0067620251432569927 -0.021798812274717718 0 -0.0039830601365258116 -0.021667061221011367 0 -0.005777863207040222 -0.021614753813347279 0 -0.0022427504451241194 -0.023679895334582042 0 -0.0022655877650274402 -0.021894344936607826 0 -0.0059542815599800559 -0.021115116839635541 0 -0.0037478350018680206 -0.022187295837544616 0 -0.0059216952658690709 -0.022930594078760101 0 -0.0067620251432569927 -0.021798812274717718 0 -0.0039830601365258116 -0.021667061221011367 0 -0.0059216952658690709 -0.022930594078760101 0 -0.0044329133943697306 -0.023366329383887344 0 -0.0039830601365258116 -0.021667061221011367 0 -0.0059216952658690709 -0.022930594078760101 0 -0.0067620251432569927 -0.021798812274717718 0 -0.0074214218441326319 -0.023454532783789356 0 -0.0078277809087740624 -0.02098848790838051 0 -0.0067620251432569927 -0.021798812274717718 0 -0.0084783508673762741 -0.022284013022983454 0 -0.0067620251432569927 -0.021798812274717718 0 -0.0074214218441326319 -0.023454532783789356 0 -0.0084783508673762741 -0.022284013022983454 0 -0.0074214218441326319 -0.023454532783789356 0 -0.0063967006807342068 -0.024682151801212398 0 -0.0088626222894477892 -0.024673764763779665 0 -0.0059216952658690709 -0.022930594078760101 0 -0.0074214218441326319 -0.023454532783789356 0 -0.0063967006807342068 -0.024682151801212398 0 -0.0063967006807342068 -0.024682151801212398 0 -0.0041402055971390839 -0.025095393573332798 0 -0.0044329133943697306 -0.023366329383887344 0 -0.0059216952658690709 -0.022930594078760101 0 -0.0063967006807342068 -0.024682151801212398 0 -0.0044329133943697306 -0.023366329383887344 0 -0.014771314494842291 -0.010353783283269729 0 -0.013729576126012489 -0.010038718700752179 0 -0.014214377013395139 -0.011395477047142215 0 -0.011008514042771939 -0.022215888309505095 0 -0.0084783508673762741 -0.022284013022983454 0 -0.0088626222894477892 -0.024673764763779665 0 -0.0091175720069039175 -0.020935454532326068 0 -0.011008514042771939 -0.022215888309505095 0 -0.0084783508673762741 -0.022284013022983454 0 -0.0096964741740692868 -0.013540851933543001 0 -0.014214377013395139 -0.011395477047142215 0 -0.011143359734039602 -0.014763221485581976 0 -0.012105715915052322 -0.01659608072184347 0 -0.0097280665856681846 -0.018597469549967872 0 -0.0074214218441326319 -0.023454532783789356 0 -0.0084783508673762741 -0.022284013022983454 0 -0.0088626222894477892 -0.024673764763779665 0 -0.013729576126012489 -0.010038718700752179 0 -0.0096964741740692868 -0.013540851933543001 0 -0.014214377013395139 -0.011395477047142215 0 -0.013659130549946854 -0.012224064120540333 0 -0.014214377013395139 -0.011395477047142215 0 -0.012642780819605254 -0.012235179584453549 0 -0.014018426364387663 -0.011574629081254017 0 -0.011823020516173937 -0.013559770010286376 0 -0.014791350524454277 -0.011095937547802059 0 -0.014214377013395139 -0.011395477047142215 0 -0.014359824375008623 -0.011674837889741241 0 -0.014675737399704909 -0.012650314555537305 0 -0.013659130549946854 -0.012224064120540333 0 -0.014359824375008623 -0.011674837889741241 0 -0.013659130549946854 -0.012224064120540333 0 -0.014214377013395139 -0.011395477047142215 0 -0.014359824375008623 -0.011674837889741241 0 -0.014675737399704909 -0.012650314555537305 0 -0.013659130549946854 -0.012224064120540333 0 -0.013981028647060982 -0.013105512172821868 0 -0.013659130549946854 -0.012224064120540333 0 -0.013094323796454456 -0.012998577739406344 0 -0.013981028647060982 -0.013105512172821868 0 -0.013659130549946854 -0.012224064120540333 0 -0.013094323796454456 -0.012998577739406344 0 -0.012642780819605254 -0.012235179584453549 0 -0.013094323796454456 -0.012998577739406344 0 -0.013981028647060982 -0.013105512172821868 0 -0.013381263761841658 -0.013829359534290424 0 -0.013981028647060982 -0.013105512172821868 0 -0.014003732847943595 -0.014690350406971321 0 -0.013381263761841658 -0.013829359534290424 0 -0.01499465618311608 -0.013536958974698615 0 -0.013981028647060982 -0.013105512172821868 0 -0.014003732847943595 -0.014690350406971321 0 -0.014003732847943595 -0.014690350406971321 0 -0.013381263761841658 -0.013829359534290424 0 -0.011532245571394734 -0.015150777920916002 0 -0.013381263761841658 -0.013829359534290424 0 -0.011532245571394734 -0.015150777920916002 0 -0.012367236524885555 -0.013723068607733329 0 -0.012995677859938225 -0.010858201140348951 0 -0.009577992290057109 -0.010280832616829595 0 -0.011532245571394734 -0.015150777920916002 0 -0.012367236524885555 -0.013723068607733329 0 -0.01065735377576741 -0.013687128781383675 0 -0.011823020516173937 -0.013559770010286376 0 -0.0086006981586360613 -0.016731824093370498 0 -0.012207730870227584 -0.013161307248190472 0 -0.012642780819605254 -0.012235179584453549 0 -0.01065735377576741 -0.013687128781383675 0 -0.0096964741740692868 -0.013540851933543001 0 -0.011143359734039602 -0.014763221485581976 0 -0.0061823755346003739 -0.01975428878713786 0 -0.012207730870227584 -0.013161307248190472 0 -0.012367236524885555 -0.013723068607733329 0 -0.01065735377576741 -0.013687128781383675 0 -0.013094323796454456 -0.012998577739406344 0 -0.013381263761841658 -0.013829359534290424 0 -0.012367236524885555 -0.013723068607733329 0 -0.013094323796454456 -0.012998577739406344 0 -0.012207730870227584 -0.013161307248190472 0 -0.012367236524885555 -0.013723068607733329 0 -0.013094323796454456 -0.012998577739406344 0 -0.012207730870227584 -0.013161307248190472 0 -0.012642780819605254 -0.012235179584453549 0 -0.0096964741740692868 -0.013540851933543001 0 -0.0061823755346003739 -0.01975428878713786 0 -0.0035428792811667362 -0.020391553429992316 0 -0.0063967006807342068 -0.024682151801212398 0 -0.0088626222894477892 -0.024673764763779665 0 -0.0066867947942080685 -0.0271933101979457 0 -0.0097280665856681846 -0.018597469549967872 0 -0.0031808709522685745 -0.026078487963003057 0 0.0041927240053292554 -0.031212596976051027 0 0.0036823240216266569 -0.031161686563039387 0 0.0044576160061047575 -0.030862448236660334 0 -0.0031808709522685745 -0.026078487963003057 0 0.00017809847324100345 -0.028328828520755689 0 -0.0063967006807342068 -0.024682151801212398 0 -0.0066867947942080685 -0.0271933101979457 0 -0.0041402055971390839 -0.025095393573332798 0 0.0041927240053292554 -0.031212596976051027 0 0.0040585715924068592 -0.031589883588180059 0 0.004564785517637825 -0.03128410383298165 0 0.0012457709038326244 -0.025191241586394384 0 -0.0031808709522685745 -0.026078487963003057 0 0.0041927240053292554 -0.031212596976051027 0 0.0040585715924068592 -0.031589883588180059 0 0.0036823240216266569 -0.031161686563039387 0 -0.00046788110450262028 -0.025036375289828938 0 0.00049508272453172291 -0.025133054707089545 0 -0.0034615283780783006 -0.020450863827609921 0 -0.0025615966681352877 -0.019363032375749628 0 0.0012457709038326244 -0.025191241586394384 0 -0.0086006981586360613 -0.016731824093370498 0 -0.0025615966681352877 -0.019363032375749628 0 -0.011532245571394734 -0.015150777920916002 0 -0.01065735377576741 -0.013687128781383675 0 -0.0085342110297527453 -0.01551831542872396 0 -0.0069528726993902615 -0.0068732781479272295 0 0.00044256347615747785 -0.0072082616730909446 0 -0.0029531494210416087 -0.0091412574912201859 0 -0.009577992290057109 -0.010280832616829595 0 -0.0025615966681352877 -0.019363032375749628 0 -0.0061823755346003739 -0.01975428878713786 0 -0.00046788110450262028 -0.025036375289828938 0 -0.0040689319243900363 -0.020944077090781395 0 -0.0061823755346003739 -0.01975428878713786 0 -0.0040689319243900363 -0.020944077090781395 0 -0.0035428792811667362 -0.020391553429992316 0 -0.00046788110450262028 -0.025036375289828938 0 -0.0040689319243900363 -0.020944077090781395 0 -0.0034615283780783006 -0.020450863827609921 0 -0.0029483297036818137 -0.025608949139804538 0 -0.0031808709522685745 -0.026078487963003057 0 -0.0077116835139740937 -0.010189222413551049 0 -0.002593162188787333 -0.013417274609639774 0 -0.0069528726993902615 -0.0068732781479272295 0 -0.0029531494210416087 -0.0091412574912201859 0 -0.0049259577036774782 -0.011913221165935704 0 -0.0029531494210416087 -0.0091412574912201859 0 -0.0049259577036774782 -0.011913221165935704 0 -0.00019122730526471246 -0.010571634241387099 0 -0.0049259577036774782 -0.011913221165935704 0 -0.00019122730526471246 -0.010571634241387099 0 0.0021496921104287902 -0.013479532375336853 0 0.00058404795835864188 -0.021169470827346177 0 0.00056993008232556484 -0.021163289750520665 0 0.00054013013512506944 -0.021050632689345282 0 0.0012457709038326244 -0.025191241586394384 0 0.0010876902445356462 -0.02034063296820917 0 0.00044256347615747785 -0.0072082616730909446 0 -0.00019122730526471246 -0.010571634241387099 0 0.0045130347609492827 -0.01072635042553996 0 -0.0025615966681352877 -0.019363032375749628 0 0.0010876902445356462 -0.02034063296820917 0 0.00044256347615747785 -0.0072082616730909446 0 -0.0029531494210416087 -0.0091412574912201859 0 -0.00019122730526471246 -0.010571634241387099 0 -0.002593162188787333 -0.013417274609639774 0 0.00065192207462909835 -0.019655338487824105 0 -0.00019122730526471246 -0.010571634241387099 0 0.0021496921104287902 -0.013479532375336853 0 0.0045130347609492827 -0.01072635042553996 0 0.0021496921104287902 -0.013479532375336853 0 0.0045130347609492827 -0.01072635042553996 0 0.0052389924989673835 -0.011387217052731397 0 -0.0043077532182820028 -0.012114269767565394 0 -0.0087311539923113999 -0.01100519946515518 0 -0.003933453441056352 -0.013340975609171793 0 -0.0032449275317800079 -0.015137904045100516 0 -0.0061474711074500973 -0.015049396480619792 0 -0.002593162188787333 -0.013417274609639774 0 -0.0087311539923113999 -0.01100519946515518 0 -0.010461511586938194 -0.0087456731565759491 0 -0.0080468139487447164 -0.0090272352176935661 0 -0.0097285548429398034 -0.010273984837797829 0 -0.0087311539923113999 -0.01100519946515518 0 -0.012810415260197281 -0.0095407012475435451 0 -0.010461511586938194 -0.0087456731565759491 0 -0.0097285548429398034 -0.010273984837797829 0 -0.011902033671290987 -0.010097695977581977 0 -0.010461511586938194 -0.0087456731565759491 0 -0.011902033671290987 -0.010097695977581977 0 -0.01263037086823844 -0.0086282506592749546 0 -0.012810415260197281 -0.0095407012475435451 0 -0.013771395875225264 -0.0094731261163779647 0 -0.011902033671290987 -0.010097695977581977 0 -0.01365547686240961 -0.0097937494262850672 0 -0.01263037086823844 -0.0086282506592749546 0 -0.014164373648313557 -0.0087048700215540935 0 -0.01236953117784317 -0.0068278919302897081 0 -0.010552058349437694 -0.010353255644213707 0 -0.01390054379651982 -0.0088563522868802674 0 -0.011486838683026886 -0.009491372134986787 0 -0.014164373648313557 -0.0087048700215540935 0 -0.01365547686240961 -0.0097937494262850672 0 -0.01263037086823844 -0.0086282506592749546 0 -0.01236953117784317 -0.0068278919302897081 0 -0.0069528726993902615 -0.0068732781479272295 0 -0.010552058349437694 -0.010353255644213707 0 -0.0077116835139740937 -0.010189222413551049 0 -0.011486838683026886 -0.009491372134986787 0 -0.0069528726993902615 -0.0068732781479272295 0 -0.0049259577036774782 -0.011913221165935704 0 -0.010552058349437694 -0.010353255644213707 0 0.0054439077592499567 -0.031433609437686187 0 0.0054945007318772396 -0.032185136561223134 0 0.0042237209354438424 -0.032387923203837023 0 0.0054439077592499567 -0.031433609437686187 0 0.0042237209354438424 -0.032387923203837023 0 0.0036377888779667899 -0.031512680835663991 0 0.0054439077592499567 -0.031433609437686187 0 0.0059006927540224512 -0.031875863300254596 0 0.0054945007318772396 -0.032185136561223134 0 0.0054439077592499567 -0.031433609437686187 0 0.0059006927540224512 -0.031875863300254596 0 0.0057869838529374818 -0.031525701186754594 0 0.0059006927540224512 -0.031875863300254596 0 0.0057134219518584139 -0.032231440281251182 0 0.0054945007318772396 -0.032185136561223134 0 0.0059006927540224512 -0.031875863300254596 0 0.0057134219518584139 -0.032231440281251182 0 0.0060012209144163541 -0.032225130258294696 0 0.0055250089291155446 -0.032285887127087048 0 0.0057134219518584139 -0.032231440281251182 0 0.0054945007318772396 -0.032185136561223134 0 0.0052954901182284573 -0.032171855964076679 0 0.0047737646695779831 -0.032128692446461875 0 0.0054945007318772396 -0.032185136561223134 0 0.005348226874403764 -0.032184569287849248 0 0.0050727389725957629 -0.031842808796277003 0 0.0055250089291155446 -0.032285887127087048 0 0.0054945007318772396 -0.032185136561223134 0 0.005348226874403764 -0.032184569287849248 0 0.005348226874403764 -0.032184569287849248 0 0.0052634266133283949 -0.032219667492828015 0 0.0050727389725957629 -0.031842808796277003 0 0.0053789504281471058 -0.032253090199902287 0 0.005348226874403764 -0.032184569287849248 0 0.0052634266133283949 -0.032219667492828015 0 0.0047928013528087138 -0.03218337981619479 0 0.0050727389725957629 -0.031842808796277003 0 0.0041915716207545648 -0.031625625134943769 0 0.0042237209354438424 -0.032387923203837023 0 0.0020143905348293119 -0.032429966304746427 0 0.0036377888779667899 -0.031512680835663991 0 0.0036568205873376688 -0.026977702755984764 0 0.0028135426891867463 -0.022693665643145011 0 0.0052634266133283949 -0.032219667492828015 0 0.0047928013528087138 -0.03218337981619479 0 0.0050727389725957629 -0.031842808796277003 0 0.0047737646695779831 -0.032128692446461875 0 0.0027501443624925455 -0.025641429008505499 0 0.0028135426891867463 -0.022693665643145011 0 -0.001535357582581542 -0.016372293869725239 0 0.00020689432649919397 -0.020847197179951208 0 0.00075063431071615584 -0.02085878898112924 0 0.0014035253159950429 -0.021967337825439821 0 0.0028135426891867463 -0.022693665643145011 0 0.0027501443624925455 -0.025641429008505499 0 -0.0032449275317800079 -0.015137904045100516 0 -0.00037115483712537613 -0.015215908804752409 0 -0.0017246474528872409 -0.013631554312895847 0 -0.0043077532182820028 -0.012114269767565394 0 -0.001535357582581542 -0.016372293869725239 0 -0.001535357582581542 -0.016372293869725239 0 0.00011817292030049341 -0.020906149419466221 0 0.00075063431071615584 -0.02085878898112924 0 0.0014035253159950429 -0.021967337825439821 0 0.0017011338596081304 -0.022004936422603108 0 0.0027501443624925455 -0.025641429008505499 0 0.00011817292030049341 -0.020906149419466221 0 -0.003933453441056352 -0.013340975609171793 0 -0.0032449275317800079 -0.015137904045100516 0 -0.0017246474528872409 -0.013631554312895847 0 -0.002593162188787333 -0.013417274609639774 0 0.00011817292030049341 -0.020906149419466221 0 0.00017739123605031986 -0.030892473439074135 0 0.00046559433408196831 -0.031151153194487531 0 0.0028340222587655045 -0.030121991247192854 0 0.0020143905348293119 -0.032429966304746427 0 0.00046559433408196831 -0.031151153194487531 0 0.0028340222587655045 -0.030121991247192854 0 -0.0010673885852608386 -0.029375710262331316 0 0.00017739123605031986 -0.030892473439074135 0 0.0028340222587655045 -0.030121991247192854 0 -0.0014296143403857719 -0.017858428582328306 0 0.00028637723230127635 -0.018086207223536207 0 -0.0004901171204055321 -0.017119077910962607 0 0.0027501443624925455 -0.025641429008505499 0 0.00065192207462909835 -0.019655338487824105 0 0.00011817292030049341 -0.020906149419466221 0 0.00065192207462909835 -0.019655338487824105 0 0.0010876902445356462 -0.02034063296820917 0 0.00065192207462909835 -0.019655338487824105 0 0.0018847353377921792 -0.02280469072540527 0 0.0012277001424577914 -0.022724374998671207 0 -0.0003148825019587673 -0.020816304803583062 0 0.0020143905348293119 -0.032429966304746427 0 0.0036377888779667899 -0.031512680835663991 0 0.0028340222587655045 -0.030121991247192854 0 0.0054439077592499567 -0.031433609437686187 0 0.0036377888779667899 -0.031512680835663991 0 0.0028340222587655045 -0.030121991247192854 0 0.0052339236970293142 -0.031203062970827544 0 0.0039284459059116348 -0.031510509964393016 0 0.0054439077592499567 -0.031433609437686187 0 0.0049031718872121488 -0.03165019391168207 0 0.0049995425858288785 -0.031376415121457966 0 0.0012457709038326244 -0.025191241586394384 0 0.0039284459059116348 -0.031510509964393016 0 0.0040585715924068592 -0.031589883588180059 0 0.0049031718872121488 -0.03165019391168207 0 0.004564785517637825 -0.03128410383298165 0 0.0049031718872121488 -0.03165019391168207 0 0.0049995425858288785 -0.031376415121457966 0 0.004564785517637825 -0.03128410383298165 0 0.0041927240053292554 -0.031212596976051027 0 0.004564785517637825 -0.03128410383298165 0 0.0044576160061047575 -0.030862448236660334 0 0.004564785517637825 -0.03128410383298165 0 0.0049468509703686882 -0.031085143969172481 0 0.0044576160061047575 -0.030862448236660334 0 0.0049995425858288785 -0.031376415121457966 0 0.0049468509703686882 -0.031085143969172481 0 0.0052826747926671682 -0.031307771796472331 0 0.0049995425858288785 -0.031376415121457966 0 0.004564785517637825 -0.03128410383298165 0 0.0049468509703686882 -0.031085143969172481 0 0.0049468509703686882 -0.031085143969172481 0 0.0053400185827417943 -0.031147687075416871 0 0.0052826747926671682 -0.031307771796472331 0 0.0053400185827417943 -0.031147687075416871 0 0.0052826747926671682 -0.031307771796472331 0 0.0056526778219403873 -0.031386588186001131 0 0.0053400185827417943 -0.031147687075416871 0 0.0056526778219403873 -0.031386588186001131 0 0.00565906020929678 -0.031255809645283489 0 0.0054439077592499567 -0.031433609437686187 0 0.0049995425858288785 -0.031376415121457966 0 0.0052826747926671682 -0.031307771796472331 0 0.0054439077592499567 -0.031433609437686187 0 0.0052826747926671682 -0.031307771796472331 0 0.0056526778219403873 -0.031386588186001131 0 0.0054439077592499567 -0.031433609437686187 0 0.0057869838529374818 -0.031525701186754594 0 0.0056526778219403873 -0.031386588186001131 0 0.0057869838529374818 -0.031525701186754594 0 0.0056526778219403873 -0.031386588186001131 0 0.0060230677119650902 -0.031514619046194348 0 0.0056526778219403873 -0.031386588186001131 0 0.00565906020929678 -0.031255809645283489 0 0.0060911736207657644 -0.031408698036416577 0 0.0056526778219403873 -0.031386588186001131 0 0.0060230677119650902 -0.031514619046194348 0 0.0060911736207657644 -0.031408698036416577 0 0.00565906020929678 -0.031255809645283489 0 0.0056091683264615231 -0.031259164860693363 0 0.0060911736207657644 -0.031408698036416577 0 0.00565906020929678 -0.031255809645283489 0 0.0052808592595038825 -0.031225701488707219 0 0.0049913334883472859 -0.031262688456645059 0 0.00565906020929678 -0.031255809645283489 0 0.0052808592595038825 -0.031225701488707219 0 0.0056091683264615231 -0.031259164860693363 0 0.0053400185827417943 -0.031147687075416871 0 0.00565906020929678 -0.031255809645283489 0 0.0050551700806016351 -0.030571769096286214 0 0.0067289992155320768 -0.032413008518716223 0 0.0027566558418556609 -0.027626845719793073 0 0.0052808592595038825 -0.031225701488707219 0 0.0052123594977413661 -0.0311910047751741 0 0.005094585433354437 -0.031118147852017029 0 0.0052808592595038825 -0.031225701488707219 0 0.0056091683264615231 -0.031259164860693363 0 0.005094585433354437 -0.031118147852017029 0 0.0056137465097777454 -0.031001071417402881 0 0.0037018313686920674 -0.029060151668878115 0 0.0037018313686920674 -0.029060151668878115 0 0.0047472517176831283 -0.03140235585908982 0 -0.0041402055971390839 -0.025095393573332798 0 -0.0015211699400163082 -0.022983279009731756 0 -0.0044329133943697306 -0.023366329383887344 0 0.00017809847324100345 -0.028328828520755689 0 0.0027566558418556609 -0.027626845719793073 0 0.0049468509703686882 -0.031085143969172481 0 0.0044576160061047575 -0.030862448236660334 0 0.0050551700806016351 -0.030571769096286214 0 0.0049468509703686882 -0.031085143969172481 0 0.0053400185827417943 -0.031147687075416871 0 0.0050551700806016351 -0.030571769096286214 0 0.0016974374523204827 -0.02582643448828854 0 0.002534848969029847 -0.025122176301626293 0 -0.0022427504451241194 -0.023679895334582042 0 0.0052808592595038825 -0.031225701488707219 0 0.0049913334883472859 -0.031262688456645059 0 0.00508846660815147 -0.031155127953001793 0 0.0027566558418556609 -0.027626845719793073 0 0.0037018313686920674 -0.029060151668878115 0 0.0027566558418556609 -0.027626845719793073 0 -0.0037478350018680206 -0.022187295837544616 0 -0.0015211699400163082 -0.022983279009731756 0 -0.0044329133943697306 -0.023366329383887344 0 -0.0039830601365258116 -0.021667061221011367 0 0.002534848969029847 -0.025122176301626293 0 -0.0022427504451241194 -0.023679895334582042 0 -0.0022655877650274402 -0.021894344936607826 0 0.0037018313686920674 -0.029060151668878115 0 -0.00041658527168817648 -0.026692718009583359 0 0.0038685920202662463 -0.032296713829187224 0 0.0015041632064571927 -0.031090117596065173 0 0.003935214639082499 -0.030465891020537549 0 0.0015041632064571927 -0.031090117596065173 0 0.003935214639082499 -0.030465891020537549 0 0.0027311133103180749 -0.029024604333358548 0 0.003935214639082499 -0.030465891020537549 0 0.0045434731059487438 -0.029294903953744799 0 0.0027311133103180749 -0.029024604333358548 0 0.00064141374116084436 -0.02912769285132798 0 0.0015041632064571927 -0.031090117596065173 0 0.0027311133103180749 -0.029024604333358548 0 0.0056091683264615231 -0.031259164860693363 0 0.0059703820533496613 -0.030558001293238709 0 0.0061497747862864554 -0.031135274719357415 0 0.0059703820533496613 -0.030558001293238709 0 0.005094585433354437 -0.031118147852017029 0 0.0051464200530960506 -0.030198328546657584 0 0.0056091683264615231 -0.031259164860693363 0 0.0059703820533496613 -0.030558001293238709 0 0.005094585433354437 -0.031118147852017029 0 0.003935214639082499 -0.030465891020537549 0 0.005094585433354437 -0.031118147852017029 0 0.0051464200530960506 -0.030198328546657584 0 0.0038685920202662463 -0.032296713829187224 0 0.003935214639082499 -0.030465891020537549 0 0.005094585433354437 -0.031118147852017029 0 0.003935214639082499 -0.030465891020537549 0 0.0051464200530960506 -0.030198328546657584 0 0.0045434731059487438 -0.029294903953744799 0 0.0051464200530960506 -0.030198328546657584 0 0.0045434731059487438 -0.029294903953744799 0 0.0054738959490011245 -0.029479885649957193 0 0.0059703820533496613 -0.030558001293238709 0 0.0051464200530960506 -0.030198328546657584 0 0.0054738959490011245 -0.029479885649957193 0 0.0059703820533496613 -0.030558001293238709 0 0.0054738959490011245 -0.029479885649957193 0 0.0062317594002171493 -0.029341520471822598 0 0.0054084069807072066 -0.032974666172885282 0 0.0080136234315068069 -0.03129211957594881 0 0.009883651148166861 -0.034020671541840068 0 0.0093385979253885407 -0.033460521964476075 0 0.0093555460826183837 -0.033949424999385053 0 0.0054738959490011245 -0.029479885649957193 0 0.0053090323144363658 -0.028478790541733093 0 0.0062317594002171493 -0.029341520471822598 0 0.0045434731059487438 -0.029294903953744799 0 0.0054738959490011245 -0.029479885649957193 0 0.0053090323144363658 -0.028478790541733093 0 0.0045434731059487438 -0.029294903953744799 0 0.0043622522151876035 -0.028016904954369478 0 0.0056615279168403271 -0.027545969225909406 0 0.0051599057744996391 -0.027588079266819106 0 0.0054084069807072066 -0.032974666172885282 0 0.0033118329009538465 -0.038827082751195209 0 -8.9133690288139259e-05 -0.044555155227389953 0 0.0043622522151876035 -0.028016904954369478 0 0.0053048705110052743 -0.027263493394928236 0 0.0032425726182957115 -0.027397511390996963 0 0.0010831177351148106 -0.045032960200283356 0 -9.3228618716349241e-05 -0.044160639121171331 0 -0.00039378454822976453 -0.045277638693036436 0 0.0033118329009538465 -0.038827082751195209 0 0.0014479632335449599 -0.036110837073438457 0 0.0043622522151876035 -0.028016904954369478 0 0.0053048705110052743 -0.027263493394928236 0 0.0056615279168403271 -0.027545969225909406 0 0.0010720813366051263 -0.044511282462936917 0 0.0012096019819938509 -0.043893414402542699 0 0.00071535779895191289 -0.043523314269307743 0 0.009883651148166861 -0.034020671541840068 0 0.0097977276431933432 -0.034157778124232423 0 0.0093555460826183837 -0.033949424999385053 0 0.0040426998442784036 -0.037903045617009273 0 0.0050196874482165681 -0.038703116192632871 0 0.0056770950238654826 -0.037702357855736626 0 0.0033118329009538465 -0.038827082751195209 0 0.0047191477915249523 -0.038702661084746535 0 0.0033118329009538465 -0.038827082751195209 0 0.0054084069807072066 -0.032974666172885282 0 0.0054084069807072066 -0.032974666172885282 0 0.0047191477915249523 -0.038702661084746535 0 0.0010720813366051263 -0.044511282462936917 0 0.0015097388702818668 -0.044472247175546237 0 0.0012096019819938509 -0.043893414402542699 0 0.0015097388702818668 -0.044472247175546237 0 0.0012096019819938509 -0.043893414402542699 0 0.0016545386491763588 -0.043440354006386808 0 0.0015097388702818668 -0.044472247175546237 0 0.0016545386491763588 -0.043440354006386808 0 0.0026181641396310828 -0.042894490090226195 0 0.0043693618978315665 -0.039802974308550676 0 0.0043567687660401554 -0.039852489834376857 0 0.0043454188850187096 -0.039901940413779625 0 0.0047191477915249523 -0.038702661084746535 0 0.0030009316254091725 -0.04216448588221211 0 0.0017824355450564756 -0.042850786496513756 0 0.0016545386491763588 -0.043440354006386808 0 0.0026181641396310828 -0.042894490090226195 0 0.0017824355450564756 -0.042850786496513756 0 0.0011720574339745065 -0.043083424707130863 0 0.0016545386491763588 -0.043440354006386808 0 0.0012096019819938509 -0.043893414402542699 0 0.0011720574339745065 -0.043083424707130863 0 0.0016545386491763588 -0.043440354006386808 0 0.0012096019819938509 -0.043893414402542699 0 0.0011720574339745065 -0.043083424707130863 0 0.00071535779895191289 -0.043523314269307743 0 0.0010720813366051263 -0.044511282462936917 0 0.00071535779895191289 -0.043523314269307743 0 -0.00010232163387833 -0.043588908679647771 0 0.00071535779895191289 -0.043523314269307743 0 0.00024250234515318331 -0.042580557087337198 0 -0.00010232163387833 -0.043588908679647771 0 0.0011720574339745065 -0.043083424707130863 0 0.00071535779895191289 -0.043523314269307743 0 0.00024250234515318331 -0.042580557087337198 0 0.00024250234515318331 -0.042580557087337198 0 0.0015649046087034416 -0.042056190651763886 0 0.00072146273276234296 -0.041436576401475293 0 0.0011720574339745065 -0.043083424707130863 0 0.00024250234515318331 -0.042580557087337198 0 0.0015649046087034416 -0.042056190651763886 0 0.0017824355450564756 -0.042850786496513756 0 0.0015649046087034416 -0.042056190651763886 0 0.0026181641396310828 -0.042894490090226195 0 0.0017824355450564756 -0.042850786496513756 0 0.0011720574339745065 -0.043083424707130863 0 0.0015649046087034416 -0.042056190651763886 0 -0.0013217231686076289 -0.04293734478881777 0 -0.0023290878632842523 -0.04231228536235801 0 0.00024250234515318331 -0.042580557087337198 0 -0.0012218295141874509 -0.042848637900547666 0 -0.00081806024699946711 -0.041486300601821735 0 -0.0013217231686076289 -0.04293734478881777 0 -8.9133690288139259e-05 -0.044555155227389953 0 0.00024250234515318331 -0.042580557087337198 0 -0.0012218295141874509 -0.042848637900547666 0 -0.00010232163387833 -0.043588908679647771 0 -0.0012673161101569457 -0.043245416184869649 0 -9.3228618716349241e-05 -0.044160639121171331 0 -0.001560409801836222 -0.04447272430812494 0 -0.0012673161101569457 -0.043245416184869649 0 -0.001560409801836222 -0.04447272430812494 0 -0.0029767198981278178 -0.043652763828057377 0 -0.001560409801836222 -0.04447272430812494 0 -0.0019073335813425524 -0.045532972612099071 0 -0.00039378454822976453 -0.045277638693036436 0 -0.00058686881163653515 -0.036495706598270859 0 0.0014479632335449599 -0.036110837073438457 0 -9.3228618716349241e-05 -0.044160639121171331 0 -0.001560409801836222 -0.04447272430812494 0 -0.00039378454822976453 -0.045277638693036436 0 0.0043622522151876035 -0.028016904954369478 0 0.0032425726182957115 -0.027397511390996963 0 0.0027311133103180749 -0.029024604333358548 0 0.0045434731059487438 -0.029294903953744799 0 0.0043622522151876035 -0.028016904954369478 0 0.0027311133103180749 -0.029024604333358548 0 0.00064141374116084436 -0.02912769285132798 0 0.0010368944616736704 -0.027439495840723391 0 0.0027311133103180749 -0.029024604333358548 0 0.0010368944616736704 -0.027439495840723391 0 0.0032425726182957115 -0.027397511390996963 0 0.0027311133103180749 -0.029024604333358548 0 -0.00058686881163653515 -0.036495706598270859 0 -0.0018630985404471587 -0.036935152830383899 0 0.00064141374116084436 -0.02912769285132798 0 -0.0012472672276100116 -0.02967453001635597 0 -0.0014800291542115315 -0.027550115199017969 0 0.00064141374116084436 -0.02912769285132798 0 0.0010368944616736704 -0.027439495840723391 0 -0.0014800291542115315 -0.027550115199017969 0 -0.0012472672276100116 -0.02967453001635597 0 -0.0014800291542115315 -0.027550115199017969 0 -0.0042825981591469633 -0.027857085551843457 0 -0.0034692981597098118 -0.045777023367557131 0 -0.002805633055680812 -0.044827380162483083 0 -0.004127907657304971 -0.04470548844352748 0 -0.0019073335813425524 -0.045532972612099071 0 -0.0034692981597098118 -0.045777023367557131 0 -0.002805633055680812 -0.044827380162483083 0 -0.001560409801836222 -0.04447272430812494 0 -0.0019073335813425524 -0.045532972612099071 0 -0.002805633055680812 -0.044827380162483083 0 -0.013267587272196351 -0.040035286150573432 0 -0.011934567932562801 -0.039931441475759472 0 -0.012156199096691018 -0.04099263354613502 0 -0.0099711045596927866 -0.019080691436791482 0 -0.0092656524113563302 -0.01784243438731449 0 -0.011619941362195076 -0.018304852389054209 0 -0.0079620718483895056 -0.033144859546154704 0 -0.013222739087647907 -0.025828181708777227 0 -0.0040263934557698633 -0.022758025132245736 0 -0.0079620718483895056 -0.033144859546154704 0 -0.0086570948907111808 -0.018945099141294757 0 -0.0065271705009279654 -0.019175611773348818 0 -0.0092656524113563302 -0.01784243438731449 0 -0.0018630985404471587 -0.036935152830383899 0 -0.0079620718483895056 -0.033144859546154704 0 -0.0099711045596927866 -0.019080691436791482 0 -0.0086570948907111808 -0.018945099141294757 0 -0.0092656524113563302 -0.01784243438731449 0 -0.0034692981597098118 -0.045777023367557131 0 -0.0050404578919699327 -0.045982289559134741 0 -0.004127907657304971 -0.04470548844352748 0 -0.0050404578919699327 -0.045982289559134741 0 -0.004127907657304971 -0.04470548844352748 0 -0.0053771739672922262 -0.044543013130068525 0 -0.0079620718483895056 -0.033144859546154704 0 -0.0092013074260876779 -0.044595267778356276 0 -0.0050404578919699327 -0.045982289559134741 0 -0.0053771739672922262 -0.044543013130068525 0 -0.0066315517377097373 -0.045056484423789574 0 -0.0053771739672922262 -0.044543013130068525 0 -0.0062411531208802834 -0.043610398465914933 0 -0.0066315517377097373 -0.045056484423789574 0 -0.0053771739672922262 -0.044543013130068525 0 -0.0048304998757206161 -0.043344702709670314 0 -0.0062411531208802834 -0.043610398465914933 0 -0.004127907657304971 -0.04470548844352748 0 -0.0053771739672922262 -0.044543013130068525 0 -0.0048304998757206161 -0.043344702709670314 0 -0.0048304998757206161 -0.043344702709670314 0 -0.0062411531208802834 -0.043610398465914933 0 -0.0059549306247935465 -0.042387982859812386 0 -0.001560409801836222 -0.04447272430812494 0 -0.002805633055680812 -0.044827380162483083 0 -0.0029767198981278178 -0.043652763828057377 0 -0.002805633055680812 -0.044827380162483083 0 -0.004127907657304971 -0.04470548844352748 0 -0.0029767198981278178 -0.043652763828057377 0 -0.004127907657304971 -0.04470548844352748 0 -0.0048304998757206161 -0.043344702709670314 0 -0.0029767198981278178 -0.043652763828057377 0 -0.0048304998757206161 -0.043344702709670314 0 -0.0029767198981278178 -0.043652763828057377 0 -0.003781398567189188 -0.042471778791990593 0 -0.0029767198981278178 -0.043652763828057377 0 -0.0024390287326691664 -0.042256756144966684 0 -0.003781398567189188 -0.042471778791990593 0 -0.0012673161101569457 -0.043245416184869649 0 -0.0029767198981278178 -0.043652763828057377 0 -0.0024390287326691664 -0.042256756144966684 0 -0.0024390287326691664 -0.042256756144966684 0 -0.003781398567189188 -0.042471778791990593 0 -0.0036892675854439489 -0.041321364795825911 0 -0.0024390287326691664 -0.042256756144966684 0 -0.0036892675854439489 -0.041321364795825911 0 -0.0022790136264651331 -0.040738689883102475 0 -0.0059549306247935465 -0.042387982859812386 0 -0.00477426243589595 -0.041912268592123915 0 -0.0056962008293872058 -0.04121346796093369 0 -0.0048304998757206161 -0.043344702709670314 0 -0.0059549306247935465 -0.042387982859812386 0 -0.00477426243589595 -0.041912268592123915 0 -0.0048304998757206161 -0.043344702709670314 0 -0.003781398567189188 -0.042471778791990593 0 -0.00477426243589595 -0.041912268592123915 0 -0.003781398567189188 -0.042471778791990593 0 -0.0036892675854439489 -0.041321364795825911 0 -0.00477426243589595 -0.041912268592123915 0 -0.0036892675854439489 -0.041321364795825911 0 -0.00477426243589595 -0.041912268592123915 0 -0.0047037426160852864 -0.040780592862806303 0 -0.00477426243589595 -0.041912268592123915 0 -0.0047037426160852864 -0.040780592862806303 0 -0.0056962008293872058 -0.04121346796093369 0 -0.0059549306247935465 -0.042387982859812386 0 -0.0056962008293872058 -0.04121346796093369 0 -0.0068545883287806225 -0.041620317817197973 0 -0.0056962008293872058 -0.04121346796093369 0 -0.0053326182535289573 -0.040042462467635251 0 -0.0065758866816789966 -0.040345849536173144 0 -0.0047037426160852864 -0.040780592862806303 0 -0.0056962008293872058 -0.04121346796093369 0 -0.0053326182535289573 -0.040042462467635251 0 -0.0053326182535289573 -0.040042462467635251 0 -0.0060122754699653983 -0.039270735092393053 0 -0.0065758866816789966 -0.040345849536173144 0 -0.0047037426160852864 -0.040780592862806303 0 -0.0053326182535289573 -0.040042462467635251 0 -0.0038908124050543651 -0.039899328598235459 0 -0.0036892675854439489 -0.041321364795825911 0 -0.0047037426160852864 -0.040780592862806303 0 -0.0038908124050543651 -0.039899328598235459 0 -0.0053326182535289573 -0.040042462467635251 0 -0.0050353323612561292 -0.039155409292059233 0 -0.0038908124050543651 -0.039899328598235459 0 -0.0050353323612561292 -0.039155409292059233 0 -0.0038908124050543651 -0.039899328598235459 0 -0.0041792300704889263 -0.038736572337047449 0 -0.0053326182535289573 -0.040042462467635251 0 -0.0050353323612561292 -0.039155409292059233 0 -0.0060122754699653983 -0.039270735092393053 0 -0.0050353323612561292 -0.039155409292059233 0 -0.0060122754699653983 -0.039270735092393053 0 -0.0058823943835002663 -0.038510430469820348 0 -0.0022790136264651331 -0.040738689883102475 0 -0.0038908124050543651 -0.039899328598235459 0 -0.0021041004298710609 -0.039512200776292569 0 -0.0036892675854439489 -0.041321364795825911 0 -0.0022790136264651331 -0.040738689883102475 0 -0.0038908124050543651 -0.039899328598235459 0 -0.0038908124050543651 -0.039899328598235459 0 -0.0031760197040768719 -0.039007137694639829 0 -0.0021041004298710609 -0.039512200776292569 0 -0.0038908124050543651 -0.039899328598235459 0 -0.0031760197040768719 -0.039007137694639829 0 -0.0041792300704889263 -0.038736572337047449 0 -0.0021041004298710609 -0.039512200776292569 0 -0.00043875278882173806 -0.039007007844888683 0 -0.0019538713076483298 -0.038273636166867436 0 -0.0021041004298710609 -0.039512200776292569 0 -0.00084410056758637479 -0.040073328334718702 0 -0.00043875278882173806 -0.039007007844888683 0 -0.0022790136264651331 -0.040738689883102475 0 -0.0021041004298710609 -0.039512200776292569 0 -0.00084410056758637479 -0.040073328334718702 0 -0.00084410056758637479 -0.040073328334718702 0 0.00064416607311715279 -0.039403458336491025 0 0.0003649509078797801 -0.04049937930616887 0 -0.00084410056758637479 -0.040073328334718702 0 -0.00043875278882173806 -0.039007007844888683 0 0.00064416607311715279 -0.039403458336491025 0 -0.00043875278882173806 -0.039007007844888683 0 0.00064416607311715279 -0.039403458336491025 0 0.0010343175843294428 -0.038554285246507829 0 0.00064416607311715279 -0.039403458336491025 0 0.0018919493854571766 -0.038924028799800149 0 0.0010343175843294428 -0.038554285246507829 0 0.00064416607311715279 -0.039403458336491025 0 0.0018919493854571766 -0.038924028799800149 0 0.0019540958140448535 -0.039666093881459578 0 0.00064416607311715279 -0.039403458336491025 0 0.0019540958140448535 -0.039666093881459578 0 0.0003649509078797801 -0.04049937930616887 0 0.0003649509078797801 -0.04049937930616887 0 0.0018679621168698403 -0.040627790459574042 0 0.00072146273276234296 -0.041436576401475293 0 0.0019540958140448535 -0.039666093881459578 0 0.0003649509078797801 -0.04049937930616887 0 0.0018679621168698403 -0.040627790459574042 0 0.0015649046087034416 -0.042056190651763886 0 0.0018679621168698403 -0.040627790459574042 0 0.00072146273276234296 -0.041436576401475293 0 0.00024250234515318331 -0.042580557087337198 0 0.00072146273276234296 -0.041436576401475293 0 -0.00081806024699946711 -0.041486300601821735 0 0.0003649509078797801 -0.04049937930616887 0 0.00072146273276234296 -0.041436576401475293 0 -0.00081806024699946711 -0.041486300601821735 0 -0.0024390287326691664 -0.042256756144966684 0 -0.0022790136264651331 -0.040738689883102475 0 -0.00081806024699946711 -0.041486300601821735 0 -0.0012218295141874509 -0.042848637900547666 0 -0.0024390287326691664 -0.042256756144966684 0 -0.00081806024699946711 -0.041486300601821735 0 -0.0022790136264651331 -0.040738689883102475 0 -0.00084410056758637479 -0.040073328334718702 0 -0.00081806024699946711 -0.041486300601821735 0 -0.00084410056758637479 -0.040073328334718702 0 0.0003649509078797801 -0.04049937930616887 0 -0.00081806024699946711 -0.041486300601821735 0 -0.017773177778386492 -0.036517822491450566 0 -0.017841766244182402 -0.036660191414611396 0 -0.017799067474955702 -0.036690132001722428 0 -0.017773177778386492 -0.036517822491450566 0 -0.017861183439989606 -0.036588024826172245 0 -0.017841766244182402 -0.036660191414611396 0 -0.017861183439989606 -0.036588024826172245 0 -0.017841766244182402 -0.036660191414611396 0 -0.017885861687575378 -0.036694003940749551 0 -0.017653843473066221 -0.036406015782838898 0 -0.018071506317870904 -0.035512015719502306 0 -0.017861183439989606 -0.036588024826172245 0 -0.017885861687575378 -0.036694003940749551 0 -0.017955463852987592 -0.036649417786954699 0 -0.01864474496782359 -0.033946262893172006 0 -0.018071506317870904 -0.035512015719502306 0 -0.019607342968160399 -0.031393966658976043 0 -0.019400570294835738 -0.031304020284466196 0 -0.019446094535422773 -0.031433553800448717 0 -0.017885861687575378 -0.036694003940749551 0 -0.017886113845601122 -0.036715280818701644 0 -0.017886513525685124 -0.036734935157735994 0 -0.019400570294835738 -0.031304020284466196 0 -0.019446094535422773 -0.031433553800448717 0 -0.019310955376851638 -0.03148224799695333 0 -0.019607342968160399 -0.031393966658976043 0 -0.019446094535422773 -0.031433553800448717 0 -0.019502260199993494 -0.031540571964378802 0 -0.019446094535422773 -0.031433553800448717 0 -0.019392752388488432 -0.031555316590089769 0 -0.019310955376851638 -0.03148224799695333 0 -0.019446094535422773 -0.031433553800448717 0 -0.019392752388488432 -0.031555316590089769 0 -0.019502260199993494 -0.031540571964378802 0 -0.019850475590899253 -0.031502270676920678 0 -0.019607342968160399 -0.031393966658976043 0 -0.019728865486299253 -0.03155389081789995 0 -0.019413137041268777 -0.033870578188756419 0 -0.01864474496782359 -0.033946262893172006 0 -0.019607342968160399 -0.031393966658976043 0 -0.019502260199993494 -0.031540571964378802 0 -0.019610686158998653 -0.031582261686744537 0 -0.019607342968160399 -0.031393966658976043 0 -0.019610686158998653 -0.031582261686744537 0 -0.019728865486299253 -0.03155389081789995 0 -0.019610686158998653 -0.031582261686744537 0 -0.019728865486299253 -0.03155389081789995 0 -0.019713455710713298 -0.031614007423987303 0 -0.019814581998413492 -0.031617649207719221 0 -0.019728865486299253 -0.03155389081789995 0 -0.019713455710713298 -0.031614007423987303 0 -0.019814581998413492 -0.031617649207719221 0 -0.019713455710713298 -0.031614007423987303 0 -0.019706756313360992 -0.031684846966700361 0 -0.019610686158998653 -0.031582261686744537 0 -0.019706756313360992 -0.031684846966700361 0 -0.019418708677913343 -0.031691550490694088 0 -0.020113533462054765 -0.031566008434780558 0 -0.020077316919296331 -0.031663456430644311 0 -0.019615868492361441 -0.031646562392279455 0 -0.019610686158998653 -0.031582261686744537 0 -0.019713455710713298 -0.031614007423987303 0 -0.019706756313360992 -0.031684846966700361 0 -0.021163789614372718 -0.03181091183784783 0 -0.02111257292580454 -0.031975842423424591 0 -0.020804855889641947 -0.031972613638432186 0 -0.021407166839784473 -0.032035481372138103 0 -0.021163789614372718 -0.03181091183784783 0 -0.02128525467083324 -0.032015231657356438 0 -0.021163789614372718 -0.03181091183784783 0 -0.02128525467083324 -0.032015231657356438 0 -0.02111257292580454 -0.031975842423424591 0 -0.021064033185463859 -0.032462090030762017 0 -0.021159458632442577 -0.032107584759956155 0 -0.020804855889641947 -0.031972613638432186 0 -0.021485496371723995 -0.032167152181988838 0 -0.021064033185463859 -0.032462090030762017 0 -0.021159458632442577 -0.032107584759956155 0 -0.02128525467083324 -0.032015231657356438 0 -0.021159458632442577 -0.032107584759956155 0 -0.02111257292580454 -0.031975842423424591 0 -0.021159458632442577 -0.032107584759956155 0 -0.02111257292580454 -0.031975842423424591 0 -0.020804855889641947 -0.031972613638432186 0 -0.019789563550866172 -0.032389315171261285 0 -0.021064033185463859 -0.032462090030762017 0 -0.020804855889641947 -0.031972613638432186 0 -0.019789563550866172 -0.032389315171261285 0 -0.020227342149215542 -0.031768346068043789 0 -0.020804855889641947 -0.031972613638432186 0 -0.020077316919296331 -0.031663456430644311 0 -0.01954861528041155 -0.031825773812210224 0 -0.019615868492361441 -0.031646562392279455 0 -0.020656040651097485 -0.031729776143624364 0 -0.01985783246236263 -0.03182019483930322 0 -0.019830581833596889 -0.031609586864755193 0 -0.019532503965278999 -0.031672591396225566 0 -0.021163789614372718 -0.03181091183784783 0 -0.020227342149215542 -0.031768346068043789 0 -0.020804855889641947 -0.031972613638432186 0 -0.019502260199993494 -0.031540571964378802 0 -0.019610686158998653 -0.031582261686744537 0 -0.019418708677913343 -0.031691550490694088 0 -0.019392752388488432 -0.031555316590089769 0 -0.019502260199993494 -0.031540571964378802 0 -0.019418708677913343 -0.031691550490694088 0 -0.019532503965278999 -0.031672591396225566 0 -0.019202856735949136 -0.031730301914303261 0 -0.019392752388488432 -0.031555316590089769 0 -0.019418708677913343 -0.031691550490694088 0 -0.019254581667315633 -0.031595629340251834 0 -0.019418708677913343 -0.031691550490694088 0 -0.019254581667315633 -0.031595629340251834 0 -0.019182945456771398 -0.031736044431382428 0 -0.01954861528041155 -0.031825773812210224 0 -0.019615868492361441 -0.031646562392279455 0 -0.019182945456771398 -0.031736044431382428 0 -0.01954861528041155 -0.031825773812210224 0 -0.019173363427092957 -0.031986112724853397 0 -0.019182945456771398 -0.031736044431382428 0 -0.01985783246236263 -0.03182019483930322 0 -0.019221025410993124 -0.031980355559050919 0 -0.019789563550866172 -0.032389315171261285 0 -0.020227342149215542 -0.031768346068043789 0 -0.019173363427092957 -0.031986112724853397 0 -0.019789563550866172 -0.032389315171261285 0 -0.019173363427092957 -0.031986112724853397 0 -0.018626823515117873 -0.032098233621687733 0 -0.019173363427092957 -0.031986112724853397 0 -0.019182945456771398 -0.031736044431382428 0 -0.018821176445466121 -0.031776509669650815 0 -0.019173363427092957 -0.031986112724853397 0 -0.018821176445466121 -0.031776509669650815 0 -0.018626823515117873 -0.032098233621687733 0 -0.019254581667315633 -0.031595629340251834 0 -0.019182945456771398 -0.031736044431382428 0 -0.018977534471771546 -0.031605952031103897 0 -0.019182945456771398 -0.031736044431382428 0 -0.018977534471771546 -0.031605952031103897 0 -0.018821176445466121 -0.031776509669650815 0 -0.018977534471771546 -0.031605952031103897 0 -0.019051112135501133 -0.031399834067906258 0 -0.018482073395707559 -0.031547332692843974 0 -0.019254581667315633 -0.031595629340251834 0 -0.018977534471771546 -0.031605952031103897 0 -0.019051112135501133 -0.031399834067906258 0 -0.019254581667315633 -0.031595629340251834 0 -0.019051112135501133 -0.031399834067906258 0 -0.019310955376851638 -0.03148224799695333 0 -0.019400570294835738 -0.031304020284466196 0 -0.019051112135501133 -0.031399834067906258 0 -0.019310955376851638 -0.03148224799695333 0 -0.019392752388488432 -0.031555316590089769 0 -0.019254581667315633 -0.031595629340251834 0 -0.019310955376851638 -0.03148224799695333 0 -0.016491041117001764 -0.036810861698746325 0 -0.015466218383659188 -0.037348597062086056 0 -0.015720038025971977 -0.036468673136693747 0 -0.018071506317870904 -0.035512015719502306 0 -0.014661098065987853 -0.039968088728814063 0 -0.017886113845601122 -0.036715280818701644 0 -0.017885327477062445 -0.036752225756634539 0 -0.017886513525685124 -0.036734935157735994 0 -0.018071506317870904 -0.035512015719502306 0 -0.017875656776724955 -0.033888921405816633 0 -0.011605718770686045 -0.040469252923464302 0 -0.014661098065987853 -0.039968088728814063 0 -0.015466218383659188 -0.037348597062086056 0 -0.01508796424422508 -0.037176413135263181 0 -0.015720038025971977 -0.036468673136693747 0 -0.009427112313978853 -0.042376024610411817 0 -0.0095681168254303159 -0.042731065547891967 0 -0.0094653420159720551 -0.042775244866304026 0 -0.009427112313978853 -0.042376024610411817 0 -0.0097091661943796669 -0.042891641201285913 0 -0.0099772386822866797 -0.042123817606548791 0 -0.009427112313978853 -0.042376024610411817 0 -0.0095681168254303159 -0.042731065547891967 0 -0.0097091661943796669 -0.042891641201285913 0 -0.0096384946115849347 -0.043014292971881897 0 -0.0097214503951390408 -0.042762334298402996 0 -0.0097091661943796669 -0.042891641201285913 0 -0.008270265545872197 -0.044104538410207381 0 -0.0086460674186586341 -0.042837487067813262 0 -0.0097091661943796669 -0.042891641201285913 0 -0.0099772386822866797 -0.042123817606548791 0 -0.010974946754877294 -0.041999122437708265 0 -0.0099772386822866797 -0.042123817606548791 0 -0.0099773780000358379 -0.041261284688999256 0 -0.010974946754877294 -0.041999122437708265 0 -0.017875656776724955 -0.033888921405816633 0 -0.013635557129001224 -0.035800861496986407 0 -0.009427112313978853 -0.042376024610411817 0 -0.0099772386822866797 -0.042123817606548791 0 -0.0099773780000358379 -0.041261284688999256 0 -0.011605718770686045 -0.040469252923464302 0 -0.013635557129001224 -0.035800861496986407 0 -0.015466218383659188 -0.037348597062086056 0 -0.01508796424422508 -0.037176413135263181 0 -0.014457641250314899 -0.037823802904190774 0 -0.018977534471771546 -0.031605952031103897 0 -0.018482073395707559 -0.031547332692843974 0 -0.018821176445466121 -0.031776509669650815 0 -0.018482073395707559 -0.031547332692843974 0 -0.018821176445466121 -0.031776509669650815 0 -0.018459681625899085 -0.031838217411220095 0 -0.018821176445466121 -0.031776509669650815 0 -0.018459681625899085 -0.031838217411220095 0 -0.018626823515117873 -0.032098233621687733 0 -0.018459681625899085 -0.031838217411220095 0 -0.018626823515117873 -0.032098233621687733 0 -0.018041327213577943 -0.031885671897771369 0 -0.017832618582887476 -0.020670787116727624 0 -0.016343623489279095 -0.021637991486070172 0 -0.018459681625899085 -0.031838217411220095 0 -0.018249371490646069 -0.0317424144440904 0 -0.018041327213577943 -0.031885671897771369 0 -0.014800008879079063 -0.031626479570418004 0 -0.016343623489279095 -0.021637991486070172 0 -0.012275039998181874 -0.03091728996094165 0 -0.013588859577884771 -0.031062106507957526 0 -0.013709617187927077 -0.029183635381239758 0 -0.013635557129001224 -0.035800861496986407 0 -0.011362725190133153 -0.036945219216956676 0 -0.010854207428354669 -0.032686306437265202 0 -0.012275039998181874 -0.03091728996094165 0 -0.013588859577884771 -0.031062106507957526 0 -0.0099773780000358379 -0.041261284688999256 0 -0.010965031709150789 -0.040576124462449396 0 -0.010974946754877294 -0.041999122437708265 0 -0.013635557129001224 -0.035800861496986407 0 -0.014800008879079063 -0.031626479570418004 0 -0.018482073395707559 -0.031547332692843974 0 -0.018459681625899085 -0.031838217411220095 0 -0.018249371490646069 -0.0317424144440904 0 -0.010965031709150789 -0.040576124462449396 0 -0.012156199096691018 -0.04099263354613502 0 -0.010974946754877294 -0.041999122437708265 0 -0.016343623489279095 -0.021637991486070172 0 -0.013222739087647907 -0.025828181708777227 0 -0.011362725190133153 -0.036945219216956676 0 -0.013222739087647907 -0.025828181708777227 0 -0.013588859577884771 -0.031062106507957526 0 -0.013709617187927077 -0.029183635381239758 0 -0.016299628503904009 -0.029477401342730677 0 -0.010710540353020799 -0.017911880201989739 0 -0.013222739087647907 -0.025828181708777227 0 -0.010965031709150789 -0.040576124462449396 0 -0.011934567932562801 -0.039931441475759472 0 -0.012156199096691018 -0.04099263354613502 0 -0.0062411531208802834 -0.043610398465914933 0 -0.0066315517377097373 -0.045056484423789574 0 -0.0073771771204881797 -0.043575050720366042 0 -0.0066315517377097373 -0.045056484423789574 0 -0.008270265545872197 -0.044104538410207381 0 -0.0073771771204881797 -0.043575050720366042 0 -0.0092013074260876779 -0.044595267778356276 0 -0.0097214503951390408 -0.042762334298402996 0 -0.008270265545872197 -0.044104538410207381 0 -0.0073771771204881797 -0.043575050720366042 0 -0.0086460674186586341 -0.042837487067813262 0 -0.0073771771204881797 -0.043575050720366042 0 -0.0071857843442973699 -0.042656043862918533 0 -0.0086460674186586341 -0.042837487067813262 0 -0.0062411531208802834 -0.043610398465914933 0 -0.0059549306247935465 -0.042387982859812386 0 -0.0071857843442973699 -0.042656043862918533 0 -0.0062411531208802834 -0.043610398465914933 0 -0.0073771771204881797 -0.043575050720366042 0 -0.0071857843442973699 -0.042656043862918533 0 -0.0059549306247935465 -0.042387982859812386 0 -0.0071857843442973699 -0.042656043862918533 0 -0.0068545883287806225 -0.041620317817197973 0 -0.0071857843442973699 -0.042656043862918533 0 -0.0082360624953977616 -0.041991268850860929 0 -0.0086460674186586341 -0.042837487067813262 0 -0.0071857843442973699 -0.042656043862918533 0 -0.0082360624953977616 -0.041991268850860929 0 -0.0068545883287806225 -0.041620317817197973 0 -0.0082360624953977616 -0.041991268850860929 0 -0.0076045128999921866 -0.040959659458337454 0 -0.0089078286281206783 -0.040712669334601666 0 -0.0082360624953977616 -0.041991268850860929 0 -0.0076045128999921866 -0.040959659458337454 0 -0.0068545883287806225 -0.041620317817197973 0 -0.0076045128999921866 -0.040959659458337454 0 -0.0068545883287806225 -0.041620317817197973 0 -0.0065758866816789966 -0.040345849536173144 0 -0.0056962008293872058 -0.04121346796093369 0 -0.0068545883287806225 -0.041620317817197973 0 -0.0065758866816789966 -0.040345849536173144 0 -0.0065758866816789966 -0.040345849536173144 0 -0.0069247676266811766 -0.039460255300072383 0 -0.0077306925700599593 -0.039909649183420083 0 -0.0060122754699653983 -0.039270735092393053 0 -0.0065758866816789966 -0.040345849536173144 0 -0.0069247676266811766 -0.039460255300072383 0 -0.0069247676266811766 -0.039460255300072383 0 -0.0076985806365328091 -0.038993236711248672 0 -0.0067837339908064283 -0.038779546956018041 0 -0.0060122754699653983 -0.039270735092393053 0 -0.0069247676266811766 -0.039460255300072383 0 -0.0067837339908064283 -0.038779546956018041 0 -0.0069247676266811766 -0.039460255300072383 0 -0.0076985806365328091 -0.038993236711248672 0 -0.0077306925700599593 -0.039909649183420083 0 -0.0076985806365328091 -0.038993236711248672 0 -0.0077306925700599593 -0.039909649183420083 0 -0.0085696443429354903 -0.039143026433265449 0 -0.0076045128999921866 -0.040959659458337454 0 -0.0077306925700599593 -0.039909649183420083 0 -0.0089078286281206783 -0.040712669334601666 0 -0.0076045128999921866 -0.040959659458337454 0 -0.0065758866816789966 -0.040345849536173144 0 -0.0077306925700599593 -0.039909649183420083 0 -0.0077306925700599593 -0.039909649183420083 0 -0.0089078286281206783 -0.040712669334601666 0 -0.0085696443429354903 -0.039143026433265449 0 -0.0089078286281206783 -0.040712669334601666 0 -0.0097450882648085664 -0.039681719450735037 0 -0.0085696443429354903 -0.039143026433265449 0 -0.0089078286281206783 -0.040712669334601666 0 -0.0097450882648085664 -0.039681719450735037 0 -0.01022752388912403 -0.040811034108381515 0 -0.0076985806365328091 -0.038993236711248672 0 -0.0085696443429354903 -0.039143026433265449 0 -0.0083577819908158581 -0.038474160212146322 0 -0.0097450882648085664 -0.039681719450735037 0 -0.0085696443429354903 -0.039143026433265449 0 -0.0098740949522816372 -0.038000481138119047 0 -0.0086963751918933477 -0.039007353877205143 0 -0.009310517629374097 -0.038485205028425555 0 -0.012010536794377928 -0.039227767327809311 0 -0.010829366332939223 -0.037628033651431567 0 -0.0097450882648085664 -0.039681719450735037 0 -0.011104040626691472 -0.039465050298986629 0 -0.0098740949522816372 -0.038000481138119047 0 -0.011104040626691472 -0.039465050298986629 0 -0.010983983974975452 -0.03709575262534854 0 -0.0098740949522816372 -0.038000481138119047 0 -0.011104040626691472 -0.039465050298986629 0 -0.01022752388912403 -0.040811034108381515 0 -0.01188807117281873 -0.042088996483437176 0 -0.012010536794377928 -0.039227767327809311 0 -0.011865899816514694 -0.042092241281822637 0 -0.0097450882648085664 -0.039681719450735037 0 -0.011104040626691472 -0.039465050298986629 0 -0.01022752388912403 -0.040811034108381515 0 -0.01022752388912403 -0.040811034108381515 0 -0.01188807117281873 -0.042088996483437176 0 -0.0095653856218722057 -0.042359415860402191 0 -0.01188807117281873 -0.042088996483437176 0 -0.0095653856218722057 -0.042359415860402191 0 -0.012257404871533791 -0.044030535997862302 0 -0.0089078286281206783 -0.040712669334601666 0 -0.01022752388912403 -0.040811034108381515 0 -0.0095653856218722057 -0.042359415860402191 0 -0.0082360624953977616 -0.041991268850860929 0 -0.0089078286281206783 -0.040712669334601666 0 -0.0095653856218722057 -0.042359415860402191 0 -0.0082360624953977616 -0.041991268850860929 0 -0.0095653856218722057 -0.042359415860402191 0 -0.0086460674186586341 -0.042837487067813262 0 -0.0095653856218722057 -0.042359415860402191 0 -0.0086460674186586341 -0.042837487067813262 0 -0.0095611756846303991 -0.042647841514648052 0 -0.0097091661943796669 -0.042891641201285913 0 -0.0086460674186586341 -0.042837487067813262 0 -0.0095611756846303991 -0.042647841514648052 0 -0.009734472692180805 -0.042540315057903566 0 -0.010771506545845367 -0.043357439512569436 0 -0.0095653856218722057 -0.042359415860402191 0 -0.0095611756846303991 -0.042647841514648052 0 -0.00965275854110423 -0.042709053092257573 0 -0.0095681168254303159 -0.042731065547891967 0 -0.0097091661943796669 -0.042891641201285913 0 -0.00965275854110423 -0.042709053092257573 0 -0.0097091661943796669 -0.042891641201285913 0 -0.0095611756846303991 -0.042647841514648052 0 -0.00965275854110423 -0.042709053092257573 0 -0.0095681168254303159 -0.042731065547891967 0 -0.00965275854110423 -0.042709053092257573 0 -0.0094653420159720551 -0.042775244866304026 0 -0.012257404871533791 -0.044030535997862302 0 -0.014737590272445519 -0.045129790541429814 0 -0.01428108951368192 -0.042750306527026084 0 -0.010771506545845367 -0.043357439512569436 0 -0.014661098065987853 -0.039968088728814063 0 -0.014737590272445519 -0.045129790541429814 0 -0.01428108951368192 -0.042750306527026084 0 -0.01736812665067846 -0.042091796148892559 0 -0.014661098065987853 -0.039968088728814063 0 -0.017794961730336518 -0.039768522567152638 0 -0.017885327477062445 -0.036752225756634539 0 -0.017889995354042572 -0.03678948212165345 0 -0.017886513525685124 -0.036734935157735994 0 -0.01428108951368192 -0.042750306527026084 0 -0.01482237107802426 -0.040501590877507383 0 -0.01736812665067846 -0.042091796148892559 0 -0.01188807117281873 -0.042088996483437176 0 -0.01428108951368192 -0.042750306527026084 0 -0.01482237107802426 -0.040501590877507383 0 -0.01188807117281873 -0.042088996483437176 0 -0.012257404871533791 -0.044030535997862302 0 -0.01428108951368192 -0.042750306527026084 0 -0.012653834166289298 -0.039206986563659445 0 -0.01188807117281873 -0.042088996483437176 0 -0.01482237107802426 -0.040501590877507383 0 -0.012653834166289298 -0.039206986563659445 0 -0.014676039596137915 -0.0388497531276049 0 -0.01482237107802426 -0.040501590877507383 0 -0.012653834166289298 -0.039206986563659445 0 -0.014676039596137915 -0.0388497531276049 0 -0.014885750554023339 -0.037240863281197682 0 -0.014676039596137915 -0.0388497531276049 0 -0.016358429090569466 -0.038457308563819952 0 -0.01482237107802426 -0.040501590877507383 0 -0.014676039596137915 -0.0388497531276049 0 -0.016358429090569466 -0.038457308563819952 0 -0.014885750554023339 -0.037240863281197682 0 -0.016358429090569466 -0.038457308563819952 0 -0.01482237107802426 -0.040501590877507383 0 -0.017306807008042994 -0.039794720426105649 0 -0.01482237107802426 -0.040501590877507383 0 -0.017306807008042994 -0.039794720426105649 0 -0.01736812665067846 -0.042091796148892559 0 -0.017306807008042994 -0.039794720426105649 0 -0.019676565609250966 -0.039447942893074642 0 -0.01736812665067846 -0.042091796148892559 0 -0.01898468317673328 -0.037080968192649714 0 -0.017794961730336518 -0.039768522567152638 0 -0.017306807008042994 -0.039794720426105649 0 -0.018157218758478842 -0.038554424979926262 0 -0.019676565609250966 -0.039447942893074642 0 -0.016358429090569466 -0.038457308563819952 0 -0.017306807008042994 -0.039794720426105649 0 -0.018157218758478842 -0.038554424979926262 0 -0.018157218758478842 -0.038554424979926262 0 -0.019373892862817765 -0.03726617992286517 0 -0.018034138515613161 -0.037292685555905661 0 -0.016358429090569466 -0.038457308563819952 0 -0.018157218758478842 -0.038554424979926262 0 -0.018034138515613161 -0.037292685555905661 0 -0.018157218758478842 -0.038554424979926262 0 -0.019676565609250966 -0.039447942893074642 0 -0.019373892862817765 -0.03726617992286517 0 -0.01898468317673328 -0.037080968192649714 0 -0.019961046017729238 -0.03603213144419621 0 -0.020785423337655116 -0.034708210458742575 0 -0.020925341037708298 -0.034642273783335141 0 -0.020575909211539619 -0.034851615150991291 0 -0.020925341037708298 -0.034642273783335141 0 -0.020462900937219506 -0.034923619984320205 0 -0.020575909211539619 -0.034851615150991291 0 -0.020926813249486181 -0.034560918701323377 0 -0.020785423337655116 -0.034708210458742575 0 -0.020925341037708298 -0.034642273783335141 0 -0.01898468317673328 -0.037080968192649714 0 -0.019498019651058015 -0.035213559688718116 0 -0.020926813249486181 -0.034560918701323377 0 -0.020925341037708298 -0.034642273783335141 0 -0.021176473495452399 -0.034324013064289831 0 -0.017857038393373579 -0.036852293344924687 0 -0.017835976557138849 -0.036782195561479401 0 -0.017889995354042572 -0.03678948212165345 0 -0.017835976557138849 -0.036782195561479401 0 -0.017889995354042572 -0.03678948212165345 0 -0.017856184898177422 -0.036738493873396248 0 -0.017889995354042572 -0.03678948212165345 0 -0.017886513525685124 -0.036734935157735994 0 -0.017856184898177422 -0.036738493873396248 0 -0.017885861687575378 -0.036694003940749551 0 -0.017886513525685124 -0.036734935157735994 0 -0.017856184898177422 -0.036738493873396248 0 -0.017841766244182402 -0.036660191414611396 0 -0.017885861687575378 -0.036694003940749551 0 -0.017856184898177422 -0.036738493873396248 0 -0.019498019651058015 -0.035213559688718116 0 -0.019581739714678505 -0.035709768311393157 0 -0.017835976557138849 -0.036782195561479401 0 -0.017799067474955702 -0.036690132001722428 0 -0.017856184898177422 -0.036738493873396248 0 -0.017841766244182402 -0.036660191414611396 0 -0.017799067474955702 -0.036690132001722428 0 -0.017856184898177422 -0.036738493873396248 0 -0.01893979417827614 -0.036429677775542603 0 -0.016762759632879893 -0.035980133904574572 0 -0.020384403511698276 -0.032719358126622126 0 -0.01890760493230197 -0.032786117145678056 0 -0.01949403616832638 -0.033833249449067127 0 -0.017124675402408498 -0.039453995594304035 0 -0.0162770305341376 -0.039531316778673102 0 -0.016605133068692803 -0.038734858631696567 0 -0.015839259745639968 -0.039568448840746069 0 -0.0162770305341376 -0.039531316778673102 0 -0.0160757260899058 -0.038807872375184682 0 -0.0162770305341376 -0.039531316778673102 0 -0.0160757260899058 -0.038807872375184682 0 -0.016605133068692803 -0.038734858631696567 0 -0.011136815502454671 -0.037456639760837067 0 -0.010961468538850607 -0.03730658060928977 0 -0.011008276738253 -0.03706224698059446 0 -0.013273403481994685 -0.036108352450031959 0 -0.012904049864126509 -0.036411826734660341 0 -0.012511284390014768 -0.036471476816196245 0 -0.013273403481994685 -0.036108352450031959 0 -0.013345656884781419 -0.036302683606598135 0 -0.012904049864126509 -0.036411826734660341 0 -0.013496964303219779 -0.037659400044006967 0 -0.013439283772150262 -0.037444511008551389 0 -0.013496964303219779 -0.037659400044006967 0 -0.016762759632879893 -0.035980133904574572 0 -0.013284721753692783 -0.036114482042184301 0 -0.013345656884781419 -0.036302683606598135 0 -0.013990233016452639 -0.036062667275341471 0 -0.013345656884781419 -0.036302683606598135 0 -0.013990233016452639 -0.036062667275341471 0 -0.012411250805383193 -0.037283390332197137 0 -0.01890760493230197 -0.032786117145678056 0 -0.018709018608785349 -0.033920565207019616 0 -0.017099639564237247 -0.033799224104385295 0 -0.016762759632879893 -0.035980133904574572 0 -0.014783375841595245 -0.035396831729566383 0 -0.01890760493230197 -0.032786117145678056 0 -0.018709018608785349 -0.033920565207019616 0 -0.01949403616832638 -0.033833249449067127 0 -0.013345656884781419 -0.036302683606598135 0 -0.012904049864126509 -0.036411826734660341 0 -0.012411250805383193 -0.037283390332197137 0 -0.018709018608785349 -0.033920565207019616 0 -0.018564425123780193 -0.034620511026901606 0 -0.017099639564237247 -0.033799224104385295 0 -0.018709018608785349 -0.033920565207019616 0 -0.019569051942826418 -0.034733426609047165 0 -0.018564425123780193 -0.034620511026901606 0 -0.019569051942826418 -0.034733426609047165 0 -0.01949403616832638 -0.033833249449067127 0 -0.019831989764188023 -0.035158316249084859 0 -0.01893979417827614 -0.036429677775542603 0 -0.020217351015945958 -0.034331001030288577 0 -0.018709018608785349 -0.033920565207019616 0 -0.019569051942826418 -0.034733426609047165 0 -0.01949403616832638 -0.033833249449067127 0 -0.020384403511698276 -0.032719358126622126 0 -0.01949403616832638 -0.033833249449067127 0 -0.019831989764188023 -0.035158316249084859 0 -0.019979269731510912 -0.035802383271334379 0 -0.020293188894954052 -0.036269629605720687 0 -0.019831989764188023 -0.035158316249084859 0 -0.020608299570292445 -0.034814602280179116 0 -0.019569051942826418 -0.034733426609047165 0 -0.020181351578688864 -0.034949287514462274 0 -0.020424911734115713 -0.035431186948964744 0 -0.019658555318626893 -0.034828731405619241 0 -0.019569051942826418 -0.034733426609047165 0 -0.019439067747486775 -0.035034098300388755 0 -0.020181351578688864 -0.034949287514462274 0 -0.020151520783941192 -0.036076211754020426 0 -0.019569051942826418 -0.034733426609047165 0 -0.019831989764188023 -0.035158316249084859 0 -0.019569051942826418 -0.034733426609047165 0 -0.019439067747486775 -0.035034098300388755 0 -0.018564425123780193 -0.034620511026901606 0 -0.019439067747486775 -0.035034098300388755 0 -0.020181351578688864 -0.034949287514462274 0 -0.020462900937219506 -0.034923619984320205 0 -0.019439067747486775 -0.035034098300388755 0 -0.019373892862817765 -0.03726617992286517 0 -0.018275349681499308 -0.036273804341998485 0 -0.01951179713188227 -0.035013520307248421 0 -0.019961046017729238 -0.03603213144419621 0 -0.020181351578688864 -0.034949287514462274 0 -0.020462900937219506 -0.034923619984320205 0 -0.020575909211539619 -0.034851615150991291 0 -0.016358429090569466 -0.038457308563819952 0 -0.018034138515613161 -0.037292685555905661 0 -0.016913042659026028 -0.036604826829031718 0 -0.019373892862817765 -0.03726617992286517 0 -0.018034138515613161 -0.037292685555905661 0 -0.018275349681499308 -0.036273804341998485 0 -0.018034138515613161 -0.037292685555905661 0 -0.018275349681499308 -0.036273804341998485 0 -0.016913042659026028 -0.036604826829031718 0 -0.018275349681499308 -0.036273804341998485 0 -0.017617591207627858 -0.035103014967673263 0 -0.016913042659026028 -0.036604826829031718 0 -0.019439067747486775 -0.035034098300388755 0 -0.018275349681499308 -0.036273804341998485 0 -0.017617591207627858 -0.035103014967673263 0 -0.019439067747486775 -0.035034098300388755 0 -0.018564425123780193 -0.034620511026901606 0 -0.017617591207627858 -0.035103014967673263 0 -0.018564425123780193 -0.034620511026901606 0 -0.017617591207627858 -0.035103014967673263 0 -0.017099639564237247 -0.033799224104385295 0 -0.016297775093016387 -0.035524591795725487 0 -0.014948864935675146 -0.035011835002425232 0 -0.017099639564237247 -0.033799224104385295 0 -0.01298341528877734 -0.036732558555478724 0 -0.014783375841595245 -0.035396831729566383 0 -0.017617591207627858 -0.035103014967673263 0 -0.016297775093016387 -0.035524591795725487 0 -0.017099639564237247 -0.033799224104385295 0 -0.016297775093016387 -0.035524591795725487 0 -0.014885750554023339 -0.037240863281197682 0 -0.014948864935675146 -0.035011835002425232 0 -0.017617591207627858 -0.035103014967673263 0 -0.016297775093016387 -0.035524591795725487 0 -0.016913042659026028 -0.036604826829031718 0 -0.016358429090569466 -0.038457308563819952 0 -0.016913042659026028 -0.036604826829031718 0 -0.014885750554023339 -0.037240863281197682 0 -0.016297775093016387 -0.035524591795725487 0 -0.016913042659026028 -0.036604826829031718 0 -0.014885750554023339 -0.037240863281197682 0 -0.012653834166289298 -0.039206986563659445 0 -0.014885750554023339 -0.037240863281197682 0 -0.012904258829334393 -0.036428458563997429 0 -0.014885750554023339 -0.037240863281197682 0 -0.014948864935675146 -0.035011835002425232 0 -0.012904258829334393 -0.036428458563997429 0 -0.01298341528877734 -0.036732558555478724 0 -0.010829366332939223 -0.037628033651431567 0 -0.010959780953533537 -0.038361640598789153 0 -0.010560385787799817 -0.037365642099072248 0 -0.0096287757917864498 -0.038182342923152757 0 -0.010959780953533537 -0.038361640598789153 0 -0.0096287757917864498 -0.038182342923152757 0 -0.0096652645203117483 -0.039382503656713801 0 -0.010067525274233763 -0.037158953230644449 0 -0.010560385787799817 -0.037365642099072248 0 -0.0096287757917864498 -0.038182342923152757 0 -0.010202547486096721 -0.036854631396502059 0 -0.011028577584708351 -0.036356903175517284 0 -0.0091525115443531115 -0.036726831362677494 0 -0.010067525274233763 -0.037158953230644449 0 -0.010202547486096721 -0.036854631396502059 0 -0.0095721088579277247 -0.036962475665843028 0 -0.010067525274233763 -0.037158953230644449 0 -0.010202547486096721 -0.036854631396502059 0 -0.010560385787799817 -0.037365642099072248 0 -0.010202547486096721 -0.036854631396502059 0 -0.010856016645031994 -0.036891105363512804 0 -0.011028577584708351 -0.036356903175517284 0 -0.010856016645031994 -0.036891105363512804 0 -0.010560385787799817 -0.037365642099072248 0 -0.011276534893484805 -0.037197195636164568 0 -0.010202547486096721 -0.036854631396502059 0 -0.010856016645031994 -0.036891105363512804 0 -0.010560385787799817 -0.037365642099072248 0 -0.010856016645031994 -0.036891105363512804 0 -0.011202020295146151 -0.036803653902431489 0 -0.011028577584708351 -0.036356903175517284 0 -0.010856016645031994 -0.036891105363512804 0 -0.011276534893484805 -0.037197195636164568 0 -0.011202020295146151 -0.036803653902431489 0 -0.010959780953533537 -0.038361640598789153 0 -0.010560385787799817 -0.037365642099072248 0 -0.011276534893484805 -0.037197195636164568 0 -0.012511284390014768 -0.036471476816196245 0 -0.011652643686474659 -0.036761677262831749 0 -0.011028577584708351 -0.036356903175517284 0 -0.010959780953533537 -0.038361640598789153 0 -0.011276534893484805 -0.037197195636164568 0 -0.012411250805383193 -0.037283390332197137 0 -0.012904049864126509 -0.036411826734660341 0 -0.012411250805383193 -0.037283390332197137 0 -0.012511284390014768 -0.036471476816196245 0 -0.012411250805383193 -0.037283390332197137 0 -0.012511284390014768 -0.036471476816196245 0 -0.011652643686474659 -0.036761677262831749 0 -0.011276534893484805 -0.037197195636164568 0 -0.012411250805383193 -0.037283390332197137 0 -0.011652643686474659 -0.036761677262831749 0 -0.011276534893484805 -0.037197195636164568 0 -0.011652643686474659 -0.036761677262831749 0 -0.011202020295146151 -0.036803653902431489 0 -0.011652643686474659 -0.036761677262831749 0 -0.011202020295146151 -0.036803653902431489 0 -0.011028577584708351 -0.036356903175517284 0 -0.013496964303219779 -0.037659400044006967 0 -0.010544938556817129 -0.03676828059014646 0 -0.011136815502454671 -0.037456639760837067 0 -0.010862615669110943 -0.037377100166064076 0 -0.010626345213730412 -0.037392805552646409 0 -0.010722363680886573 -0.037348272911736514 0 -0.010862615669110943 -0.037377100166064076 0 -0.010626345213730412 -0.037392805552646409 0 -0.013273403481994685 -0.036108352450031959 0 -0.012511284390014768 -0.036471476816196245 0 -0.011028577584708351 -0.036356903175517284 0 -0.010722363680886573 -0.037348272911736514 0 -0.010775543689579991 -0.037351078744326305 0 -0.010862615669110943 -0.037377100166064076 0 -0.010722363680886573 -0.037348272911736514 0 -0.010775543689579991 -0.037351078744326305 0 -0.010718479424750073 -0.037352749073359018 0 -0.011136815502454671 -0.037456639760837067 0 -0.010862615669110943 -0.037377100166064076 0 -0.010961468538850607 -0.03730658060928977 0 -0.010862615669110943 -0.037377100166064076 0 -0.010961468538850607 -0.03730658060928977 0 -0.010851103100825991 -0.037306531688529085 0 -0.010746146882424486 -0.037331358404937641 0 -0.010851103100825991 -0.037306531688529085 0 -0.010731149750465893 -0.03722262277846522 0 -0.010775543689579991 -0.037351078744326305 0 -0.010746146882424486 -0.037331358404937641 0 -0.010718479424750073 -0.037352749073359018 0 -0.010775543689579991 -0.037351078744326305 0 -0.010862615669110943 -0.037377100166064076 0 -0.010851103100825991 -0.037306531688529085 0 -0.010775543689579991 -0.037351078744326305 0 -0.010746146882424486 -0.037331358404937641 0 -0.010851103100825991 -0.037306531688529085 0 -0.010746146882424486 -0.037331358404937641 0 -0.010630923382151309 -0.037374239880055428 0 -0.010731149750465893 -0.03722262277846522 0 -0.010630923382151309 -0.037374239880055428 0 -0.010549023119675231 -0.037311751786786009 0 -0.010731149750465893 -0.03722262277846522 0 -0.010722363680886573 -0.037348272911736514 0 -0.010473463604259183 -0.037458626038621975 0 -0.010187925728359144 -0.037669822661496509 0 -0.010544938556817129 -0.03676828059014646 0 -0.0094428134825159122 -0.03678706528536578 0 -0.010722363680886573 -0.037348272911736514 0 -0.010626345213730412 -0.037392805552646409 0 -0.0091122748274441757 -0.036269577297536292 0 -0.010604889167611454 -0.037283498898490343 0 -0.0096205941660973508 -0.037002588013178579 0 -0.010746146882424486 -0.037331358404937641 0 -0.010718479424750073 -0.037352749073359018 0 -0.010630923382151309 -0.037374239880055428 0 -0.010630923382151309 -0.037374239880055428 0 -0.010473463604259183 -0.037458626038621975 0 -0.010549023119675231 -0.037311751786786009 0 -0.010473463604259183 -0.037458626038621975 0 -0.010408682012569394 -0.037399518503571115 0 -0.010549023119675231 -0.037311751786786009 0 -0.010722363680886573 -0.037348272911736514 0 -0.010630923382151309 -0.037374239880055428 0 -0.010473463604259183 -0.037458626038621975 0 -0.010722363680886573 -0.037348272911736514 0 -0.010718479424750073 -0.037352749073359018 0 -0.010630923382151309 -0.037374239880055428 0 -0.010626345213730412 -0.037392805552646409 0 -0.0091122748274441757 -0.036269577297536292 0 -0.0091525115443531115 -0.036726831362677494 0 -0.0091122748274441757 -0.036269577297536292 0 -0.0082929227536481659 -0.036627587944393351 0 -0.0091525115443531115 -0.036726831362677494 0 -0.010473463604259183 -0.037458626038621975 0 -0.010187925728359144 -0.037669822661496509 0 -0.010337643930768206 -0.037490171630109204 0 -0.010187925728359144 -0.037669822661496509 0 -0.010337643930768206 -0.037490171630109204 0 -0.01027103819866758 -0.037428611595425432 0 -0.010473463604259183 -0.037458626038621975 0 -0.010337643930768206 -0.037490171630109204 0 -0.010408682012569394 -0.037399518503571115 0 -0.010337643930768206 -0.037490171630109204 0 -0.010408682012569394 -0.037399518503571115 0 -0.01027103819866758 -0.037428611595425432 0 -0.010187925728359144 -0.037669822661496509 0 -0.010068036296352851 -0.037494414550538903 0 -0.01027103819866758 -0.037428611595425432 0 -0.0096205941660973508 -0.037002588013178579 0 -0.0084138273538108509 -0.036965095924560834 0 -0.010187925728359144 -0.037669822661496509 0 -0.010068036296352851 -0.037494414550538903 0 -0.0093389082990563768 -0.037881838856912049 0 -0.0091122748274441757 -0.036269577297536292 0 -0.0082929227536481659 -0.036627587944393351 0 -0.0075232917725775207 -0.036026620147989408 0 -0.0082929227536481659 -0.036627587944393351 0 -0.0089240062668453444 -0.037324728505476863 0 -0.008071968878654235 -0.037686489042757607 0 -0.0082929227536481659 -0.036627587944393351 0 -0.0089240062668453444 -0.037324728505476863 0 -0.0091525115443531115 -0.036726831362677494 0 -0.0089240062668453444 -0.037324728505476863 0 -0.0091525115443531115 -0.036726831362677494 0 -0.0095721088579277247 -0.036962475665843028 0 -0.010202547486096721 -0.036854631396502059 0 -0.0091525115443531115 -0.036726831362677494 0 -0.0095721088579277247 -0.036962475665843028 0 -0.010067525274233763 -0.037158953230644449 0 -0.0095721088579277247 -0.036962475665843028 0 -0.0096287757917864498 -0.038182342923152757 0 -0.0095569222427146858 -0.037029633222981202 0 -0.0095971264497169886 -0.038093468850658244 0 -0.0089240062668453444 -0.037324728505476863 0 -0.0095721088579277247 -0.036962475665843028 0 -0.0094396338899333208 -0.037691303381656237 0 -0.0089240062668453444 -0.037324728505476863 0 -0.0094396338899333208 -0.037691303381656237 0 -0.0088564504945249419 -0.038074846754916215 0 -0.0094396338899333208 -0.037691303381656237 0 -0.0088564504945249419 -0.038074846754916215 0 -0.0094142885437142731 -0.038378101728562111 0 -0.0095971264497169886 -0.038093468850658244 0 -0.010829366332939223 -0.037628033651431567 0 -0.0088564504945249419 -0.038074846754916215 0 -0.0094142885437142731 -0.038378101728562111 0 -0.0088807755364279529 -0.038783304149113622 0 -0.010829366332939223 -0.037628033651431567 0 -0.009310517629374097 -0.038485205028425555 0 -0.0085696443429354903 -0.039143026433265449 0 -0.0088807755364279529 -0.038783304149113622 0 -0.0083577819908158581 -0.038474160212146322 0 -0.0088564504945249419 -0.038074846754916215 0 -0.0088807755364279529 -0.038783304149113622 0 -0.0083577819908158581 -0.038474160212146322 0 -0.0088564504945249419 -0.038074846754916215 0 -0.0083577819908158581 -0.038474160212146322 0 -0.008071968878654235 -0.037686489042757607 0 -0.0089240062668453444 -0.037324728505476863 0 -0.0088564504945249419 -0.038074846754916215 0 -0.008071968878654235 -0.037686489042757607 0 -0.008071968878654235 -0.037686489042757607 0 -0.007214338689842394 -0.037751151171808758 0 -0.0075612266013268797 -0.038408355497133478 0 -0.008071968878654235 -0.037686489042757607 0 -0.007214338689842394 -0.037751151171808758 0 -0.0072809474783038595 -0.037047975886972756 0 -0.007214338689842394 -0.037751151171808758 0 -0.0075612266013268797 -0.038408355497133478 0 -0.0065950712368366866 -0.038112749094952464 0 -0.0083577819908158581 -0.038474160212146322 0 -0.008071968878654235 -0.037686489042757607 0 -0.0075612266013268797 -0.038408355497133478 0 -0.0076985806365328091 -0.038993236711248672 0 -0.0075612266013268797 -0.038408355497133478 0 -0.0067837339908064283 -0.038779546956018041 0 -0.0076985806365328091 -0.038993236711248672 0 -0.0083577819908158581 -0.038474160212146322 0 -0.0075612266013268797 -0.038408355497133478 0 -0.0060122754699653983 -0.039270735092393053 0 -0.0067837339908064283 -0.038779546956018041 0 -0.0058823943835002663 -0.038510430469820348 0 -0.0075612266013268797 -0.038408355497133478 0 -0.0067837339908064283 -0.038779546956018041 0 -0.0065950712368366866 -0.038112749094952464 0 -0.0067837339908064283 -0.038779546956018041 0 -0.0065950712368366866 -0.038112749094952464 0 -0.0058823943835002663 -0.038510430469820348 0 -0.0065950712368366866 -0.038112749094952464 0 -0.0063703032900899259 -0.037406448022628484 0 -0.0058396626138694811 -0.037865835646858387 0 -0.007214338689842394 -0.037751151171808758 0 -0.0063703032900899259 -0.037406448022628484 0 -0.0072809474783038595 -0.037047975886972756 0 -0.007214338689842394 -0.037751151171808758 0 -0.0065950712368366866 -0.038112749094952464 0 -0.0063703032900899259 -0.037406448022628484 0 -0.0063703032900899259 -0.037406448022628484 0 -0.0062170212572469543 -0.036723002747355717 0 -0.0072809474783038595 -0.037047975886972756 0 -0.0082929227536481659 -0.036627587944393351 0 -0.008071968878654235 -0.037686489042757607 0 -0.0072809474783038595 -0.037047975886972756 0 -0.0082929227536481659 -0.036627587944393351 0 -0.0072809474783038595 -0.037047975886972756 0 -0.0075232917725775207 -0.036026620147989408 0 -0.0062170212572469543 -0.036723002747355717 0 -0.0075232917725775207 -0.036026620147989408 0 -0.0058723701631018602 -0.036072588176073346 0 -0.0084138273538108509 -0.036965095924560834 0 -0.0070308536389180869 -0.037073578731764721 0 -0.0062170212572469543 -0.036723002747355717 0 -0.0072809474783038595 -0.037047975886972756 0 -0.0075232917725775207 -0.036026620147989408 0 -0.0093389082990563768 -0.037881838856912049 0 -0.0084752645987405482 -0.037526787111136779 0 -0.0081723836422577939 -0.038114553090399746 0 -0.0093389082990563768 -0.037881838856912049 0 -0.0084752645987405482 -0.037526787111136779 0 -0.0088988145025233386 -0.03717673648117549 0 -0.0084752645987405482 -0.037526787111136779 0 -0.0088988145025233386 -0.03717673648117549 0 -0.0081960070174727871 -0.037207457139591095 0 -0.0093389082990563768 -0.037881838856912049 0 -0.0095283185324414842 -0.037164080511279174 0 -0.0088988145025233386 -0.03717673648117549 0 -0.0095283185324414842 -0.037164080511279174 0 -0.0088988145025233386 -0.03717673648117549 0 -0.0092512561033920929 -0.036632116720813485 0 -0.0095283185324414842 -0.037164080511279174 0 -0.0092512561033920929 -0.036632116720813485 0 -0.0097591208478235957 -0.036824882234252863 0 -0.0088988145025233386 -0.03717673648117549 0 -0.0083056060202564459 -0.03672967736026074 0 -0.0081960070174727871 -0.037207457139591095 0 -0.0088988145025233386 -0.03717673648117549 0 -0.0092512561033920929 -0.036632116720813485 0 -0.0083056060202564459 -0.03672967736026074 0 -0.008838586805961321 -0.036275364255638577 0 -0.0092512561033920929 -0.036632116720813485 0 -0.0083056060202564459 -0.03672967736026074 0 -0.008838586805961321 -0.036275364255638577 0 -0.00988917529923161 -0.034999860046706362 0 -0.0078199313040857865 -0.034999948751420693 0 -0.00988917529923161 -0.034999860046706362 0 -0.010746389323100278 -0.035931182657369137 0 -0.011959002821941705 -0.035000035754217722 0 -0.008838586805961321 -0.036275364255638577 0 -0.00988917529923161 -0.034999860046706362 0 -0.010746389323100278 -0.035931182657369137 0 -0.008838586805961321 -0.036275364255638577 0 -0.0094982183068276615 -0.036151586905826781 0 -0.0092512561033920929 -0.036632116720813485 0 -0.0094982183068276615 -0.036151586905826781 0 -0.0092512561033920929 -0.036632116720813485 0 -0.0096923030765844985 -0.036489682608424494 0 -0.0089396783697751545 -0.036276728669894301 0 -0.010095962563584127 -0.036033106361855326 0 -0.0092512561033920929 -0.036632116720813485 0 -0.0096923030765844985 -0.036489682608424494 0 -0.0097591208478235957 -0.036824882234252863 0 -0.0094982183068276615 -0.036151586905826781 0 -0.0096923030765844985 -0.036489682608424494 0 -0.0099805124127143562 -0.036328490547615597 0 -0.0096923030765844985 -0.036489682608424494 0 -0.010000685268636237 -0.036610803357109804 0 -0.0099805124127143562 -0.036328490547615597 0 -0.0096923030765844985 -0.036489682608424494 0 -0.010000685268636237 -0.036610803357109804 0 -0.0097591208478235957 -0.036824882234252863 0 -0.010095962563584127 -0.036033106361855326 0 -0.011292324241963206 -0.035764015947686557 0 -0.0094982183068276615 -0.036151586905826781 0 -0.0099805124127143562 -0.036328490547615597 0 -0.010148945725541295 -0.036018751583828702 0 -0.010746389323100278 -0.035931182657369137 0 -0.011959002821941705 -0.035000035754217722 0 -0.012392663154901146 -0.035469909579871825 0 -0.010148945725541295 -0.036018751583828702 0 -0.010275660088209612 -0.036273669529210191 0 -0.010562592683280475 -0.036173943613846161 0 -0.011959002821941705 -0.035000035754217722 0 -0.012392663154901146 -0.035469909579871825 0 -0.014028258976604001 -0.034999986367957946 0 -0.0099805124127143562 -0.036328490547615597 0 -0.010148945725541295 -0.036018751583828702 0 -0.010275660088209612 -0.036273669529210191 0 -0.010275660088209612 -0.036273669529210191 0 -0.010196469354637677 -0.036456686079672528 0 -0.010470653640114182 -0.036485316265340136 0 -0.0099805124127143562 -0.036328490547615597 0 -0.010275660088209612 -0.036273669529210191 0 -0.010196469354637677 -0.036456686079672528 0 -0.010000685268636237 -0.036610803357109804 0 -0.010196469354637677 -0.036456686079672528 0 -0.010279383566555566 -0.036704375791006598 0 -0.010000685268636237 -0.036610803357109804 0 -0.0099805124127143562 -0.036328490547615597 0 -0.010196469354637677 -0.036456686079672528 0 -0.010196469354637677 -0.036456686079672528 0 -0.010279383566555566 -0.036704375791006598 0 -0.010470653640114182 -0.036485316265340136 0 -0.010279383566555566 -0.036704375791006598 0 -0.010325096605350097 -0.037009669554777642 0 -0.01006452026430296 -0.036864232313925778 0 -0.010279383566555566 -0.036704375791006598 0 -0.010325096605350097 -0.037009669554777642 0 -0.01055095362344075 -0.036773400256461641 0 -0.010325096605350097 -0.037009669554777642 0 -0.01006452026430296 -0.036864232313925778 0 -0.0099694825845648132 -0.037091972183052643 0 -0.010000685268636237 -0.036610803357109804 0 -0.010279383566555566 -0.036704375791006598 0 -0.01006452026430296 -0.036864232313925778 0 -0.010000685268636237 -0.036610803357109804 0 -0.01006452026430296 -0.036864232313925778 0 -0.0097591208478235957 -0.036824882234252863 0 -0.0095283185324414842 -0.037164080511279174 0 -0.0097591208478235957 -0.036824882234252863 0 -0.0099694825845648132 -0.037091972183052643 0 -0.01006452026430296 -0.036864232313925778 0 -0.0097591208478235957 -0.036824882234252863 0 -0.0099694825845648132 -0.037091972183052643 0 -0.0099694825845648132 -0.037091972183052643 0 -0.0098266498726136096 -0.037371532834108157 0 -0.010154727214932682 -0.037270048998679285 0 -0.010068036296352851 -0.037494414550538903 0 -0.0093389082990563768 -0.037881838856912049 0 -0.0098266498726136096 -0.037371532834108157 0 -0.0093389082990563768 -0.037881838856912049 0 -0.0095283185324414842 -0.037164080511279174 0 -0.0098266498726136096 -0.037371532834108157 0 -0.0095283185324414842 -0.037164080511279174 0 -0.0099694825845648132 -0.037091972183052643 0 -0.0098266498726136096 -0.037371532834108157 0 -0.010068036296352851 -0.037494414550538903 0 -0.0098266498726136096 -0.037371532834108157 0 -0.010154727214932682 -0.037270048998679285 0 -0.010068036296352851 -0.037494414550538903 0 -0.01027103819866758 -0.037428611595425432 0 -0.010154727214932682 -0.037270048998679285 0 -0.01027103819866758 -0.037428611595425432 0 -0.010374652349650198 -0.037258609816288861 0 -0.010154727214932682 -0.037270048998679285 0 -0.010408682012569394 -0.037399518503571115 0 -0.01027103819866758 -0.037428611595425432 0 -0.010374652349650198 -0.037258609816288861 0 -0.010325096605350097 -0.037009669554777642 0 -0.010374652349650198 -0.037258609816288861 0 -0.010154727214932682 -0.037270048998679285 0 -0.010325096605350097 -0.037009669554777642 0 -0.010374652349650198 -0.037258609816288861 0 -0.010526861213534265 -0.037161473584547036 0 -0.010325096605350097 -0.037009669554777642 0 -0.0099694825845648132 -0.037091972183052643 0 -0.010154727214932682 -0.037270048998679285 0 -0.010526861213534265 -0.037161473584547036 0 -0.010749621728687269 -0.036943515916497006 0 -0.010527539636608702 -0.036972244611493545 0 -0.010526861213534265 -0.037161473584547036 0 -0.010731149750465893 -0.03722262277846522 0 -0.010749621728687269 -0.036943515916497006 0 -0.010325096605350097 -0.037009669554777642 0 -0.010526861213534265 -0.037161473584547036 0 -0.010527539636608702 -0.036972244611493545 0 -0.010374652349650198 -0.037258609816288861 0 -0.010526861213534265 -0.037161473584547036 0 -0.010549023119675231 -0.037311751786786009 0 -0.010408682012569394 -0.037399518503571115 0 -0.010374652349650198 -0.037258609816288861 0 -0.010549023119675231 -0.037311751786786009 0 -0.010526861213534265 -0.037161473584547036 0 -0.010549023119675231 -0.037311751786786009 0 -0.010731149750465893 -0.03722262277846522 0 -0.010851103100825991 -0.037306531688529085 0 -0.010731149750465893 -0.03722262277846522 0 -0.011008276738253 -0.03706224698059446 0 -0.010961468538850607 -0.03730658060928977 0 -0.010851103100825991 -0.037306531688529085 0 -0.011008276738253 -0.03706224698059446 0 -0.010731149750465893 -0.03722262277846522 0 -0.011008276738253 -0.03706224698059446 0 -0.010749621728687269 -0.036943515916497006 0 -0.013187417027289056 -0.037766653287378563 0 -0.012866341904526133 -0.036599367070929388 0 -0.011008276738253 -0.03706224698059446 0 -0.010749621728687269 -0.036943515916497006 0 -0.010933683567952227 -0.036536408207738097 0 -0.010749621728687269 -0.036943515916497006 0 -0.01055095362344075 -0.036773400256461641 0 -0.010933683567952227 -0.036536408207738097 0 -0.010749621728687269 -0.036943515916497006 0 -0.010527539636608702 -0.036972244611493545 0 -0.01055095362344075 -0.036773400256461641 0 -0.010325096605350097 -0.037009669554777642 0 -0.010527539636608702 -0.036972244611493545 0 -0.01055095362344075 -0.036773400256461641 0 -0.010470653640114182 -0.036485316265340136 0 -0.010562592683280475 -0.036173943613846161 0 -0.010933683567952227 -0.036536408207738097 0 -0.010279383566555566 -0.036704375791006598 0 -0.01055095362344075 -0.036773400256461641 0 -0.010470653640114182 -0.036485316265340136 0 -0.01055095362344075 -0.036773400256461641 0 -0.010470653640114182 -0.036485316265340136 0 -0.010933683567952227 -0.036536408207738097 0 -0.010275660088209612 -0.036273669529210191 0 -0.010470653640114182 -0.036485316265340136 0 -0.010562592683280475 -0.036173943613846161 0 -0.011292324241963206 -0.035764015947686557 0 -0.012251865384507388 -0.035201896288887931 0 -0.010148945725541295 -0.036018751583828702 0 -0.010746975009487932 -0.035868866653026861 0 -0.010562592683280475 -0.036173943613846161 0 -0.010746975009487932 -0.035868866653026861 0 -0.010562592683280475 -0.036173943613846161 0 -0.010933683567952227 -0.036536408207738097 0 -0.01402841953412971 -0.034999997516129047 0 -0.015038164307118893 -0.035679928645494387 0 -0.015864161552680743 -0.034999929293418476 0 -0.01402841953412971 -0.034999997516129047 0 -0.015038164307118893 -0.035679928645494387 0 -0.014756431590487912 -0.036661203320911759 0 -0.012251865384507388 -0.035201896288887931 0 -0.012866341904526133 -0.036599367070929388 0 -0.015038164307118893 -0.035679928645494387 0 -0.014756431590487912 -0.036661203320911759 0 -0.016101929985616933 -0.036550202442664652 0 -0.015038164307118893 -0.035679928645494387 0 -0.016101929985616933 -0.036550202442664652 0 -0.015864161552680743 -0.034999929293418476 0 -0.017699606783996125 -0.035000009062288111 0 -0.016101929985616933 -0.036550202442664652 0 -0.015864161552680743 -0.034999929293418476 0 -0.017458982822842761 -0.036573319257675624 0 -0.016101929985616933 -0.036550202442664652 0 -0.01628358098483625 -0.037820944094959986 0 -0.017458982822842761 -0.036573319257675624 0 -0.017699606783996125 -0.035000009062288111 0 -0.016101929985616933 -0.036550202442664652 0 -0.018054410397645018 -0.03611620147019716 0 -0.01821584485454927 -0.037538391148109737 0 -0.017458982822842761 -0.036573319257675624 0 -0.01628358098483625 -0.037820944094959986 0 -0.017264026289043923 -0.038044109274405699 0 -0.015325403468997001 -0.03815193540168995 0 -0.014756431590487912 -0.036661203320911759 0 -0.016101929985616933 -0.036550202442664652 0 -0.015325403468997001 -0.03815193540168995 0 -0.016101929985616933 -0.036550202442664652 0 -0.01628358098483625 -0.037820944094959986 0 -0.01628358098483625 -0.037820944094959986 0 -0.0160757260899058 -0.038807872375184682 0 -0.016605133068692803 -0.038734858631696567 0 -0.015839259745639968 -0.039568448840746069 0 -0.015325403468997001 -0.03815193540168995 0 -0.0160757260899058 -0.038807872375184682 0 -0.013496964303219779 -0.037659400044006967 0 -0.013187417027289056 -0.037766653287378563 0 -0.015325403468997001 -0.03815193540168995 0 -0.01628358098483625 -0.037820944094959986 0 -0.0160757260899058 -0.038807872375184682 0 -0.01893979417827614 -0.036429677775542603 0 -0.01821584485454927 -0.037538391148109737 0 -0.017124675402408498 -0.039453995594304035 0 -0.017264026289043923 -0.038044109274405699 0 -0.016605133068692803 -0.038734858631696567 0 -0.01628358098483625 -0.037820944094959986 0 -0.017264026289043923 -0.038044109274405699 0 -0.016605133068692803 -0.038734858631696567 0 0.00013230770078863588 -0.036877242716437109 0 -0.0009379925968071224 -0.037600656485041614 0 -0.0012152054908142846 -0.036295768571514238 0 -0.00028827078170849647 -0.036359234661956598 0 -0.0011875311904525961 -0.037324752664073549 0 0.00035193427120277306 -0.037623817990499776 0 0.00054250663617975156 -0.038136424864912852 0 -0.00053971087443516002 -0.037737047007214232 0 -0.0019608509732097299 -0.036515434824560253 0 -0.0011875311904525961 -0.037324752664073549 0 -0.0025942265775107964 -0.03718342098898729 0 -0.0019608509732097299 -0.036515434824560253 0 -0.0012152054908142846 -0.036295768571514238 0 -0.0011875311904525961 -0.037324752664073549 0 -0.0027063982407053398 -0.036694511559870836 0 -0.0013131100876419208 -0.036735796455142668 0 -0.0020189707897549673 -0.035709646533227966 0 -0.00066481075932179224 -0.035612126369667159 0 -0.0012152054908142846 -0.036295768571514238 0 -0.0019608509732097299 -0.036515434824560253 0 -0.0020189707897549673 -0.035709646533227966 0 -0.0012152054908142846 -0.036295768571514238 0 -0.00066481075932179224 -0.035612126369667159 0 -0.0012152054908142846 -0.036295768571514238 0 -0.00028827078170849647 -0.036359234661956598 0 0.00035193427120277306 -0.037623817990499776 0 0.00088920653546190401 -0.037771265681006153 0 0.00090863724672837049 -0.037494675613803929 0 -0.00066481075932179224 -0.035612126369667159 0 -0.00028827078170849647 -0.036359234661956598 0 0.00058485718467565589 -0.035482193247933662 0 0.00013230770078863588 -0.036877242716437109 0 0.00016173458061992765 -0.037065256895571226 0 0.00088920653546190401 -0.037771265681006153 0 0.00090863724672837049 -0.037494675613803929 0 0.0012256829264920036 -0.037757784742088178 0 0.00088920653546190401 -0.037771265681006153 0 0.0011587823865635278 -0.037965226467360003 0 0.0012256829264920036 -0.037757784742088178 0 0.00088920653546190401 -0.037771265681006153 0 0.0011587823865635278 -0.037965226467360003 0 0.00085111324423386232 -0.038051417133206138 0 0.0011587823865635278 -0.037965226467360003 0 0.00085111324423386232 -0.038051417133206138 0 0.0013116386010798978 -0.038296802808367815 0 0.00035193427120277306 -0.037623817990499776 0 0.00088920653546190401 -0.037771265681006153 0 0.00085111324423386232 -0.038051417133206138 0 0.00035193427120277306 -0.037623817990499776 0 0.00085111324423386232 -0.038051417133206138 0 0.00054250663617975156 -0.038136424864912852 0 0.00054250663617975156 -0.038136424864912852 0 0.0010343175843294428 -0.038554285246507829 0 -0.00010033630824586729 -0.038306525014530149 0 0.00054250663617975156 -0.038136424864912852 0 0.0011599738537650828 -0.038519001619018396 0 0.0010343175843294428 -0.038554285246507829 0 0.00085111324423386232 -0.038051417133206138 0 0.00054250663617975156 -0.038136424864912852 0 0.0011599738537650828 -0.038519001619018396 0 0.00085111324423386232 -0.038051417133206138 0 0.0011599738537650828 -0.038519001619018396 0 0.0013116386010798978 -0.038296802808367815 0 0.0011599738537650828 -0.038519001619018396 0 0.0010343175843294428 -0.038554285246507829 0 0.0016091920354331926 -0.039378518234104938 0 -0.00043875278882173806 -0.039007007844888683 0 0.0010343175843294428 -0.038554285246507829 0 -0.00010033630824586729 -0.038306525014530149 0 -0.00043875278882173806 -0.039007007844888683 0 -0.00010033630824586729 -0.038306525014530149 0 -0.0019538713076483298 -0.038273636166867436 0 0.00054250663617975156 -0.038136424864912852 0 -0.00053971087443516002 -0.037737047007214232 0 -0.00010033630824586729 -0.038306525014530149 0 -0.0011875311904525961 -0.037324752664073549 0 -0.0019538713076483298 -0.038273636166867436 0 -0.0025942265775107964 -0.03718342098898729 0 -0.0009379925968071224 -0.037600656485041614 0 -0.0018713831625016587 -0.038263865612388218 0 -0.00053971087443516002 -0.037737047007214232 0 -0.00010033630824586729 -0.038306525014530149 0 -0.0019538713076483298 -0.038273636166867436 0 -0.0031760197040768719 -0.039007137694639829 0 -0.0019538713076483298 -0.038273636166867436 0 -0.0032194800886605618 -0.038174554061745421 0 -0.0031760197040768719 -0.039007137694639829 0 -0.0021041004298710609 -0.039512200776292569 0 -0.0019538713076483298 -0.038273636166867436 0 -0.0031760197040768719 -0.039007137694639829 0 -0.0032194800886605618 -0.038174554061745421 0 -0.0041792300704889263 -0.038736572337047449 0 -0.0032194800886605618 -0.038174554061745421 0 -0.0040386567314436269 -0.037558792130942577 0 -0.0041792300704889263 -0.038736572337047449 0 -0.0032194800886605618 -0.038174554061745421 0 -0.0040386567314436269 -0.037558792130942577 0 -0.0025942265775107964 -0.03718342098898729 0 -0.0019538713076483298 -0.038273636166867436 0 -0.0032194800886605618 -0.038174554061745421 0 -0.0025942265775107964 -0.03718342098898729 0 -0.0050353323612561292 -0.039155409292059233 0 -0.0058823943835002663 -0.038510430469820348 0 -0.0049971322186597288 -0.038081581958485392 0 -0.0065950712368366866 -0.038112749094952464 0 -0.0058823943835002663 -0.038510430469820348 0 -0.0058396626138694811 -0.037865835646858387 0 -0.0058823943835002663 -0.038510430469820348 0 -0.0049971322186597288 -0.038081581958485392 0 -0.0058396626138694811 -0.037865835646858387 0 -0.0050353323612561292 -0.039155409292059233 0 -0.0041792300704889263 -0.038736572337047449 0 -0.0049971322186597288 -0.038081581958485392 0 -0.0040386567314436269 -0.037558792130942577 0 -0.0049971322186597288 -0.038081581958485392 0 -0.0053339441657440558 -0.037281778297010564 0 -0.0040386567314436269 -0.037558792130942577 0 -0.0041792300704889263 -0.038736572337047449 0 -0.0049971322186597288 -0.038081581958485392 0 -0.0063703032900899259 -0.037406448022628484 0 -0.0058396626138694811 -0.037865835646858387 0 -0.0053339441657440558 -0.037281778297010564 0 -0.0049971322186597288 -0.038081581958485392 0 -0.0058396626138694811 -0.037865835646858387 0 -0.0053339441657440558 -0.037281778297010564 0 -0.0063703032900899259 -0.037406448022628484 0 -0.0062170212572469543 -0.036723002747355717 0 -0.0053339441657440558 -0.037281778297010564 0 -0.0062170212572469543 -0.036723002747355717 0 -0.0053339441657440558 -0.037281778297010564 0 -0.0053747714070362298 -0.036500627285268504 0 -0.0040386567314436269 -0.037558792130942577 0 -0.0053339441657440558 -0.037281778297010564 0 -0.0043635147406427674 -0.036800727540513674 0 -0.0053339441657440558 -0.037281778297010564 0 -0.0043635147406427674 -0.036800727540513674 0 -0.0053747714070362298 -0.036500627285268504 0 -0.0052203410448376248 -0.036535704878952385 0 -0.0041670980836893004 -0.036605820490087156 0 -0.0053747714070362298 -0.036500627285268504 0 -0.0058723701631018602 -0.036072588176073346 0 -0.0052866472619912223 -0.036949967330314387 0 -0.0053747714070362298 -0.036500627285268504 0 -0.0048073046666176839 -0.037364281276970487 0 -0.0052866472619912223 -0.036949967330314387 0 -0.0043635147406427674 -0.036800727540513674 0 -0.0053747714070362298 -0.036500627285268504 0 -0.0036027844161268269 -0.035867750007102878 0 -0.0062170212572469543 -0.036723002747355717 0 -0.0053747714070362298 -0.036500627285268504 0 -0.0058723701631018602 -0.036072588176073346 0 -0.0027128042691316541 -0.036393711927974373 0 -0.0025942265775107964 -0.03718342098898729 0 -0.0034272255832769063 -0.03668512159997632 0 -0.0019608509732097299 -0.036515434824560253 0 -0.0027128042691316541 -0.036393711927974373 0 -0.0025942265775107964 -0.03718342098898729 0 -0.0040386567314436269 -0.037558792130942577 0 -0.0043635147406427674 -0.036800727540513674 0 -0.0034272255832769063 -0.03668512159997632 0 -0.0040386567314436269 -0.037558792130942577 0 -0.0025942265775107964 -0.03718342098898729 0 -0.0034272255832769063 -0.03668512159997632 0 -0.0043635147406427674 -0.036800727540513674 0 -0.0034272255832769063 -0.03668512159997632 0 -0.0036027844161268269 -0.035867750007102878 0 -0.0027128042691316541 -0.036393711927974373 0 -0.0034272255832769063 -0.03668512159997632 0 -0.0036027844161268269 -0.035867750007102878 0 -0.0020189707897549673 -0.035709646533227966 0 -0.0027128042691316541 -0.036393711927974373 0 -0.0036027844161268269 -0.035867750007102878 0 -0.0027063982407053398 -0.036694511559870836 0 -0.0041670980836893004 -0.036605820490087156 0 -0.0034334820882010002 -0.037680189415075657 0 -0.0048073046666176839 -0.037364281276970487 0 -0.0038392025297491628 -0.036831091319250539 0 -0.0019608509732097299 -0.036515434824560253 0 -0.0020189707897549673 -0.035709646533227966 0 -0.0027128042691316541 -0.036393711927974373 0 -0.0042735265700103832 -0.037529558097502087 0 -0.0058009407732700054 -0.037404279199390357 0 -0.0046988762523856578 -0.03825354308623443 0 -0.0065537949906091337 -0.038141598706309232 0 -0.0057398756858043154 -0.037553104509331733 0 -0.0048073046666176839 -0.037364281276970487 0 -0.0038392025297491628 -0.036831091319250539 0 -0.0050373003574906428 -0.036587461204822799 0 -0.0048073046666176839 -0.037364281276970487 0 -0.0050373003574906428 -0.036587461204822799 0 -0.0052866472619912223 -0.036949967330314387 0 -0.0065537949906091337 -0.038141598706309232 0 -0.0057398756858043154 -0.037553104509331733 0 -0.0065876306368831085 -0.037368889208212727 0 -0.0057398756858043154 -0.037553104509331733 0 -0.0065876306368831085 -0.037368889208212727 0 -0.0059376546677415501 -0.036790597950812562 0 -0.0065876306368831085 -0.037368889208212727 0 -0.0059376546677415501 -0.036790597950812562 0 -0.0068536976320608808 -0.03669716057668946 0 -0.0046988762523856578 -0.03825354308623443 0 -0.0057398756858043154 -0.037553104509331733 0 -0.0048528659144134309 -0.037129274291482342 0 -0.0046988762523856578 -0.03825354308623443 0 -0.0048528659144134309 -0.037129274291482342 0 -0.003821150394408951 -0.037448844642477476 0 -0.0057398756858043154 -0.037553104509331733 0 -0.0059376546677415501 -0.036790597950812562 0 -0.0048528659144134309 -0.037129274291482342 0 -0.0081723836422577939 -0.038114553090399746 0 -0.0077637083705847047 -0.037630831401365257 0 -0.0052866472619912223 -0.036949967330314387 0 -0.0084752645987405482 -0.037526787111136779 0 -0.0078415099705892635 -0.037436758915651257 0 -0.0077637083705847047 -0.037630831401365257 0 -0.0084752645987405482 -0.037526787111136779 0 -0.0078415099705892635 -0.037436758915651257 0 -0.0081960070174727871 -0.037207457139591095 0 -0.0084752645987405482 -0.037526787111136779 0 -0.0081723836422577939 -0.038114553090399746 0 -0.0077637083705847047 -0.037630831401365257 0 -0.0078415099705892635 -0.037436758915651257 0 -0.0077637083705847047 -0.037630831401365257 0 -0.007279171856001472 -0.037586792503414818 0 -0.0078415099705892635 -0.037436758915651257 0 -0.007279171856001472 -0.037586792503414818 0 -0.0076690699978986072 -0.037180148234745712 0 -0.0050373003574906428 -0.036587461204822799 0 -0.0077637083705847047 -0.037630831401365257 0 -0.0052866472619912223 -0.036949967330314387 0 -0.0058009407732700054 -0.037404279199390357 0 -0.0075645807704825931 -0.037591632721980586 0 -0.0065537949906091337 -0.038141598706309232 0 -0.0077637083705847047 -0.037630831401365257 0 -0.007279171856001472 -0.037586792503414818 0 -0.0070308536389180869 -0.037073578731764721 0 -0.0054807258904106312 -0.036967216234959681 0 -0.0065537949906091337 -0.038141598706309232 0 -0.0065876306368831085 -0.037368889208212727 0 -0.007279171856001472 -0.037586792503414818 0 -0.0065876306368831085 -0.037368889208212727 0 -0.007279171856001472 -0.037586792503414818 0 -0.0071862715546139651 -0.03713215308158186 0 -0.0065876306368831085 -0.037368889208212727 0 -0.0071862715546139651 -0.03713215308158186 0 -0.0068536976320608808 -0.03669716057668946 0 -0.0075025565914085962 -0.036774764526933144 0 -0.0071862715546139651 -0.03713215308158186 0 -0.0076690699978986072 -0.037180148234745712 0 -0.0075025565914085962 -0.036774764526933144 0 -0.0071862715546139651 -0.03713215308158186 0 -0.0068536976320608808 -0.03669716057668946 0 -0.007279171856001472 -0.037586792503414818 0 -0.0071862715546139651 -0.03713215308158186 0 -0.0076690699978986072 -0.037180148234745712 0 -0.0075025565914085962 -0.036774764526933144 0 -0.0076690699978986072 -0.037180148234745712 0 -0.0083056060202564459 -0.03672967736026074 0 -0.0076690699978986072 -0.037180148234745712 0 -0.0083056060202564459 -0.03672967736026074 0 -0.0081960070174727871 -0.037207457139591095 0 -0.0078415099705892635 -0.037436758915651257 0 -0.0076690699978986072 -0.037180148234745712 0 -0.0081960070174727871 -0.037207457139591095 0 -0.008838586805961321 -0.036275364255638577 0 -0.0083056060202564459 -0.03672967736026074 0 -0.0076840694009698432 -0.036184013425640975 0 -0.0075025565914085962 -0.036774764526933144 0 -0.0083056060202564459 -0.03672967736026074 0 -0.0076840694009698432 -0.036184013425640975 0 -0.0076840694009698432 -0.036184013425640975 0 -0.0068536976320608808 -0.03669716057668946 0 -0.0065123609814354902 -0.03591375776567287 0 -0.0075025565914085962 -0.036774764526933144 0 -0.0076840694009698432 -0.036184013425640975 0 -0.0068536976320608808 -0.03669716057668946 0 -0.0078199313040857865 -0.034999948751420693 0 -0.0065123609814354902 -0.03591375776567287 0 -0.0057508190630248101 -0.034999802205615889 0 -0.0076840694009698432 -0.036184013425640975 0 -0.0078199313040857865 -0.034999948751420693 0 -0.0065123609814354902 -0.03591375776567287 0 -0.008838586805961321 -0.036275364255638577 0 -0.0076840694009698432 -0.036184013425640975 0 -0.0078199313040857865 -0.034999948751420693 0 -0.0048528659144134309 -0.037129274291482342 0 -0.004823416927042053 -0.036096124820796251 0 -0.0039016701382242522 -0.036777931002288419 0 -0.0059376546677415501 -0.036790597950812562 0 -0.0048528659144134309 -0.037129274291482342 0 -0.004823416927042053 -0.036096124820796251 0 -0.0059376546677415501 -0.036790597950812562 0 -0.004823416927042053 -0.036096124820796251 0 -0.0065123609814354902 -0.03591375776567287 0 -0.0059376546677415501 -0.036790597950812562 0 -0.0068536976320608808 -0.03669716057668946 0 -0.0065123609814354902 -0.03591375776567287 0 -0.004823416927042053 -0.036096124820796251 0 -0.0065123609814354902 -0.03591375776567287 0 -0.0057508190630248101 -0.034999802205615889 0 -0.004823416927042053 -0.036096124820796251 0 -0.0057508190630248101 -0.034999802205615889 0 -0.0036813254802145969 -0.034999779814827513 0 -0.004823416927042053 -0.036096124820796251 0 -0.0036813254802145969 -0.034999779814827513 0 -0.0031321903154291346 -0.036020925753094062 0 -0.0031321903154291346 -0.036020925753094062 0 -0.0019712162783587384 -0.036366847831636337 0 -0.0016117832496778898 -0.034999744692543674 0 -0.0036813254802145969 -0.034999779814827513 0 -0.0031321903154291346 -0.036020925753094062 0 -0.0016117832496778898 -0.034999744692543674 0 -0.0031321903154291346 -0.036020925753094062 0 -0.0028805065857385051 -0.037023823171108312 0 -0.0019712162783587384 -0.036366847831636337 0 -0.0031321903154291346 -0.036020925753094062 0 -0.0039016701382242522 -0.036777931002288419 0 -0.0028805065857385051 -0.037023823171108312 0 -0.004823416927042053 -0.036096124820796251 0 -0.0031321903154291346 -0.036020925753094062 0 -0.0039016701382242522 -0.036777931002288419 0 -0.0048528659144134309 -0.037129274291482342 0 -0.0039016701382242522 -0.036777931002288419 0 -0.003821150394408951 -0.037448844642477476 0 -0.0039016701382242522 -0.036777931002288419 0 -0.003821150394408951 -0.037448844642477476 0 -0.0028805065857385051 -0.037023823171108312 0 -0.0028805065857385051 -0.037023823171108312 0 -0.0017402990506945166 -0.037063762939669009 0 -0.0019712162783587384 -0.036366847831636337 0 -0.0028805065857385051 -0.037023823171108312 0 -0.0027418079353849325 -0.038081828734193156 0 -0.0017402990506945166 -0.037063762939669009 0 -0.003821150394408951 -0.037448844642477476 0 -0.0028805065857385051 -0.037023823171108312 0 -0.0027418079353849325 -0.038081828734193156 0 -0.0019477532600284812 -0.0379215589175158 0 -0.0022454995847924378 -0.037080924922395793 0 -0.0012723303474772472 -0.037709189441355012 0 -0.0034334820882010002 -0.037680189415075657 0 -0.0019477532600284812 -0.0379215589175158 0 -0.0022454995847924378 -0.037080924922395793 0 -0.0034334820882010002 -0.037680189415075657 0 -0.0038392025297491628 -0.036831091319250539 0 -0.0022454995847924378 -0.037080924922395793 0 -0.0042735265700103832 -0.037529558097502087 0 -0.002508171223336035 -0.037572491157914299 0 -0.0046988762523856578 -0.03825354308623443 0 -0.003821150394408951 -0.037448844642477476 0 -0.0027418079353849325 -0.038081828734193156 0 -0.00055075978289886439 -0.038251959156103819 0 -0.00034279567289736127 -0.038006094599579578 0 0.0014172639004378042 -0.03765897950937027 0 -0.00075867635379074476 -0.037474567290990024 0 -0.0007677160675067968 -0.037764986970720414 0 -7.1448608569460854e-05 -0.037426058880808931 0 -0.0007677160675067968 -0.037764986970720414 0 -7.1448608569460854e-05 -0.037426058880808931 0 -0.00034279567289736127 -0.038006094599579578 0 0.00016173458061992765 -0.037065256895571226 0 -0.0001302777253112496 -0.037415314847114203 0 -0.0007677160675067968 -0.037764986970720414 0 -0.00054305072812744224 -0.038130717850216204 0 -0.00034279567289736127 -0.038006094599579578 0 -0.0019477532600284812 -0.0379215589175158 0 -0.00054305072812744224 -0.038130717850216204 0 -0.0012723303474772472 -0.037709189441355012 0 -0.0007677160675067968 -0.037764986970720414 0 -0.00054305072812744224 -0.038130717850216204 0 -0.0012723303474772472 -0.037709189441355012 0 -0.0013131100876419208 -0.036735796455142668 0 0.00016173458061992765 -0.037065256895571226 0 -0.002508171223336035 -0.037572491157914299 0 -0.00090900847107197266 -0.037477557033967129 0 -0.0022454995847924378 -0.037080924922395793 0 -0.00075867635379074476 -0.037474567290990024 0 -0.0012723303474772472 -0.037709189441355012 0 -0.00075867635379074476 -0.037474567290990024 0 -0.0007677160675067968 -0.037764986970720414 0 -0.0012723303474772472 -0.037709189441355012 0 -0.00075867635379074476 -0.037474567290990024 0 -0.0017402990506945166 -0.037063762939669009 0 -0.00051333627138902332 -0.036517016867112687 0 -0.0027418079353849325 -0.038081828734193156 0 -0.00075867635379074476 -0.037474567290990024 0 -0.0017402990506945166 -0.037063762939669009 0 -0.00075867635379074476 -0.037474567290990024 0 -7.1448608569460854e-05 -0.037426058880808931 0 -0.00051333627138902332 -0.036517016867112687 0 -7.1448608569460854e-05 -0.037426058880808931 0 -0.00051333627138902332 -0.036517016867112687 0 0.00061735290246647053 -0.037038995266704629 0 -0.00051333627138902332 -0.036517016867112687 0 -0.0019712162783587384 -0.036366847831636337 0 -0.0016117832496778898 -0.034999744692543674 0 -0.0017402990506945166 -0.037063762939669009 0 -0.00051333627138902332 -0.036517016867112687 0 -0.0019712162783587384 -0.036366847831636337 0 -0.00051333627138902332 -0.036517016867112687 0 -0.0016117832496778898 -0.034999744692543674 0 0.00045764058850537642 -0.034999726680717762 0 0.00045764058850537642 -0.034999726680717762 0 0.0019097018911259133 -0.035900933711907342 0 0.0009059241380128762 -0.03642145750386775 0 0.00045764058850537642 -0.034999726680717762 0 0.0019097018911259133 -0.035900933711907342 0 0.0025267953961046015 -0.034999785021146874 0 0.0019097018911259133 -0.035900933711907342 0 0.0009059241380128762 -0.03642145750386775 0 0.002269744670318978 -0.036697921987836231 0 -0.00051333627138902332 -0.036517016867112687 0 0.00045764058850537642 -0.034999726680717762 0 0.0009059241380128762 -0.03642145750386775 0 0.0025267953961046015 -0.034999785021146874 0 0.0036816663888041951 -0.036482442117056216 0 0.0045962154130266414 -0.034999738777449406 0 0.0019097018911259133 -0.035900933711907342 0 0.0025267953961046015 -0.034999785021146874 0 0.0036816663888041951 -0.036482442117056216 0 0.0019097018911259133 -0.035900933711907342 0 0.0036816663888041951 -0.036482442117056216 0 0.002269744670318978 -0.036697921987836231 0 0.0036816663888041951 -0.036482442117056216 0 0.0029462832769013188 -0.037428383982182255 0 0.0044076308810006648 -0.03786862940158793 0 0.0029462832769013188 -0.037428383982182255 0 0.002269744670318978 -0.036697921987836231 0 0.0016285922701655591 -0.037074542659238312 0 0.0036816663888041951 -0.036482442117056216 0 0.0029462832769013188 -0.037428383982182255 0 0.002269744670318978 -0.036697921987836231 0 0.0029462832769013188 -0.037428383982182255 0 0.0035941579086527088 -0.037951017110277041 0 0.0042963199356072946 -0.036692529489173037 0 0.0031171294341685541 -0.037393473648325022 0 0.0043874492424160107 -0.037284431554938269 0 -0.00051333627138902332 -0.036517016867112687 0 0.0009059241380128762 -0.03642145750386775 0 0.00061735290246647053 -0.037038995266704629 0 0.0009059241380128762 -0.03642145750386775 0 0.00061735290246647053 -0.037038995266704629 0 0.0016285922701655591 -0.037074542659238312 0 0.0009059241380128762 -0.03642145750386775 0 0.002269744670318978 -0.036697921987836231 0 0.0016285922701655591 -0.037074542659238312 0 0.0029462832769013188 -0.037428383982182255 0 0.0016285922701655591 -0.037074542659238312 0 0.0014172639004378042 -0.03765897950937027 0 0.0029462832769013188 -0.037428383982182255 0 0.0014172639004378042 -0.03765897950937027 0 0.0023758263046457298 -0.037916797320509101 0 0.00016173458061992765 -0.037065256895571226 0 0.0012983931736070568 -0.037861760906641576 0 0.00090863724672837049 -0.037494675613803929 0 0.0014172639004378042 -0.03765897950937027 0 0.0012256829264920036 -0.037757784742088178 0 -7.1448608569460854e-05 -0.037426058880808931 0 0.00061735290246647053 -0.037038995266704629 0 0.0014172639004378042 -0.03765897950937027 0 0.00061735290246647053 -0.037038995266704629 0 0.0016285922701655591 -0.037074542659238312 0 0.0014172639004378042 -0.03765897950937027 0 -7.1448608569460854e-05 -0.037426058880808931 0 -0.00034279567289736127 -0.038006094599579578 0 0.0014172639004378042 -0.03765897950937027 0 0.0014172639004378042 -0.03765897950937027 0 0.0012256829264920036 -0.037757784742088178 0 0.0016211742960715212 -0.038058470994619759 0 0.0011587823865635278 -0.037965226467360003 0 0.0012256829264920036 -0.037757784742088178 0 0.0016211742960715212 -0.038058470994619759 0 0.0016211742960715212 -0.038058470994619759 0 0.0013116386010798978 -0.038296802808367815 0 0.0017245712707266785 -0.03869215322970377 0 0.0011587823865635278 -0.037965226467360003 0 0.0016211742960715212 -0.038058470994619759 0 0.0013116386010798978 -0.038296802808367815 0 0.0016211742960715212 -0.038058470994619759 0 0.0023758263046457298 -0.037916797320509101 0 0.0024802298537956093 -0.038478343538758633 0 0.0016211742960715212 -0.038058470994619759 0 0.0024802298537956093 -0.038478343538758633 0 0.0017245712707266785 -0.03869215322970377 0 0.0014172639004378042 -0.03765897950937027 0 0.0016211742960715212 -0.038058470994619759 0 0.0023758263046457298 -0.037916797320509101 0 0.0029462832769013188 -0.037428383982182255 0 0.0023758263046457298 -0.037916797320509101 0 0.0035941579086527088 -0.037951017110277041 0 0.0035941579086527088 -0.037951017110277041 0 0.0024802298537956093 -0.038478343538758633 0 0.0036972392366552442 -0.039244568071080413 0 0.0023758263046457298 -0.037916797320509101 0 0.0035941579086527088 -0.037951017110277041 0 0.0024802298537956093 -0.038478343538758633 0 0.0024802298537956093 -0.038478343538758633 0 0.00240494757193465 -0.039192891501041383 0 0.0036972392366552442 -0.039244568071080413 0 0.0036972392366552442 -0.039244568071080413 0 0.0027852420949971072 -0.040126021869255804 0 0.0043618625130515199 -0.040732768652104484 0 0.0034435199349628393 -0.039199019732227142 0 0.0046218601695391468 -0.039622037876227666 0 0.00240494757193465 -0.039192891501041383 0 0.0036972392366552442 -0.039244568071080413 0 0.0027852420949971072 -0.040126021869255804 0 0.00240494757193465 -0.039192891501041383 0 0.0027852420949971072 -0.040126021869255804 0 0.0016091920354331926 -0.039378518234104938 0 0.0034435199349628393 -0.039199019732227142 0 0.0022204968212745724 -0.038790662368481145 0 0.0018919493854571766 -0.038924028799800149 0 0.0010343175843294428 -0.038554285246507829 0 0.0027610085217802246 -0.03816395937574666 0 0.0011671092153051155 -0.038583439390845131 0 0.0022204968212745724 -0.038790662368481145 0 0.0011599738537650828 -0.038519001619018396 0 0.0013116386010798978 -0.038296802808367815 0 0.0017245712707266785 -0.03869215322970377 0 0.0011599738537650828 -0.038519001619018396 0 0.0016091920354331926 -0.039378518234104938 0 0.0017245712707266785 -0.03869215322970377 0 0.00240494757193465 -0.039192891501041383 0 0.0016091920354331926 -0.039378518234104938 0 0.0017245712707266785 -0.03869215322970377 0 0.0024802298537956093 -0.038478343538758633 0 0.00240494757193465 -0.039192891501041383 0 0.0017245712707266785 -0.03869215322970377 0 0.0074430675549080243 -0.038876877672620679 0 0.0077271486491897797 -0.040181436949137429 0 0.005866027178888609 -0.039789976113770421 0 0.0074430675549080243 -0.038876877672620679 0 0.0077271486491897797 -0.040181436949137429 0 0.0096475898162244611 -0.039548706627074721 0 0.0077271486491897797 -0.040181436949137429 0 0.0096475898162244611 -0.039548706627074721 0 0.0084074094977735422 -0.041539674530962793 0 0.0077271486491897797 -0.040181436949137429 0 0.005866027178888609 -0.039789976113770421 0 0.0062687685260391481 -0.041212487588657219 0 0.0077271486491897797 -0.040181436949137429 0 0.0062687685260391481 -0.041212487588657219 0 0.0084074094977735422 -0.041539674530962793 0 0.0046218601695391468 -0.039622037876227666 0 0.0056899723182133616 -0.039972769936335369 0 0.0043618625130515199 -0.040732768652104484 0 0.005866027178888609 -0.039789976113770421 0 0.0062687685260391481 -0.041212487588657219 0 0.0036972392366552442 -0.039244568071080413 0 0.0043618625130515199 -0.040732768652104484 0 0.005866027178888609 -0.039789976113770421 0 0.0036972392366552442 -0.039244568071080413 0 0.005866027178888609 -0.039789976113770421 0 0.0051454032205730449 -0.038631827044869387 0 0.0074430675549080243 -0.038876877672620679 0 0.005866027178888609 -0.039789976113770421 0 0.0051454032205730449 -0.038631827044869387 0 0.0035941579086527088 -0.037951017110277041 0 0.0051454032205730449 -0.038631827044869387 0 0.0051621926128137246 -0.037377582036753051 0 0.0035941579086527088 -0.037951017110277041 0 0.0036972392366552442 -0.039244568071080413 0 0.0051454032205730449 -0.038631827044869387 0 0.0035941579086527088 -0.037951017110277041 0 0.0051621926128137246 -0.037377582036753051 0 0.0042963199356072946 -0.036692529489173037 0 0.0051454032205730449 -0.038631827044869387 0 0.0051621926128137246 -0.037377582036753051 0 0.0070388934124996222 -0.03735367086933758 0 0.0051621926128137246 -0.037377582036753051 0 0.0070388934124996222 -0.03735367086933758 0 0.0060356271798741191 -0.036223083543429561 0 0.0074430675549080243 -0.038876877672620679 0 0.0051454032205730449 -0.038631827044869387 0 0.0070388934124996222 -0.03735367086933758 0 0.0074430675549080243 -0.038876877672620679 0 0.0070388934124996222 -0.03735367086933758 0 0.008944663757966681 -0.037566395315112279 0 0.0074430675549080243 -0.038876877672620679 0 0.008944663757966681 -0.037566395315112279 0 0.0096475898162244611 -0.039548706627074721 0 0.0070388934124996222 -0.03735367086933758 0 0.008944663757966681 -0.037566395315112279 0 0.0087332397729125225 -0.036618164728755391 0 0.0070388934124996222 -0.03735367086933758 0 0.0087332397729125225 -0.036618164728755391 0 0.0079508047784274186 -0.0360201806042654 0 0.0073106915073889063 -0.038079996401161352 0 0.0079841118339376103 -0.037499200402361071 0 0.0086493828873557312 -0.038080178664205905 0 0.0075681781988081063 -0.037097770250494065 0 0.009515821824144826 -0.036588725898638749 0 0.0087332397729125225 -0.036618164728755391 0 0.0079508047784274186 -0.0360201806042654 0 0.0097698907726013178 -0.036020694340333247 0 0.0075681781988081063 -0.037097770250494065 0 0.0060129936303112454 -0.037142227364105711 0 0.0070388934124996222 -0.03735367086933758 0 0.0079508047784274186 -0.0360201806042654 0 0.0060356271798741191 -0.036223083543429561 0 0.0073106915073889063 -0.038079996401161352 0 0.0068251321837191799 -0.037006981337796806 0 0.0059088572577593113 -0.038058171886728734 0 0.0073106915073889063 -0.038079996401161352 0 0.0068251321837191799 -0.037006981337796806 0 0.0079841118339376103 -0.037499200402361071 0 0.0068251321837191799 -0.037006981337796806 0 0.0079841118339376103 -0.037499200402361071 0 0.0080870360489495342 -0.036634074685050373 0 0.0044076308810006648 -0.03786862940158793 0 0.0059088572577593113 -0.038058171886728734 0 0.0052909478388308128 -0.037149307275169241 0 0.0051621926128137246 -0.037377582036753051 0 0.0042963199356072946 -0.036692529489173037 0 0.0060356271798741191 -0.036223083543429561 0 0.0043874492424160107 -0.037284431554938269 0 0.0060129936303112454 -0.037142227364105711 0 0.0068251321837191799 -0.037006981337796806 0 0.0059088572577593113 -0.038058171886728734 0 0.0052909478388308128 -0.037149307275169241 0 0.0068251321837191799 -0.037006981337796806 0 0.0052909478388308128 -0.037149307275169241 0 0.0057672138517120197 -0.036091620114829609 0 0.0036816663888041951 -0.036482442117056216 0 0.0044076308810006648 -0.03786862940158793 0 0.0052909478388308128 -0.037149307275169241 0 0.0036816663888041951 -0.036482442117056216 0 0.0057672138517120197 -0.036091620114829609 0 0.0045962154130266414 -0.034999738777449406 0 0.0036816663888041951 -0.036482442117056216 0 0.0052909478388308128 -0.037149307275169241 0 0.0057672138517120197 -0.036091620114829609 0 0.0057672138517120197 -0.036091620114829609 0 0.0045962154130266414 -0.034999738777449406 0 0.0066645544070121675 -0.034999805016369255 0 0.0068251321837191799 -0.037006981337796806 0 0.0080870360489495342 -0.036634074685050373 0 0.0072690949253534113 -0.035787217163218477 0 0.008757923521802935 -0.037130032868152335 0 0.0077137906906630848 -0.036071478540467924 0 0.009086078207181417 -0.035961746063542785 0 0.0083906125361033843 -0.036968611804560479 0 0.0074935419356482952 -0.035913165371954749 0 0.0068251321837191799 -0.037006981337796806 0 0.0057672138517120197 -0.036091620114829609 0 0.0072690949253534113 -0.035787217163218477 0 0.0057672138517120197 -0.036091620114829609 0 0.0066645544070121675 -0.034999805016369255 0 0.0072690949253534113 -0.035787217163218477 0 0.0066655989603752993 -0.034999998694698796 0 0.0083105382439917722 -0.034999988792923563 0 0.0077137906906630848 -0.036071478540467924 0 0.006665756680711326 -0.035000211752107838 0 0.0074935419356482952 -0.035913165371954749 0 0.0083105382439917722 -0.034999988792923563 0 0.0077137906906630848 -0.036071478540467924 0 0.009086078207181417 -0.035961746063542785 0 0.0083105382439917722 -0.034999988792923563 0 0.009086078207181417 -0.035961746063542785 0 0.0099554635759113597 -0.034999992036814982 0 0.008757923521802935 -0.037130032868152335 0 0.009086078207181417 -0.035961746063542785 0 0.010683305892900242 -0.03659855520306305 0 0.010683305892900242 -0.03659855520306305 0 0.0099554635759113597 -0.034999992036814982 0 0.011600374661182689 -0.034999991033177899 0 0.009086078207181417 -0.035961746063542785 0 0.010683305892900242 -0.03659855520306305 0 0.0099554635759113597 -0.034999992036814982 0 0.011821767878748215 -0.0354829772712731 0 0.011601943329996893 -0.03499995556590129 0 0.01221058346701745 -0.035448128775063467 0 0.011279083966832575 -0.036043249206690428 0 0.011600406043156972 -0.035000123492411529 0 0.011601943329996893 -0.03499995556590129 0 0.01221058346701745 -0.035448128775063467 0 0.013203155343521211 -0.034999595777404656 0 0.01221058346701745 -0.035448128775063467 0 0.013203155343521211 -0.034999595777404656 0 0.013716822478196033 -0.035982451373713462 0 0.012315271360787385 -0.035456831019382656 0 0.012981694416831759 -0.036185196784640897 0 0.01221058346701745 -0.035448128775063467 0 0.012198239894736616 -0.03558500732257612 0 0.012687549178490715 -0.035614948194253385 0 0.01221058346701745 -0.035448128775063467 0 0.013292225495017355 -0.036778218648466685 0 0.013716822478196033 -0.035982451373713462 0 0.011821767878748215 -0.0354829772712731 0 0.01221058346701745 -0.035448128775063467 0 0.012198239894736616 -0.03558500732257612 0 0.012198239894736616 -0.03558500732257612 0 0.012687549178490715 -0.035614948194253385 0 0.012398146364389042 -0.0359501384522945 0 0.012198239894736616 -0.03558500732257612 0 0.012398146364389042 -0.0359501384522945 0 0.011794028064092087 -0.035745263208818878 0 0.011821767878748215 -0.0354829772712731 0 0.012198239894736616 -0.03558500732257612 0 0.011794028064092087 -0.035745263208818878 0 0.01194504171572614 -0.036117000642870017 0 0.012398146364389042 -0.0359501384522945 0 0.011794028064092087 -0.035745263208818878 0 0.012398146364389042 -0.0359501384522945 0 0.012472912104148111 -0.036591809579759139 0 0.013662623162573872 -0.036544952562610943 0 0.012687549178490715 -0.035614948194253385 0 0.012398146364389042 -0.0359501384522945 0 0.013662623162573872 -0.036544952562610943 0 0.012981694416831759 -0.036185196784640897 0 0.013881200781903589 -0.037111187755785993 0 0.01194504171572614 -0.036117000642870017 0 0.012398146364389042 -0.0359501384522945 0 0.012472912104148111 -0.036591809579759139 0 0.01194504171572614 -0.036117000642870017 0 0.012472912104148111 -0.036591809579759139 0 0.011690929224311154 -0.036527051488747166 0 0.011690929224311154 -0.036527051488747166 0 0.011359686325340767 -0.036034433483346041 0 0.011131593641199951 -0.036495101797897916 0 0.01194504171572614 -0.036117000642870017 0 0.011690929224311154 -0.036527051488747166 0 0.011359686325340767 -0.036034433483346041 0 0.01194504171572614 -0.036117000642870017 0 0.011359686325340767 -0.036034433483346041 0 0.011794028064092087 -0.035745263208818878 0 0.011359686325340767 -0.036034433483346041 0 0.010645593948320363 -0.036108400040535726 0 0.01065447150099769 -0.035265039599522083 0 0.010866265615052564 -0.036256393804532647 0 0.010145735048371778 -0.036835467055488742 0 0.011359686325340767 -0.036034433483346041 0 0.011131593641199951 -0.036495101797897916 0 0.010645593948320363 -0.036108400040535726 0 0.011131593641199951 -0.036495101797897916 0 0.010645593948320363 -0.036108400040535726 0 0.010447784989643586 -0.036820881963647675 0 0.0079841118339376103 -0.037499200402361071 0 0.0086493828873557312 -0.038080178664205905 0 0.0089617348747787935 -0.037518989916850841 0 0.010183983703015169 -0.036038562739871015 0 0.010645593948320363 -0.036108400040535726 0 0.010447784989643586 -0.036820881963647675 0 0.009515821824144826 -0.036588725898638749 0 0.010139073251749052 -0.036472952561684278 0 0.01017551375871059 -0.036106554205027487 0 0.010645593948320363 -0.036108400040535726 0 0.01065447150099769 -0.035265039599522083 0 0.009515821824144826 -0.036588725898638749 0 0.010145735048371778 -0.036835467055488742 0 0.008757923521802935 -0.037130032868152335 0 0.010683305892900242 -0.03659855520306305 0 0.00978638681019838 -0.038179209459983307 0 0.0079841118339376103 -0.037499200402361071 0 0.0080870360489495342 -0.036634074685050373 0 0.0089617348747787935 -0.037518989916850841 0 0.0083906125361033843 -0.036968611804560479 0 0.010145735048371778 -0.036835467055488742 0 0.011821767878748215 -0.0354829772712731 0 0.011321100006523796 -0.035876747239050662 0 0.011794028064092087 -0.035745263208818878 0 0.011279083966832575 -0.036043249206690428 0 0.010145735048371778 -0.036835467055488742 0 0.011359686325340767 -0.036034433483346041 0 0.011321100006523796 -0.035876747239050662 0 0.011794028064092087 -0.035745263208818878 0 0.01653504173133527 -0.036385330172847404 0 0.017318738561591839 -0.035726488336537285 0 0.017944836587880576 -0.036359548992751657 0 0.017318738561591839 -0.035726488336537285 0 0.016409466226335725 -0.03499985135500186 0 0.018393376467537758 -0.034999852739223389 0 0.01653504173133527 -0.036385330172847404 0 0.017318738561591839 -0.035726488336537285 0 0.016409466226335725 -0.03499985135500186 0 0.016329860105207893 -0.036354375767046615 0 0.016408970329755659 -0.035000152301299756 0 0.016408125826967258 -0.034999911785602501 0 0.015035630738644013 -0.03598603612086828 0 0.014806493007699491 -0.034999865116748775 0 0.016135796381447975 -0.036330603926162448 0 0.016408125826967258 -0.034999911785602501 0 0.015035630738644013 -0.03598603612086828 0 0.016135796381447975 -0.036330603926162448 0 0.015035630738644013 -0.03598603612086828 0 0.014887167707559518 -0.037046836630137941 0 0.015035630738644013 -0.03598603612086828 0 0.013716822478196033 -0.035982451373713462 0 0.014887167707559518 -0.037046836630137941 0 0.015035630738644013 -0.03598603612086828 0 0.014806493007699491 -0.034999865116748775 0 0.013716822478196033 -0.035982451373713462 0 0.014806493007699491 -0.034999865116748775 0 0.013203155343521211 -0.034999595777404656 0 0.013716822478196033 -0.035982451373713462 0 0.013292225495017355 -0.036778218648466685 0 0.013716822478196033 -0.035982451373713462 0 0.014887167707559518 -0.037046836630137941 0 0.014093908551919896 -0.037620471785864799 0 0.014887167707559518 -0.037046836630137941 0 0.014938448825909004 -0.037800709766764813 0 0.013292225495017355 -0.036778218648466685 0 0.014093908551919896 -0.037620471785864799 0 0.014887167707559518 -0.037046836630137941 0 0.014887167707559518 -0.037046836630137941 0 0.015615652655569892 -0.037733987583931004 0 0.014938448825909004 -0.037800709766764813 0 0.016135796381447975 -0.036330603926162448 0 0.014887167707559518 -0.037046836630137941 0 0.0162238818591003 -0.037373466991400803 0 0.014887167707559518 -0.037046836630137941 0 0.0162238818591003 -0.037373466991400803 0 0.015615652655569892 -0.037733987583931004 0 0.0162238818591003 -0.037373466991400803 0 0.0163832401098781 -0.037934441564949753 0 0.017311676554228637 -0.037290839020197225 0 0.01653504173133527 -0.036385330172847404 0 0.0162238818591003 -0.037373466991400803 0 0.017311676554228637 -0.037290839020197225 0 0.016329860105207893 -0.036354375767046615 0 0.016248000161244811 -0.037352553670267755 0 0.0163832401098781 -0.037934441564949753 0 0.015970440102489551 -0.038204597113947233 0 0.016577090438271637 -0.038071132778670413 0 0.0162238818591003 -0.037373466991400803 0 0.0163832401098781 -0.037934441564949753 0 0.015615652655569892 -0.037733987583931004 0 0.0163832401098781 -0.037934441564949753 0 0.015615652655569892 -0.037733987583931004 0 0.015404943455757271 -0.038206566781242873 0 0.0163832401098781 -0.037934441564949753 0 0.015404943455757271 -0.038206566781242873 0 0.015970440102489551 -0.038204597113947233 0 0.015404943455757271 -0.038206566781242873 0 0.014938448825909004 -0.037800709766764813 0 0.014640139530307157 -0.03811018643057909 0 0.015404943455757271 -0.038206566781242873 0 0.014640139530307157 -0.03811018643057909 0 0.014882610080377248 -0.03850552845684295 0 0.015615652655569892 -0.037733987583931004 0 0.015404943455757271 -0.038206566781242873 0 0.014938448825909004 -0.037800709766764813 0 0.014093908551919896 -0.037620471785864799 0 0.014938448825909004 -0.037800709766764813 0 0.014640139530307157 -0.03811018643057909 0 0.013881200781903589 -0.037111187755785993 0 0.014545967627068371 -0.038067306296601912 0 0.014882610080377248 -0.03850552845684295 0 0.014922456848216597 -0.038581598057400052 0 0.014328616522683826 -0.038833960502976772 0 0.014882610080377248 -0.03850552845684295 0 0.014922456848216597 -0.038581598057400052 0 0.015202904331434031 -0.038455549101075799 0 0.014640139530307157 -0.03811018643057909 0 0.014882610080377248 -0.03850552845684295 0 0.014328616522683826 -0.038833960502976772 0 0.014922456848216597 -0.038581598057400052 0 0.015343359702036203 -0.038440570470761888 0 0.015202904331434031 -0.038455549101075799 0 0.015343359702036203 -0.038440570470761888 0 0.015202904331434031 -0.038455549101075799 0 0.0155615154922162 -0.038371489143585458 0 0.015404943455757271 -0.038206566781242873 0 0.014882610080377248 -0.03850552845684295 0 0.015202904331434031 -0.038455549101075799 0 0.015404943455757271 -0.038206566781242873 0 0.015202904331434031 -0.038455549101075799 0 0.0155615154922162 -0.038371489143585458 0 0.015404943455757271 -0.038206566781242873 0 0.0155615154922162 -0.038371489143585458 0 0.015970440102489551 -0.038204597113947233 0 0.015343359702036203 -0.038440570470761888 0 0.0155615154922162 -0.038371489143585458 0 0.015418332384854501 -0.038284525714313927 0 0.0155615154922162 -0.038371489143585458 0 0.015418332384854501 -0.038284525714313927 0 0.015867154223800538 -0.038218621602157089 0 0.0155615154922162 -0.038371489143585458 0 0.015970440102489551 -0.038204597113947233 0 0.015867154223800538 -0.038218621602157089 0 0.011499360767605552 -0.037914054692790071 0 0.012517682725603376 -0.039037523112418961 0 0.010881392228691588 -0.038908108213321017 0 0.011499360767605552 -0.037914054692790071 0 0.010444572807041065 -0.037962958490638389 0 0.011236062329915825 -0.037071749721543652 0 0.011499360767605552 -0.037914054692790071 0 0.010444572807041065 -0.037962958490638389 0 0.010881392228691588 -0.038908108213321017 0 0.008944663757966681 -0.037566395315112279 0 0.010444572807041065 -0.037962958490638389 0 0.0096475898162244611 -0.039548706627074721 0 0.008944663757966681 -0.037566395315112279 0 0.0087332397729125225 -0.036618164728755391 0 0.0097698907726013178 -0.036020694340333247 0 0.008944663757966681 -0.037566395315112279 0 0.010183983703015169 -0.036038562739871015 0 0.010447784989643586 -0.036820881963647675 0 0.0091778122995033358 -0.037263496362988965 0 0.009515821824144826 -0.036588725898638749 0 0.008944663757966681 -0.037566395315112279 0 0.010444572807041065 -0.037962958490638389 0 0.010447784989643586 -0.036820881963647675 0 0.010444572807041065 -0.037962958490638389 0 0.010447784989643586 -0.036820881963647675 0 0.011236062329915825 -0.037071749721543652 0 0.011131593641199951 -0.036495101797897916 0 0.010447784989643586 -0.036820881963647675 0 0.011236062329915825 -0.037071749721543652 0 0.011499360767605552 -0.037914054692790071 0 0.011236062329915825 -0.037071749721543652 0 0.01203549040931761 -0.0371738459420854 0 0.011690929224311154 -0.036527051488747166 0 0.011236062329915825 -0.037071749721543652 0 0.01203549040931761 -0.0371738459420854 0 0.011690929224311154 -0.036527051488747166 0 0.011131593641199951 -0.036495101797897916 0 0.011236062329915825 -0.037071749721543652 0 0.012472912104148111 -0.036591809579759139 0 0.01203549040931761 -0.0371738459420854 0 0.013107026038569882 -0.037753533734016312 0 0.012472912104148111 -0.036591809579759139 0 0.011690929224311154 -0.036527051488747166 0 0.01203549040931761 -0.0371738459420854 0 0.012472912104148111 -0.036591809579759139 0 0.013662623162573872 -0.036544952562610943 0 0.013107026038569882 -0.037753533734016312 0 0.013662623162573872 -0.036544952562610943 0 0.014640139530307157 -0.03811018643057909 0 0.013107026038569882 -0.037753533734016312 0 0.014640139530307157 -0.03811018643057909 0 0.013107026038569882 -0.037753533734016312 0 0.014328616522683826 -0.038833960502976772 0 0.011499360767605552 -0.037914054692790071 0 0.01203549040931761 -0.0371738459420854 0 0.013107026038569882 -0.037753533734016312 0 0.011499360767605552 -0.037914054692790071 0 0.013107026038569882 -0.037753533734016312 0 0.012517682725603376 -0.039037523112418961 0 0.012517682725603376 -0.039037523112418961 0 0.012235867769397446 -0.040735826919018496 0 0.011443717162418474 -0.039817238779039012 0 0.013107026038569882 -0.037753533734016312 0 0.012517682725603376 -0.039037523112418961 0 0.014328616522683826 -0.038833960502976772 0 0.012517682725603376 -0.039037523112418961 0 0.014328616522683826 -0.038833960502976772 0 0.013574625054658642 -0.04051900192027609 0 0.014361214788813989 -0.038890586069085492 0 0.014088925850869814 -0.039622642301212228 0 0.014922456848216597 -0.038581598057400052 0 0.014328616522683826 -0.038833960502976772 0 0.014731732275187483 -0.03861835500085839 0 0.014922456848216597 -0.038581598057400052 0 0.014731732275187483 -0.03861835500085839 0 0.01490095947762481 -0.038649243316357981 0 0.014088925850869814 -0.039622642301212228 0 0.012131273537042447 -0.038878263758014113 0 0.012517682725603376 -0.039037523112418961 0 0.013574625054658642 -0.04051900192027609 0 0.012235867769397446 -0.040735826919018496 0 0.013574625054658642 -0.04051900192027609 0 0.012235867769397446 -0.040735826919018496 0 0.012875478784899728 -0.041905336183224055 0 0.012235867769397446 -0.040735826919018496 0 0.011443717162418474 -0.039817238779039012 0 0.010596790582123337 -0.04171745319683734 0 0.011443717162418474 -0.039817238779039012 0 0.0096475898162244611 -0.039548706627074721 0 0.010596790582123337 -0.04171745319683734 0 0.012517682725603376 -0.039037523112418961 0 0.011443717162418474 -0.039817238779039012 0 0.010881392228691588 -0.038908108213321017 0 0.011443717162418474 -0.039817238779039012 0 0.010881392228691588 -0.038908108213321017 0 0.0096475898162244611 -0.039548706627074721 0 0.010444572807041065 -0.037962958490638389 0 0.010881392228691588 -0.038908108213321017 0 0.0096475898162244611 -0.039548706627074721 0 0.0096475898162244611 -0.039548706627074721 0 0.010596790582123337 -0.04171745319683734 0 0.0084074094977735422 -0.041539674530962793 0 0.0071757911534464916 -0.04042694197873814 0 0.0069260072020463177 -0.04017471088030191 0 0.0050917304732815815 -0.038847206556221738 0 0.0051494815707230296 -0.038851459021530893 0 0.0051404730091699612 -0.038864937353373853 0 0.0050917304732815815 -0.038847206556221738 0 0.0050265100808934383 -0.038819058972008658 0 0.0051404730091699612 -0.038864937353373853 0 0.0050917304732815815 -0.038847206556221738 0 0.0050472096546983107 -0.03881808943776445 0 0.0050265100808934383 -0.038819058972008658 0 0.0071757911534464916 -0.04042694197873814 0 0.012131273537042447 -0.038878263758014113 0 0.0050917304732815815 -0.038847206556221738 0 0.0051627401959070318 -0.03881480936019531 0 0.0050472096546983107 -0.03881808943776445 0 0.012235867769397446 -0.040735826919018496 0 0.010596790582123337 -0.04171745319683734 0 0.012875478784899728 -0.041905336183224055 0 0.012131273537042447 -0.038878263758014113 0 0.016137243015893036 -0.038543562087461007 0 0.016786092659953924 -0.038409269369875522 0 0.016108803193707659 -0.038369703325622319 0 0.016498341296748261 -0.037746105742715717 0 0.014731732275187483 -0.03861835500085839 0 0.014719391595964379 -0.03868251438448711 0 0.01490095947762481 -0.038649243316357981 0 0.016108803193707659 -0.038369703325622319 0 0.016498341296748261 -0.037746105742715717 0 0.015935826370166419 -0.037633636792452893 0 0.016498341296748261 -0.037746105742715717 0 0.016422860652111054 -0.037091906627227673 0 0.015935826370166419 -0.037633636792452893 0 0.012131273537042447 -0.038878263758014113 0 0.011007866152181913 -0.03809034633743337 0 0.016498341296748261 -0.037746105742715717 0 0.017240599395596481 -0.037412457416094225 0 0.016422860652111054 -0.037091906627227673 0 0.016786092659953924 -0.038409269369875522 0 0.016498341296748261 -0.037746105742715717 0 0.017240599395596481 -0.037412457416094225 0 0.017240599395596481 -0.037412457416094225 0 0.016669065573004779 -0.036274137360673989 0 0.017665477538358579 -0.0363092970876163 0 0.017240599395596481 -0.037412457416094225 0 0.016422860652111054 -0.037091906627227673 0 0.016669065573004779 -0.036274137360673989 0 0.016422860652111054 -0.037091906627227673 0 0.016669065573004779 -0.036274137360673989 0 0.015922643671582481 -0.036782958120038803 0 0.016669065573004779 -0.036274137360673989 0 0.015922643671582481 -0.036782958120038803 0 0.01594105856634228 -0.035642411323344302 0 0.016669065573004779 -0.036274137360673989 0 0.017665477538358579 -0.0363092970876163 0 0.017194487881582128 -0.035447620090090726 0 0.0048571755714525468 -0.038678151378388696 0 0.0050265100808934383 -0.038819058972008658 0 0.0049641783450481902 -0.038654388507539716 0 0.011007866152181913 -0.03809034633743337 0 0.011206798486350018 -0.037512161348724184 0 0.0050472096546983107 -0.03881808943776445 0 0.0048571755714525468 -0.038678151378388696 0 0.0050265100808934383 -0.038819058972008658 0 0.015252966932127947 -0.03790625230619498 0 0.015102175417237969 -0.037573658438171703 0 0.015298861108990864 -0.03835167440443208 0 0.015418332384854501 -0.038284525714313927 0 0.015252966932127947 -0.03790625230619498 0 0.015298861108990864 -0.03835167440443208 0 0.015418332384854501 -0.038284525714313927 0 0.015867154223800538 -0.038218621602157089 0 0.015298861108990864 -0.03835167440443208 0 0.015343359702036203 -0.038440570470761888 0 0.015334002538357846 -0.038170183741268876 0 0.015418332384854501 -0.038284525714313927 0 0.015334002538357846 -0.038170183741268876 0 0.015252966932127947 -0.03790625230619498 0 0.015400570030395475 -0.037540552814295511 0 0.015334002538357846 -0.038170183741268876 0 0.015418332384854501 -0.038284525714313927 0 0.015252966932127947 -0.03790625230619498 0 0.015334002538357846 -0.038170183741268876 0 0.01537324185433025 -0.038392719859531223 0 0.015400570030395475 -0.037540552814295511 0 0.014922456848216597 -0.038581598057400052 0 0.015343359702036203 -0.038440570470761888 0 0.01537324185433025 -0.038392719859531223 0 0.015343359702036203 -0.038440570470761888 0 0.015334002538357846 -0.038170183741268876 0 0.01537324185433025 -0.038392719859531223 0 0.016108803193707659 -0.038369703325622319 0 0.01537324185433025 -0.038392719859531223 0 0.015935826370166419 -0.037633636792452893 0 0.016137243015893036 -0.038543562087461007 0 0.015135217302902621 -0.038407012187163081 0 0.014922456848216597 -0.038581598057400052 0 0.01490095947762481 -0.038649243316357981 0 0.01537324185433025 -0.038392719859531223 0 0.01537324185433025 -0.038392719859531223 0 0.015935826370166419 -0.037633636792452893 0 0.015400570030395475 -0.037540552814295511 0 0.016422860652111054 -0.037091906627227673 0 0.015935826370166419 -0.037633636792452893 0 0.015922643671582481 -0.036782958120038803 0 0.015935826370166419 -0.037633636792452893 0 0.015922643671582481 -0.036782958120038803 0 0.015400570030395475 -0.037540552814295511 0 0.015922643671582481 -0.036782958120038803 0 0.015254573476925482 -0.036398345968244948 0 0.01594105856634228 -0.035642411323344302 0 0.015922643671582481 -0.036782958120038803 0 0.015254573476925482 -0.036398345968244948 0 0.015400570030395475 -0.037540552814295511 0 0.015254573476925482 -0.036398345968244948 0 0.015400570030395475 -0.037540552814295511 0 0.015137589638639806 -0.037161329621747771 0 0.015252966932127947 -0.03790625230619498 0 0.015400570030395475 -0.037540552814295511 0 0.015137589638639806 -0.037161329621747771 0 0.015254573476925482 -0.036398345968244948 0 0.015137589638639806 -0.037161329621747771 0 0.014995740989816002 -0.036569221096262004 0 0.015137589638639806 -0.037161329621747771 0 0.014995740989816002 -0.036569221096262004 0 0.014934888917220179 -0.036951047081935549 0 0.014995740989816002 -0.036569221096262004 0 0.014934888917220179 -0.036951047081935549 0 0.014850589980488689 -0.03653527645047798 0 0.014934888917220179 -0.036951047081935549 0 0.014850589980488689 -0.03653527645047798 0 0.014755017001006695 -0.036764717692167687 0 0.015137589638639806 -0.037161329621747771 0 0.014934888917220179 -0.036951047081935549 0 0.015102175417237969 -0.037573658438171703 0 0.015252966932127947 -0.03790625230619498 0 0.015137589638639806 -0.037161329621747771 0 0.015102175417237969 -0.037573658438171703 0 0.015053277617502862 -0.033252561596618338 0 0.014947707262774416 -0.033450035219547911 0 0.015015707829901715 -0.033224885644992722 0 0.014947707262774416 -0.033450035219547911 0 0.015007509059334697 -0.033307236728790011 0 0.014892930741719528 -0.033589452394942959 0 0.015053277617502862 -0.033252561596618338 0 0.015007509059334697 -0.033307236728790011 0 0.015074459688657504 -0.033151010940515729 0 0.015053277617502862 -0.033252561596618338 0 0.014947707262774416 -0.033450035219547911 0 0.015007509059334697 -0.033307236728790011 0 0.015007509059334697 -0.033307236728790011 0 0.014892930741719528 -0.033589452394942959 0 0.015082783100901992 -0.033106373456338212 0 0.014850589980488689 -0.03653527645047798 0 0.014869246951527247 -0.035910735591644323 0 0.014734161818214683 -0.036483214122820871 0 0.014995740989816002 -0.036569221096262004 0 0.014850589980488689 -0.03653527645047798 0 0.014869246951527247 -0.035910735591644323 0 0.015007509059334697 -0.033307236728790011 0 0.015082783100901992 -0.033106373456338212 0 0.015074459688657504 -0.033151010940515729 0 0.014999436005079508 -0.034734718729192718 0 0.014884070289900811 -0.034837020186440228 0 0.014850589980488689 -0.03653527645047798 0 0.014755017001006695 -0.036764717692167687 0 0.014734161818214683 -0.036483214122820871 0 0.015254573476925482 -0.036398345968244948 0 0.014995740989816002 -0.036569221096262004 0 0.014869246951527247 -0.035910735591644323 0 0.014999436005079508 -0.034734718729192718 0 0.015312543872184314 -0.034709809184961402 0 0.014892930741719528 -0.033589452394942959 0 0.014900424382853361 -0.033771087045614281 0 0.015219797147736273 -0.034755167220492475 0 0.014947707262774416 -0.033450035219547911 0 0.014892930741719528 -0.033589452394942959 0 0.014900424382853361 -0.033771087045614281 0 0.014900424382853361 -0.033771087045614281 0 0.015219797147736273 -0.034755167220492475 0 0.014997595057337705 -0.033689278960499218 0 0.015219797147736273 -0.034755167220492475 0 0.015322768376116938 -0.033719491390331424 0 0.014997595057337705 -0.033689278960499218 0 0.015254573476925482 -0.036398345968244948 0 0.014869246951527247 -0.035910735591644323 0 0.015219797147736273 -0.034755167220492475 0 0.015254573476925482 -0.036398345968244948 0 0.015219797147736273 -0.034755167220492475 0 0.01594105856634228 -0.035642411323344302 0 0.015219797147736273 -0.034755167220492475 0 0.015322768376116938 -0.033719491390331424 0 0.015953032184346374 -0.034462422810040236 0 0.015219797147736273 -0.034755167220492475 0 0.01594105856634228 -0.035642411323344302 0 0.015953032184346374 -0.034462422810040236 0 0.015322768376116938 -0.033719491390331424 0 0.015021969022607263 -0.033018478531361466 0 0.014949649448724813 -0.033236642965064962 0 0.015322768376116938 -0.033719491390331424 0 0.015021969022607263 -0.033018478531361466 0 0.015863015270086069 -0.033564120487894283 0 0.014949649448724813 -0.033236642965064962 0 0.01492081648021425 -0.033017929385121832 0 0.01483200205819296 -0.032895943844224333 0 0.015021969022607263 -0.033018478531361466 0 0.014949649448724813 -0.033236642965064962 0 0.01483200205819296 -0.032895943844224333 0 0.014949649448724813 -0.033236642965064962 0 0.014997595057337705 -0.033689278960499218 0 0.014904090766607219 -0.033361381922332921 0 0.015322768376116938 -0.033719491390331424 0 0.014949649448724813 -0.033236642965064962 0 0.014997595057337705 -0.033689278960499218 0 0.014900424382853361 -0.033771087045614281 0 0.014997595057337705 -0.033689278960499218 0 0.014904090766607219 -0.033361381922332921 0 0.014947707262774416 -0.033450035219547911 0 0.014900424382853361 -0.033771087045614281 0 0.014904090766607219 -0.033361381922332921 0 0.014949649448724813 -0.033236642965064962 0 0.014904090766607219 -0.033361381922332921 0 0.01492081648021425 -0.033017929385121832 0 0.014904090766607219 -0.033361381922332921 0 0.01492081648021425 -0.033017929385121832 0 0.014993304463628652 -0.03312728406021203 0 0.01492081648021425 -0.033017929385121832 0 0.014993304463628652 -0.03312728406021203 0 0.015100068228173164 -0.033000765699316877 0 0.014993304463628652 -0.03312728406021203 0 0.015149909864448611 -0.033063847468652798 0 0.015100068228173164 -0.033000765699316877 0 0.014947707262774416 -0.033450035219547911 0 0.014904090766607219 -0.033361381922332921 0 0.015015707829901715 -0.033224885644992722 0 0.014993304463628652 -0.03312728406021203 0 0.015015707829901715 -0.033224885644992722 0 0.015149909864448611 -0.033063847468652798 0 0.014904090766607219 -0.033361381922332921 0 0.014993304463628652 -0.03312728406021203 0 0.015015707829901715 -0.033224885644992722 0 0.015053277617502862 -0.033252561596618338 0 0.015015707829901715 -0.033224885644992722 0 0.015151716431799332 -0.033121867815321393 0 0.018103291518940558 -0.035171752089362615 0 0.017194487881582128 -0.035447620090090726 0 0.016982618802388751 -0.034423747023377027 0 0.018103291518940558 -0.035171752089362615 0 0.016982618802388751 -0.034423747023377027 0 0.017775842557469189 -0.034057719725864279 0 0.01188938179599253 -0.036559794898028387 0 0.0076778741671151372 -0.035336727502371455 0 0.018103291518940558 -0.035171752089362615 0 0.017775842557469189 -0.034057719725864279 0 0.018568881895428126 -0.034002420765842888 0 0.004630564772382469 -0.038171184673223515 0 0.0049738035557075457 -0.038333262800639555 0 0.0049641783450481902 -0.038654388507539716 0 0.0048571755714525468 -0.038678151378388696 0 0.004630564772382469 -0.038171184673223515 0 0.0049641783450481902 -0.038654388507539716 0 0.011206798486350018 -0.037512161348724184 0 0.01188938179599253 -0.036559794898028387 0 0.017665477538358579 -0.0363092970876163 0 0.018103291518940558 -0.035171752089362615 0 0.017194487881582128 -0.035447620090090726 0 0.016669065573004779 -0.036274137360673989 0 0.017194487881582128 -0.035447620090090726 0 0.016514292795240023 -0.035252864069257178 0 0.016669065573004779 -0.036274137360673989 0 0.01594105856634228 -0.035642411323344302 0 0.016514292795240023 -0.035252864069257178 0 0.01594105856634228 -0.035642411323344302 0 0.016514292795240023 -0.035252864069257178 0 0.015953032184346374 -0.034462422810040236 0 0.016514292795240023 -0.035252864069257178 0 0.015953032184346374 -0.034462422810040236 0 0.016982618802388751 -0.034423747023377027 0 0.017194487881582128 -0.035447620090090726 0 0.016514292795240023 -0.035252864069257178 0 0.016982618802388751 -0.034423747023377027 0 0.016982618802388751 -0.034423747023377027 0 0.015863015270086069 -0.033564120487894283 0 0.01696573175675313 -0.033389556736242963 0 0.015322768376116938 -0.033719491390331424 0 0.015953032184346374 -0.034462422810040236 0 0.015863015270086069 -0.033564120487894283 0 0.015953032184346374 -0.034462422810040236 0 0.016982618802388751 -0.034423747023377027 0 0.015863015270086069 -0.033564120487894283 0 0.015021969022607263 -0.033018478531361466 0 0.015863015270086069 -0.033564120487894283 0 0.015257307725935462 -0.032983384210657114 0 0.015751036700901982 -0.033548746325313759 0 0.01574183884986587 -0.032781652127419257 0 0.01696573175675313 -0.033389556736242963 0 0.017070299819146529 -0.032427649417367539 0 0.016060762209659497 -0.032618950402570991 0 0.015863015270086069 -0.033564120487894283 0 0.01696573175675313 -0.033389556736242963 0 0.016060762209659497 -0.032618950402570991 0 0.01696573175675313 -0.033389556736242963 0 0.017859753830816293 -0.033231225107406184 0 0.017070299819146529 -0.032427649417367539 0 0.012054221953734894 -0.033451067213613114 0 0.011099037995727505 -0.03259744236779679 0 0.016982618802388751 -0.034423747023377027 0 0.01696573175675313 -0.033389556736242963 0 0.017775842557469189 -0.034057719725864279 0 0.01696573175675313 -0.033389556736242963 0 0.017775842557469189 -0.034057719725864279 0 0.017859753830816293 -0.033231225107406184 0 0.0052819875932515487 -0.033429210727259656 0 0.0047527214782988559 -0.033949894609828925 0 0.0049194865189710413 -0.033563628604231906 0 0.017775842557469189 -0.034057719725864279 0 0.017859753830816293 -0.033231225107406184 0 0.018568881895428126 -0.034002420765842888 0 0.012054221953734894 -0.033451067213613114 0 0.0076778741671151372 -0.035336727502371455 0 0.0052819875932515487 -0.033429210727259656 0 0.0047527214782988559 -0.033949894609828925 0 0.0052197177927446967 -0.033255201222493647 0 0.0052108156349834137 -0.033510756369404628 0 0.0047527214782988559 -0.033949894609828925 0 0.0052197177927446967 -0.033255201222493647 0 0.0052108156349834137 -0.033510756369404628 0 0.0047527214782988559 -0.033949894609828925 0 0.0055317445918364929 -0.033905085319143866 0 0.0047527214782988559 -0.033949894609828925 0 0.0055317445918364929 -0.033905085319143866 0 0.0048945498978142099 -0.035474823524607887 0 0.0055317445918364929 -0.033905085319143866 0 0.0062668297655757935 -0.033620513712657805 0 0.0054987153911120841 -0.033091790152055614 0 0.0052108156349834137 -0.033510756369404628 0 0.0055317445918364929 -0.033905085319143866 0 0.0054987153911120841 -0.033091790152055614 0 0.0055317445918364929 -0.033905085319143866 0 0.0060376904791456442 -0.034277790800805105 0 0.0062668297655757935 -0.033620513712657805 0 0.0055317445918364929 -0.033905085319143866 0 0.0060376904791456442 -0.034277790800805105 0 0.0056525419490585892 -0.035463865957940377 0 0.0056525419490585892 -0.035463865957940377 0 0.0048461141600834442 -0.037520967833031375 0 0.0060940226700785718 -0.037758489974667214 0 0.0055317445918364929 -0.033905085319143866 0 0.0056525419490585892 -0.035463865957940377 0 0.0048945498978142099 -0.035474823524607887 0 0.0049658644293851598 -0.034534728092161168 0 0.0076778741671151372 -0.035336727502371455 0 0.0047527214782988559 -0.033949894609828925 0 0.0048945498978142099 -0.035474823524607887 0 0.0033787918219468616 -0.035779417359438688 0 0.0056525419490585892 -0.035463865957940377 0 0.0048945498978142099 -0.035474823524607887 0 0.0048461141600834442 -0.037520967833031375 0 0.0076778741671151372 -0.035336727502371455 0 0.0045801326565382359 -0.036827462771706468 0 0.0048945498978142099 -0.035474823524607887 0 0.0033787918219468616 -0.035779417359438688 0 0.0048461141600834442 -0.037520967833031375 0 0.0048461141600834442 -0.037520967833031375 0 0.0054221054010964546 -0.038252779000888811 0 0.0049738035557075457 -0.038333262800639555 0 0.004630564772382469 -0.038171184673223515 0 0.0048461141600834442 -0.037520967833031375 0 0.0049738035557075457 -0.038333262800639555 0 0.004630564772382469 -0.038171184673223515 0 0.0046842893611948348 -0.037357529679437146 0 0.0048461141600834442 -0.037520967833031375 0 0.0048461141600834442 -0.037520967833031375 0 0.0060940226700785718 -0.037758489974667214 0 0.0054221054010964546 -0.038252779000888811 0 0.0060940226700785718 -0.037758489974667214 0 0.0054221054010964546 -0.038252779000888811 0 0.0057061589549305828 -0.03847324268786307 0 0.0054221054010964546 -0.038252779000888811 0 0.0054902527568510585 -0.038653650260039987 0 0.005250744866636751 -0.038737593841723095 0 0.0054221054010964546 -0.038252779000888811 0 0.0049738035557075457 -0.038333262800639555 0 0.005250744866636751 -0.038737593841723095 0 0.0054902527568510585 -0.038653650260039987 0 0.005250744866636751 -0.038737593841723095 0 0.0053166106994002775 -0.0389209067065973 0 0.0054221054010964546 -0.038252779000888811 0 0.0054902527568510585 -0.038653650260039987 0 0.0057061589549305828 -0.03847324268786307 0 0.0049738035557075457 -0.038333262800639555 0 0.0049641783450481902 -0.038654388507539716 0 0.005250744866636751 -0.038737593841723095 0 0.005042414801884363 -0.03922829452559045 0 0.0054253935057730776 -0.038849810325828099 0 0.005068180407117615 -0.03914441871218504 0 0.005042414801884363 -0.03922829452559045 0 0.0046341890275255941 -0.03950452965622582 0 0.005068180407117615 -0.03914441871218504 0 0.005042414801884363 -0.03922829452559045 0 0.0054253935057730776 -0.038849810325828099 0 0.0054905037512978701 -0.038840407639642555 0 0.0054253935057730776 -0.038849810325828099 0 0.0053166106994002775 -0.0389209067065973 0 0.005068180407117615 -0.03914441871218504 0 0.0054902527568510585 -0.038653650260039987 0 0.0054253935057730776 -0.038849810325828099 0 0.0053166106994002775 -0.0389209067065973 0 0.0054902527568510585 -0.038653650260039987 0 0.0054253935057730776 -0.038849810325828099 0 0.0057061589549305828 -0.03847324268786307 0 0.0054253935057730776 -0.038849810325828099 0 0.0054905037512978701 -0.038840407639642555 0 0.0057061589549305828 -0.03847324268786307 0 0.0060940226700785718 -0.037758489974667214 0 0.0054905037512978701 -0.038840407639642555 0 0.0057061589549305828 -0.03847324268786307 0 0.0060940226700785718 -0.037758489974667214 0 0.0054905037512978701 -0.038840407639642555 0 0.0052076977093100376 -0.039498666657053892 0 0.0060061636298696479 -0.037918787457980142 0 0.0071099953459173304 -0.038361376790506836 0 0.0054905037512978701 -0.038840407639642555 0 0.0052076977093100376 -0.039498666657053892 0 0.0051428095792064154 -0.039250337897579875 0 0.005042414801884363 -0.03922829452559045 0 0.0054905037512978701 -0.038840407639642555 0 0.0051428095792064154 -0.039250337897579875 0 0.005042414801884363 -0.03922829452559045 0 0.0051428095792064154 -0.039250337897579875 0 0.0048845383062829243 -0.039483203132024157 0 0.0052076977093100376 -0.039498666657053892 0 0.0051428095792064154 -0.039250337897579875 0 0.0048845383062829243 -0.039483203132024157 0 0.008873896291932944 -0.037240988532165217 0 0.0085403928781752157 -0.036555378508039311 0 0.010923174815930291 -0.037046592777536753 0 0.0068238870390963787 -0.034566621673147627 0 0.0070856310550344061 -0.034238914805518571 0 0.0065371522317405201 -0.034302741681960291 0 0.0060376904791456442 -0.034277790800805105 0 0.0056525419490585892 -0.035463865957940377 0 0.0065371522317405201 -0.034302741681960291 0 0.0056525419490585892 -0.035463865957940377 0 0.0060940226700785718 -0.037758489974667214 0 0.0085403928781752157 -0.036555378508039311 0 0.0056525419490585892 -0.035463865957940377 0 0.0068238870390963787 -0.034566621673147627 0 0.0065371522317405201 -0.034302741681960291 0 0.0060940226700785718 -0.037758489974667214 0 0.008873896291932944 -0.037240988532165217 0 0.0085403928781752157 -0.036555378508039311 0 0.0054543170395527484 -0.03548143951503311 0 0.0081264608631944017 -0.035331831003221785 0 0.0065371522317405201 -0.034302741681960291 0 0.0062668297655757935 -0.033620513712657805 0 0.0069143799094871757 -0.033870948308982511 0 0.0060376904791456442 -0.034277790800805105 0 0.0065371522317405201 -0.034302741681960291 0 0.0062668297655757935 -0.033620513712657805 0 0.0062668297655757935 -0.033620513712657805 0 0.0069143799094871757 -0.033870948308982511 0 0.0068730670517534367 -0.032963835156677015 0 0.0069143799094871757 -0.033870948308982511 0 0.0073990019144549533 -0.033355241959656341 0 0.0068730670517534367 -0.032963835156677015 0 0.0070856310550344061 -0.034238914805518571 0 0.0065371522317405201 -0.034302741681960291 0 0.0069143799094871757 -0.033870948308982511 0 0.0070856310550344061 -0.034238914805518571 0 0.0069143799094871757 -0.033870948308982511 0 0.0074448304654521564 -0.03395806654893653 0 0.0074448304654521564 -0.03395806654893653 0 0.0073990019144549533 -0.033355241959656341 0 0.0081847592967948801 -0.033699058894037119 0 0.0069143799094871757 -0.033870948308982511 0 0.0074448304654521564 -0.03395806654893653 0 0.0073990019144549533 -0.033355241959656341 0 0.0073990019144549533 -0.033355241959656341 0 0.0081847592967948801 -0.033699058894037119 0 0.0078691534719711603 -0.032838686446456614 0 0.0081847592967948801 -0.033699058894037119 0 0.007715805663589417 -0.034544713629150917 0 0.0088335314964883803 -0.034339200910638641 0 0.0069681829703144155 -0.03782566008535744 0 0.0039564620196398297 -0.039974404190003754 0 0.0074448304654521564 -0.03395806654893653 0 0.0081847592967948801 -0.033699058894037119 0 0.007715805663589417 -0.034544713629150917 0 0.0069681829703144155 -0.03782566008535744 0 0.0071062229756585519 -0.036760527420143123 0 0.0071099953459173304 -0.038361376790506836 0 0.0069681829703144155 -0.03782566008535744 0 0.0081264608631944017 -0.035331831003221785 0 0.0069681829703144155 -0.03782566008535744 0 0.0068238870390963787 -0.034566621673147627 0 0.0070856310550344061 -0.034238914805518571 0 0.007715805663589417 -0.034544713629150917 0 0.0070856310550344061 -0.034238914805518571 0 0.0074448304654521564 -0.03395806654893653 0 0.007715805663589417 -0.034544713629150917 0 0.0093385979253885407 -0.033460521964476075 0 0.0088924580955816648 -0.033769659595255991 0 0.0087602530340376537 -0.032750477757550078 0 0.0093385979253885407 -0.033460521964476075 0 0.0088924580955816648 -0.033769659595255991 0 0.0093555460826183837 -0.033949424999385053 0 0.0081847592967948801 -0.033699058894037119 0 0.0088924580955816648 -0.033769659595255991 0 0.0088335314964883803 -0.034339200910638641 0 0.0081847592967948801 -0.033699058894037119 0 0.0088924580955816648 -0.033769659595255991 0 0.0087602530340376537 -0.032750477757550078 0 0.0051849144029940605 -0.039789856435874828 0 0.0045285506812974986 -0.039871054647338179 0 0.004626100394329302 -0.039746386639287486 0 0.0047191477915249523 -0.038702661084746535 0 0.0071062229756585519 -0.036760527420143123 0 0.0097977276431933432 -0.034157778124232423 0 0.0088335314964883803 -0.034339200910638641 0 0.0093555460826183837 -0.033949424999385053 0 0.0043693618978315665 -0.039802974308550676 0 0.0043567687660401554 -0.039852489834376857 0 0.0045285506812974986 -0.039871054647338179 0 0.0088924580955816648 -0.033769659595255991 0 0.0088335314964883803 -0.034339200910638641 0 0.0093555460826183837 -0.033949424999385053 0 0.0045364023764097438 -0.039829085216095399 0 0.0039564620196398297 -0.039974404190003754 0 0.0043454188850187096 -0.039901940413779625 0 0.0041771066497679928 -0.039887850289322721 0 0.0040252868389906273 -0.039987266776933102 0 0.0043567687660401554 -0.039852489834376857 0 0.0043454188850187096 -0.039901940413779625 0 0.0041771066497679928 -0.039887850289322721 0 0.0043567687660401554 -0.039852489834376857 0 0.0045285506812974986 -0.039871054647338179 0 0.004626100394329302 -0.039746386639287486 0 0.0043567687660401554 -0.039852489834376857 0 0.0041771066497679928 -0.039887850289322721 0 0.0041209132358412557 -0.039883776699794177 0 0.004137135513933971 -0.039870820165896069 0 0.0040252868389906273 -0.039987266776933102 0 0.0042873206971059735 -0.03975704508256124 0 0.0041771066497679928 -0.039887850289322721 0 0.004137135513933971 -0.039870820165896069 0 0.0040252868389906273 -0.039987266776933102 0 0.0041771066497679928 -0.039887850289322721 0 0.0041209132358412557 -0.039883776699794177 0 0.004137135513933971 -0.039870820165896069 0 0.0043454188850187096 -0.039901940413779625 0 0.0040252868389906273 -0.039987266776933102 0 0.003750066131458429 -0.040457821661846471 0 0.0040252868389906273 -0.039987266776933102 0 0.0042149054649481882 -0.039870792687616778 0 0.003750066131458429 -0.040457821661846471 0 0.0015649046087034416 -0.042056190651763886 0 0.0026181641396310828 -0.042894490090226195 0 0.003750066131458429 -0.040457821661846471 0 0.0030009316254091725 -0.04216448588221211 0 0.0039684860172231268 -0.04020211897106539 0 0.0052076977093100376 -0.039498666657053892 0 0.0044465949511533504 -0.039895930447720072 0 0.0048845383062829243 -0.039483203132024157 0 0.005042414801884363 -0.03922829452559045 0 0.0046054714530650758 -0.039593813670633735 0 0.0048845383062829243 -0.039483203132024157 0 0.0044465949511533504 -0.039895930447720072 0 0.0046054714530650758 -0.039593813670633735 0 0.0048845383062829243 -0.039483203132024157 0 0.0044465949511533504 -0.039895930447720072 0 0.0041209132358412557 -0.039883776699794177 0 0.004137135513933971 -0.039870820165896069 0 0.0044465949511533504 -0.039895930447720072 0 0.004137135513933971 -0.039870820165896069 0 0.0042873206971059735 -0.03975704508256124 0 0.0044465949511533504 -0.039895930447720072 0 0.0046054714530650758 -0.039593813670633735 0 0.0042873206971059735 -0.03975704508256124 0 0.0042873206971059735 -0.03975704508256124 0 0.0046341890275255941 -0.03950452965622582 0 0.0042149054649481882 -0.039870792687616778 0 0.0040252868389906273 -0.039987266776933102 0 0.0042873206971059735 -0.03975704508256124 0 0.0042149054649481882 -0.039870792687616778 0 0.0046054714530650758 -0.039593813670633735 0 0.0042873206971059735 -0.03975704508256124 0 0.0046341890275255941 -0.03950452965622582 0 0.005042414801884363 -0.03922829452559045 0 0.0046054714530650758 -0.039593813670633735 0 0.0046341890275255941 -0.03950452965622582 0 0.0046341890275255941 -0.03950452965622582 0 0.0047174937043642246 -0.039351391790353317 0 0.0042149054649481882 -0.039870792687616778 0 0.0046341890275255941 -0.03950452965622582 0 0.0047174937043642246 -0.039351391790353317 0 0.005068180407117615 -0.03914441871218504 0 0.0047174937043642246 -0.039351391790353317 0 0.0042149054649481882 -0.039870792687616778 0 0.0041691462701954132 -0.039520125718066332 0 0.0042149054649481882 -0.039870792687616778 0 0.0041691462701954132 -0.039520125718066332 0 0.003750066131458429 -0.040457821661846471 0 0.0047174937043642246 -0.039351391790353317 0 0.0041691462701954132 -0.039520125718066332 0 0.004845960279658024 -0.039024119470018104 0 0.0015649046087034416 -0.042056190651763886 0 0.0018679621168698403 -0.040627790459574042 0 0.003750066131458429 -0.040457821661846471 0 0.0041691462701954132 -0.039520125718066332 0 0.003750066131458429 -0.040457821661846471 0 0.003093110311342621 -0.039852162733969965 0 0.0019540958140448535 -0.039666093881459578 0 0.0018679621168698403 -0.040627790459574042 0 0.003093110311342621 -0.039852162733969965 0 0.0018679621168698403 -0.040627790459574042 0 0.003750066131458429 -0.040457821661846471 0 0.003093110311342621 -0.039852162733969965 0 0.0018919493854571766 -0.038924028799800149 0 0.0019540958140448535 -0.039666093881459578 0 0.0033011018840242647 -0.039075324541135728 0 0.0019540958140448535 -0.039666093881459578 0 0.003093110311342621 -0.039852162733969965 0 0.0033011018840242647 -0.039075324541135728 0 0.0041691462701954132 -0.039520125718066332 0 0.003093110311342621 -0.039852162733969965 0 0.0033011018840242647 -0.039075324541135728 0 0.0040616784206295191 -0.038270446971509407 0 0.0027610085217802246 -0.03816395937574666 0 0.0033011018840242647 -0.039075324541135728 0 0.0018919493854571766 -0.038924028799800149 0 0.0027610085217802246 -0.03816395937574666 0 0.0033011018840242647 -0.039075324541135728 0 0.0041691462701954132 -0.039520125718066332 0 0.0043886624691818251 -0.038873146742123318 0 0.004845960279658024 -0.039024119470018104 0 0.0041691462701954132 -0.039520125718066332 0 0.0033011018840242647 -0.039075324541135728 0 0.0043886624691818251 -0.038873146742123318 0 0.0040616784206295191 -0.038270446971509407 0 0.0033011018840242647 -0.039075324541135728 0 0.0043886624691818251 -0.038873146742123318 0 0.004853954808742871 -0.038518143196392692 0 0.0043886624691818251 -0.038873146742123318 0 0.004845960279658024 -0.039024119470018104 0 0.0040616784206295191 -0.038270446971509407 0 0.004853954808742871 -0.038518143196392692 0 0.0043886624691818251 -0.038873146742123318 0 0.004853954808742871 -0.038518143196392692 0 0.004845960279658024 -0.039024119470018104 0 0.0050802735781058416 -0.038834681134367624 0 0.004845960279658024 -0.039024119470018104 0 0.0051150086702691023 -0.038950350937301523 0 0.0050802735781058416 -0.038834681134367624 0 0.0051150086702691023 -0.038950350937301523 0 0.0050802735781058416 -0.038834681134367624 0 0.0051730773059860836 -0.038890724487403862 0 0.0051692162693484627 -0.038755077957162237 0 0.0050802735781058416 -0.038834681134367624 0 0.0051730773059860836 -0.038890724487403862 0 0.004853954808742871 -0.038518143196392692 0 0.0051692162693484627 -0.038755077957162237 0 0.0050802735781058416 -0.038834681134367624 0 0.0051692162693484627 -0.038755077957162237 0 0.0051494815707230296 -0.038851459021530893 0 0.0051404730091699612 -0.038864937353373853 0 0.0056899723182133616 -0.039972769936335369 0 0.0069260072020463177 -0.04017471088030191 0 0.0051692162693484627 -0.038755077957162237 0 0.0051404730091699612 -0.038864937353373853 0 0.0051730773059860836 -0.038890724487403862 0 0.0051404730091699612 -0.038864937353373853 0 0.0051730773059860836 -0.038890724487403862 0 0.0051463867625264692 -0.038855646045519832 0 0.0051730773059860836 -0.038890724487403862 0 0.0051463867625264692 -0.038855646045519832 0 0.0052232837849419851 -0.038933687311334224 0 0.0050265100808934383 -0.038819058972008658 0 0.0051463867625264692 -0.038855646045519832 0 0.0049641783450481902 -0.038654388507539716 0 0.0050265100808934383 -0.038819058972008658 0 0.0051404730091699612 -0.038864937353373853 0 0.0051463867625264692 -0.038855646045519832 0 0.0051463867625264692 -0.038855646045519832 0 0.0049641783450481902 -0.038654388507539716 0 0.005250744866636751 -0.038737593841723095 0 0.005250744866636751 -0.038737593841723095 0 0.0053166106994002775 -0.0389209067065973 0 0.0052232837849419851 -0.038933687311334224 0 0.0051463867625264692 -0.038855646045519832 0 0.005250744866636751 -0.038737593841723095 0 0.0052232837849419851 -0.038933687311334224 0 0.0053166106994002775 -0.0389209067065973 0 0.0050980876434547073 -0.039058374077436696 0 0.0052232837849419851 -0.038933687311334224 0 0.0053166106994002775 -0.0389209067065973 0 0.005068180407117615 -0.03914441871218504 0 0.0050980876434547073 -0.039058374077436696 0 0.0047174937043642246 -0.039351391790353317 0 0.005068180407117615 -0.03914441871218504 0 0.0050980876434547073 -0.039058374077436696 0 0.004845960279658024 -0.039024119470018104 0 0.0051150086702691023 -0.038950350937301523 0 0.0050980876434547073 -0.039058374077436696 0 0.0047174937043642246 -0.039351391790353317 0 0.004845960279658024 -0.039024119470018104 0 0.0050980876434547073 -0.039058374077436696 0 0.0051150086702691023 -0.038950350937301523 0 0.0051730773059860836 -0.038890724487403862 0 0.0052232837849419851 -0.038933687311334224 0 0.0051150086702691023 -0.038950350937301523 0 0.0050980876434547073 -0.039058374077436696 0 0.0052232837849419851 -0.038933687311334224 0 0.034606462730378457 -0.027850482441626103 0 0.034168332699662712 -0.028621798699353131 0 0.03396287508997297 -0.028930287720246695 0 0.034606462730378457 -0.027850482441626103 0 0.03396287508997297 -0.028930287720246695 0 0.034995876613909474 -0.028483610451770031 0 0.034606462730378457 -0.027850482441626103 0 0.034999666406449435 -0.026633106295238358 0 0.034995876613909474 -0.028483610451770031 0 0.034606462730378457 -0.027850482441626103 0 0.034999666406449435 -0.026633106295238358 0 0.034900096510131359 -0.026391486601441274 0 0.034606462730378457 -0.027850482441626103 0 0.034675685728970881 -0.027630273733337495 0 0.034168332699662712 -0.028621798699353131 0 0.034606462730378457 -0.027850482441626103 0 0.034675685728970881 -0.027630273733337495 0 0.034900096510131359 -0.026391486601441274 0 0.034675685728970881 -0.027630273733337495 0 0.034384255591336219 -0.028477566128204783 0 0.034979954313263222 -0.027213489592001906 0 0.034675685728970881 -0.027630273733337495 0 0.034384255591336219 -0.028477566128204783 0 0.034168332699662712 -0.028621798699353131 0 0.034384255591336219 -0.028477566128204783 0 0.033756552746568129 -0.029422914942819164 0 0.033676961865267391 -0.029494411067259904 0 0.034384255591336219 -0.028477566128204783 0 0.034168332699662712 -0.028621798699353131 0 0.033756552746568129 -0.029422914942819164 0 0.034168332699662712 -0.028621798699353131 0 0.033659597174913812 -0.029523256281855106 0 0.033756552746568129 -0.029422914942819164 0 0.034168332699662712 -0.028621798699353131 0 0.033659597174913812 -0.029523256281855106 0 0.03396287508997297 -0.028930287720246695 0 0.033659597174913812 -0.029523256281855106 0 0.033756552746568129 -0.029422914942819164 0 0.033345729011470759 -0.030203696224234362 0 0.033756552746568129 -0.029422914942819164 0 0.033345729011470759 -0.030203696224234362 0 0.033068946342129188 -0.030582349165388743 0 0.033039630883433674 -0.030932082482457827 0 0.032579666417862557 -0.031771972400653506 0 0.033068946342129188 -0.030582349165388743 0 0.033345729011470759 -0.030203696224234362 0 0.033039630883433674 -0.030932082482457827 0 0.033068946342129188 -0.030582349165388743 0 0.033039630883433674 -0.030932082482457827 0 0.033292125219497863 -0.030281040922255763 0 0.032908253828205676 -0.031557085631483323 0 0.033659597174913812 -0.029523256281855106 0 0.033292125219497863 -0.030281040922255763 0 0.033447421542571139 -0.029773760161749315 0 0.033345729011470759 -0.030203696224234362 0 0.033039630883433674 -0.030932082482457827 0 0.033292125219497863 -0.030281040922255763 0 0.033659597174913812 -0.029523256281855106 0 0.033345729011470759 -0.030203696224234362 0 0.033292125219497863 -0.030281040922255763 0 0.033292125219497863 -0.030281040922255763 0 0.033043151544509541 -0.030586153476024124 0 0.033447421542571139 -0.029773760161749315 0 0.033043151544509541 -0.030586153476024124 0 0.033447421542571139 -0.029773760161749315 0 0.033119126578631038 -0.029786729040122344 0 0.033659597174913812 -0.029523256281855106 0 0.033447421542571139 -0.029773760161749315 0 0.03396287508997297 -0.028930287720246695 0 0.033447421542571139 -0.029773760161749315 0 0.03396287508997297 -0.028930287720246695 0 0.033119126578631038 -0.029786729040122344 0 0.034999819901833547 -0.028484562292110185 0 0.034433779004430405 -0.030091350735562288 0 0.03396287508997297 -0.028930287720246695 0 0.034995876613909474 -0.028483610451770031 0 0.033119126578631038 -0.029786729040122344 0 0.035000098474484626 -0.028483838971826454 0 0.035666311942033548 -0.030166145918711071 0 0.034999766058405157 -0.030243708782778499 0 0.035666311942033548 -0.030166145918711071 0 0.034999766058405157 -0.030243708782778499 0 0.03526033326868222 -0.031336467548837857 0 0.034999766058405157 -0.030243708782778499 0 0.03526033326868222 -0.031336467548837857 0 0.034999228585523921 -0.032004732093359689 0 0.03526033326868222 -0.031336467548837857 0 0.035431536440603401 -0.032247303852933215 0 0.034999228585523921 -0.032004732093359689 0 0.035666311942033548 -0.030166145918711071 0 0.03526033326868222 -0.031336467548837857 0 0.035431536440603401 -0.032247303852933215 0 0.033043151544509541 -0.030586153476024124 0 0.032423720260018586 -0.03176173498401369 0 0.032908253828205676 -0.031557085631483323 0 0.034433779004430405 -0.030091350735562288 0 0.03390519439559745 -0.031916224406102721 0 0.033043151544509541 -0.030586153476024124 0 0.033119126578631038 -0.029786729040122344 0 0.032423720260018586 -0.03176173498401369 0 0.032423720260018586 -0.03176173498401369 0 0.033390447864910647 -0.033027161476084158 0 0.032810319396105035 -0.032559756497720804 0 0.035431536440603401 -0.032247303852933215 0 0.03494538710579384 -0.032871313790448949 0 0.033390447864910647 -0.033027161476084158 0 0.03390519439559745 -0.031916224406102721 0 0.033470080378210511 -0.032793702268697551 0 0.035431536440603401 -0.032247303852933215 0 0.034999228585523921 -0.032004732093359689 0 0.03494538710579384 -0.032871313790448949 0 0.034999753211280064 -0.033759394596058194 0 0.03494538710579384 -0.032871313790448949 0 0.034399767509279006 -0.032804221552611437 0 0.034999228585523921 -0.032004732093359689 0 0.034999753211280064 -0.033759394596058194 0 0.03494538710579384 -0.032871313790448949 0 0.03494538710579384 -0.032871313790448949 0 0.034399767509279006 -0.032804221552611437 0 0.033390447864910647 -0.033027161476084158 0 0.034399767509279006 -0.032804221552611437 0 0.032993860207893466 -0.032423769029546357 0 0.033390447864910647 -0.033027161476084158 0 0.033702241222420284 -0.034300420996208628 0 0.032287371051221397 -0.034999757125472104 0 0.034399767509279006 -0.032804221552611437 0 0.034239668891796179 -0.032125846449305343 0 0.032993860207893466 -0.032423769029546357 0 0.033417235696402585 -0.034999994381318816 0 0.033393322892675013 -0.035500379149791685 0 0.03228798827434206 -0.034999999076382744 0 0.033417235696402585 -0.034999994381318816 0 0.033393322892675013 -0.035500379149791685 0 0.034546479107590358 -0.034999999548014298 0 0.033702241222420284 -0.034300420996208628 0 0.032396240760717461 -0.033571121868345467 0 0.033702241222420284 -0.034300420996208628 0 0.034546766944748501 -0.034999919711770987 0 0.035000711253632445 -0.033762383770205767 0 0.033702241222420284 -0.034300420996208628 0 0.034999773701053692 -0.033764282619089293 0 0.034998171666023439 -0.03499932931516523 0 0.03455033769797302 -0.034999891458807872 0 0.034999773701053692 -0.033764282619089293 0 0.035445397420053676 -0.034600744007789778 0 0.03455033769797302 -0.034999891458807872 0 0.034999753211280064 -0.033759394596058194 0 0.034399767509279006 -0.032804221552611437 0 0.034239668891796179 -0.032125846449305343 0 0.031622250565829318 -0.034628338196500338 0 0.032285064597056962 -0.034998608379398839 0 0.030304607633121431 -0.034998342996677458 0 0.031622250565829318 -0.034628338196500338 0 0.031758733929230155 -0.033702188212764848 0 0.030304607633121431 -0.034998342996677458 0 0.031508488758983842 -0.034770724559287529 0 0.032285064597056962 -0.034998608379398839 0 0.031840572019830718 -0.034575030618841172 0 0.031622250565829318 -0.034628338196500338 0 0.032285064597056962 -0.034998608379398839 0 0.031840572019830718 -0.034575030618841172 0 0.031622250565829318 -0.034628338196500338 0 0.031840572019830718 -0.034575030618841172 0 0.031758733929230155 -0.033702188212764848 0 0.032396240760717461 -0.033571121868345467 0 0.032016407856315078 -0.033627480606597572 0 0.032993860207893466 -0.032423769029546357 0 0.032560558049255943 -0.033160371930163746 0 0.031758733929230155 -0.033702188212764848 0 0.032993860207893466 -0.032423769029546357 0 0.033390447864910647 -0.033027161476084158 0 0.032560558049255943 -0.033160371930163746 0 0.033390447864910647 -0.033027161476084158 0 0.032560558049255943 -0.033160371930163746 0 0.032810319396105035 -0.032559756497720804 0 0.032560558049255943 -0.033160371930163746 0 0.031758733929230155 -0.033702188212764848 0 0.032398101443982828 -0.032723592511739806 0 0.031758733929230155 -0.033702188212764848 0 0.032398101443982828 -0.032723592511739806 0 0.03172972374525785 -0.03302891287340718 0 0.032398101443982828 -0.032723592511739806 0 0.032579666417862557 -0.031771972400653506 0 0.03172972374525785 -0.03302891287340718 0 0.032423720260018586 -0.03176173498401369 0 0.032810319396105035 -0.032559756497720804 0 0.032908253828205676 -0.031557085631483323 0 0.032398101443982828 -0.032723592511739806 0 0.032810319396105035 -0.032559756497720804 0 0.032908253828205676 -0.031557085631483323 0 0.032560558049255943 -0.033160371930163746 0 0.032398101443982828 -0.032723592511739806 0 0.032810319396105035 -0.032559756497720804 0 0.033292125219497863 -0.030281040922255763 0 0.033043151544509541 -0.030586153476024124 0 0.032908253828205676 -0.031557085631483323 0 0.033039630883433674 -0.030932082482457827 0 0.032908253828205676 -0.031557085631483323 0 0.032579666417862557 -0.031771972400653506 0 0.032398101443982828 -0.032723592511739806 0 0.032908253828205676 -0.031557085631483323 0 0.032579666417862557 -0.031771972400653506 0 0.032579666417862557 -0.031771972400653506 0 0.032158190245057984 -0.031972994726519578 0 0.033068946342129188 -0.030582349165388743 0 0.032158190245057984 -0.031972994726519578 0 0.031805745512967047 -0.032243160106687402 0 0.032771506671872279 -0.030905016657351146 0 0.031115712458683185 -0.033246097392457215 0 0.030968647147461746 -0.033198068959708872 0 0.031805745512967047 -0.032243160106687402 0 0.032158190245057984 -0.031972994726519578 0 0.031115712458683185 -0.033246097392457215 0 0.031805745512967047 -0.032243160106687402 0 0.032579666417862557 -0.031771972400653506 0 0.032158190245057984 -0.031972994726519578 0 0.03172972374525785 -0.03302891287340718 0 0.032158190245057984 -0.031972994726519578 0 0.031115712458683185 -0.033246097392457215 0 0.03172972374525785 -0.03302891287340718 0 0.031115712458683185 -0.033246097392457215 0 0.03172972374525785 -0.03302891287340718 0 0.030610045835595356 -0.034192245091380732 0 0.031758733929230155 -0.033702188212764848 0 0.03172972374525785 -0.03302891287340718 0 0.030610045835595356 -0.034192245091380732 0 0.031115712458683185 -0.033246097392457215 0 0.030610045835595356 -0.034192245091380732 0 0.029777673818311277 -0.034342915340485509 0 0.031115712458683185 -0.033246097392457215 0 0.029777673818311277 -0.034342915340485509 0 0.030968647147461746 -0.033198068959708872 0 0.030610045835595356 -0.034192245091380732 0 0.029777673818311277 -0.034342915340485509 0 0.02832187221119296 -0.034999368978131974 0 0.030610045835595356 -0.034192245091380732 0 0.030304607633121431 -0.034998342996677458 0 0.02832187221119296 -0.034999368978131974 0 0.031758733929230155 -0.033702188212764848 0 0.030610045835595356 -0.034192245091380732 0 0.030304607633121431 -0.034998342996677458 0 0.026334951640497282 -0.034999205358888126 0 0.028764072948563719 -0.035247928314588374 0 0.025882520969074993 -0.036271601752337256 0 0.028896112467815215 -0.035285552123848922 0 0.029060397160261243 -0.035354077537522607 0 0.026334951640497282 -0.034999205358888126 0 0.02832187221119296 -0.034999368978131974 0 0.028764072948563719 -0.035247928314588374 0 0.029777673818311277 -0.034342915340485509 0 0.02832187221119296 -0.034999368978131974 0 0.028764072948563719 -0.035247928314588374 0 0.029777673818311277 -0.034342915340485509 0 0.030771996440434216 -0.033685013818804004 0 0.030968647147461746 -0.033198068959708872 0 0.029777673818311277 -0.034342915340485509 0 0.028764072948563719 -0.035247928314588374 0 0.030771996440434216 -0.033685013818804004 0 0.028764072948563719 -0.035247928314588374 0 0.030771996440434216 -0.033685013818804004 0 0.032624536318618828 -0.034485435471992891 0 0.030771996440434216 -0.033685013818804004 0 0.031725908031334349 -0.032589904001520842 0 0.032916319381512446 -0.032858174353687562 0 0.031725908031334349 -0.032589904001520842 0 0.033170791781429426 -0.031507691432601223 0 0.032916319381512446 -0.032858174353687562 0 0.031725908031334349 -0.032589904001520842 0 0.030968647147461746 -0.033198068959708872 0 0.031805745512967047 -0.032243160106687402 0 0.030771996440434216 -0.033685013818804004 0 0.031725908031334349 -0.032589904001520842 0 0.030968647147461746 -0.033198068959708872 0 0.031725908031334349 -0.032589904001520842 0 0.031805745512967047 -0.032243160106687402 0 0.032430596004557465 -0.031581107238978418 0 0.031805745512967047 -0.032243160106687402 0 0.032430596004557465 -0.031581107238978418 0 0.032771506671872279 -0.030905016657351146 0 0.031725908031334349 -0.032589904001520842 0 0.032430596004557465 -0.031581107238978418 0 0.033170791781429426 -0.031507691432601223 0 0.033099131666341715 -0.030738091982587167 0 0.033682427046517825 -0.030539075495136032 0 0.033170791781429426 -0.031507691432601223 0 0.032430596004557465 -0.031581107238978418 0 0.033099131666341715 -0.030738091982587167 0 0.033170791781429426 -0.031507691432601223 0 0.033099131666341715 -0.030738091982587167 0 0.033511339374148408 -0.030099916749837499 0 0.033682427046517825 -0.030539075495136032 0 0.033511339374148408 -0.030099916749837499 0 0.033835444626720924 -0.029899926202168931 0 0.033682427046517825 -0.030539075495136032 0 0.033099131666341715 -0.030738091982587167 0 0.033511339374148408 -0.030099916749837499 0 0.033382781040070593 -0.029994780767135378 0 0.033099131666341715 -0.030738091982587167 0 0.033382781040070593 -0.029994780767135378 0 0.032771506671872279 -0.030905016657351146 0 0.032430596004557465 -0.031581107238978418 0 0.033099131666341715 -0.030738091982587167 0 0.032771506671872279 -0.030905016657351146 0 0.032771506671872279 -0.030905016657351146 0 0.033068946342129188 -0.030582349165388743 0 0.033282258056110785 -0.030105382162388575 0 0.032158190245057984 -0.031972994726519578 0 0.032771506671872279 -0.030905016657351146 0 0.033068946342129188 -0.030582349165388743 0 0.033068946342129188 -0.030582349165388743 0 0.033282258056110785 -0.030105382162388575 0 0.033676961865267391 -0.029494411067259904 0 0.033756552746568129 -0.029422914942819164 0 0.033068946342129188 -0.030582349165388743 0 0.033676961865267391 -0.029494411067259904 0 0.033382781040070593 -0.029994780767135378 0 0.032771506671872279 -0.030905016657351146 0 0.033282258056110785 -0.030105382162388575 0 0.033382781040070593 -0.029994780767135378 0 0.033282258056110785 -0.030105382162388575 0 0.033766191908772593 -0.02921292002361869 0 0.033282258056110785 -0.030105382162388575 0 0.033766191908772593 -0.02921292002361869 0 0.033676961865267391 -0.029494411067259904 0 0.034384255591336219 -0.028477566128204783 0 0.033766191908772593 -0.02921292002361869 0 0.033676961865267391 -0.029494411067259904 0 0.034384255591336219 -0.028477566128204783 0 0.033766191908772593 -0.02921292002361869 0 0.034235604591982313 -0.028548293849856469 0 0.034384255591336219 -0.028477566128204783 0 0.034235604591982313 -0.028548293849856469 0 0.035292595886688698 -0.027557224768180063 0 0.033766191908772593 -0.02921292002361869 0 0.034235604591982313 -0.028548293849856469 0 0.033918735382256773 -0.028832069168315318 0 0.033766191908772593 -0.02921292002361869 0 0.033918735382256773 -0.028832069168315318 0 0.033737299711265219 -0.029391821087492574 0 0.033918735382256773 -0.028832069168315318 0 0.033737299711265219 -0.029391821087492574 0 0.033955409990922482 -0.028794593220332988 0 0.033737299711265219 -0.029391821087492574 0 0.0340355577528689 -0.02933745735783207 0 0.033955409990922482 -0.028794593220332988 0 0.033737299711265219 -0.029391821087492574 0 0.033835444626720924 -0.029899926202168931 0 0.0340355577528689 -0.02933745735783207 0 0.033511339374148408 -0.030099916749837499 0 0.033737299711265219 -0.029391821087492574 0 0.033835444626720924 -0.029899926202168931 0 0.033511339374148408 -0.030099916749837499 0 0.033382781040070593 -0.029994780767135378 0 0.033737299711265219 -0.029391821087492574 0 0.033382781040070593 -0.029994780767135378 0 0.033766191908772593 -0.02921292002361869 0 0.033737299711265219 -0.029391821087492574 0 0.034230404665067785 -0.030161138042017806 0 0.034300691951939549 -0.030209412379279512 0 0.034373686644915094 -0.0302058299756502 0 0.034243974809672902 -0.0301202800061409 0 0.034153646535494971 -0.029740413284172564 0 0.034230404665067785 -0.030161138042017806 0 0.033835444626720924 -0.029899926202168931 0 0.0340355577528689 -0.02933745735783207 0 0.034320125202218416 -0.030221294124322461 0 0.034300691951939549 -0.030209412379279512 0 0.034324444521197504 -0.030227863657675307 0 0.034230404665067785 -0.030161138042017806 0 0.034320125202218416 -0.030221294124322461 0 0.034300691951939549 -0.030209412379279512 0 0.034300691951939549 -0.030209412379279512 0 0.034265635145894702 -0.030237567342500628 0 0.034373686644915094 -0.0302058299756502 0 0.034265635145894702 -0.030237567342500628 0 0.034261482212995693 -0.03017343230941387 0 0.034373686644915094 -0.0302058299756502 0 0.034265635145894702 -0.030237567342500628 0 0.034261482212995693 -0.03017343230941387 0 0.034085575849971982 -0.030370582541073683 0 0.034261482212995693 -0.03017343230941387 0 0.034373686644915094 -0.0302058299756502 0 0.034735745433170387 -0.030558469399613444 0 0.019123422110170648 -0.038787468314676929 0 0.019807338236294582 -0.038375253500305045 0 0.019217198977575407 -0.038642626678559784 0 0.0266712193459759 -0.034425072314935891 0 0.027215454642057615 -0.034489920911088719 0 0.034230404665067785 -0.030161138042017806 0 0.034373686644915094 -0.0302058299756502 0 0.034262116041731856 -0.030832167805882986 0 0.034373686644915094 -0.0302058299756502 0 0.034735745433170387 -0.030558469399613444 0 0.034262116041731856 -0.030832167805882986 0 0.027215454642057615 -0.034489920911088719 0 0.027998489423371659 -0.034484928490173102 0 0.019807338236294582 -0.038375253500305045 0 0.020308881258950699 -0.03747664118441596 0 0.019318182698789765 -0.037945144919481796 0 0.034735745433170387 -0.030558469399613444 0 0.034262116041731856 -0.030832167805882986 0 0.035025579367819644 -0.03159225052470991 0 0.034230404665067785 -0.030161138042017806 0 0.034262116041731856 -0.030832167805882986 0 0.033682427046517825 -0.030539075495136032 0 0.034230404665067785 -0.030161138042017806 0 0.033835444626720924 -0.029899926202168931 0 0.033682427046517825 -0.030539075495136032 0 0.034262116041731856 -0.030832167805882986 0 0.033682427046517825 -0.030539075495136032 0 0.033170791781429426 -0.031507691432601223 0 0.034262116041731856 -0.030832167805882986 0 0.033170791781429426 -0.031507691432601223 0 0.034105598699452691 -0.032166115359570313 0 0.034105598699452691 -0.032166115359570313 0 0.032916319381512446 -0.032858174353687562 0 0.034066178558063584 -0.033616399418295161 0 0.033170791781429426 -0.031507691432601223 0 0.034105598699452691 -0.032166115359570313 0 0.032916319381512446 -0.032858174353687562 0 0.032916319381512446 -0.032858174353687562 0 0.034066178558063584 -0.033616399418295161 0 0.032624536318618828 -0.034485435471992891 0 0.030771996440434216 -0.033685013818804004 0 0.032916319381512446 -0.032858174353687562 0 0.032624536318618828 -0.034485435471992891 0 0.024414794478712028 -0.036537106737346975 0 0.025882520969074993 -0.036271601752337256 0 0.025152380715197133 -0.035743190088729677 0 0.029950333118930399 -0.034969949492928504 0 0.029060397160261243 -0.035354077537522607 0 0.024414794478712028 -0.036537106737346975 0 0.024348079354651206 -0.03500029099375207 0 0.025152380715197133 -0.035743190088729677 0 0.026334951640497282 -0.034999205358888126 0 0.025882520969074993 -0.036271601752337256 0 0.025152380715197133 -0.035743190088729677 0 0.026334951640497282 -0.034999205358888126 0 0.024348079354651206 -0.03500029099375207 0 0.025152380715197133 -0.035743190088729677 0 0.022363244429196134 -0.034999706519297638 0 0.023029829198738389 -0.035484789056086201 0 0.021394618626212281 -0.035885347322564341 0 0.024348079354651206 -0.03500029099375207 0 0.022363244429196134 -0.034999706519297638 0 0.023029829198738389 -0.035484789056086201 0 0.024414794478712028 -0.036537106737346975 0 0.024348079354651206 -0.03500029099375207 0 0.023029829198738389 -0.035484789056086201 0 0.024414794478712028 -0.036537106737346975 0 0.023029829198738389 -0.035484789056086201 0 0.022896344955130689 -0.036948443413493424 0 0.029950333118930399 -0.034969949492928504 0 0.025261499448948708 -0.03512229386662654 0 0.022673100907725865 -0.036312119496655068 0 0.025261499448948708 -0.03512229386662654 0 0.022661741372315487 -0.036820559547488911 0 0.020051608005710746 -0.036971419087746933 0 0.021394618626212281 -0.035885347322564341 0 0.023029829198738389 -0.035484789056086201 0 0.022661741372315487 -0.036820559547488911 0 0.021394618626212281 -0.035885347322564341 0 0.025261499448948708 -0.03512229386662654 0 0.018558094074165154 -0.037625236260015876 0 0.020522038023734479 -0.03685113517111778 0 0.020308881258950699 -0.03747664118441596 0 0.020051608005710746 -0.036971419087746933 0 0.025261499448948708 -0.03512229386662654 0 0.027998489423371659 -0.034484928490173102 0 0.034105598699452691 -0.032166115359570313 0 0.034066178558063584 -0.033616399418295161 0 0.03504482751607494 -0.033124366514356032 0 0.034105598699452691 -0.032166115359570313 0 0.03504482751607494 -0.033124366514356032 0 0.035025579367819644 -0.03159225052470991 0 0.034262116041731856 -0.030832167805882986 0 0.034105598699452691 -0.032166115359570313 0 0.035025579367819644 -0.03159225052470991 0 0.020308881258950699 -0.03747664118441596 0 0.020051608005710746 -0.036971419087746933 0 0.019318182698789765 -0.037945144919481796 0 0.020051608005710746 -0.036971419087746933 0 0.018648050591488104 -0.037137846806478456 0 0.019318182698789765 -0.037945144919481796 0 0.018648050591488104 -0.037137846806478456 0 0.01773786131736705 -0.037837574313387766 0 0.019318182698789765 -0.037945144919481796 0 0.020051608005710746 -0.036971419087746933 0 0.019438903429067508 -0.036125765541239759 0 0.018648050591488104 -0.037137846806478456 0 0.020051608005710746 -0.036971419087746933 0 0.021394618626212281 -0.035885347322564341 0 0.019438903429067508 -0.036125765541239759 0 0.021394618626212281 -0.035885347322564341 0 0.019438903429067508 -0.036125765541239759 0 0.020377986974254296 -0.03499980036419769 0 0.022363244429196134 -0.034999706519297638 0 0.021394618626212281 -0.035885347322564341 0 0.020377986974254296 -0.03499980036419769 0 0.017318738561591839 -0.035726488336537285 0 0.018393376467537758 -0.034999852739223389 0 0.017944836587880576 -0.036359548992751657 0 0.019438903429067508 -0.036125765541239759 0 0.020377986974254296 -0.03499980036419769 0 0.018393376467537758 -0.034999852739223389 0 0.019438903429067508 -0.036125765541239759 0 0.018393376467537758 -0.034999852739223389 0 0.017944836587880576 -0.036359548992751657 0 0.019438903429067508 -0.036125765541239759 0 0.017944836587880576 -0.036359548992751657 0 0.018648050591488104 -0.037137846806478456 0 0.01653504173133527 -0.036385330172847404 0 0.017944836587880576 -0.036359548992751657 0 0.017311676554228637 -0.037290839020197225 0 0.017944836587880576 -0.036359548992751657 0 0.018648050591488104 -0.037137846806478456 0 0.017311676554228637 -0.037290839020197225 0 0.018648050591488104 -0.037137846806478456 0 0.017311676554228637 -0.037290839020197225 0 0.01773786131736705 -0.037837574313387766 0 0.0163832401098781 -0.037934441564949753 0 0.017311676554228637 -0.037290839020197225 0 0.01773786131736705 -0.037837574313387766 0 0.0163832401098781 -0.037934441564949753 0 0.01773786131736705 -0.037837574313387766 0 0.016577090438271637 -0.038071132778670413 0 0.01773786131736705 -0.037837574313387766 0 0.016874958582323782 -0.037901095740984561 0 0.016577090438271637 -0.038071132778670413 0 0.017691943760274321 -0.037814290674841745 0 0.017815186528041781 -0.038237314807876614 0 0.01773786131736705 -0.037837574313387766 0 0.019318182698789765 -0.037945144919481796 0 0.018741036889056761 -0.03869099285466511 0 0.019807338236294582 -0.038375253500305045 0 0.019318182698789765 -0.037945144919481796 0 0.019217198977575407 -0.038642626678559784 0 0.019318182698789765 -0.037945144919481796 0 0.018741036889056761 -0.03869099285466511 0 0.019217198977575407 -0.038642626678559784 0 0.017815186528041781 -0.038237314807876614 0 0.018061068104190892 -0.038381232148693462 0 0.018741036889056761 -0.03869099285466511 0 0.019217198977575407 -0.038642626678559784 0 0.019037962183687217 -0.038800756260584372 0 0.019123422110170648 -0.038787468314676929 0 0.019217198977575407 -0.038642626678559784 0 0.019037962183687217 -0.038800756260584372 0 0.019123422110170648 -0.038787468314676929 0 0.019037962183687217 -0.038800756260584372 0 0.018724354617896601 -0.038691021517135528 0 0.016874958582323782 -0.037901095740984561 0 0.017070168510262485 -0.037864837955621157 0 0.016647969574497712 -0.03798776615677283 0 0.016647969574497712 -0.03798776615677283 0 0.016407125441689801 -0.038039430474501659 0 0.016087410002316848 -0.03820397658574165 0 0.016407125441689801 -0.038039430474501659 0 0.015867154223800538 -0.038218621602157089 0 0.016087410002316848 -0.03820397658574165 0 0.015970440102489551 -0.038204597113947233 0 0.015867154223800538 -0.038218621602157089 0 0.016577090438271637 -0.038071132778670413 0 0.016407125441689801 -0.038039430474501659 0 0.015867154223800538 -0.038218621602157089 0 0.016577090438271637 -0.038071132778670413 0 0.016874958582323782 -0.037901095740984561 0 0.016407125441689801 -0.038039430474501659 0 0.016577090438271637 -0.038071132778670413 0 0.016874958582323782 -0.037901095740984561 0 0.016647969574497712 -0.03798776615677283 0 0.016407125441689801 -0.038039430474501659 0 0.016087410002316848 -0.03820397658574165 0 0.016873949709076436 -0.038454680412928238 0 0.016517108878964081 -0.039412299952874548 0 0.015298861108990864 -0.03835167440443208 0 0.016087410002316848 -0.03820397658574165 0 0.016517108878964081 -0.039412299952874548 0 0.015289645749533435 -0.038335614106143209 0 0.015238889909765643 -0.038696520018024531 0 0.015867154223800538 -0.038218621602157089 0 0.015298861108990864 -0.03835167440443208 0 0.016087410002316848 -0.03820397658574165 0 0.016647969574497712 -0.03798776615677283 0 0.016087410002316848 -0.03820397658574165 0 0.016873949709076436 -0.038454680412928238 0 0.017070168510262485 -0.037864837955621157 0 0.016873949709076436 -0.038454680412928238 0 0.017474673236853002 -0.038697744635406282 0 0.017070168510262485 -0.037864837955621157 0 0.016647969574497712 -0.03798776615677283 0 0.016873949709076436 -0.038454680412928238 0 0.017070168510262485 -0.037864837955621157 0 0.018269265854213845 -0.038644345921892288 0 0.017474673236853002 -0.038697744635406282 0 0.019037962183687217 -0.038800756260584372 0 0.018724354617896601 -0.038691021517135528 0 0.018269265854213845 -0.038644345921892288 0 0.018061068104190892 -0.038381232148693462 0 0.018286800312171503 -0.038688218459153316 0 0.018724354617896601 -0.038691021517135528 0 0.018269265854213845 -0.038644345921892288 0 0.018440223785692583 -0.038587395643628834 0 0.024160442430478518 -0.034917646939000388 0 0.026347845050021398 -0.034714843716182033 0 0.018269265854213845 -0.038644345921892288 0 0.017946433262391863 -0.039230128110890071 0 0.018440223785692583 -0.038587395643628834 0 0.018269265854213845 -0.038644345921892288 0 0.017474673236853002 -0.038697744635406282 0 0.01777791738770124 -0.038998369520752051 0 0.017474673236853002 -0.038697744635406282 0 0.01777791738770124 -0.038998369520752051 0 0.017393509078968972 -0.039180441823515287 0 0.01777791738770124 -0.038998369520752051 0 0.017393509078968972 -0.039180441823515287 0 0.017946433262391863 -0.039230128110890071 0 0.018269265854213845 -0.038644345921892288 0 0.01777791738770124 -0.038998369520752051 0 0.017946433262391863 -0.039230128110890071 0 0.016873949709076436 -0.038454680412928238 0 0.017393509078968972 -0.039180441823515287 0 0.016517108878964081 -0.039412299952874548 0 0.016873949709076436 -0.038454680412928238 0 0.017474673236853002 -0.038697744635406282 0 0.017393509078968972 -0.039180441823515287 0 0.017393509078968972 -0.039180441823515287 0 0.017643813288363105 -0.040140640370639927 0 0.016517108878964081 -0.039412299952874548 0 0.013347458895423749 -0.037088993207447102 0 0.014296694586003014 -0.037045301504245363 0 0.014026681919083206 -0.037605646656550931 0 0.016255807180844115 -0.036930229465027435 0 0.015238889909765643 -0.038696520018024531 0 0.017946433262391863 -0.039230128110890071 0 0.018168100514184615 -0.039861254343611874 0 0.017643813288363105 -0.040140640370639927 0 0.017393509078968972 -0.039180441823515287 0 0.017946433262391863 -0.039230128110890071 0 0.017643813288363105 -0.040140640370639927 0 0.017946433262391863 -0.039230128110890071 0 0.018168100514184615 -0.039861254343611874 0 0.018440223785692583 -0.038587395643628834 0 0.016361774088821727 -0.034367998945862607 0 0.016794836264119754 -0.034645524297446967 0 0.015852544392588788 -0.034874051070208009 0 0.01572500807887255 -0.032675279988877738 0 0.015606148508650153 -0.032686575201274153 0 0.015678670319883736 -0.032736110820148531 0 0.01758760713924129 -0.034041074960944682 0 0.015625318337837344 -0.033820609528037809 0 0.020234474559722666 -0.034659053713653243 0 0.01987030042228629 -0.035923807252644782 0 0.020056782805749174 -0.036044136630549471 0 0.024160442430478518 -0.034917646939000388 0 0.016255807180844115 -0.036930229465027435 0 0.020234474559722666 -0.034659053713653243 0 0.018936548547947296 -0.035327110174716687 0 0.01987030042228629 -0.035923807252644782 0 0.024160442430478518 -0.034917646939000388 0 0.018513289017782306 -0.033466532268449055 0 0.016255807180844115 -0.036930229465027435 0 0.01758760713924129 -0.034041074960944682 0 0.01572500807887255 -0.032675279988877738 0 0.015734407449843415 -0.03268229269858982 0 0.015678670319883736 -0.032736110820148531 0 0.01758760713924129 -0.034041074960944682 0 0.018513289017782306 -0.033466532268449055 0 0.013347458895423749 -0.037088993207447102 0 0.014296694586003014 -0.037045301504245363 0 0.014192465179136717 -0.036641235318920641 0 0.015625318337837344 -0.033820609528037809 0 0.014759027481272686 -0.034383394832559235 0 0.016361774088821727 -0.034367998945862607 0 0.015852544392588788 -0.034874051070208009 0 0.014911091226272266 -0.035098719220807338 0 0.016255807180844115 -0.036930229465027435 0 0.014759027481272686 -0.034383394832559235 0 0.014296694586003014 -0.037045301504245363 0 0.014546967877335107 -0.036790549030960892 0 0.014192465179136717 -0.036641235318920641 0 0.014296694586003014 -0.037045301504245363 0 0.014026681919083206 -0.037605646656550931 0 0.014736287357403594 -0.037171421096886585 0 0.015298861108990864 -0.03835167440443208 0 0.014026681919083206 -0.037605646656550931 0 0.014736287357403594 -0.037171421096886585 0 0.015102175417237969 -0.037573658438171703 0 0.015298861108990864 -0.03835167440443208 0 0.014736287357403594 -0.037171421096886585 0 0.014934888917220179 -0.036951047081935549 0 0.015102175417237969 -0.037573658438171703 0 0.014736287357403594 -0.037171421096886585 0 0.014934888917220179 -0.036951047081935549 0 0.014736287357403594 -0.037171421096886585 0 0.014755017001006695 -0.036764717692167687 0 0.014736287357403594 -0.037171421096886585 0 0.014546967877335107 -0.036790549030960892 0 0.014755017001006695 -0.036764717692167687 0 0.014296694586003014 -0.037045301504245363 0 0.014736287357403594 -0.037171421096886585 0 0.014546967877335107 -0.036790549030960892 0 0.014546967877335107 -0.036790549030960892 0 0.014755017001006695 -0.036764717692167687 0 0.014734161818214683 -0.036483214122820871 0 0.014546967877335107 -0.036790549030960892 0 0.014734161818214683 -0.036483214122820871 0 0.014192465179136717 -0.036641235318920641 0 0.015415574418290742 -0.032651320239536756 0 0.014759027481272686 -0.034383394832559235 0 0.015074459688657504 -0.033151010940515729 0 0.015439837501519487 -0.03271473574331199 0 0.015305615425413286 -0.03297369593703578 0 0.014884070289900811 -0.034837020186440228 0 0.014759027481272686 -0.034383394832559235 0 0.015082783100901992 -0.033106373456338212 0 0.015074459688657504 -0.033151010940515729 0 0.015183457245165384 -0.033103951925709661 0 0.015439837501519487 -0.03271473574331199 0 0.015452811788325681 -0.032915652840399504 0 0.015587358927922111 -0.032818854916570973 0 0.015439837501519487 -0.03271473574331199 0 0.015452811788325681 -0.032915652840399504 0 0.015305615425413286 -0.03297369593703578 0 0.015452811788325681 -0.032915652840399504 0 0.015305615425413286 -0.03297369593703578 0 0.015302903774814932 -0.033018775390535111 0 0.015452811788325681 -0.032915652840399504 0 0.015302903774814932 -0.033018775390535111 0 0.015431129969034275 -0.03293847014229534 0 0.015452811788325681 -0.032915652840399504 0 0.015431129969034275 -0.03293847014229534 0 0.015540495623355468 -0.032879088671395426 0 0.015074459688657504 -0.033151010940515729 0 0.015305615425413286 -0.03297369593703578 0 0.015175368215440466 -0.033115190135807729 0 0.015053277617502862 -0.033252561596618338 0 0.015074459688657504 -0.033151010940515729 0 0.015175368215440466 -0.033115190135807729 0 0.015305615425413286 -0.03297369593703578 0 0.015302903774814932 -0.033018775390535111 0 0.015175368215440466 -0.033115190135807729 0 0.015302903774814932 -0.033018775390535111 0 0.015175368215440466 -0.033115190135807729 0 0.015151716431799332 -0.033121867815321393 0 0.015053277617502862 -0.033252561596618338 0 0.015175368215440466 -0.033115190135807729 0 0.015151716431799332 -0.033121867815321393 0 0.015015707829901715 -0.033224885644992722 0 0.015151716431799332 -0.033121867815321393 0 0.015149909864448611 -0.033063847468652798 0 0.015149909864448611 -0.033063847468652798 0 0.015304930620113334 -0.032997926579415054 0 0.015346798110457752 -0.032930096943437376 0 0.015151716431799332 -0.033121867815321393 0 0.015149909864448611 -0.033063847468652798 0 0.015304930620113334 -0.032997926579415054 0 0.015302903774814932 -0.033018775390535111 0 0.015151716431799332 -0.033121867815321393 0 0.015304930620113334 -0.032997926579415054 0 0.015302903774814932 -0.033018775390535111 0 0.015431129969034275 -0.03293847014229534 0 0.015304930620113334 -0.032997926579415054 0 0.015431129969034275 -0.03293847014229534 0 0.015475040162263342 -0.032900115132450315 0 0.015304930620113334 -0.032997926579415054 0 0.015431129969034275 -0.03293847014229534 0 0.015475040162263342 -0.032900115132450315 0 0.015540495623355468 -0.032879088671395426 0 0.015475040162263342 -0.032900115132450315 0 0.015304930620113334 -0.032997926579415054 0 0.015346798110457752 -0.032930096943437376 0 0.015346798110457752 -0.032930096943437376 0 0.015555912199927314 -0.032831662582772404 0 0.015508751787561925 -0.032861853726841382 0 0.015475040162263342 -0.032900115132450315 0 0.015346798110457752 -0.032930096943437376 0 0.015555912199927314 -0.032831662582772404 0 0.015149909864448611 -0.033063847468652798 0 0.015346798110457752 -0.032930096943437376 0 0.015100068228173164 -0.033000765699316877 0 0.015882275293371221 -0.032679795610305457 0 0.015808734478977779 -0.032757494159060062 0 0.015945991666919596 -0.032645507467102375 0 0.015882275293371221 -0.032679795610305457 0 0.01604090835591249 -0.032530081385265114 0 0.015945991666919596 -0.032645507467102375 0 0.015882275293371221 -0.032679795610305457 0 0.01604090835591249 -0.032530081385265114 0 0.015990881662007576 -0.032569024894919363 0 0.015882275293371221 -0.032679795610305457 0 0.015753987788974935 -0.032725149040961819 0 0.015990881662007576 -0.032569024894919363 0 0.015882275293371221 -0.032679795610305457 0 0.015753987788974935 -0.032725149040961819 0 0.015632227098460013 -0.032822607881898863 0 0.015555912199927314 -0.032831662582772404 0 0.015753987788974935 -0.032725149040961819 0 0.015508751787561925 -0.032861853726841382 0 0.015555912199927314 -0.032831662582772404 0 0.015753987788974935 -0.032725149040961819 0 0.015632227098460013 -0.032822607881898863 0 0.015632227098460013 -0.032822607881898863 0 0.015808734478977779 -0.032757494159060062 0 0.01566327383086592 -0.032815757598653371 0 0.015475040162263342 -0.032900115132450315 0 0.015555912199927314 -0.032831662582772404 0 0.015632227098460013 -0.032822607881898863 0 0.015475040162263342 -0.032900115132450315 0 0.015632227098460013 -0.032822607881898863 0 0.015540495623355468 -0.032879088671395426 0 0.015632227098460013 -0.032822607881898863 0 0.015540495623355468 -0.032879088671395426 0 0.01566327383086592 -0.032815757598653371 0 0.015882275293371221 -0.032679795610305457 0 0.015632227098460013 -0.032822607881898863 0 0.015808734478977779 -0.032757494159060062 0 0.015808734478977779 -0.032757494159060062 0 0.015874350566715087 -0.032728840517335392 0 0.015887515546894316 -0.032739528624070792 0 0.015839224237949551 -0.032812858324677271 0 0.015572618866373421 -0.03264020730511407 0 0.015808734478977779 -0.032757494159060062 0 0.015695402138097676 -0.032805375231324138 0 0.01566327383086592 -0.032815757598653371 0 0.015808734478977779 -0.032757494159060062 0 0.015891917196902146 -0.032713135073231384 0 0.015874350566715087 -0.032728840517335392 0 0.015695402138097676 -0.032805375231324138 0 0.01566327383086592 -0.032815757598653371 0 0.015587358927922111 -0.032818854916570973 0 0.015540495623355468 -0.032879088671395426 0 0.01566327383086592 -0.032815757598653371 0 0.015587358927922111 -0.032818854916570973 0 0.015452811788325681 -0.032915652840399504 0 0.015540495623355468 -0.032879088671395426 0 0.015587358927922111 -0.032818854916570973 0 0.015606148508650153 -0.032686575201274153 0 0.015439837501519487 -0.03271473574331199 0 0.015587358927922111 -0.032818854916570973 0 0.015606148508650153 -0.032686575201274153 0 0.015587358927922111 -0.032818854916570973 0 0.015678670319883736 -0.032736110820148531 0 0.018513289017782306 -0.033466532268449055 0 0.015572618866373421 -0.03264020730511407 0 0.015695402138097676 -0.032805375231324138 0 0.015587358927922111 -0.032818854916570973 0 0.015678670319883736 -0.032736110820148531 0 0.015734407449843415 -0.03268229269858982 0 0.015695402138097676 -0.032805375231324138 0 0.015678670319883736 -0.032736110820148531 0 0.015928229407864099 -0.032743615147871288 0 0.015891917196902146 -0.032713135073231384 0 0.015902699495457251 -0.032722896162774406 0 0.015902699495457251 -0.032722896162774406 0 0.015901566861562084 -0.032727594441713942 0 0.015894593395592845 -0.032721531727864038 0 0.015928229407864099 -0.032743615147871288 0 0.015902699495457251 -0.032722896162774406 0 0.015901566861562084 -0.032727594441713942 0 0.018513289017782306 -0.033466532268449055 0 0.017390661994391789 -0.033221039536353109 0 0.015797511275575722 -0.032830483202185963 0 0.015822321945076344 -0.032865311214122818 0 0.015999055072353583 -0.032554986450372685 0 0.01577671568265589 -0.032790693926783542 0 0.015797511275575722 -0.032830483202185963 0 0.015999055072353583 -0.032554986450372685 0 0.015792507277986562 -0.03282605245727075 0 0.015797511275575722 -0.032830483202185963 0 0.015791136468389654 -0.032868154933894882 0 0.017390661994391789 -0.033221039536353109 0 0.016315400470519392 -0.032716834793688261 0 0.015797511275575722 -0.032830483202185963 0 0.015760379040733425 -0.032862654855800068 0 0.015822321945076344 -0.032865311214122818 0 0.015760379040733425 -0.032862654855800068 0 0.015651361466076472 -0.03283931452307063 0 0.015822321945076344 -0.032865311214122818 0 0.015797511275575722 -0.032830483202185963 0 0.015760379040733425 -0.032862654855800068 0 0.015791136468389654 -0.032868154933894882 0 0.015760379040733425 -0.032862654855800068 0 0.015791136468389654 -0.032868154933894882 0 0.015765364920163717 -0.032824356878882049 0 0.015760379040733425 -0.032862654855800068 0 0.015765364920163717 -0.032824356878882049 0 0.015651361466076472 -0.03283931452307063 0 0.015891917196902146 -0.032713135073231384 0 0.015894593395592845 -0.032721531727864038 0 0.015874350566715087 -0.032728840517335392 0 0.015891917196902146 -0.032713135073231384 0 0.015902699495457251 -0.032722896162774406 0 0.015894593395592845 -0.032721531727864038 0 0.017390661994391789 -0.033221039536353109 0 0.015825499255946347 -0.032795420490632339 0 0.015791136468389654 -0.032868154933894882 0 0.015887515546894316 -0.032739528624070792 0 0.015765364920163717 -0.032824356878882049 0 0.015894593395592845 -0.032721531727864038 0 0.015874350566715087 -0.032728840517335392 0 0.015887515546894316 -0.032739528624070792 0 0.015825499255946347 -0.032795420490632339 0 0.015880584956215013 -0.032737275496964993 0 0.015808734478977779 -0.032757494159060062 0 0.015887515546894316 -0.032739528624070792 0 0.015945991666919596 -0.032645507467102375 0 0.015887515546894316 -0.032739528624070792 0 0.015763847940865248 -0.032745498391801568 0 0.015841284135690064 -0.032648686919749634 0 0.015887515546894316 -0.032739528624070792 0 0.015765364920163717 -0.032824356878882049 0 0.015763847940865248 -0.032745498391801568 0 0.015765364920163717 -0.032824356878882049 0 0.015651361466076472 -0.03283931452307063 0 0.015763847940865248 -0.032745498391801568 0 0.015651361466076472 -0.03283931452307063 0 0.015622353462945887 -0.032721742125933539 0 0.015512536274799368 -0.032747639394213227 0 0.015651361466076472 -0.03283931452307063 0 0.015622353462945887 -0.032721742125933539 0 0.015763847940865248 -0.032745498391801568 0 0.015622353462945887 -0.032721742125933539 0 0.015763847940865248 -0.032745498391801568 0 0.015654037233722551 -0.032612637488117761 0 0.015654037233722551 -0.032612637488117761 0 0.015774378438672007 -0.032543711504233623 0 0.015841284135690064 -0.032648686919749634 0 0.015763847940865248 -0.032745498391801568 0 0.015654037233722551 -0.032612637488117761 0 0.015841284135690064 -0.032648686919749634 0 0.015654037233722551 -0.032612637488117761 0 0.015412129043006437 -0.032460916920924822 0 0.015411119888201517 -0.032581797111605922 0 0.015622353462945887 -0.032721742125933539 0 0.015654037233722551 -0.032612637488117761 0 0.015411119888201517 -0.032581797111605922 0 0.015654037233722551 -0.032612637488117761 0 0.015611819654581574 -0.032431063023209736 0 0.015412129043006437 -0.032460916920924822 0 0.015654037233722551 -0.032612637488117761 0 0.015611819654581574 -0.032431063023209736 0 0.015774378438672007 -0.032543711504233623 0 0.015611819654581574 -0.032431063023209736 0 0.015774378438672007 -0.032543711504233623 0 0.015816437971335418 -0.032424776170146635 0 0.015774378438672007 -0.032543711504233623 0 0.01589800222287488 -0.032544668733396495 0 0.015816437971335418 -0.032424776170146635 0 0.01589800222287488 -0.032544668733396495 0 0.015991736899221478 -0.032530968927086443 0 0.016064549712696646 -0.032398324228993081 0 0.015774378438672007 -0.032543711504233623 0 0.01589800222287488 -0.032544668733396495 0 0.015841284135690064 -0.032648686919749634 0 0.01604090835591249 -0.032530081385265114 0 0.015991736899221478 -0.032530968927086443 0 0.015945991666919596 -0.032645507467102375 0 0.01589800222287488 -0.032544668733396495 0 0.015991736899221478 -0.032530968927086443 0 0.015945991666919596 -0.032645507467102375 0 0.015887515546894316 -0.032739528624070792 0 0.015945991666919596 -0.032645507467102375 0 0.015841284135690064 -0.032648686919749634 0 0.01589800222287488 -0.032544668733396495 0 0.015945991666919596 -0.032645507467102375 0 0.015841284135690064 -0.032648686919749634 0 0.03683597557061815 -0.022496110518167127 0 0.036974498918821833 -0.022575457027021947 0 0.036714174824621776 -0.022707248263609606 0 0.015362425681310413 -0.032239327387886367 0 0.014681671238973567 -0.031783849701774135 0 0.03683597557061815 -0.022496110518167127 0 0.036779074139662978 -0.022495801900724536 0 0.036714174824621776 -0.022707248263609606 0 0.01537353243656397 -0.032549740332327153 0 0.015359223758794274 -0.032865415372822358 0 0.015264298025680429 -0.031542814788728182 0 0.026249831016207037 -0.027674484578372793 0 0.025281305399065375 -0.027622421412533332 0 0.015098729336749031 -0.032396907177968323 0 0.01537353243656397 -0.032549740332327153 0 0.014085274425941792 -0.031898980154394761 0 0.015412129043006437 -0.032460916920924822 0 0.015411119888201517 -0.032581797111605922 0 0.01511367639254927 -0.032324148711660894 0 0.015098729336749031 -0.032396907177968323 0 0.015411119888201517 -0.032581797111605922 0 0.01511367639254927 -0.032324148711660894 0 0.015098729336749031 -0.032396907177968323 0 0.015411119888201517 -0.032581797111605922 0 0.015415228378132856 -0.032648270513001808 0 0.015411119888201517 -0.032581797111605922 0 0.015415228378132856 -0.032648270513001808 0 0.015512536274799368 -0.032747639394213227 0 0.015098729336749031 -0.032396907177968323 0 0.01537353243656397 -0.032549740332327153 0 0.015415228378132856 -0.032648270513001808 0 0.01537353243656397 -0.032549740332327153 0 0.015415228378132856 -0.032648270513001808 0 0.015359223758794274 -0.032865415372822358 0 0.015415228378132856 -0.032648270513001808 0 0.015359223758794274 -0.032865415372822358 0 0.015512536274799368 -0.032747639394213227 0 0.015651361466076472 -0.03283931452307063 0 0.015359223758794274 -0.032865415372822358 0 0.015512536274799368 -0.032747639394213227 0 0.015622353462945887 -0.032721742125933539 0 0.015411119888201517 -0.032581797111605922 0 0.015512536274799368 -0.032747639394213227 0 0.036779074139662978 -0.022495801900724536 0 0.03682876607972816 -0.022502379811914625 0 0.03679864789035428 -0.022608734505633964 0 0.03683597557061815 -0.022496110518167127 0 0.036779074139662978 -0.022495801900724536 0 0.03682876607972816 -0.022502379811914625 0 0.036803962168529498 -0.022609879800737656 0 0.036786897399762354 -0.022703936373767278 0 0.036809538907249181 -0.02256244353305837 0 0.03682876607972816 -0.022502379811914625 0 0.036803962168529498 -0.022609879800737656 0 0.036809538907249181 -0.02256244353305837 0 0.03682876607972816 -0.022502379811914625 0 0.036803962168529498 -0.022609879800737656 0 0.03679864789035428 -0.022608734505633964 0 0.036803962168529498 -0.022609879800737656 0 0.03679864789035428 -0.022608734505633964 0 0.036798005408643121 -0.022715129861666673 0 0.036803962168529498 -0.022609879800737656 0 0.036786897399762354 -0.022703936373767278 0 0.036798005408643121 -0.022715129861666673 0 0.026249831016207037 -0.027674484578372793 0 0.025911147866558751 -0.027422102351116071 0 0.015651361466076472 -0.03283931452307063 0 0.015359223758794274 -0.032865415372822358 0 0.015822321945076344 -0.032865311214122818 0 0.036779074139662978 -0.022495801900724536 0 0.03679864789035428 -0.022608734505633964 0 0.036819499155317015 -0.022735283411375051 0 0.03679864789035428 -0.022608734505633964 0 0.036819499155317015 -0.022735283411375051 0 0.036798005408643121 -0.022715129861666673 0 0.036819499155317015 -0.022735283411375051 0 0.036798005408643121 -0.022715129861666673 0 0.036793566305520921 -0.022822987515719449 0 0.036798005408643121 -0.022715129861666673 0 0.036784160519656647 -0.022776011615558967 0 0.036793566305520921 -0.022822987515719449 0 0.036786897399762354 -0.022703936373767278 0 0.036798005408643121 -0.022715129861666673 0 0.036784160519656647 -0.022776011615558967 0 0.036786897399762354 -0.022703936373767278 0 0.036784160519656647 -0.022776011615558967 0 0.036761451338028106 -0.022710934207303229 0 0.036784160519656647 -0.022776011615558967 0 0.036765543026599228 -0.022848281692053846 0 0.036731501024490354 -0.022820960248919223 0 0.036784160519656647 -0.022776011615558967 0 0.036765543026599228 -0.022848281692053846 0 0.03678660055807921 -0.022839695123881423 0 0.036765543026599228 -0.022848281692053846 0 0.036783082391437599 -0.022882507791203929 0 0.03678660055807921 -0.022839695123881423 0 0.037060272092138337 -0.026037584554361275 0 0.035380128128269052 -0.026445465443160697 0 0.034348027050106165 -0.030066237646432847 0 0.034337669377778025 -0.03012069245374439 0 0.03428069543545418 -0.030076416419800394 0 0.036765543026599228 -0.022848281692053846 0 0.036783082391437599 -0.022882507791203929 0 0.0367341553976245 -0.022938827471188555 0 0.03436075546148179 -0.030094480435955938 0 0.034348027050106165 -0.030066237646432847 0 0.034339307583033454 -0.030058652676278278 0 0.037060272092138337 -0.026037584554361275 0 0.02846992431022859 -0.029088021506728963 0 0.03436075546148179 -0.030094480435955938 0 0.034348027050106165 -0.030066237646432847 0 0.034337669377778025 -0.03012069245374439 0 0.036783082391437599 -0.022882507791203929 0 0.03678660055807921 -0.022839695123881423 0 0.036771155992513592 -0.022906821504571309 0 0.036819499155317015 -0.022735283411375051 0 0.036793566305520921 -0.022822987515719449 0 0.036771155992513592 -0.022906821504571309 0 0.036784160519656647 -0.022776011615558967 0 0.036793566305520921 -0.022822987515719449 0 0.03678660055807921 -0.022839695123881423 0 0.036793566305520921 -0.022822987515719449 0 0.03678660055807921 -0.022839695123881423 0 0.036771155992513592 -0.022906821504571309 0 0.025911147866558751 -0.027422102351116071 0 0.02846992431022859 -0.029088021506728963 0 0.017390661994391789 -0.033221039536353109 0 0.02846992431022859 -0.029088021506728963 0 0.022357771690067505 -0.034255161562248546 0 0.029345977916632779 -0.032138282757583445 0 0.025595887729313194 -0.031497933281866036 0 0.018581190835275298 -0.031507042795839872 0 0.022471876099937282 -0.034033414921532286 0 0.023724503920116418 -0.029943784430215843 0 0.018513289017782306 -0.033466532268449055 0 0.02846992431022859 -0.029088021506728963 0 0.022713317265722757 -0.031332844837932153 0 0.022357771690067505 -0.034255161562248546 0 0.025595887729313194 -0.031497933281866036 0 0.033360952173655631 -0.03154379743586997 0 0.033884815936605771 -0.031019929370494439 0 0.033822961650117313 -0.030837826391921425 0 0.033360952173655631 -0.03154379743586997 0 0.033884815936605771 -0.031019929370494439 0 0.034284761434359462 -0.031133938223093481 0 0.024160442430478518 -0.034917646939000388 0 0.032152472352239558 -0.02977641586227291 0 0.022713317265722757 -0.031332844837932153 0 0.025595887729313194 -0.031497933281866036 0 0.027921613330244427 -0.028631698260979721 0 0.031322869287190143 -0.029772644930787694 0 0.031180316472929442 -0.029391946209107032 0 0.031577653899175169 -0.029193347705571516 0 0.03436075546148179 -0.030094480435955938 0 0.034339307583033454 -0.030058652676278278 0 0.034376731678551799 -0.030116047608437592 0 0.02846992431022859 -0.029088021506728963 0 0.033636185604213484 -0.029810630364484888 0 0.02846992431022859 -0.029088021506728963 0 0.032152472352239558 -0.02977641586227291 0 0.029345977916632779 -0.032138282757583445 0 0.025595887729313194 -0.031497933281866036 0 0.027921613330244427 -0.028631698260979721 0 0.032152472352239558 -0.02977641586227291 0 0.033636185604213484 -0.029810630364484888 0 0.034196489416088362 -0.030618980664685238 0 0.034238910347198954 -0.030434204050652027 0 0.034340980507744048 -0.030627357391488006 0 0.03413707698875585 -0.030743890160084615 0 0.034196489416088362 -0.030618980664685238 0 0.034340980507744048 -0.030627357391488006 0 0.034238910347198954 -0.030434204050652027 0 0.034360507229860907 -0.030280114455398539 0 0.034340980507744048 -0.030627357391488006 0 0.032152472352239558 -0.02977641586227291 0 0.033851644367155848 -0.031165158095489927 0 0.03413707698875585 -0.030743890160084615 0 0.034196489416088362 -0.030618980664685238 0 0.034085151290054572 -0.030640245177374612 0 0.034238910347198954 -0.030434204050652027 0 0.034085151290054572 -0.030640245177374612 0 0.034085575849971982 -0.030370582541073683 0 0.034196489416088362 -0.030618980664685238 0 0.034238910347198954 -0.030434204050652027 0 0.034085151290054572 -0.030640245177374612 0 0.033360952173655631 -0.03154379743586997 0 0.033822961650117313 -0.030837826391921425 0 0.033780318425569354 -0.030461252653341653 0 0.033884815936605771 -0.031019929370494439 0 0.033822961650117313 -0.030837826391921425 0 0.034085151290054572 -0.030640245177374612 0 0.033884815936605771 -0.031019929370494439 0 0.034284761434359462 -0.031133938223093481 0 0.034085151290054572 -0.030640245177374612 0 0.033822961650117313 -0.030837826391921425 0 0.034085151290054572 -0.030640245177374612 0 0.033949158005914214 -0.030537675357267449 0 0.034085151290054572 -0.030640245177374612 0 0.033949158005914214 -0.030537675357267449 0 0.034085575849971982 -0.030370582541073683 0 0.033822961650117313 -0.030837826391921425 0 0.033949158005914214 -0.030537675357267449 0 0.033780318425569354 -0.030461252653341653 0 0.033949158005914214 -0.030537675357267449 0 0.033780318425569354 -0.030461252653341653 0 0.034085575849971982 -0.030370582541073683 0 0.019123422110170648 -0.038787468314676929 0 0.018724354617896601 -0.038691021517135528 0 0.018440223785692583 -0.038587395643628834 0 0.034261482212995693 -0.03017343230941387 0 0.033780318425569354 -0.030461252653341653 0 0.034085575849971982 -0.030370582541073683 0 0.0266712193459759 -0.034425072314935891 0 0.026347845050021398 -0.034714843716182033 0 0.034265635145894702 -0.030237567342500628 0 0.034238910347198954 -0.030434204050652027 0 0.034360507229860907 -0.030280114455398539 0 0.034265635145894702 -0.030237567342500628 0 0.034238910347198954 -0.030434204050652027 0 0.034085575849971982 -0.030370582541073683 0 0.034300691951939549 -0.030209412379279512 0 0.034265635145894702 -0.030237567342500628 0 0.034360507229860907 -0.030280114455398539 0 0.034300691951939549 -0.030209412379279512 0 0.034360507229860907 -0.030280114455398539 0 0.034324444521197504 -0.030227863657675307 0 0.034360507229860907 -0.030280114455398539 0 0.034324444521197504 -0.030227863657675307 0 0.034333060835051527 -0.030190107150981842 0 0.034324444521197504 -0.030227863657675307 0 0.034308999261689475 -0.030164816317496863 0 0.034259128482709962 -0.030193258256534263 0 0.034320125202218416 -0.030221294124322461 0 0.034324444521197504 -0.030227863657675307 0 0.034259128482709962 -0.030193258256534263 0 0.034308999261689475 -0.030164816317496863 0 0.034337669377778025 -0.03012069245374439 0 0.03428069543545418 -0.030076416419800394 0 0.034324444521197504 -0.030227863657675307 0 0.034308999261689475 -0.030164816317496863 0 0.034333060835051527 -0.030190107150981842 0 0.034308999261689475 -0.030164816317496863 0 0.034337669377778025 -0.03012069245374439 0 0.034333060835051527 -0.030190107150981842 0 0.034347537920693678 -0.0303997727961389 0 0.033636185604213484 -0.029810630364484888 0 0.034337669377778025 -0.03012069245374439 0 0.034377589612553612 -0.030129812331296559 0 0.034333060835051527 -0.030190107150981842 0 0.03436075546148179 -0.030094480435955938 0 0.034337669377778025 -0.03012069245374439 0 0.034377589612553612 -0.030129812331296559 0 0.034360507229860907 -0.030280114455398539 0 0.034405277513803373 -0.030113728961312924 0 0.034377589612553612 -0.030129812331296559 0 0.03436075546148179 -0.030094480435955938 0 0.034376731678551799 -0.030116047608437592 0 0.034377589612553612 -0.030129812331296559 0 0.033636185604213484 -0.029810630364484888 0 0.033832651606222376 -0.029786071633034011 0 0.034360507229860907 -0.030280114455398539 0 0.034377589612553612 -0.030129812331296559 0 0.034333060835051527 -0.030190107150981842 0 0.034009608649239187 -0.028681881196370416 0 0.033955409990922482 -0.028794593220332988 0 0.034008301917100317 -0.02877151048850694 0 0.034074494317310043 -0.029701115451149476 0 0.034720200609332209 -0.028069624353859735 0 0.034009608649239187 -0.028681881196370416 0 0.034069149885857533 -0.028782694656416957 0 0.034008301917100317 -0.02877151048850694 0 0.034308999261689475 -0.030164816317496863 0 0.034259128482709962 -0.030193258256534263 0 0.03428069543545418 -0.030076416419800394 0 0.034259128482709962 -0.030193258256534263 0 0.034190560702944864 -0.030083424010844687 0 0.03428069543545418 -0.030076416419800394 0 0.034153646535494971 -0.029740413284172564 0 0.034074494317310043 -0.029701115451149476 0 0.033918735382256773 -0.028832069168315318 0 0.034009608649239187 -0.028681881196370416 0 0.033955409990922482 -0.028794593220332988 0 0.033918735382256773 -0.028832069168315318 0 0.034009608649239187 -0.028681881196370416 0 0.034175734736247201 -0.0284811807567837 0 0.034235604591982313 -0.028548293849856469 0 0.033918735382256773 -0.028832069168315318 0 0.034175734736247201 -0.0284811807567837 0 0.034009608649239187 -0.028681881196370416 0 0.034175734736247201 -0.0284811807567837 0 0.034154750341693525 -0.028617200678231914 0 0.034175734736247201 -0.0284811807567837 0 0.034363684327529294 -0.028559245380129456 0 0.035292595886688698 -0.027557224768180063 0 0.034235604591982313 -0.028548293849856469 0 0.034175734736247201 -0.0284811807567837 0 0.035292595886688698 -0.027557224768180063 0 0.035686005313639642 -0.027423817858438539 0 0.035434471535176058 -0.027351455307032532 0 0.034363684327529294 -0.028559245380129456 0 0.034773016125849252 -0.028981885577475591 0 0.035292595886688698 -0.027557224768180063 0 0.034009608649239187 -0.028681881196370416 0 0.034154750341693525 -0.028617200678231914 0 0.034069149885857533 -0.028782694656416957 0 0.034175734736247201 -0.0284811807567837 0 0.034154750341693525 -0.028617200678231914 0 0.034363684327529294 -0.028559245380129456 0 0.034363684327529294 -0.028559245380129456 0 0.034069149885857533 -0.028782694656416957 0 0.034371529949677945 -0.029024785796586405 0 0.034154750341693525 -0.028617200678231914 0 0.034363684327529294 -0.028559245380129456 0 0.034069149885857533 -0.028782694656416957 0 0.035315506676630637 -0.026002786586468159 0 0.034720200609332209 -0.028069624353859735 0 0.034069149885857533 -0.028782694656416957 0 0.034371529949677945 -0.029024785796586405 0 0.034177406097527431 -0.029188083048925364 0 0.034069149885857533 -0.028782694656416957 0 0.034177406097527431 -0.029188083048925364 0 0.033865685379682729 -0.028830058635546451 0 0.034371529949677945 -0.029024785796586405 0 0.034773016125849252 -0.028981885577475591 0 0.034457905454000425 -0.029489769055497255 0 0.035686005313639642 -0.027423817858438539 0 0.03593338528013864 -0.02465418361821909 0 0.034363684327529294 -0.028559245380129456 0 0.034371529949677945 -0.029024785796586405 0 0.034773016125849252 -0.028981885577475591 0 0.036870235919591814 -0.025093961728443866 0 0.037286010429039375 -0.02360603853180706 0 0.036552796733419754 -0.023724340045214429 0 0.036552796733419754 -0.023724340045214429 0 0.036582500405795484 -0.023031433804830411 0 0.036117905412975736 -0.023329715258584231 0 0.037286010429039375 -0.02360603853180706 0 0.036552796733419754 -0.023724340045214429 0 0.036582500405795484 -0.023031433804830411 0 0.034371529949677945 -0.029024785796586405 0 0.034177406097527431 -0.029188083048925364 0 0.034457905454000425 -0.029489769055497255 0 0.035315506676630637 -0.026002786586468159 0 0.03593338528013864 -0.02465418361821909 0 0.036560496481825383 -0.022925176013134211 0 0.036489022843529256 -0.022834319352988037 0 0.036587439125881221 -0.022825456198100055 0 0.036587439125881221 -0.022825456198100055 0 0.036654114115702838 -0.022887615115863305 0 0.036674059876559251 -0.022768659541847841 0 0.036654114115702838 -0.022887615115863305 0 0.036731501024490354 -0.022820960248919223 0 0.036674059876559251 -0.022768659541847841 0 0.036560496481825383 -0.022925176013134211 0 0.036587439125881221 -0.022825456198100055 0 0.036654114115702838 -0.022887615115863305 0 0.036560496481825383 -0.022925176013134211 0 0.036654114115702838 -0.022887615115863305 0 0.036617453941240212 -0.023011685590445523 0 0.036654114115702838 -0.022887615115863305 0 0.036617453941240212 -0.023011685590445523 0 0.0367341553976245 -0.022938827471188555 0 0.034027679970969754 -0.028470541179828387 0 0.034720200609332209 -0.028069624353859735 0 0.034720200609332209 -0.028069624353859735 0 0.035380128128269052 -0.026445465443160697 0 0.036654114115702838 -0.022887615115863305 0 0.0367341553976245 -0.022938827471188555 0 0.036731501024490354 -0.022820960248919223 0 0.036765543026599228 -0.022848281692053846 0 0.0367341553976245 -0.022938827471188555 0 0.036731501024490354 -0.022820960248919223 0 0.036731501024490354 -0.022820960248919223 0 0.036761451338028106 -0.022710934207303229 0 0.036674059876559251 -0.022768659541847841 0 0.036784160519656647 -0.022776011615558967 0 0.036731501024490354 -0.022820960248919223 0 0.036761451338028106 -0.022710934207303229 0 0.036674059876559251 -0.022768659541847841 0 0.036705212666201192 -0.02265214353341537 0 0.03656536018062375 -0.022686343449882743 0 0.036761451338028106 -0.022710934207303229 0 0.036674059876559251 -0.022768659541847841 0 0.036705212666201192 -0.02265214353341537 0 0.036705212666201192 -0.02265214353341537 0 0.036809538907249181 -0.02256244353305837 0 0.036687333528691746 -0.022540083128133982 0 0.036761451338028106 -0.022710934207303229 0 0.036705212666201192 -0.02265214353341537 0 0.036809538907249181 -0.02256244353305837 0 0.036786897399762354 -0.022703936373767278 0 0.036761451338028106 -0.022710934207303229 0 0.036809538907249181 -0.02256244353305837 0 0.036809538907249181 -0.02256244353305837 0 0.036947096543338317 -0.022368620857943184 0 0.03676843322014256 -0.022423401805487211 0 0.03682876607972816 -0.022502379811914625 0 0.036809538907249181 -0.02256244353305837 0 0.036947096543338317 -0.022368620857943184 0 0.03683597557061815 -0.022496110518167127 0 0.03682876607972816 -0.022502379811914625 0 0.036947096543338317 -0.022368620857943184 0 0.036809538907249181 -0.02256244353305837 0 0.03676843322014256 -0.022423401805487211 0 0.036687333528691746 -0.022540083128133982 0 0.038051884635761632 -0.022332399724608192 0 0.038027085930783057 -0.022184395486572066 0 0.037440128884450058 -0.022593032837511521 0 0.03697406150379693 -0.022320207127061138 0 0.037418226437004626 -0.022376950379148615 0 0.036947096543338317 -0.022368620857943184 0 0.038051884635761632 -0.022332399724608192 0 0.037440128884450058 -0.022593032837511521 0 0.036947096543338317 -0.022368620857943184 0 0.03676843322014256 -0.022423401805487211 0 0.03668615492937001 -0.022238281183821769 0 0.036947096543338317 -0.022368620857943184 0 0.036974498918821833 -0.022575457027021947 0 0.037440128884450058 -0.022593032837511521 0 0.03683597557061815 -0.022496110518167127 0 0.036947096543338317 -0.022368620857943184 0 0.036974498918821833 -0.022575457027021947 0 0.036424813249796663 -0.022324631479060934 0 0.03611542650266459 -0.022213928795846889 0 0.036361751795779634 -0.022052122658751675 0 0.036522913870544196 -0.022252619222958136 0 0.036424813249796663 -0.022324631479060934 0 0.036361751795779634 -0.022052122658751675 0 0.038051884635761632 -0.022332399724608192 0 0.038027085930783057 -0.022184395486572066 0 0.037051768603162047 -0.022090680674110255 0 0.03668615492937001 -0.022238281183821769 0 0.036522913870544196 -0.022252619222958136 0 0.036361751795779634 -0.022052122658751675 0 0.037418226437004626 -0.022376950379148615 0 0.03638402693194541 -0.021533802370441599 0 0.03668615492937001 -0.022238281183821769 0 0.036522913870544196 -0.022252619222958136 0 0.036616484543196798 -0.022396352033344519 0 0.03676843322014256 -0.022423401805487211 0 0.036616484543196798 -0.022396352033344519 0 0.036687333528691746 -0.022540083128133982 0 0.036522913870544196 -0.022252619222958136 0 0.036616484543196798 -0.022396352033344519 0 0.036424813249796663 -0.022324631479060934 0 0.036616484543196798 -0.022396352033344519 0 0.036527322903387206 -0.022609433547254872 0 0.036687333528691746 -0.022540083128133982 0 0.03676843322014256 -0.022423401805487211 0 0.03668615492937001 -0.022238281183821769 0 0.036616484543196798 -0.022396352033344519 0 0.036616484543196798 -0.022396352033344519 0 0.036424813249796663 -0.022324631479060934 0 0.036527322903387206 -0.022609433547254872 0 0.036424813249796663 -0.022324631479060934 0 0.036298297373030967 -0.02245847321415945 0 0.036527322903387206 -0.022609433547254872 0 0.036424813249796663 -0.022324631479060934 0 0.036298297373030967 -0.02245847321415945 0 0.03611542650266459 -0.022213928795846889 0 0.036298297373030967 -0.02245847321415945 0 0.036527322903387206 -0.022609433547254872 0 0.036220426105079848 -0.022651416047730001 0 0.036527322903387206 -0.022609433547254872 0 0.036487845070683547 -0.022816743707370472 0 0.036220426105079848 -0.022651416047730001 0 0.036527322903387206 -0.022609433547254872 0 0.036487845070683547 -0.022816743707370472 0 0.036711923151457077 -0.02287103611494162 0 0.036705212666201192 -0.02265214353341537 0 0.036687333528691746 -0.022540083128133982 0 0.03656536018062375 -0.022686343449882743 0 0.036638297304545014 -0.022697056431924711 0 0.036761630823602481 -0.022459431105149884 0 0.036527322903387206 -0.022609433547254872 0 0.036687333528691746 -0.022540083128133982 0 0.036711923151457077 -0.02287103611494162 0 0.036489022843529256 -0.022834319352988037 0 0.036587439125881221 -0.022825456198100055 0 0.03656536018062375 -0.022686343449882743 0 0.036587439125881221 -0.022825456198100055 0 0.036674059876559251 -0.022768659541847841 0 0.03656536018062375 -0.022686343449882743 0 0.03593338528013864 -0.02465418361821909 0 0.036761630823602481 -0.022459431105149884 0 0.036665279004490438 -0.023134338318818976 0 0.036711923151457077 -0.02287103611494162 0 0.036582500405795484 -0.023031433804830411 0 0.036487845070683547 -0.022816743707370472 0 0.036711923151457077 -0.02287103611494162 0 0.036582500405795484 -0.023031433804830411 0 0.036487845070683547 -0.022816743707370472 0 0.036582500405795484 -0.023031433804830411 0 0.036198441497969254 -0.022932711053195155 0 0.03593338528013864 -0.02465418361821909 0 0.036458095766783903 -0.02314864726048103 0 0.036582500405795484 -0.023031433804830411 0 0.036117905412975736 -0.023329715258584231 0 0.036198441497969254 -0.022932711053195155 0 0.036117905412975736 -0.023329715258584231 0 0.036198441497969254 -0.022932711053195155 0 0.035808666307988478 -0.022989851132639672 0 0.036198441497969254 -0.022932711053195155 0 0.035808666307988478 -0.022989851132639672 0 0.036004642479791793 -0.022794426934181058 0 0.035808666307988478 -0.022989851132639672 0 0.035461707758185655 -0.022898913274931335 0 0.035627211298934119 -0.023448084888810835 0 0.036117905412975736 -0.023329715258584231 0 0.035808666307988478 -0.022989851132639672 0 0.035627211298934119 -0.023448084888810835 0 0.035808666307988478 -0.022989851132639672 0 0.035794040304539428 -0.022769615773123385 0 0.036004642479791793 -0.022794426934181058 0 0.035808666307988478 -0.022989851132639672 0 0.035624821829612845 -0.022827824224919791 0 0.035794040304539428 -0.022769615773123385 0 0.035808666307988478 -0.022989851132639672 0 0.035624821829612845 -0.022827824224919791 0 0.035461707758185655 -0.022898913274931335 0 0.035624821829612845 -0.022827824224919791 0 0.035513003589597171 -0.022803313576520306 0 0.035461707758185655 -0.022898913274931335 0 0.035623192387723261 -0.022699986062036055 0 0.035752693204246053 -0.022404601780171712 0 0.03535727115450045 -0.022774598396390115 0 0.035624821829612845 -0.022827824224919791 0 0.035623192387723261 -0.022699986062036055 0 0.035513003589597171 -0.022803313576520306 0 0.035624821829612845 -0.022827824224919791 0 0.035623192387723261 -0.022699986062036055 0 0.035794040304539428 -0.022769615773123385 0 0.035623192387723261 -0.022699986062036055 0 0.035794040304539428 -0.022769615773123385 0 0.035765742029584789 -0.022592245683210707 0 0.035794040304539428 -0.022769615773123385 0 0.035765742029584789 -0.022592245683210707 0 0.035963781920520022 -0.02263429223895376 0 0.035811185553831323 -0.022492942379155851 0 0.035765742029584789 -0.022592245683210707 0 0.035752693204246053 -0.022404601780171712 0 0.035903715018884015 -0.022532512256591055 0 0.035765742029584789 -0.022592245683210707 0 0.035963781920520022 -0.02263429223895376 0 0.035903715018884015 -0.022532512256591055 0 0.035811185553831323 -0.022492942379155851 0 0.035810963745394886 -0.022438571363443439 0 0.035903715018884015 -0.022532512256591055 0 0.035811185553831323 -0.022492942379155851 0 0.035765742029584789 -0.022592245683210707 0 0.035623192387723261 -0.022699986062036055 0 0.035765742029584789 -0.022592245683210707 0 0.035752693204246053 -0.022404601780171712 0 0.036198441497969254 -0.022932711053195155 0 0.036004642479791793 -0.022794426934181058 0 0.036220426105079848 -0.022651416047730001 0 0.036487845070683547 -0.022816743707370472 0 0.036198441497969254 -0.022932711053195155 0 0.036220426105079848 -0.022651416047730001 0 0.036004642479791793 -0.022794426934181058 0 0.035963781920520022 -0.02263429223895376 0 0.036220426105079848 -0.022651416047730001 0 0.035794040304539428 -0.022769615773123385 0 0.036004642479791793 -0.022794426934181058 0 0.035963781920520022 -0.02263429223895376 0 0.035903715018884015 -0.022532512256591055 0 0.035963781920520022 -0.02263429223895376 0 0.03606079773992639 -0.022482592251352521 0 0.035963781920520022 -0.02263429223895376 0 0.036220426105079848 -0.022651416047730001 0 0.03606079773992639 -0.022482592251352521 0 0.036298297373030967 -0.02245847321415945 0 0.036220426105079848 -0.022651416047730001 0 0.03606079773992639 -0.022482592251352521 0 0.036298297373030967 -0.02245847321415945 0 0.03606079773992639 -0.022482592251352521 0 0.03611542650266459 -0.022213928795846889 0 0.03606079773992639 -0.022482592251352521 0 0.035810963745394886 -0.022438571363443439 0 0.03611542650266459 -0.022213928795846889 0 0.035903715018884015 -0.022532512256591055 0 0.03606079773992639 -0.022482592251352521 0 0.035810963745394886 -0.022438571363443439 0 0.035810963745394886 -0.022438571363443439 0 0.035775958161781606 -0.022410288873237826 0 0.03611542650266459 -0.022213928795846889 0 0.035811185553831323 -0.022492942379155851 0 0.035810963745394886 -0.022438571363443439 0 0.035752693204246053 -0.022404601780171712 0 0.036488436151651968 -0.020965141161603845 0 0.036478112854991813 -0.020841327088912925 0 0.036478112854991813 -0.020841327088912925 0 0.036860554235347155 -0.019237123276590225 0 0.036614514030114141 -0.020051701363291565 0 0.036617168622156575 -0.020102511018031951 0 0.03666971318102738 -0.020087037066131797 0 0.036614514030114141 -0.020051701363291565 0 0.036617168622156575 -0.020102511018031951 0 0.036543701197177987 -0.020122150538115457 0 0.036478112854991813 -0.020841327088912925 0 0.036294019980131674 -0.02118758953690042 0 0.036617168622156575 -0.020102511018031951 0 0.036627020043495384 -0.020151912791257873 0 0.036543701197177987 -0.020122150538115457 0 0.036627020043495384 -0.020151912791257873 0 0.036543701197177987 -0.020122150538115457 0 0.036582885558850337 -0.020217977800146298 0 0.037051152966121978 -0.018990117378685476 0 0.036860554235347155 -0.019237123276590225 0 0.036617168622156575 -0.020102511018031951 0 0.036627020043495384 -0.020151912791257873 0 0.03666971318102738 -0.020087037066131797 0 0.036543701197177987 -0.020122150538115457 0 0.036582885558850337 -0.020217977800146298 0 0.03647214997839613 -0.020196546752202282 0 0.036294019980131674 -0.02118758953690042 0 0.03638402693194541 -0.021533802370441599 0 0.035942327216168225 -0.018084739916274555 0 0.036644994829886632 -0.017490983714953886 0 0.034999999551172223 -0.017372361181405501 0 0.035982188766009088 -0.018113887227544988 0 0.035000079872954143 -0.01922412791060624 0 0.034999961254958876 -0.017372550033748092 0 0.035935132338181436 -0.01807749039240205 0 0.035000298177730052 -0.017372666507096485 0 0.035942327216168225 -0.018084739916274555 0 0.03687732589862517 -0.018793545916437369 0 0.036644994829886632 -0.017490983714953886 0 0.037461478321393661 -0.017902299191806029 0 0.03687732589862517 -0.018793545916437369 0 0.036644994829886632 -0.017490983714953886 0 0.035935132338181436 -0.01807749039240205 0 0.036860554235347155 -0.019237123276590225 0 0.036860554235347155 -0.019237123276590225 0 0.036018961690802674 -0.02025656278245163 0 0.036957188539672864 -0.018855001952577517 0 0.035960731195045836 -0.019167612707164154 0 0.035899968749536167 -0.020475844294199474 0 0.035982188766009088 -0.018113887227544988 0 0.036957188539672864 -0.018855001952577517 0 0.035960731195045836 -0.019167612707164154 0 0.037765664070276234 -0.019460254534142938 0 0.037019907963775286 -0.018879447918920635 0 0.03682991504764959 -0.019866063059436861 0 0.035982188766009088 -0.018113887227544988 0 0.035000079872954143 -0.01922412791060624 0 0.035960731195045836 -0.019167612707164154 0 0.035000079872954143 -0.01922412791060624 0 0.035960731195045836 -0.019167612707164154 0 0.035899968749536167 -0.020475844294199474 0 0.035000079872954143 -0.01922412791060624 0 0.035899968749536167 -0.020475844294199474 0 0.03499977210060333 -0.02107696314401326 0 0.036478112854991813 -0.020841327088912925 0 0.03598287925474191 -0.021699836357864849 0 0.037765664070276234 -0.019460254534142938 0 0.03682991504764959 -0.019866063059436861 0 0.036600737971133834 -0.02065214298885432 0 0.037019907963775286 -0.018879447918920635 0 0.035899968749536167 -0.020475844294199474 0 0.03682991504764959 -0.019866063059436861 0 0.035899968749536167 -0.020475844294199474 0 0.03682991504764959 -0.019866063059436861 0 0.036600737971133834 -0.02065214298885432 0 0.035623192387723261 -0.022699986062036055 0 0.03535727115450045 -0.022774598396390115 0 0.035513003589597171 -0.022803313576520306 0 0.03535727115450045 -0.022774598396390115 0 0.035316990954917929 -0.022724587866717102 0 0.035461707758185655 -0.022898913274931335 0 0.03535727115450045 -0.022774598396390115 0 0.035513003589597171 -0.022803313576520306 0 0.035461707758185655 -0.022898913274931335 0 0.035316990954917929 -0.022724587866717102 0 0.035461707758185655 -0.022898913274931335 0 0.035379578308365522 -0.023204259429240419 0 0.035899968749536167 -0.020475844294199474 0 0.036600737971133834 -0.02065214298885432 0 0.035212848077832704 -0.022101893213821396 0 0.03535727115450045 -0.022774598396390115 0 0.035316990954917929 -0.022724587866717102 0 0.035212848077832704 -0.022101893213821396 0 0.035899968749536167 -0.020475844294199474 0 0.03499977210060333 -0.02107696314401326 0 0.035212848077832704 -0.022101893213821396 0 0.03598287925474191 -0.021699836357864849 0 0.035249711069347676 -0.022142237120618993 0 0.03499977210060333 -0.02107696314401326 0 0.035212848077832704 -0.022101893213821396 0 0.034999448659185077 -0.022929451320888743 0 0.035212848077832704 -0.022101893213821396 0 0.034999448659185077 -0.022929451320888743 0 0.035238717270485539 -0.023106424211695873 0 0.035316990954917929 -0.022724587866717102 0 0.035212848077832704 -0.022101893213821396 0 0.035238717270485539 -0.023106424211695873 0 0.034999448659185077 -0.022929451320888743 0 0.03509885475784829 -0.024474265586104261 0 0.034998871021684821 -0.024780810083935501 0 0.034999448659185077 -0.022929451320888743 0 0.035238717270485539 -0.023106424211695873 0 0.03509885475784829 -0.024474265586104261 0 0.03509885475784829 -0.024474265586104261 0 0.035318697896929492 -0.024080302407646231 0 0.035096384465854412 -0.02586270817447648 0 0.035238717270485539 -0.023106424211695873 0 0.03509885475784829 -0.024474265586104261 0 0.035318697896929492 -0.024080302407646231 0 0.035238717270485539 -0.023106424211695873 0 0.035318697896929492 -0.024080302407646231 0 0.035379578308365522 -0.023204259429240419 0 0.035316990954917929 -0.022724587866717102 0 0.035238717270485539 -0.023106424211695873 0 0.035379578308365522 -0.023204259429240419 0 0.035627211298934119 -0.023448084888810835 0 0.036065602077193296 -0.024003372969522666 0 0.035566929449191972 -0.024877470343967874 0 0.035461707758185655 -0.022898913274931335 0 0.035379578308365522 -0.023204259429240419 0 0.035627211298934119 -0.023448084888810835 0 0.035318697896929492 -0.024080302407646231 0 0.035379578308365522 -0.023204259429240419 0 0.035627211298934119 -0.023448084888810835 0 0.036552796733419754 -0.023724340045214429 0 0.036117905412975736 -0.023329715258584231 0 0.036065602077193296 -0.024003372969522666 0 0.036117905412975736 -0.023329715258584231 0 0.035627211298934119 -0.023448084888810835 0 0.036065602077193296 -0.024003372969522666 0 0.036870235919591814 -0.025093961728443866 0 0.036552796733419754 -0.023724340045214429 0 0.036065602077193296 -0.024003372969522666 0 0.036870235919591814 -0.025093961728443866 0 0.036065602077193296 -0.024003372969522666 0 0.035566929449191972 -0.024877470343967874 0 0.035318697896929492 -0.024080302407646231 0 0.035566929449191972 -0.024877470343967874 0 0.035096384465854412 -0.02586270817447648 0 0.035318697896929492 -0.024080302407646231 0 0.035627211298934119 -0.023448084888810835 0 0.035566929449191972 -0.024877470343967874 0 0.035566929449191972 -0.024877470343967874 0 0.035096384465854412 -0.02586270817447648 0 0.035292595886688698 -0.027557224768180063 0 0.036870235919591814 -0.025093961728443866 0 0.035566929449191972 -0.024877470343967874 0 0.035292595886688698 -0.027557224768180063 0 0.034384255591336219 -0.028477566128204783 0 0.035292595886688698 -0.027557224768180063 0 0.034979954313263222 -0.027213489592001906 0 0.034675685728970881 -0.027630273733337495 0 0.034979954313263222 -0.027213489592001906 0 0.034900096510131359 -0.026391486601441274 0 0.035096384465854412 -0.02586270817447648 0 0.035292595886688698 -0.027557224768180063 0 0.034979954313263222 -0.027213489592001906 0 0.035096384465854412 -0.02586270817447648 0 0.034979954313263222 -0.027213489592001906 0 0.034900096510131359 -0.026391486601441274 0 0.034999666406449435 -0.026633106295238358 0 0.034900096510131359 -0.026391486601441274 0 0.034998871021684821 -0.024780810083935501 0 0.03509885475784829 -0.024474265586104261 0 0.034900096510131359 -0.026391486601441274 0 0.034998871021684821 -0.024780810083935501 0 0.03509885475784829 -0.024474265586104261 0 0.035096384465854412 -0.02586270817447648 0 0.034900096510131359 -0.026391486601441274 0 0.036090762185773381 -0.011163594912174937 0 0.035521716499111039 -0.010476968835536209 0 0.036780947629598319 -0.011035365817659296 0 0.035640283673748344 -0.010512772943434083 0 0.03674783153088166 -0.010579748350071584 0 0.035521716499111039 -0.010476968835536209 0 0.036030293584929617 -0.0094785087537485567 0 0.037179009429014635 -0.01009089998037415 0 0.036090762185773381 -0.011163594912174937 0 0.036780947629598319 -0.011035365817659296 0 0.036302851560252231 -0.011852723010744522 0 0.036090762185773381 -0.011163594912174937 0 0.035521716499111039 -0.010476968835536209 0 0.035611273389343508 -0.011225179838557055 0 0.035521716499111039 -0.010476968835536209 0 0.03499988135582785 -0.010338670840438465 0 0.035611273389343508 -0.011225179838557055 0 0.035521716499111039 -0.010476968835536209 0 0.03499988135582785 -0.010338670840438465 0 0.036030293584929617 -0.0094785087537485567 0 0.036030293584929617 -0.0094785087537485567 0 0.036387684013931977 -0.0083389605106879549 0 0.034999989968938473 -0.0084671365982516462 0 0.03499988135582785 -0.010338670840438465 0 0.036030293584929617 -0.0094785087537485567 0 0.034999989968938473 -0.0084671365982516462 0 0.036030293584929617 -0.0094785087537485567 0 0.037108027595730529 -0.0091026950229236032 0 0.036387684013931977 -0.0083389605106879549 0 0.036030293584929617 -0.0094785087537485567 0 0.037108027595730529 -0.0091026950229236032 0 0.037179009429014635 -0.01009089998037415 0 0.037108027595730529 -0.0091026950229236032 0 0.037755139931135821 -0.0088946326699032123 0 0.037240325545143317 -0.0083180880354011555 0 0.037108027595730529 -0.0091026950229236032 0 0.037755139931135821 -0.0088946326699032123 0 0.037946707192583112 -0.0094567578270367044 0 0.037108027595730529 -0.0091026950229236032 0 0.037946707192583112 -0.0094567578270367044 0 0.037179009429014635 -0.01009089998037415 0 0.037755139931135821 -0.0088946326699032123 0 0.037946707192583112 -0.0094567578270367044 0 0.038716709991142642 -0.0093669046229376465 0 0.037755139931135821 -0.0088946326699032123 0 0.038716709991142642 -0.0093669046229376465 0 0.037923064988204143 -0.008332252611877233 0 0.037946707192583112 -0.0094567578270367044 0 0.038716709991142642 -0.0093669046229376465 0 0.03861699909638195 -0.0098007813620558156 0 0.037331695193189865 -0.011258363508416053 0 0.037365951359083674 -0.011596460733705306 0 0.036780947629598319 -0.011035365817659296 0 0.037946707192583112 -0.0094567578270367044 0 0.03861699909638195 -0.0098007813620558156 0 0.037179009429014635 -0.01009089998037415 0 0.037365951359083674 -0.011596460733705306 0 0.036780947629598319 -0.011035365817659296 0 0.037133118307362677 -0.011846767687534423 0 0.038680246034981894 -0.010337742626802942 0 0.03674783153088166 -0.010579748350071584 0 0.036780947629598319 -0.011035365817659296 0 0.037133118307362677 -0.011846767687534423 0 0.036302851560252231 -0.011852723010744522 0 0.037362428052934493 -0.011715055430201734 0 0.037289204049816907 -0.013251785286516011 0 0.037365951359083674 -0.011596460733705306 0 0.037133118307362677 -0.011846767687534423 0 0.037893987465644353 -0.012482388755371793 0 0.037893987465644353 -0.012482388755371793 0 0.036975725244640108 -0.012948514505510204 0 0.037587788472144827 -0.013348463474123808 0 0.037133118307362677 -0.011846767687534423 0 0.036975725244640108 -0.012948514505510204 0 0.036302851560252231 -0.011852723010744522 0 0.037133118307362677 -0.011846767687534423 0 0.037893987465644353 -0.012482388755371793 0 0.036975725244640108 -0.012948514505510204 0 0.036975725244640108 -0.012948514505510204 0 0.036302851560252231 -0.011852723010744522 0 0.03583218744405569 -0.013144286300406335 0 0.036090762185773381 -0.011163594912174937 0 0.036302851560252231 -0.011852723010744522 0 0.035611273389343508 -0.011225179838557055 0 0.03499988135582785 -0.010338670840438465 0 0.035611273389343508 -0.011225179838557055 0 0.034999938874554659 -0.01220946414435733 0 0.036302851560252231 -0.011852723010744522 0 0.035611273389343508 -0.011225179838557055 0 0.034999938874554659 -0.01220946414435733 0 0.036302851560252231 -0.011852723010744522 0 0.034999938874554659 -0.01220946414435733 0 0.03583218744405569 -0.013144286300406335 0 0.034999938874554659 -0.01220946414435733 0 0.034999839507130905 -0.01408037400458729 0 0.03583218744405569 -0.013144286300406335 0 0.034999839507130905 -0.01408037400458729 0 0.03583218744405569 -0.013144286300406335 0 0.036358318937293917 -0.014042995378561704 0 0.036975725244640108 -0.012948514505510204 0 0.03583218744405569 -0.013144286300406335 0 0.036358318937293917 -0.014042995378561704 0 0.036358318937293917 -0.014042995378561704 0 0.035963514646859401 -0.015072062808973235 0 0.036973789804160086 -0.01499474552395161 0 0.034999839507130905 -0.01408037400458729 0 0.035963514646859401 -0.015072062808973235 0 0.034999878211447441 -0.015950754311094571 0 0.034999839507130905 -0.01408037400458729 0 0.036358318937293917 -0.014042995378561704 0 0.035963514646859401 -0.015072062808973235 0 0.035963514646859401 -0.015072062808973235 0 0.034999878211447441 -0.015950754311094571 0 0.036290458331800543 -0.016147558418978802 0 0.035000084874984148 -0.015951466961176629 0 0.036569857442696599 -0.016166175287058542 0 0.035963514646859401 -0.015072062808973235 0 0.036290458331800543 -0.016147558418978802 0 0.036973789804160086 -0.01499474552395161 0 0.036644994829886632 -0.017490983714953886 0 0.036541239625924919 -0.016501333556626866 0 0.034999999551172223 -0.017372361181405501 0 0.036644994829886632 -0.017490983714953886 0 0.036541239625924919 -0.016501333556626866 0 0.038042679745603471 -0.017021549735963804 0 0.034999975530516203 -0.01595150788078693 0 0.036541239625924919 -0.016501333556626866 0 0.034999999551172223 -0.017372361181405501 0 0.034711229400383424 -0.020502432956353761 0 0.033758979166216396 -0.021392015254955456 0 0.035735468011520034 -0.020999373728508224 0 0.033758979166216396 -0.021392015254955456 0 0.036238514835432868 -0.022228662592434074 0 0.035735468011520034 -0.020999373728508224 0 0.036637611255937723 -0.018708461593524753 0 0.03638402693194541 -0.021533802370441599 0 0.037589083646563992 -0.016559784415276464 0 0.037639391313736621 -0.015915022107375894 0 0.038125777680722048 -0.015779417117833778 0 0.036637611255937723 -0.018708461593524753 0 0.036100767843802221 -0.018036316758593296 0 0.034711229400383424 -0.020502432956353761 0 0.033758979166216396 -0.021392015254955456 0 0.034746753708069254 -0.019881347556895343 0 0.034711229400383424 -0.020502432956353761 0 0.035603202840905367 -0.020123922784326339 0 0.035735468011520034 -0.020999373728508224 0 0.036290458331800543 -0.016147558418978802 0 0.037589083646563992 -0.016559784415276464 0 0.037241650387594243 -0.01582878873751016 0 0.037051152966121978 -0.018990117378685476 0 0.036637611255937723 -0.018708461593524753 0 0.036569857442696599 -0.016166175287058542 0 0.036637611255937723 -0.018708461593524753 0 0.037461478321393661 -0.017902299191806029 0 0.036644994829886632 -0.017490983714953886 0 0.038042679745603471 -0.017021549735963804 0 0.037589083646563992 -0.016559784415276464 0 0.037639391313736621 -0.015915022107375894 0 0.037241650387594243 -0.01582878873751016 0 0.036290458331800543 -0.016147558418978802 0 0.037241650387594243 -0.01582878873751016 0 0.036973789804160086 -0.01499474552395161 0 0.037639391313736621 -0.015915022107375894 0 0.037241650387594243 -0.01582878873751016 0 0.037606053453811107 -0.015478759128536539 0 0.037241650387594243 -0.01582878873751016 0 0.037606053453811107 -0.015478759128536539 0 0.036973789804160086 -0.01499474552395161 0 0.037606053453811107 -0.015478759128536539 0 0.037703779438350959 -0.014914923185959987 0 0.036973789804160086 -0.01499474552395161 0 0.036100767843802221 -0.018036316758593296 0 0.036772647526346326 -0.01698452569846319 0 0.037606053453811107 -0.015478759128536539 0 0.038125777680722048 -0.015779417117833778 0 0.037703779438350959 -0.014914923185959987 0 0.037639391313736621 -0.015915022107375894 0 0.037606053453811107 -0.015478759128536539 0 0.038125777680722048 -0.015779417117833778 0 0.035705355497757038 -0.019553957498231588 0 0.036100767843802221 -0.018036316758593296 0 0.034720043073020332 -0.019869611693732161 0 0.035603202840905367 -0.020123922784326339 0 0.036203499908308394 -0.01914765599778194 0 0.034711229400383424 -0.020502432956353761 0 0.034720043073020332 -0.019869611693732161 0 0.035603202840905367 -0.020123922784326339 0 0.038125777680722048 -0.015779417117833778 0 0.037703779438350959 -0.014914923185959987 0 0.038157193283694525 -0.014101225640182537 0 0.036446202556532359 -0.017712109288831695 0 0.036551223822816184 -0.015846713548710655 0 0.037406360397193403 -0.016256819517042585 0 0.036100767843802221 -0.018036316758593296 0 0.037485538515903485 -0.014689824587996812 0 0.037703779438350959 -0.014914923185959987 0 0.038157193283694525 -0.014101225640182537 0 0.037296388248270175 -0.014060851542171298 0 0.036358318937293917 -0.014042995378561704 0 0.036973789804160086 -0.01499474552395161 0 0.037296388248270175 -0.014060851542171298 0 0.037703779438350959 -0.014914923185959987 0 0.036973789804160086 -0.01499474552395161 0 0.037296388248270175 -0.014060851542171298 0 0.036975725244640108 -0.012948514505510204 0 0.036358318937293917 -0.014042995378561704 0 0.037296388248270175 -0.014060851542171298 0 0.036975725244640108 -0.012948514505510204 0 0.037296388248270175 -0.014060851542171298 0 0.037587788472144827 -0.013348463474123808 0 0.0366958727715119 -0.013833211980700656 0 0.036551223822816184 -0.015846713548710655 0 0.037379489716878635 -0.014923591434564072 0 0.037289204049816907 -0.013251785286516011 0 0.037485538515903485 -0.014689824587996812 0 0.037893987465644353 -0.012482388755371793 0 0.038157193283694525 -0.014101225640182537 0 0.037587788472144827 -0.013348463474123808 0 0.038157193283694525 -0.014101225640182537 0 0.037296388248270175 -0.014060851542171298 0 0.037587788472144827 -0.013348463474123808 0 0.038300315231264218 -0.01489614357992859 0 0.037919239209051242 -0.017313307443992617 0 0.036301186226065256 -0.01740059809576136 0 0.037379489716878635 -0.014923591434564072 0 0.038300315231264218 -0.01489614357992859 0 0.037406360397193403 -0.016256819517042585 0 0.036551223822816184 -0.015846713548710655 0 0.037379489716878635 -0.014923591434564072 0 0.037406360397193403 -0.016256819517042585 0 0.038220880937562089 -0.014957762412590425 0 0.036772647526346326 -0.01698452569846319 0 0.038300315231264218 -0.01489614357992859 0 0.039391517500632467 -0.017038488041769707 0 0.037919239209051242 -0.017313307443992617 0 0.038300315231264218 -0.01489614357992859 0 0.039391517500632467 -0.017038488041769707 0 0.040729717040514687 -0.014602689534369896 0 0.039391517500632467 -0.017038488041769707 0 0.037919239209051242 -0.017313307443992617 0 0.037661910110025461 -0.018861195806113503 0 0.037919239209051242 -0.017313307443992617 0 0.036301186226065256 -0.01740059809576136 0 0.037661910110025461 -0.018861195806113503 0 0.036301186226065256 -0.01740059809576136 0 0.036203499908308394 -0.01914765599778194 0 0.037661910110025461 -0.018861195806113503 0 0.036540390123209886 -0.020068163573918791 0 0.037661910110025461 -0.018861195806113503 0 0.037547921865147452 -0.021010891960848582 0 0.034720043073020332 -0.019869611693732161 0 0.036301186226065256 -0.01740059809576136 0 0.036203499908308394 -0.01914765599778194 0 0.035603202840905367 -0.020123922784326339 0 0.036540390123209886 -0.020068163573918791 0 0.035735468011520034 -0.020999373728508224 0 0.035603202840905367 -0.020123922784326339 0 0.036203499908308394 -0.01914765599778194 0 0.036540390123209886 -0.020068163573918791 0 0.036203499908308394 -0.01914765599778194 0 0.036540390123209886 -0.020068163573918791 0 0.037661910110025461 -0.018861195806113503 0 0.039391517500632467 -0.017038488041769707 0 0.038864596456180796 -0.019923196705518023 0 0.037661910110025461 -0.018861195806113503 0 0.038864596456180796 -0.019923196705518023 0 0.037661910110025461 -0.018861195806113503 0 0.037547921865147452 -0.021010891960848582 0 0.038864596456180796 -0.019923196705518023 0 0.037547921865147452 -0.021010891960848582 0 0.038027085930783057 -0.022184395486572066 0 0.038864596456180796 -0.019923196705518023 0 0.038027085930783057 -0.022184395486572066 0 0.040411383401985239 -0.020456433057702238 0 0.037547921865147452 -0.021010891960848582 0 0.038027085930783057 -0.022184395486572066 0 0.037051768603162047 -0.022090680674110255 0 0.037547921865147452 -0.021010891960848582 0 0.036238514835432868 -0.022228662592434074 0 0.035735468011520034 -0.020999373728508224 0 0.037417965151828998 -0.02118575770624842 0 0.03638402693194541 -0.021533802370441599 0 0.036540390123209886 -0.020068163573918791 0 0.037547921865147452 -0.021010891960848582 0 0.035735468011520034 -0.020999373728508224 0 0.037091938919284966 -0.02285698277799986 0 0.036937112010061265 -0.023496464751090136 0 0.036714174824621776 -0.022707248263609606 0 0.036974498918821833 -0.022575457027021947 0 0.037091938919284966 -0.02285698277799986 0 0.036714174824621776 -0.022707248263609606 0 0.036974498918821833 -0.022575457027021947 0 0.037091938919284966 -0.02285698277799986 0 0.037440128884450058 -0.022593032837511521 0 0.037587295071858241 -0.022613183071032581 0 0.040423418146892882 -0.020793500083901562 0 0.038027085930783057 -0.022184395486572066 0 0.037440128884450058 -0.022593032837511521 0 0.037527414006731166 -0.023022780058850528 0 0.037091938919284966 -0.02285698277799986 0 0.037440128884450058 -0.022593032837511521 0 0.037527414006731166 -0.023022780058850528 0 0.038864596456180796 -0.019923196705518023 0 0.040411383401985239 -0.020456433057702238 0 0.040533752110176804 -0.018512719669664671 0 0.040411383401985239 -0.020456433057702238 0 0.042372452087593382 -0.018614079471240042 0 0.040533752110176804 -0.018512719669664671 0 0.040423418146892882 -0.020793500083901562 0 0.031161399648903982 -0.023552057826031023 0 0.037091938919284966 -0.02285698277799986 0 0.037527414006731166 -0.023022780058850528 0 0.036937112010061265 -0.023496464751090136 0 0.031161399648903982 -0.023552057826031023 0 0.034495435304497439 -0.018787352717812639 0 0.027375676882223608 -0.022441877547730547 0 0.027435465667121371 -0.02214108854727526 0 0.02818804785393746 -0.021745209967999706 0 0.042372452087593382 -0.018614079471240042 0 0.040533752110176804 -0.018512719669664671 0 0.041553899249051673 -0.016568754951307354 0 0.027375676882223608 -0.022441877547730547 0 0.027435465667121371 -0.02214108854727526 0 0.02727482056187009 -0.021466760548346391 0 0.027410385475248607 -0.022011096471226659 0 0.027158938223530153 -0.021100898099391214 0 0.027435465667121371 -0.02214108854727526 0 0.02727482056187009 -0.021466760548346391 0 0.027330927042259364 -0.021314780737541755 0 0.027435465667121371 -0.02214108854727526 0 0.027333360815211989 -0.021534960979742068 0 0.027649212061943432 -0.021623680872057335 0 0.027435465667121371 -0.02214108854727526 0 0.027333360815211989 -0.021534960979742068 0 0.026826847456048512 -0.021189768115803576 0 0.027333360815211989 -0.021534960979742068 0 0.027649212061943432 -0.021623680872057335 0 0.027469343272671354 -0.021399210153715337 0 0.039391517500632467 -0.017038488041769707 0 0.038864596456180796 -0.019923196705518023 0 0.040533752110176804 -0.018512719669664671 0 0.039391517500632467 -0.017038488041769707 0 0.040533752110176804 -0.018512719669664671 0 0.041553899249051673 -0.016568754951307354 0 0.039391517500632467 -0.017038488041769707 0 0.041553899249051673 -0.016568754951307354 0 0.040729717040514687 -0.014602689534369896 0 0.02727482056187009 -0.021466760548346391 0 0.027330927042259364 -0.021314780737541755 0 0.027302710232806521 -0.020469367490253583 0 0.034495435304497439 -0.018787352717812639 0 0.032087049104806309 -0.018139143376648847 0 0.027345277135391262 -0.020944543825132778 0 0.027251290894153429 -0.021240344980146913 0 0.027121120593778546 -0.020775819680739868 0 0.027345277135391262 -0.020944543825132778 0 0.027643679886529361 -0.021194063481668787 0 0.027609133500502533 -0.020692596763620515 0 0.027345277135391262 -0.020944543825132778 0 0.027643679886529361 -0.021194063481668787 0 0.027251290894153429 -0.021240344980146913 0 0.027649212061943432 -0.021623680872057335 0 0.027469343272671354 -0.021399210153715337 0 0.027643679886529361 -0.021194063481668787 0 0.027469343272671354 -0.021399210153715337 0 0.027643679886529361 -0.021194063481668787 0 0.027251290894153429 -0.021240344980146913 0 0.027333360815211989 -0.021534960979742068 0 0.027251290894153429 -0.021240344980146913 0 0.026826847456048512 -0.021189768115803576 0 0.027333360815211989 -0.021534960979742068 0 0.027469343272671354 -0.021399210153715337 0 0.027251290894153429 -0.021240344980146913 0 0.027251290894153429 -0.021240344980146913 0 0.026826847456048512 -0.021189768115803576 0 0.027121120593778546 -0.020775819680739868 0 0.026826847456048512 -0.021189768115803576 0 0.027121120593778546 -0.020775819680739868 0 0.026907527223562218 -0.020054584155835522 0 0.027158938223530153 -0.021100898099391214 0 0.032087049104806309 -0.018139143376648847 0 0.026826847456048512 -0.021189768115803576 0 0.026907527223562218 -0.020054584155835522 0 0.026253999289368304 -0.020088871271757344 0 0.027268004947864875 -0.020432302952162557 0 0.027121120593778546 -0.020775819680739868 0 0.026907527223562218 -0.020054584155835522 0 0.027345277135391262 -0.020944543825132778 0 0.027268004947864875 -0.020432302952162557 0 0.027121120593778546 -0.020775819680739868 0 0.027345277135391262 -0.020944543825132778 0 0.027268004947864875 -0.020432302952162557 0 0.027609133500502533 -0.020692596763620515 0 0.027268004947864875 -0.020432302952162557 0 0.027609133500502533 -0.020692596763620515 0 0.027680663426511234 -0.020291027748034964 0 0.026907527223562218 -0.020054584155835522 0 0.026540841600176186 -0.018801746838016945 0 0.027070886432030709 -0.019028180962296373 0 0.027268004947864875 -0.020432302952162557 0 0.027365396541948622 -0.019682148161801086 0 0.027680663426511234 -0.020291027748034964 0 0.026907527223562218 -0.020054584155835522 0 0.026540841600176186 -0.018801746838016945 0 0.026253999289368304 -0.020088871271757344 0 0.027268004947864875 -0.020432302952162557 0 0.026907527223562218 -0.020054584155835522 0 0.027365396541948622 -0.019682148161801086 0 0.027365396541948622 -0.019682148161801086 0 0.02761938280744362 -0.018817149161005107 0 0.027070886432030709 -0.019028180962296373 0 0.026907527223562218 -0.020054584155835522 0 0.027365396541948622 -0.019682148161801086 0 0.027070886432030709 -0.019028180962296373 0 0.021246839928459785 -0.019962767553077531 0 0.017997610220145822 -0.017841890891570737 0 0.02761938280744362 -0.018817149161005107 0 0.027070886432030709 -0.019028180962296373 0 0.026798551168094362 -0.017614616761383761 0 0.026540841600176186 -0.018801746838016945 0 0.027070886432030709 -0.019028180962296373 0 0.026798551168094362 -0.017614616761383761 0 0.021246839928459785 -0.019962767553077531 0 0.026190160754018407 -0.01666092835579051 0 0.026540841600176186 -0.018801746838016945 0 0.025545306841918691 -0.018316839841169778 0 0.026798551168094362 -0.017614616761383761 0 0.026540841600176186 -0.018801746838016945 0 0.025545306841918691 -0.018316839841169778 0 0.026253999289368304 -0.020088871271757344 0 0.032507799046359705 -0.01521354144517202 0 0.032723120630558107 -0.015191153055121144 0 0.033569873498882651 -0.017600449243392345 0 0.036505808194640485 -0.013738233322637312 0 0.032087049104806309 -0.018139143376648847 0 0.028886052684839441 -0.016985405257933846 0 0.032087049104806309 -0.018139143376648847 0 0.038300315231264218 -0.01489614357992859 0 0.039621796538758011 -0.012545377662213799 0 0.040729717040514687 -0.014602689534369896 0 0.038300315231264218 -0.01489614357992859 0 0.039621796538758011 -0.012545377662213799 0 0.03786985252266438 -0.013278860510599698 0 0.0366958727715119 -0.013833211980700656 0 0.037379489716878635 -0.014923591434564072 0 0.03786985252266438 -0.013278860510599698 0 0.037379489716878635 -0.014923591434564072 0 0.038300315231264218 -0.01489614357992859 0 0.03786985252266438 -0.013278860510599698 0 0.037365951359083674 -0.011596460733705306 0 0.03786985252266438 -0.013278860510599698 0 0.038131746222594264 -0.011926824928068114 0 0.037365951359083674 -0.011596460733705306 0 0.0366958727715119 -0.013833211980700656 0 0.03786985252266438 -0.013278860510599698 0 0.039621796538758011 -0.012545377662213799 0 0.03786985252266438 -0.013278860510599698 0 0.038131746222594264 -0.011926824928068114 0 0.028886052684839441 -0.016985405257933846 0 0.028845504564155088 -0.013584712442584562 0 0.039621796538758011 -0.012545377662213799 0 0.038131746222594264 -0.011926824928068114 0 0.038735031291030814 -0.011039840078838769 0 0.032507799046359705 -0.01521354144517202 0 0.032723120630558107 -0.015191153055121144 0 0.031795287625582182 -0.012759487384508598 0 0.032507799046359705 -0.01521354144517202 0 0.031795287625582182 -0.012759487384508598 0 0.03135983680635266 -0.012805249580318086 0 0.036505808194640485 -0.013738233322637312 0 0.036093968391659292 -0.011634828274698221 0 0.038680246034981894 -0.010337742626802942 0 0.036093968391659292 -0.011634828274698221 0 0.037331695193189865 -0.011258363508416053 0 0.038131746222594264 -0.011926824928068114 0 0.038735031291030814 -0.011039840078838769 0 0.037331695193189865 -0.011258363508416053 0 0.037365951359083674 -0.011596460733705306 0 0.038131746222594264 -0.011926824928068114 0 0.038716709991142642 -0.0093669046229376465 0 0.03861699909638195 -0.0098007813620558156 0 0.039722546433953246 -0.0096419557501162701 0 0.038716709991142642 -0.0093669046229376465 0 0.039722546433953246 -0.0096419557501162701 0 0.039325048425009487 -0.0088185462550544411 0 0.028845504564155088 -0.013584712442584562 0 0.028109263194157994 -0.012206871745917744 0 0.033990147383203419 -0.012175046914856496 0 0.033706067680335003 -0.012204231608090784 0 0.033112259142787356 -0.01092385147646709 0 0.024501829547406095 -0.014292472315245063 0 0.02508245355776139 -0.01423353991189266 0 0.024529004185442741 -0.013529403005290019 0 0.036093968391659292 -0.011634828274698221 0 0.036218273881127722 -0.0097695937868530116 0 0.028845504564155088 -0.013584712442584562 0 0.036093968391659292 -0.011634828274698221 0 0.024789442944503883 -0.014843545072349933 0 0.024315000190537846 -0.013454184268877827 0 0.024512729048691912 -0.014343068891586926 0 0.024766860456575099 -0.013738694010802627 0 0.024161155177809177 -0.013531452447571785 0 0.028845504564155088 -0.013584712442584562 0 0.024789442944503883 -0.014843545072349933 0 0.024512729048691912 -0.014343068891586926 0 0.024839201988781503 -0.014379574049107358 0 0.024766860456575099 -0.013738694010802627 0 0.024789442944503883 -0.014843545072349933 0 0.024750139345727829 -0.014632083943297233 0 0.011931641230997677 -0.019338435067183 0 0.011368083650669792 -0.021003874651224913 0 0.010573909383609293 -0.018540649319193317 0 0.017997610220145822 -0.017841890891570737 0 0.017743188987004749 -0.01614752780065102 0 0.011931641230997677 -0.019338435067183 0 0.011914888772016774 -0.018239463880498772 0 0.010573909383609293 -0.018540649319193317 0 0.024839201988781503 -0.014379574049107358 0 0.025115327115146677 -0.014900104608033054 0 0.024766860456575099 -0.013738694010802627 0 0.011931641230997677 -0.019338435067183 0 0.011368083650669792 -0.021003874651224913 0 0.012782464497434058 -0.020197416579805123 0 0.024396370735830574 -0.014423728082002742 0 0.024839201988781503 -0.014379574049107358 0 0.025115327115146677 -0.014900104608033054 0 0.025514006901784871 -0.016329527251698662 0 0.025115327115146677 -0.014900104608033054 0 0.024922698731498626 -0.015314422128996322 0 0.012290293269218051 -0.023419947032241709 0 0.011368083650669792 -0.021003874651224913 0 0.012495601815889743 -0.021769907647941317 0 0.024396370735830574 -0.014423728082002742 0 0.025115327115146677 -0.014900104608033054 0 0.024922698731498626 -0.015314422128996322 0 0.011368083650669792 -0.021003874651224913 0 0.012495601815889743 -0.021769907647941317 0 0.012782464497434058 -0.020197416579805123 0 0.025545306841918691 -0.018316839841169778 0 0.024852794688293649 -0.016529948575717834 0 0.025787743198274263 -0.017219450603898619 0 0.025545306841918691 -0.018316839841169778 0 0.026798551168094362 -0.017614616761383761 0 0.025787743198274263 -0.017219450603898619 0 0.024852794688293649 -0.016529948575717834 0 0.025954634734735065 -0.016416891750023189 0 0.025787743198274263 -0.017219450603898619 0 0.025954634734735065 -0.016416891750023189 0 0.026798551168094362 -0.017614616761383761 0 0.025787743198274263 -0.017219450603898619 0 0.024789442944503883 -0.014843545072349933 0 0.026190160754018407 -0.01666092835579051 0 0.014948490050488615 -0.021626852671070246 0 0.013801311484563173 -0.020871328598071139 0 0.01478284285104434 -0.020028856436320019 0 0.014948490050488615 -0.021626852671070246 0 0.013659218544474376 -0.022025718672329813 0 0.014308918825407529 -0.022692853255661952 0 0.014948490050488615 -0.021626852671070246 0 0.013659218544474376 -0.022025718672329813 0 0.013801311484563173 -0.020871328598071139 0 0.013659218544474376 -0.022025718672329813 0 0.012495601815889743 -0.021769907647941317 0 0.013801311484563173 -0.020871328598071139 0 0.013659218544474376 -0.022025718672329813 0 0.012495601815889743 -0.021769907647941317 0 0.01280425395840931 -0.022428964033901991 0 0.012495601815889743 -0.021769907647941317 0 0.013801311484563173 -0.020871328598071139 0 0.012782464497434058 -0.020197416579805123 0 0.013801311484563173 -0.020871328598071139 0 0.012782464497434058 -0.020197416579805123 0 0.013900746470696803 -0.019514814721032388 0 0.011931641230997677 -0.019338435067183 0 0.013155474108122657 -0.018617160498087839 0 0.011914888772016774 -0.018239463880498772 0 0.011931641230997677 -0.019338435067183 0 0.012782464497434058 -0.020197416579805123 0 0.013155474108122657 -0.018617160498087839 0 0.012782464497434058 -0.020197416579805123 0 0.013900746470696803 -0.019514814721032388 0 0.013155474108122657 -0.018617160498087839 0 0.014948490050488615 -0.021626852671070246 0 0.01478284285104434 -0.020028856436320019 0 0.016111729661506799 -0.019657906852937421 0 0.01478284285104434 -0.020028856436320019 0 0.016111729661506799 -0.019657906852937421 0 0.014798365012591633 -0.018214327045794339 0 0.013900746470696803 -0.019514814721032388 0 0.01478284285104434 -0.020028856436320019 0 0.014798365012591633 -0.018214327045794339 0 0.013900746470696803 -0.019514814721032388 0 0.014798365012591633 -0.018214327045794339 0 0.013155474108122657 -0.018617160498087839 0 0.013801311484563173 -0.020871328598071139 0 0.013900746470696803 -0.019514814721032388 0 0.01478284285104434 -0.020028856436320019 0 0.016111729661506799 -0.019657906852937421 0 0.017619815252947459 -0.020774280706509208 0 0.018878024691398525 -0.018506255620983767 0 0.017619815252947459 -0.020774280706509208 0 0.019773440233053802 -0.021178024731395059 0 0.018878024691398525 -0.018506255620983767 0 0.017619815252947459 -0.020774280706509208 0 0.017583916919292113 -0.023694631977059715 0 0.019773440233053802 -0.021178024731395059 0 0.017619815252947459 -0.020774280706509208 0 0.01644769362795459 -0.022212819552525912 0 0.017583916919292113 -0.023694631977059715 0 0.014948490050488615 -0.021626852671070246 0 0.016111729661506799 -0.019657906852937421 0 0.01644769362795459 -0.022212819552525912 0 0.016111729661506799 -0.019657906852937421 0 0.017619815252947459 -0.020774280706509208 0 0.01644769362795459 -0.022212819552525912 0 0.01644769362795459 -0.022212819552525912 0 0.017583916919292113 -0.023694631977059715 0 0.015341522538533499 -0.02342007046154912 0 0.014948490050488615 -0.021626852671070246 0 0.01644769362795459 -0.022212819552525912 0 0.015341522538533499 -0.02342007046154912 0 0.017583916919292113 -0.023694631977059715 0 0.017261330667944413 -0.026372217336440511 0 0.019738367012501881 -0.02614000063529218 0 0.017583916919292113 -0.023694631977059715 0 0.015424459348808674 -0.02530990308778043 0 0.015341522538533499 -0.02342007046154912 0 0.017583916919292113 -0.023694631977059715 0 0.017261330667944413 -0.026372217336440511 0 0.014708449208104787 -0.02686146406080674 0 0.017743052331888658 -0.023623112129777211 0 0.014515206979757268 -0.026385541064616023 0 0.015424459348808674 -0.02530990308778043 0 0.014570667154195886 -0.024440308517118835 0 0.013713456862339537 -0.025128273077763472 0 0.015424459348808674 -0.02530990308778043 0 0.014570667154195886 -0.024440308517118835 0 0.015341522538533499 -0.02342007046154912 0 0.014570667154195886 -0.024440308517118835 0 0.014122449032371634 -0.023530971049134895 0 0.01371866900541107 -0.02430231952302141 0 0.014948490050488615 -0.021626852671070246 0 0.015341522538533499 -0.02342007046154912 0 0.014308918825407529 -0.022692853255661952 0 0.014122449032371634 -0.023530971049134895 0 0.014308918825407529 -0.022692853255661952 0 0.013466694347376953 -0.022836383331255927 0 0.014570667154195886 -0.024440308517118835 0 0.015341522538533499 -0.02342007046154912 0 0.014122449032371634 -0.023530971049134895 0 0.015341522538533499 -0.02342007046154912 0 0.014122449032371634 -0.023530971049134895 0 0.014308918825407529 -0.022692853255661952 0 0.012290293269218051 -0.023419947032241709 0 0.012495601815889743 -0.021769907647941317 0 0.01280425395840931 -0.022428964033901991 0 0.01280425395840931 -0.022428964033901991 0 0.013466694347376953 -0.022836383331255927 0 0.012672871142688311 -0.02312489526002642 0 0.013659218544474376 -0.022025718672329813 0 0.014308918825407529 -0.022692853255661952 0 0.013466694347376953 -0.022836383331255927 0 0.013659218544474376 -0.022025718672329813 0 0.01280425395840931 -0.022428964033901991 0 0.013466694347376953 -0.022836383331255927 0 0.014122449032371634 -0.023530971049134895 0 0.013370445615047143 -0.023585459899797726 0 0.01371866900541107 -0.02430231952302141 0 0.014122449032371634 -0.023530971049134895 0 0.013466694347376953 -0.022836383331255927 0 0.013370445615047143 -0.023585459899797726 0 0.013370445615047143 -0.023585459899797726 0 0.012672871142688311 -0.02312489526002642 0 0.012848042229524558 -0.024111674066416757 0 0.012290293269218051 -0.023419947032241709 0 0.012672871142688311 -0.02312489526002642 0 0.012841098327246786 -0.024127993819466152 0 0.012290293269218051 -0.023419947032241709 0 0.01280425395840931 -0.022428964033901991 0 0.012672871142688311 -0.02312489526002642 0 0.014026582606619067 -0.023282876887623583 0 0.015689955618818918 -0.022987491723957327 0 0.013466694347376953 -0.022836383331255927 0 0.013370445615047143 -0.023585459899797726 0 0.012672871142688311 -0.02312489526002642 0 0.021246839928459785 -0.019962767553077531 0 0.015689955618818918 -0.022987491723957327 0 0.015689955618818918 -0.022987491723957327 0 0.019933961841050538 -0.022546343037388429 0 0.021246839928459785 -0.019962767553077531 0 0.019933961841050538 -0.022546343037388429 0 0.027365396541948622 -0.019682148161801086 0 0.02761938280744362 -0.018817149161005107 0 0.028045550594557999 -0.019985820605002601 0 0.019329351584318144 -0.020861949409889429 0 0.019802086612753445 -0.021523943136519272 0 0.019904422637062911 -0.022342361703672167 0 0.012848042229524558 -0.024111674066416757 0 0.01371866900541107 -0.02430231952302141 0 0.013713456862339537 -0.025128273077763472 0 0.013370445615047143 -0.023585459899797726 0 0.012848042229524558 -0.024111674066416757 0 0.01371866900541107 -0.02430231952302141 0 0.015689955618818918 -0.022987491723957327 0 0.013937798206029837 -0.024479549898478364 0 0.013713456862339537 -0.025128273077763472 0 0.013163189185276099 -0.024928112755718358 0 0.013239054912585023 -0.025620295656628229 0 0.014570667154195886 -0.024440308517118835 0 0.01371866900541107 -0.02430231952302141 0 0.013713456862339537 -0.025128273077763472 0 0.019933961841050538 -0.022546343037388429 0 0.02032059552922879 -0.022757409108732279 0 0.013087266056805533 -0.024217532976561196 0 0.013713456862339537 -0.025128273077763472 0 0.013163189185276099 -0.024928112755718358 0 0.028045550594557999 -0.019985820605002601 0 0.027680663426511234 -0.020291027748034964 0 0.028100650051768747 -0.020589531729873638 0 0.027365396541948622 -0.019682148161801086 0 0.028045550594557999 -0.019985820605002601 0 0.027680663426511234 -0.020291027748034964 0 0.013713456862339537 -0.025128273077763472 0 0.013239054912585023 -0.025620295656628229 0 0.013443561467146703 -0.027067014627916816 0 0.02032059552922879 -0.022757409108732279 0 0.016077768859478068 -0.027132106408711873 0 0.027643679886529361 -0.021194063481668787 0 0.027609133500502533 -0.020692596763620515 0 0.028100650051768747 -0.020589531729873638 0 0.027643679886529361 -0.021194063481668787 0 0.028100650051768747 -0.020589531729873638 0 0.02818804785393746 -0.021745209967999706 0 0.027609133500502533 -0.020692596763620515 0 0.027680663426511234 -0.020291027748034964 0 0.028100650051768747 -0.020589531729873638 0 0.014708449208104787 -0.02686146406080674 0 0.014333239257348057 -0.029391500862268889 0 0.012950937500160997 -0.029379082878469361 0 0.014515206979757268 -0.026385541064616023 0 0.016077768859478068 -0.027132106408711873 0 0.015424459348808674 -0.02530990308778043 0 0.013713456862339537 -0.025128273077763472 0 0.013443561467146703 -0.027067014627916816 0 0.014708449208104787 -0.02686146406080674 0 0.014333239257348057 -0.029391500862268889 0 0.015275659853024745 -0.028523494710041154 0 0.014333239257348057 -0.029391500862268889 0 0.015291488849000596 -0.029889179952355367 0 0.015275659853024745 -0.028523494710041154 0 0.014333239257348057 -0.029391500862268889 0 0.012950937500160997 -0.029379082878469361 0 0.014159726404316052 -0.030621688166981405 0 0.014333239257348057 -0.029391500862268889 0 0.014817262317367607 -0.030748230585345253 0 0.015291488849000596 -0.029889179952355367 0 0.014333239257348057 -0.029391500862268889 0 0.014159726404316052 -0.030621688166981405 0 0.014817262317367607 -0.030748230585345253 0 0.027649212061943432 -0.021623680872057335 0 0.027643679886529361 -0.021194063481668787 0 0.02818804785393746 -0.021745209967999706 0 0.027435465667121371 -0.02214108854727526 0 0.027649212061943432 -0.021623680872057335 0 0.02818804785393746 -0.021745209967999706 0 0.031161399648903982 -0.023552057826031023 0 0.016077768859478068 -0.027132106408711873 0 0.012950937500160997 -0.029379082878469361 0 0.014159726404316052 -0.030621688166981405 0 0.014085274425941792 -0.031898980154394761 0 0.014742342124951282 -0.029743505849585718 0 0.015646883300258738 -0.028902539383949218 0 0.015743828029293448 -0.030920035615426344 0 0.031161399648903982 -0.023552057826031023 0 0.025281305399065375 -0.027622421412533332 0 0.014742342124951282 -0.029743505849585718 0 0.015264298025680429 -0.031542814788728182 0 0.015743828029293448 -0.030920035615426344 0 0.016077768859478068 -0.027132106408711873 0 0.014681671238973567 -0.031783849701774135 0 0.014159726404316052 -0.030621688166981405 0 0.014817262317367607 -0.030748230585345253 0 0.014607091447075291 -0.031552651998076033 0 0.015110741763793473 -0.031570327288818818 0 0.014607091447075291 -0.031552651998076033 0 0.014897965357010979 -0.031897170879351247 0 0.014817262317367607 -0.030748230585345253 0 0.015110741763793473 -0.031570327288818818 0 0.014607091447075291 -0.031552651998076033 0 0.014159726404316052 -0.030621688166981405 0 0.014607091447075291 -0.031552651998076033 0 0.014085274425941792 -0.031898980154394761 0 0.014607091447075291 -0.031552651998076033 0 0.01470409657434886 -0.032082480803327283 0 0.014897965357010979 -0.031897170879351247 0 0.015098729336749031 -0.032396907177968323 0 0.01470409657434886 -0.032082480803327283 0 0.014085274425941792 -0.031898980154394761 0 0.014607091447075291 -0.031552651998076033 0 0.01470409657434886 -0.032082480803327283 0 0.014085274425941792 -0.031898980154394761 0 0.01470409657434886 -0.032082480803327283 0 0.014897965357010979 -0.031897170879351247 0 0.014958184780454497 -0.03212536315095673 0 0.015110741763793473 -0.031570327288818818 0 0.015191089784133008 -0.03191051976778813 0 0.014897965357010979 -0.031897170879351247 0 0.014897965357010979 -0.031897170879351247 0 0.015270990878818384 -0.032179891252152551 0 0.014958184780454497 -0.03212536315095673 0 0.015191089784133008 -0.03191051976778813 0 0.014897965357010979 -0.031897170879351247 0 0.015270990878818384 -0.032179891252152551 0 0.015412129043006437 -0.032460916920924822 0 0.015270990878818384 -0.032179891252152551 0 0.01511367639254927 -0.032324148711660894 0 0.015270990878818384 -0.032179891252152551 0 0.014958184780454497 -0.03212536315095673 0 0.01511367639254927 -0.032324148711660894 0 0.01470409657434886 -0.032082480803327283 0 0.014958184780454497 -0.03212536315095673 0 0.01511367639254927 -0.032324148711660894 0 0.015098729336749031 -0.032396907177968323 0 0.01470409657434886 -0.032082480803327283 0 0.01511367639254927 -0.032324148711660894 0 0.01537353243656397 -0.032549740332327153 0 0.015264298025680429 -0.031542814788728182 0 0.015743828029293448 -0.030920035615426344 0 0.016127572021488391 -0.03221259666883193 0 0.016210273333220296 -0.032283424776904053 0 0.016064549712696646 -0.032398324228993081 0 0.016127572021488391 -0.03221259666883193 0 0.016045625648909434 -0.032088068737742753 0 0.015926569722316968 -0.032262072193168227 0 0.016127572021488391 -0.03221259666883193 0 0.016045625648909434 -0.032088068737742753 0 0.016229301809996911 -0.032038058206068275 0 0.016127572021488391 -0.03221259666883193 0 0.016309123300552932 -0.032152792906722585 0 0.016229301809996911 -0.032038058206068275 0 0.016127572021488391 -0.03221259666883193 0 0.016309123300552932 -0.032152792906722585 0 0.016210273333220296 -0.032283424776904053 0 0.016309123300552932 -0.032152792906722585 0 0.016311740017120775 -0.032263398245084944 0 0.016210273333220296 -0.032283424776904053 0 0.016309123300552932 -0.032152792906722585 0 0.016311740017120775 -0.032263398245084944 0 0.016424922938097487 -0.032117490577081166 0 0.016311740017120775 -0.032263398245084944 0 0.016210273333220296 -0.032283424776904053 0 0.016160653504210587 -0.03240671081348688 0 0.01604090835591249 -0.032530081385265114 0 0.015991736899221478 -0.032530968927086443 0 0.016064549712696646 -0.032398324228993081 0 0.01604090835591249 -0.032530081385265114 0 0.016160653504210587 -0.03240671081348688 0 0.016064549712696646 -0.032398324228993081 0 0.016210273333220296 -0.032283424776904053 0 0.016160653504210587 -0.03240671081348688 0 0.016064549712696646 -0.032398324228993081 0 0.016064549712696646 -0.032398324228993081 0 0.015816437971335418 -0.032424776170146635 0 0.015926569722316968 -0.032262072193168227 0 0.01589800222287488 -0.032544668733396495 0 0.016064549712696646 -0.032398324228993081 0 0.015816437971335418 -0.032424776170146635 0 0.016127572021488391 -0.03221259666883193 0 0.016064549712696646 -0.032398324228993081 0 0.015926569722316968 -0.032262072193168227 0 0.015611819654581574 -0.032431063023209736 0 0.015816437971335418 -0.032424776170146635 0 0.015664158461293376 -0.032233283736140012 0 0.015816437971335418 -0.032424776170146635 0 0.015664158461293376 -0.032233283736140012 0 0.015926569722316968 -0.032262072193168227 0 0.015611819654581574 -0.032431063023209736 0 0.015270990878818384 -0.032179891252152551 0 0.015664158461293376 -0.032233283736140012 0 0.015611819654581574 -0.032431063023209736 0 0.015412129043006437 -0.032460916920924822 0 0.015270990878818384 -0.032179891252152551 0 0.015270990878818384 -0.032179891252152551 0 0.015664158461293376 -0.032233283736140012 0 0.015479782218746463 -0.031952235530132385 0 0.015191089784133008 -0.03191051976778813 0 0.015270990878818384 -0.032179891252152551 0 0.015479782218746463 -0.031952235530132385 0 0.015479782218746463 -0.031952235530132385 0 0.015829682963464514 -0.032016738142920026 0 0.015670073623391994 -0.031678296300264822 0 0.015110741763793473 -0.031570327288818818 0 0.015191089784133008 -0.03191051976778813 0 0.015479782218746463 -0.031952235530132385 0 0.016045625648909434 -0.032088068737742753 0 0.015926569722316968 -0.032262072193168227 0 0.015829682963464514 -0.032016738142920026 0 0.015664158461293376 -0.032233283736140012 0 0.015926569722316968 -0.032262072193168227 0 0.015829682963464514 -0.032016738142920026 0 0.015664158461293376 -0.032233283736140012 0 0.015479782218746463 -0.031952235530132385 0 0.015829682963464514 -0.032016738142920026 0 0.016045625648909434 -0.032088068737742753 0 0.015829682963464514 -0.032016738142920026 0 0.016090275934352728 -0.031841180927803872 0 0.015829682963464514 -0.032016738142920026 0 0.016090275934352728 -0.031841180927803872 0 0.015670073623391994 -0.031678296300264822 0 0.016090275934352728 -0.031841180927803872 0 0.015670073623391994 -0.031678296300264822 0 0.015867497840283313 -0.031445258029491475 0 0.015670073623391994 -0.031678296300264822 0 0.015867497840283313 -0.031445258029491475 0 0.015462489145366163 -0.031098447577561063 0 0.016090275934352728 -0.031841180927803872 0 0.015867497840283313 -0.031445258029491475 0 0.016214567174096528 -0.03152370609248157 0 0.015110741763793473 -0.031570327288818818 0 0.015670073623391994 -0.031678296300264822 0 0.015462489145366163 -0.031098447577561063 0 0.015110741763793473 -0.031570327288818818 0 0.015479782218746463 -0.031952235530132385 0 0.015670073623391994 -0.031678296300264822 0 0.014817262317367607 -0.030748230585345253 0 0.015462489145366163 -0.031098447577561063 0 0.015291488849000596 -0.029889179952355367 0 0.014817262317367607 -0.030748230585345253 0 0.015110741763793473 -0.031570327288818818 0 0.015462489145366163 -0.031098447577561063 0 0.015864835113055937 -0.031014961430551626 0 0.01620330704869008 -0.031074682675490465 0 0.016214567174096528 -0.03152370609248157 0 0.015867497840283313 -0.031445258029491475 0 0.015864835113055937 -0.031014961430551626 0 0.016214567174096528 -0.03152370609248157 0 0.015867497840283313 -0.031445258029491475 0 0.015462489145366163 -0.031098447577561063 0 0.015864835113055937 -0.031014961430551626 0 0.015462489145366163 -0.031098447577561063 0 0.015864835113055937 -0.031014961430551626 0 0.015806967489645652 -0.030446492571865141 0 0.015864835113055937 -0.031014961430551626 0 0.015806967489645652 -0.030446492571865141 0 0.016278248114101151 -0.030586109998219816 0 0.015864835113055937 -0.031014961430551626 0 0.01620330704869008 -0.031074682675490465 0 0.016278248114101151 -0.030586109998219816 0 0.01620330704869008 -0.031074682675490465 0 0.016498412027034344 -0.031165831209543551 0 0.016278248114101151 -0.030586109998219816 0 0.016498412027034344 -0.031165831209543551 0 0.016932227357597012 -0.030585691125435993 0 0.016278248114101151 -0.030586109998219816 0 0.016498412027034344 -0.031165831209543551 0 0.016944849123966634 -0.031164828746864409 0 0.016932227357597012 -0.030585691125435993 0 0.016498412027034344 -0.031165831209543551 0 0.016944849123966634 -0.031164828746864409 0 0.016685767346897713 -0.031508928950643826 0 0.016944849123966634 -0.031164828746864409 0 0.016685767346897713 -0.031508928950643826 0 0.016930874728214442 -0.031735546489121885 0 0.016498412027034344 -0.031165831209543551 0 0.016685767346897713 -0.031508928950643826 0 0.016457863405126817 -0.031555281190607208 0 0.016685767346897713 -0.031508928950643826 0 0.016457863405126817 -0.031555281190607208 0 0.016636304414779389 -0.031846985727288488 0 0.016685767346897713 -0.031508928950643826 0 0.016636304414779389 -0.031846985727288488 0 0.016930874728214442 -0.031735546489121885 0 0.016498412027034344 -0.031165831209543551 0 0.016457863405126817 -0.031555281190607208 0 0.016214567174096528 -0.03152370609248157 0 0.01620330704869008 -0.031074682675490465 0 0.016498412027034344 -0.031165831209543551 0 0.016214567174096528 -0.03152370609248157 0 0.016214567174096528 -0.03152370609248157 0 0.016413275033807788 -0.031771314522404635 0 0.016273467499547119 -0.031880105041187323 0 0.016090275934352728 -0.031841180927803872 0 0.016214567174096528 -0.03152370609248157 0 0.016273467499547119 -0.031880105041187323 0 0.016457863405126817 -0.031555281190607208 0 0.016214567174096528 -0.03152370609248157 0 0.016413275033807788 -0.031771314522404635 0 0.016413275033807788 -0.031771314522404635 0 0.016636304414779389 -0.031846985727288488 0 0.01642277375434141 -0.03199609636667447 0 0.016457863405126817 -0.031555281190607208 0 0.016413275033807788 -0.031771314522404635 0 0.016636304414779389 -0.031846985727288488 0 0.016636304414779389 -0.031846985727288488 0 0.01642277375434141 -0.03199609636667447 0 0.016566495494368703 -0.032037003523540122 0 0.016413275033807788 -0.031771314522404635 0 0.01642277375434141 -0.03199609636667447 0 0.016273467499547119 -0.031880105041187323 0 0.01642277375434141 -0.03199609636667447 0 0.016229301809996911 -0.032038058206068275 0 0.016273467499547119 -0.031880105041187323 0 0.016309123300552932 -0.032152792906722585 0 0.01642277375434141 -0.03199609636667447 0 0.016229301809996911 -0.032038058206068275 0 0.016309123300552932 -0.032152792906722585 0 0.01642277375434141 -0.03199609636667447 0 0.016424922938097487 -0.032117490577081166 0 0.016045625648909434 -0.032088068737742753 0 0.016090275934352728 -0.031841180927803872 0 0.016229301809996911 -0.032038058206068275 0 0.016090275934352728 -0.031841180927803872 0 0.016229301809996911 -0.032038058206068275 0 0.016273467499547119 -0.031880105041187323 0 0.016311740017120775 -0.032263398245084944 0 0.016445988333285262 -0.032158657951999729 0 0.016245228948142416 -0.032392517379334608 0 0.016311740017120775 -0.032263398245084944 0 0.016445988333285262 -0.032158657951999729 0 0.016424922938097487 -0.032117490577081166 0 0.01642277375434141 -0.03199609636667447 0 0.016424922938097487 -0.032117490577081166 0 0.016566495494368703 -0.032037003523540122 0 0.016445988333285262 -0.032158657951999729 0 0.016424922938097487 -0.032117490577081166 0 0.016566495494368703 -0.032037003523540122 0 0.016445988333285262 -0.032158657951999729 0 0.0165661241406325 -0.032096040120021881 0 0.016566495494368703 -0.032037003523540122 0 0.016636304414779389 -0.031846985727288488 0 0.016566495494368703 -0.032037003523540122 0 0.016762756111695507 -0.032007303857432182 0 0.0165661241406325 -0.032096040120021881 0 0.016762756111695507 -0.032007303857432182 0 0.016454775930444188 -0.032193331606506573 0 0.0165661241406325 -0.032096040120021881 0 0.016566495494368703 -0.032037003523540122 0 0.016762756111695507 -0.032007303857432182 0 0.016454775930444188 -0.032193331606506573 0 0.016472916490403888 -0.032304724428206442 0 0.016245228948142416 -0.032392517379334608 0 0.016762756111695507 -0.032007303857432182 0 0.016454775930444188 -0.032193331606506573 0 0.016472916490403888 -0.032304724428206442 0 0.016445988333285262 -0.032158657951999729 0 0.016454775930444188 -0.032193331606506573 0 0.016245228948142416 -0.032392517379334608 0 0.016445988333285262 -0.032158657951999729 0 0.0165661241406325 -0.032096040120021881 0 0.016454775930444188 -0.032193331606506573 0 0.017686890053424508 -0.031705749392465482 0 0.017516018892680493 -0.030978026498241103 0 0.018608070589000887 -0.029913425731334924 0 0.017686890053424508 -0.031705749392465482 0 0.017241298987481495 -0.031373023697826123 0 0.017516018892680493 -0.030978026498241103 0 0.016636304414779389 -0.031846985727288488 0 0.016762756111695507 -0.032007303857432182 0 0.016930874728214442 -0.031735546489121885 0 0.016762756111695507 -0.032007303857432182 0 0.016955801081168724 -0.031846584975846484 0 0.016930874728214442 -0.031735546489121885 0 0.016627974938509538 -0.032307003708879796 0 0.016715321398788095 -0.032267536986519914 0 0.016665563463806848 -0.032260811528174477 0 0.016627974938509538 -0.032307003708879796 0 0.017686890053424508 -0.031705749392465482 0 0.016930874728214442 -0.031735546489121885 0 0.017241298987481495 -0.031373023697826123 0 0.016944849123966634 -0.031164828746864409 0 0.016930874728214442 -0.031735546489121885 0 0.017241298987481495 -0.031373023697826123 0 0.016944849123966634 -0.031164828746864409 0 0.017516018892680493 -0.030978026498241103 0 0.016932227357597012 -0.030585691125435993 0 0.016944849123966634 -0.031164828746864409 0 0.017241298987481495 -0.031373023697826123 0 0.017516018892680493 -0.030978026498241103 0 0.017516018892680493 -0.030978026498241103 0 0.017742019546197054 -0.030169268143402064 0 0.018608070589000887 -0.029913425731334924 0 0.017742019546197054 -0.030169268143402064 0 0.018072543497144274 -0.029526627484765523 0 0.018608070589000887 -0.029913425731334924 0 0.017742019546197054 -0.030169268143402064 0 0.016932227357597012 -0.030585691125435993 0 0.017367680333423032 -0.029645596982475025 0 0.017742019546197054 -0.030169268143402064 0 0.018072543497144274 -0.029526627484765523 0 0.017367680333423032 -0.029645596982475025 0 0.017516018892680493 -0.030978026498241103 0 0.017742019546197054 -0.030169268143402064 0 0.016932227357597012 -0.030585691125435993 0 0.016932227357597012 -0.030585691125435993 0 0.017367680333423032 -0.029645596982475025 0 0.01636528258268774 -0.029792866484411585 0 0.016932227357597012 -0.030585691125435993 0 0.016278248114101151 -0.030586109998219816 0 0.01636528258268774 -0.029792866484411585 0 0.016986318138781695 -0.028828823089544847 0 0.017367680333423032 -0.029645596982475025 0 0.01636528258268774 -0.029792866484411585 0 0.016986318138781695 -0.028828823089544847 0 0.017880955784744856 -0.028944300319434391 0 0.017367680333423032 -0.029645596982475025 0 0.017880955784744856 -0.028944300319434391 0 0.018072543497144274 -0.029526627484765523 0 0.018688010828259882 -0.028874443909272501 0 0.017880955784744856 -0.028944300319434391 0 0.018072543497144274 -0.029526627484765523 0 0.017367680333423032 -0.029645596982475025 0 0.015462489145366163 -0.031098447577561063 0 0.015291488849000596 -0.029889179952355367 0 0.015806967489645652 -0.030446492571865141 0 0.015291488849000596 -0.029889179952355367 0 0.015806967489645652 -0.030446492571865141 0 0.01636528258268774 -0.029792866484411585 0 0.015806967489645652 -0.030446492571865141 0 0.016278248114101151 -0.030586109998219816 0 0.01636528258268774 -0.029792866484411585 0 0.016986318138781695 -0.028828823089544847 0 0.01636528258268774 -0.029792866484411585 0 0.016003458901618351 -0.028874719070216534 0 0.015291488849000596 -0.029889179952355367 0 0.01636528258268774 -0.029792866484411585 0 0.016003458901618351 -0.028874719070216534 0 0.015291488849000596 -0.029889179952355367 0 0.016003458901618351 -0.028874719070216534 0 0.015275659853024745 -0.028523494710041154 0 0.017261330667944413 -0.026372217336440511 0 0.014708449208104787 -0.02686146406080674 0 0.016386148611476418 -0.027879657346329884 0 0.016986318138781695 -0.028828823089544847 0 0.016003458901618351 -0.028874719070216534 0 0.016386148611476418 -0.027879657346329884 0 0.016003458901618351 -0.028874719070216534 0 0.015275659853024745 -0.028523494710041154 0 0.016386148611476418 -0.027879657346329884 0 0.014708449208104787 -0.02686146406080674 0 0.015275659853024745 -0.028523494710041154 0 0.016386148611476418 -0.027879657346329884 0 0.017261330667944413 -0.026372217336440511 0 0.018023529808323734 -0.027776030871380301 0 0.019738367012501881 -0.02614000063529218 0 0.016986318138781695 -0.028828823089544847 0 0.017880955784744856 -0.028944300319434391 0 0.018023529808323734 -0.027776030871380301 0 0.017880955784744856 -0.028944300319434391 0 0.018023529808323734 -0.027776030871380301 0 0.018688010828259882 -0.028874443909272501 0 0.016986318138781695 -0.028828823089544847 0 0.016386148611476418 -0.027879657346329884 0 0.018023529808323734 -0.027776030871380301 0 0.017261330667944413 -0.026372217336440511 0 0.016386148611476418 -0.027879657346329884 0 0.018023529808323734 -0.027776030871380301 0 0.018023529808323734 -0.027776030871380301 0 0.019331646594879303 -0.027915283563978967 0 0.019738367012501881 -0.02614000063529218 0 0.020273738259666833 -0.027865044218181041 0 0.021116549936583774 -0.027088086287414735 0 0.019738367012501881 -0.02614000063529218 0 0.020273738259666833 -0.027865044218181041 0 0.019331646594879303 -0.027915283563978967 0 0.019738367012501881 -0.02614000063529218 0 0.020273738259666833 -0.027865044218181041 0 0.019522017992195488 -0.028734111084174237 0 0.020574269036504281 -0.029041943188972512 0 0.020273738259666833 -0.027865044218181041 0 0.019331646594879303 -0.027915283563978967 0 0.019522017992195488 -0.028734111084174237 0 0.018023529808323734 -0.027776030871380301 0 0.019331646594879303 -0.027915283563978967 0 0.018688010828259882 -0.028874443909272501 0 0.019331646594879303 -0.027915283563978967 0 0.018688010828259882 -0.028874443909272501 0 0.019522017992195488 -0.028734111084174237 0 0.021116549936583774 -0.027088086287414735 0 0.020574269036504281 -0.029041943188972512 0 0.02284202877042674 -0.026389887005933945 0 0.018168892988291784 -0.030994905829529559 0 0.019959672328177278 -0.028783364385134288 0 0.016102444810294526 -0.032664670301453508 0 0.015706686870864139 -0.03303999350737509 0 0.017094180033512218 -0.03119579411346831 0 0.020273738259666833 -0.027865044218181041 0 0.021116549936583774 -0.027088086287414735 0 0.020574269036504281 -0.029041943188972512 0 0.015957461092278951 -0.032951905586437104 0 0.0159284840288519 -0.032962923357346671 0 0.015981038499531426 -0.03291793252041697 0 0.016102444810294526 -0.032664670301453508 0 0.015957461092278951 -0.032951905586437104 0 0.015981038499531426 -0.03291793252041697 0 0.016102444810294526 -0.032664670301453508 0 0.015957461092278951 -0.032951905586437104 0 0.015706686870864139 -0.03303999350737509 0 0.015957461092278951 -0.032951905586437104 0 0.015838283072229693 -0.033004235535627861 0 0.0159284840288519 -0.032962923357346671 0 0.015957461092278951 -0.032951905586437104 0 0.015838283072229693 -0.033004235535627861 0 0.015706686870864139 -0.03303999350737509 0 0.0159284840288519 -0.032962923357346671 0 0.015890228028047664 -0.032949644703039557 0 0.015876507558679934 -0.032960209786903893 0 0.01588879933748236 -0.032986964333091305 0 0.015838283072229693 -0.033004235535627861 0 0.015706686870864139 -0.03303999350737509 0 0.016627974938509538 -0.032307003708879796 0 0.018168892988291784 -0.030994905829529559 0 0.017686890053424508 -0.031705749392465482 0 0.020574269036504281 -0.029041943188972512 0 0.018608070589000887 -0.029913425731334924 0 0.018688010828259882 -0.028874443909272501 0 0.019522017992195488 -0.028734111084174237 0 0.018608070589000887 -0.029913425731334924 0 0.018072543497144274 -0.029526627484765523 0 0.018688010828259882 -0.028874443909272501 0 0.018608070589000887 -0.029913425731334924 0 0.019522017992195488 -0.028734111084174237 0 0.020574269036504281 -0.029041943188972512 0 0.018608070589000887 -0.029913425731334924 0 0.01588879933748236 -0.032986964333091305 0 0.015838283072229693 -0.033004235535627861 0 0.015890228028047664 -0.032949644703039557 0 0.016627974938509538 -0.032307003708879796 0 0.015665837589277858 -0.032964206827469283 0 0.016245228948142416 -0.032392517379334608 0 0.015702075208900271 -0.032940393308010407 0 0.016096364826993479 -0.032489568649178437 0 0.016472916490403888 -0.032304724428206442 0 0.016245228948142416 -0.032392517379334608 0 0.015702075208900271 -0.032940393308010407 0 0.016311740017120775 -0.032263398245084944 0 0.016245228948142416 -0.032392517379334608 0 0.016096364826993479 -0.032489568649178437 0 0.015838283072229693 -0.033004235535627861 0 0.0159284840288519 -0.032962923357346671 0 0.015890228028047664 -0.032949644703039557 0 0.015702075208900271 -0.032940393308010407 0 0.01582128960561037 -0.032689415006667347 0 0.016096364826993479 -0.032489568649178437 0 0.015702075208900271 -0.032940393308010407 0 0.01582128960561037 -0.032689415006667347 0 0.015508751787561925 -0.032861853726841382 0 0.015753987788974935 -0.032725149040961819 0 0.01582128960561037 -0.032689415006667347 0 0.015508751787561925 -0.032861853726841382 0 0.015753987788974935 -0.032725149040961819 0 0.01582128960561037 -0.032689415006667347 0 0.015990881662007576 -0.032569024894919363 0 0.01604090835591249 -0.032530081385265114 0 0.016160653504210587 -0.03240671081348688 0 0.015990881662007576 -0.032569024894919363 0 0.016311740017120775 -0.032263398245084944 0 0.016160653504210587 -0.03240671081348688 0 0.016096364826993479 -0.032489568649178437 0 0.016160653504210587 -0.03240671081348688 0 0.015990881662007576 -0.032569024894919363 0 0.016096364826993479 -0.032489568649178437 0 0.01582128960561037 -0.032689415006667347 0 0.015990881662007576 -0.032569024894919363 0 0.016096364826993479 -0.032489568649178437 0 0.015346798110457752 -0.032930096943437376 0 0.015100068228173164 -0.033000765699316877 0 0.015508751787561925 -0.032861853726841382 0 0.015100068228173164 -0.033000765699316877 0 0.015508751787561925 -0.032861853726841382 0 0.015203249224416283 -0.033070980806588622 0 0.015665837589277858 -0.032964206827469283 0 0.015447935646919212 -0.03292375172448006 0 0.015890228028047664 -0.032949644703039557 0 0.015652507283542959 -0.032790680101859954 0 0.015876507558679934 -0.032960209786903893 0 0.015702075208900271 -0.032940393308010407 0 0.015508751787561925 -0.032861853726841382 0 0.015203249224416283 -0.033070980806588622 0 0.015652507283542959 -0.032790680101859954 0 0.015717781049342988 -0.033095667914402785 0 0.015876507558679934 -0.032960209786903893 0 0.015652507283542959 -0.032790680101859954 0 0.015717781049342988 -0.033095667914402785 0 0.015452553260573682 -0.033163277049812902 0 0.0159284840288519 -0.032962923357346671 0 0.015876507558679934 -0.032960209786903893 0 0.015981038499531426 -0.03291793252041697 0 0.015717781049342988 -0.033095667914402785 0 0.015876507558679934 -0.032960209786903893 0 0.015859628948476551 -0.033056779355284248 0 0.015876507558679934 -0.032960209786903893 0 0.015859628948476551 -0.033056779355284248 0 0.015981038499531426 -0.03291793252041697 0 0.016102444810294526 -0.032664670301453508 0 0.015981038499531426 -0.03291793252041697 0 0.015850491382133871 -0.033333011468164933 0 0.016102444810294526 -0.032664670301453508 0 0.018093320276655181 -0.031504378836621841 0 0.017094180033512218 -0.03119579411346831 0 0.016115680095417584 -0.032695432051399534 0 0.016970913810321848 -0.032398374824715533 0 0.015859628948476551 -0.033056779355284248 0 0.015981038499531426 -0.03291793252041697 0 0.015850491382133871 -0.033333011468164933 0 0.015717781049342988 -0.033095667914402785 0 0.015859628948476551 -0.033056779355284248 0 0.015850491382133871 -0.033333011468164933 0 0.015717781049342988 -0.033095667914402785 0 0.015850491382133871 -0.033333011468164933 0 0.015568910442625873 -0.033354450001208964 0 0.015850491382133871 -0.033333011468164933 0 0.015568910442625873 -0.033354450001208964 0 0.015472752424292521 -0.03371859952411458 0 0.015717781049342988 -0.033095667914402785 0 0.015568910442625873 -0.033354450001208964 0 0.015452553260573682 -0.033163277049812902 0 0.018093320276655181 -0.031504378836621841 0 0.019052709600309838 -0.030079701019295087 0 0.021063927412581913 -0.02983182854010278 0 0.016970913810321848 -0.032398374824715533 0 0.018135006956974883 -0.03182731561474951 0 0.019052709600309838 -0.030079701019295087 0 0.020130981323189086 -0.029300829800462752 0 0.019121635381051712 -0.028616051979218536 0 0.019052709600309838 -0.030079701019295087 0 0.020130981323189086 -0.029300829800462752 0 0.021063927412581913 -0.02983182854010278 0 0.020130981323189086 -0.029300829800462752 0 0.019121635381051712 -0.028616051979218536 0 0.022241253944434398 -0.027539669626317945 0 0.02184122331335215 -0.026271908588179779 0 0.023359888777379531 -0.024178591149634474 0 0.024617587459870281 -0.023878497553309813 0 0.024386155945748261 -0.022739219998784903 0 0.024925025040155153 -0.022644414430826959 0 0.024617587459870281 -0.023878497553309813 0 0.022891969380800199 -0.024193957269751817 0 0.024386155945748261 -0.022739219998784903 0 0.022800893058474471 -0.02278515829743925 0 0.022891969380800199 -0.024193957269751817 0 0.024386155945748261 -0.022739219998784903 0 0.018093320276655181 -0.031504378836621841 0 0.017094180033512218 -0.03119579411346831 0 0.019052709600309838 -0.030079701019295087 0 0.02284202877042674 -0.026389887005933945 0 0.024617587459870281 -0.023878497553309813 0 0.022891969380800199 -0.024193957269751817 0 0.017094180033512218 -0.03119579411346831 0 0.019052709600309838 -0.030079701019295087 0 0.019121635381051712 -0.028616051979218536 0 0.019959672328177278 -0.028783364385134288 0 0.02184122331335215 -0.026271908588179779 0 0.021541348656378956 -0.025418207058675858 0 0.019738367012501881 -0.02614000063529218 0 0.021075237759113265 -0.023367524977295006 0 0.02284202877042674 -0.026389887005933945 0 0.022891969380800199 -0.024193957269751817 0 0.021541348656378956 -0.025418207058675858 0 0.021116549936583774 -0.027088086287414735 0 0.02284202877042674 -0.026389887005933945 0 0.021541348656378956 -0.025418207058675858 0 0.021116549936583774 -0.027088086287414735 0 0.021541348656378956 -0.025418207058675858 0 0.019738367012501881 -0.02614000063529218 0 0.017583916919292113 -0.023694631977059715 0 0.019738367012501881 -0.02614000063529218 0 0.021075237759113265 -0.023367524977295006 0 0.017583916919292113 -0.023694631977059715 0 0.021075237759113265 -0.023367524977295006 0 0.019773440233053802 -0.021178024731395059 0 0.022800893058474471 -0.02278515829743925 0 0.022891969380800199 -0.024193957269751817 0 0.021075237759113265 -0.023367524977295006 0 0.022891969380800199 -0.024193957269751817 0 0.021541348656378956 -0.025418207058675858 0 0.021075237759113265 -0.023367524977295006 0 0.022800893058474471 -0.02278515829743925 0 0.021075237759113265 -0.023367524977295006 0 0.022361181192777278 -0.021194148849452098 0 0.022361181192777278 -0.021194148849452098 0 0.019773440233053802 -0.021178024731395059 0 0.021068291099682866 -0.019655301381756807 0 0.021075237759113265 -0.023367524977295006 0 0.022361181192777278 -0.021194148849452098 0 0.019773440233053802 -0.021178024731395059 0 0.019773440233053802 -0.021178024731395059 0 0.021068291099682866 -0.019655301381756807 0 0.018878024691398525 -0.018506255620983767 0 0.021068291099682866 -0.019655301381756807 0 0.023178992124191333 -0.019603227138544749 0 0.021318532725561206 -0.018038531113563107 0 0.022361181192777278 -0.021194148849452098 0 0.021068291099682866 -0.019655301381756807 0 0.023178992124191333 -0.019603227138544749 0 0.023178992124191333 -0.019603227138544749 0 0.024989697231364266 -0.019710331808900076 0 0.024386155945748261 -0.022739219998784903 0 0.023178992124191333 -0.019603227138544749 0 0.024989697231364266 -0.019710331808900076 0 0.024280376569042906 -0.018011897773625735 0 0.02444457296532597 -0.022296918313887169 0 0.024629444758053263 -0.02251929170385282 0 0.024815233380071175 -0.022429922676097707 0 0.024629444758053263 -0.02251929170385282 0 0.024386155945748261 -0.022739219998784903 0 0.024925025040155153 -0.022644414430826959 0 0.02444457296532597 -0.022296918313887169 0 0.024629444758053263 -0.02251929170385282 0 0.024386155945748261 -0.022739219998784903 0 0.025131513040063547 -0.021318715128037628 0 0.024352055741843546 -0.022505422711167216 0 0.022361181192777278 -0.021194148849452098 0 0.023178992124191333 -0.019603227138544749 0 0.024386155945748261 -0.022739219998784903 0 0.022800893058474471 -0.02278515829743925 0 0.022361181192777278 -0.021194148849452098 0 0.024386155945748261 -0.022739219998784903 0 0.023383485944376503 -0.016951648672130504 0 0.022886274153075689 -0.0155256396684987 0 0.024722399506372009 -0.016475842697978554 0 0.020090923186716163 -0.013622307609810518 0 0.020849372343323392 -0.013533830016090945 0 0.020930080206745354 -0.014094925778723387 0 0.021524946432191716 -0.014576469669449196 0 0.02214891252892727 -0.016285218743307416 0 0.023383485944376503 -0.016951648672130504 0 0.022886274153075689 -0.0155256396684987 0 0.022235840421370758 -0.016966557241707467 0 0.020849372343323392 -0.013533830016090945 0 0.021227459111071469 -0.014255222415646572 0 0.021379616503271314 -0.012966739422568971 0 0.020445965589155873 -0.017665303369111603 0 0.018492141724010647 -0.016037729400603204 0 0.015463465741626362 -0.018380322741763065 0 0.01548079814460792 -0.017986915070194804 0 0.015641223184371209 -0.018299164087029203 0 0.020849372343323392 -0.013533830016090945 0 0.021227459111071469 -0.014255222415646572 0 0.020930080206745354 -0.014094925778723387 0 0.020445965589155873 -0.017665303369111603 0 0.02214891252892727 -0.016285218743307416 0 0.02444457296532597 -0.022296918313887169 0 0.024425349252271314 -0.021848866167008412 0 0.02474803030071087 -0.02208799603543601 0 0.025131513040063547 -0.021318715128037628 0 0.020445965589155873 -0.017665303369111603 0 0.024989697231364266 -0.019710331808900076 0 0.025368434151431491 -0.016803214173654064 0 0.024280376569042906 -0.018011897773625735 0 0.025368434151431491 -0.016803214173654064 0 0.024722399506372009 -0.016475842697978554 0 0.024280376569042906 -0.018011897773625735 0 0.023178992124191333 -0.019603227138544749 0 0.024280376569042906 -0.018011897773625735 0 0.022902084813050519 -0.017890157947770109 0 0.023383485944376503 -0.016951648672130504 0 0.024280376569042906 -0.018011897773625735 0 0.022902084813050519 -0.017890157947770109 0 0.023383485944376503 -0.016951648672130504 0 0.024722399506372009 -0.016475842697978554 0 0.024280376569042906 -0.018011897773625735 0 0.023383485944376503 -0.016951648672130504 0 0.022902084813050519 -0.017890157947770109 0 0.022235840421370758 -0.016966557241707467 0 0.023178992124191333 -0.019603227138544749 0 0.022902084813050519 -0.017890157947770109 0 0.021318532725561206 -0.018038531113563107 0 0.021318532725561206 -0.018038531113563107 0 0.022235840421370758 -0.016966557241707467 0 0.020697696530061215 -0.016445740343079152 0 0.022902084813050519 -0.017890157947770109 0 0.021318532725561206 -0.018038531113563107 0 0.022235840421370758 -0.016966557241707467 0 0.021318532725561206 -0.018038531113563107 0 0.020697696530061215 -0.016445740343079152 0 0.018878024691398525 -0.018506255620983767 0 0.020697696530061215 -0.016445740343079152 0 0.018613975846437359 -0.015871836704994896 0 0.018878024691398525 -0.018506255620983767 0 0.021068291099682866 -0.019655301381756807 0 0.021318532725561206 -0.018038531113563107 0 0.018878024691398525 -0.018506255620983767 0 0.020697696530061215 -0.016445740343079152 0 0.020498519685666124 -0.014208671436398444 0 0.018613975846437359 -0.015871836704994896 0 0.022886274153075689 -0.0155256396684987 0 0.020697696530061215 -0.016445740343079152 0 0.020498519685666124 -0.014208671436398444 0 0.022886274153075689 -0.0155256396684987 0 0.022235840421370758 -0.016966557241707467 0 0.020697696530061215 -0.016445740343079152 0 0.019013913808561881 -0.013059315504616047 0 0.019568942738062634 -0.012188331106212447 0 0.020177551423386952 -0.012813039954246902 0 0.021524946432191716 -0.014576469669449196 0 0.01970847711365642 -0.01362436644145365 0 0.020090923186716163 -0.013622307609810518 0 0.019013913808561881 -0.013059315504616047 0 0.020177551423386952 -0.012813039954246902 0 0.020498519685666124 -0.014208671436398444 0 0.018518582876531943 -0.014349736700351086 0 0.018613975846437359 -0.015871836704994896 0 0.020498519685666124 -0.014208671436398444 0 0.01795737657065994 -0.012774275427678165 0 0.018518582876531943 -0.014349736700351086 0 0.01970847711365642 -0.01362436644145365 0 0.01806548715656495 -0.012815485548236747 0 0.019013913808561881 -0.013059315504616047 0 0.01883753643350471 -0.012048704516288188 0 0.019568942738062634 -0.012188331106212447 0 0.019013913808561881 -0.013059315504616047 0 0.01883753643350471 -0.012048704516288188 0 0.01795737657065994 -0.012774275427678165 0 0.01883753643350471 -0.012048704516288188 0 0.019568942738062634 -0.012188331106212447 0 0.019391631552574822 -0.011572472859088186 0 0.019568942738062634 -0.012188331106212447 0 0.02010350872756262 -0.012012010225894661 0 0.019848250313754989 -0.011615173638276809 0 0.019568942738062634 -0.012188331106212447 0 0.019391631552574822 -0.011572472859088186 0 0.019848250313754989 -0.011615173638276809 0 0.02010350872756262 -0.012012010225894661 0 0.020598779262982224 -0.012203993613367626 0 0.020268457752674759 -0.01131522607953944 0 0.020697865006777019 -0.012385205636359828 0 0.019072353443799303 -0.010726098312471037 0 0.02010350872756262 -0.012012010225894661 0 0.020598779262982224 -0.012203993613367626 0 0.020177551423386952 -0.012813039954246902 0 0.019568942738062634 -0.012188331106212447 0 0.02010350872756262 -0.012012010225894661 0 0.020177551423386952 -0.012813039954246902 0 0.020598779262982224 -0.012203993613367626 0 0.020177551423386952 -0.012813039954246902 0 0.021379616503271314 -0.012966739422568971 0 0.020090923186716163 -0.013622307609810518 0 0.020849372343323392 -0.013533830016090945 0 0.020177551423386952 -0.012813039954246902 0 0.020849372343323392 -0.013533830016090945 0 0.020177551423386952 -0.012813039954246902 0 0.021379616503271314 -0.012966739422568971 0 0.020598779262982224 -0.012203993613367626 0 0.021537003632126326 -0.011640161890100162 0 0.020082218343048189 -0.011300594716435306 0 0.020598779262982224 -0.012203993613367626 0 0.021379616503271314 -0.012966739422568971 0 0.021537003632126326 -0.011640161890100162 0 0.018492141724010647 -0.016037729400603204 0 0.015296026495442558 -0.010365377926102886 0 0.01330392000320527 -0.0047521243249709719 0 0.012737380788267036 -0.004154229807843233 0 0.011604339950878773 -0.0042084754239985426 0 0.015296026495442558 -0.010365377926102886 0 0.016976537532580036 -0.0080225063634067513 0 0.012737380788267036 -0.004154229807843233 0 0.012227430032252355 -0.0039161598228994446 0 0.012432327608574005 -0.0036766155713552659 0 0.01330392000320527 -0.0047521243249709719 0 0.012737380788267036 -0.004154229807843233 0 0.013404794652989112 -0.0039497321372851555 0 0.012737380788267036 -0.004154229807843233 0 0.012952411183350087 -0.0035287501687374864 0 0.013404794652989112 -0.0039497321372851555 0 0.021537003632126326 -0.011640161890100162 0 0.020082218343048189 -0.011300594716435306 0 0.01997224700589301 -0.011091734907095196 0 0.012737380788267036 -0.004154229807843233 0 0.012227430032252355 -0.0039161598228994446 0 0.011604339950878773 -0.0042084754239985426 0 0.02010350872756262 -0.012012010225894661 0 0.020268457752674759 -0.01131522607953944 0 0.019848250313754989 -0.011615173638276809 0 0.012227430032252355 -0.0039161598228994446 0 0.011604339950878773 -0.0042084754239985426 0 0.012031117282669822 -0.0035149707443887439 0 0.020268457752674759 -0.01131522607953944 0 0.020166698284289325 -0.011057972123102822 0 0.019683036350291748 -0.011095997445815737 0 0.019072353443799303 -0.010726098312471037 0 0.016976537532580036 -0.0080225063634067513 0 0.014974760272808084 -0.00028760627101758385 0 0.016033249967056646 -0.00036103939579197933 0 0.016173175331442156 0.00034365288311303811 0 0.012031117282669822 -0.0035149707443887439 0 0.01236008131881923 -0.0025298408123549162 0 0.011251849328191569 -0.0035034001242470153 0 0.013120667896427183 -0.0015366704513096855 0 0.017068079633076202 -0.0021204608933958059 0 0.011604339950878773 -0.0042084754239985426 0 0.012031117282669822 -0.0035149707443887439 0 0.011251849328191569 -0.0035034001242470153 0 0.016976537532580036 -0.0080225063634067513 0 0.017068079633076202 -0.0021204608933958059 0 0.012227430032252355 -0.0039161598228994446 0 0.012031117282669822 -0.0035149707443887439 0 0.012432327608574005 -0.0036766155713552659 0 0.012952411183350087 -0.0035287501687374864 0 0.013150422617927298 -0.0029171070752767115 0 0.013559777581035139 -0.0033693723586020611 0 0.012952411183350087 -0.0035287501687374864 0 0.012572222365776261 -0.0032391732751522184 0 0.013150422617927298 -0.0029171070752767115 0 0.012031117282669822 -0.0035149707443887439 0 0.012572222365776261 -0.0032391732751522184 0 0.012432327608574005 -0.0036766155713552659 0 0.012737380788267036 -0.004154229807843233 0 0.012952411183350087 -0.0035287501687374864 0 0.012432327608574005 -0.0036766155713552659 0 0.012952411183350087 -0.0035287501687374864 0 0.012572222365776261 -0.0032391732751522184 0 0.012432327608574005 -0.0036766155713552659 0 0.012031117282669822 -0.0035149707443887439 0 0.012572222365776261 -0.0032391732751522184 0 0.01236008131881923 -0.0025298408123549162 0 0.012572222365776261 -0.0032391732751522184 0 0.013150422617927298 -0.0029171070752767115 0 0.01236008131881923 -0.0025298408123549162 0 0.013150422617927298 -0.0029171070752767115 0 0.01236008131881923 -0.0025298408123549162 0 0.013539180700389333 -0.0022951946899552713 0 0.014699596955410274 -0.00083534468363682739 0 0.015489245062935968 -0.00059879425740749618 0 0.014492441658159319 -0.00096212027688811488 0 0.014974760272808084 -0.00028760627101758385 0 0.015584718603658313 -0.00082170049484055912 0 0.013120667896427183 -0.0015366704513096855 0 0.014214392081174558 -0.0012116678304569073 0 0.014492441658159319 -0.00096212027688811488 0 0.014974760272808084 -0.00028760627101758385 0 0.013991888541104228 -0.0013250355824295989 0 0.01236008131881923 -0.0025298408123549162 0 0.013991888541104228 -0.0013250355824295989 0 0.013539180700389333 -0.0022951946899552713 0 0.014974760272808084 -0.00028760627101758385 0 0.015584718603658313 -0.00082170049484055912 0 0.016033249967056646 -0.00036103939579197933 0 0.015085068364771106 -0.0012235504629663566 0 0.016481350349540552 -0.00069777778175594872 0 0.016075764839733636 -0.0016124416217499354 0 0.015691695445847691 -0.00017606380483074674 0 0.015085068364771106 -0.0012235504629663566 0 0.016481350349540552 -0.00069777778175594872 0 0.015085068364771106 -0.0012235504629663566 0 0.014295767400082766 -0.0013878946201234782 0 0.014358161875498352 -0.0017399776981817138 0 0.014492441658159319 -0.00096212027688811488 0 0.015085068364771106 -0.0012235504629663566 0 0.014295767400082766 -0.0013878946201234782 0 0.014492441658159319 -0.00096212027688811488 0 0.015691695445847691 -0.00017606380483074674 0 0.015085068364771106 -0.0012235504629663566 0 0.018067005642189656 -0.00017960972301785032 0 0.01769804930556387 0.0010882144443044855 0 0.01824830286227095 0.00036342979787408583 0 0.019671538932227499 0.0023283130748829772 0 0.020269431469439641 0.00014192641401532006 0 0.01824830286227095 0.00036342979787408583 0 0.020269431469439641 0.00014192641401532006 0 0.018983085472759564 -0.0015542397927678364 0 0.01784856388321527 -0.00069501852313299259 0 0.016481350349540552 -0.00069777778175594872 0 0.017118116484869286 0.00021996588561825546 0 0.01784856388321527 -0.00069501852313299259 0 0.016481350349540552 -0.00069777778175594872 0 0.017210217560581022 -0.0013406022911509731 0 0.016481350349540552 -0.00069777778175594872 0 0.017210217560581022 -0.0013406022911509731 0 0.016075764839733636 -0.0016124416217499354 0 0.015691695445847691 -0.00017606380483074674 0 0.016481350349540552 -0.00069777778175594872 0 0.017118116484869286 0.00021996588561825546 0 0.015584718603658313 -0.00082170049484055912 0 0.016033249967056646 -0.00036103939579197933 0 0.016739821889432648 -0.00071672724879658729 0 0.015489245062935968 -0.00059879425740749618 0 0.01769804930556387 0.0010882144443044855 0 0.016033249967056646 -0.00036103939579197933 0 0.016739821889432648 -0.00071672724879658729 0 0.016173175331442156 0.00034365288311303811 0 0.01824830286227095 0.00036342979787408583 0 0.017345382917475106 0.0021539676883343246 0 0.019671538932227499 0.0023283130748829772 0 0.01769804930556387 0.0010882144443044855 0 0.020473697682187382 0.0022234850725830497 0 0.01969650694125382 0.001889380304527209 0 0.020162961034574052 0.0027085966224119711 0 0.020894420876606104 0.0020408319277925779 0 0.020162961034574052 0.0027085966224119711 0 0.020210224195946643 0.0035601056080621211 0 0.021273637141510929 0.0030688339244373704 0 0.020162961034574052 0.0027085966224119711 0 0.021273637141510929 0.0030688339244373704 0 0.020894420876606104 0.0020408319277925779 0 0.01769804930556387 0.0010882144443044855 0 0.017068079633076202 -0.0021204608933958059 0 0.01969650694125382 0.001889380304527209 0 0.020162961034574052 0.0027085966224119711 0 0.019118682254417537 0.0029529290869659505 0 0.020162961034574052 0.0027085966224119711 0 0.019118682254417537 0.0029529290869659505 0 0.020210224195946643 0.0035601056080621211 0 0.017068079633076202 -0.0021204608933958059 0 0.019755218677676108 -0.0037915450170079965 0 0.019783266213633403 -0.010292869661866284 0 0.019683036350291748 -0.011095997445815737 0 0.018867195955021416 -0.011057514978895134 0 0.019683036350291748 -0.011095997445815737 0 0.019391631552574822 -0.011572472859088186 0 0.018867195955021416 -0.011057514978895134 0 0.020166698284289325 -0.011057972123102822 0 0.019783266213633403 -0.010292869661866284 0 0.019683036350291748 -0.011095997445815737 0 0.020268457752674759 -0.01131522607953944 0 0.019683036350291748 -0.011095997445815737 0 0.019848250313754989 -0.011615173638276809 0 0.019683036350291748 -0.011095997445815737 0 0.019391631552574822 -0.011572472859088186 0 0.019848250313754989 -0.011615173638276809 0 0.01883753643350471 -0.012048704516288188 0 0.019391631552574822 -0.011572472859088186 0 0.018867195955021416 -0.011057514978895134 0 0.019755218677676108 -0.0037915450170079965 0 0.020020243811608763 -0.0033348484302420231 0 0.01883753643350471 -0.012048704516288188 0 0.018867195955021416 -0.011057514978895134 0 0.017968963819718159 -0.011668479536641711 0 0.021313059740505898 0.0041555734575792116 0 0.022204330885237138 0.0038002081879121002 0 0.021273637141510929 0.0030688339244373704 0 0.020210224195946643 0.0035601056080621211 0 0.021313059740505898 0.0041555734575792116 0 0.021273637141510929 0.0030688339244373704 0 0.022204330885237138 0.0038002081879121002 0 0.022269800722259266 0.0030415503248914398 0 0.023281324581476352 0.0036702060409143579 0 0.022204330885237138 0.0038002081879121002 0 0.023281324581476352 0.0036702060409143579 0 0.02237004480244114 0.0046898078503432869 0 0.021313059740505898 0.0041555734575792116 0 0.022204330885237138 0.0038002081879121002 0 0.02237004480244114 0.0046898078503432869 0 0.022204330885237138 0.0038002081879121002 0 0.022269800722259266 0.0030415503248914398 0 0.021273637141510929 0.0030688339244373704 0 0.022269800722259266 0.0030415503248914398 0 0.021273637141510929 0.0030688339244373704 0 0.02202830824050071 0.0022323085975367177 0 0.022269800722259266 0.0030415503248914398 0 0.02202830824050071 0.0022323085975367177 0 0.023180633619962861 0.0026367949024006677 0 0.019671538932227499 0.0023283130748829772 0 0.02202830824050071 0.0022323085975367177 0 0.021596412711893425 0.001129141279494328 0 0.020473697682187382 0.0022234850725830497 0 0.021772200419208663 0.0022362260809025941 0 0.021273637141510929 0.0030688339244373704 0 0.020894420876606104 0.0020408319277925779 0 0.02202830824050071 0.0022323085975367177 0 0.02202830824050071 0.0022323085975367177 0 0.023166526034281758 0.0014626207950593655 0 0.023180633619962861 0.0026367949024006677 0 0.02202830824050071 0.0022323085975367177 0 0.021596412711893425 0.001129141279494328 0 0.023166526034281758 0.0014626207950593655 0 0.021596412711893425 0.001129141279494328 0 0.02222212065806168 -1.8908757472143287e-05 0 0.023166526034281758 0.0014626207950593655 0 0.02222212065806168 -1.8908757472143287e-05 0 0.02361737256743528 0.00017773439930979555 0 0.023166526034281758 0.0014626207950593655 0 0.019671538932227499 0.0023283130748829772 0 0.021596412711893425 0.001129141279494328 0 0.020269431469439641 0.00014192641401532006 0 0.021596412711893425 0.001129141279494328 0 0.02222212065806168 -1.8908757472143287e-05 0 0.020269431469439641 0.00014192641401532006 0 0.028965409507193493 0.0016582945817816724 0 0.026298322960511791 0.0032224516513284329 0 0.029265498086483675 0.0034583554288345466 0 0.028965409507193493 0.0016582945817816724 0 0.026298322960511791 0.0032224516513284329 0 0.027359837666306851 0.0010237766670331504 0 0.02361737256743528 0.00017773439930979555 0 0.024333570887085328 0.0008725150996750702 0 0.023166526034281758 0.0014626207950593655 0 0.023166526034281758 0.0014626207950593655 0 0.024425023950692848 0.0024508263619244654 0 0.023180633619962861 0.0026367949024006677 0 0.024333570887085328 0.0008725150996750702 0 0.023166526034281758 0.0014626207950593655 0 0.024425023950692848 0.0024508263619244654 0 0.02337549740800551 -0.00031905030667728689 0 0.030524007372896806 0.0014766394752397151 0 0.026298322960511791 0.0032224516513284329 0 0.027163534490542884 0.0064965922717790791 0 0.029265498086483675 0.0034583554288345466 0 0.025638695350819297 0.0029841816780536061 0 0.02337549740800551 -0.00031905030667728689 0 0.013467712913814552 -0.0059935308072091706 0 0.015310218579454969 -0.0090393946082683498 0 0.012404423543654973 -0.010213336343890904 0 0.0314379356912593 -0.0017482139911673264 0 0.030977954329262532 -0.0033999737789316979 0 0.030283144025690233 -0.0026178470556950661 0 0.02337549740800551 -0.00031905030667728689 0 0.021501580403512629 -0.0076943793717125864 0 0.024425023950692848 0.0024508263619244654 0 0.023180633619962861 0.0026367949024006677 0 0.023281324581476352 0.0036702060409143579 0 0.022269800722259266 0.0030415503248914398 0 0.023180633619962861 0.0026367949024006677 0 0.023281324581476352 0.0036702060409143579 0 0.02337549740800551 -0.00031905030667728689 0 0.01878642279942595 -0.002038656938709936 0 0.01878642279942595 -0.002038656938709936 0 0.018194731520123787 -0.0080751506361812653 0 0.015310218579454969 -0.0090393946082683498 0 0.012404423543654973 -0.010213336343890904 0 0.014573995217214867 -0.011381438057448607 0 0.021501580403512629 -0.0076943793717125864 0 0.020203846849356045 -0.0085098622434898689 0 0.012404423543654973 -0.010213336343890904 0 0.013022594446127973 -0.01250005142263432 0 0.011925067468943997 -0.01284699629284289 0 0.012404423543654973 -0.010213336343890904 0 0.013022594446127973 -0.01250005142263432 0 0.014573995217214867 -0.011381438057448607 0 0.012747496270367167 -0.014929980322673477 0 0.012418977780185827 -0.016033680982750237 0 0.011724253359923619 -0.014141949925880786 0 0.013022594446127973 -0.01250005142263432 0 0.011724253359923619 -0.014141949925880786 0 0.011925067468943997 -0.01284699629284289 0 0.013022594446127973 -0.01250005142263432 0 0.013787304452481932 -0.0142912986355974 0 0.015137829672538185 -0.013072001665355526 0 0.013022594446127973 -0.01250005142263432 0 0.012820601298828938 -0.01397760785537254 0 0.011724253359923619 -0.014141949925880786 0 0.013022594446127973 -0.01250005142263432 0 0.012820601298828938 -0.01397760785537254 0 0.013787304452481932 -0.0142912986355974 0 0.012820601298828938 -0.01397760785537254 0 0.013787304452481932 -0.0142912986355974 0 0.012747496270367167 -0.014929980322673477 0 0.012820601298828938 -0.01397760785537254 0 0.012747496270367167 -0.014929980322673477 0 0.011724253359923619 -0.014141949925880786 0 0.013787304452481932 -0.0142912986355974 0 0.015165907187437369 -0.01482229538633487 0 0.015137829672538185 -0.013072001665355526 0 0.015165907187437369 -0.01482229538633487 0 0.015137829672538185 -0.013072001665355526 0 0.016139931973589892 -0.013660620724207781 0 0.015137829672538185 -0.013072001665355526 0 0.014573995217214867 -0.011381438057448607 0 0.017127701109097525 -0.011997516226755914 0 0.015310218579454969 -0.0090393946082683498 0 0.014573995217214867 -0.011381438057448607 0 0.017127701109097525 -0.011997516226755914 0 0.014430833193894446 -0.013057228866312496 0 0.018194731520123787 -0.0080751506361812653 0 0.013022594446127973 -0.01250005142263432 0 0.015137829672538185 -0.013072001665355526 0 0.014573995217214867 -0.011381438057448607 0 0.017968963819718159 -0.011668479536641711 0 0.016585532611123849 -0.012710091920533129 0 0.016422479681089213 -0.012453944443966447 0 0.020020243811608763 -0.0033348484302420231 0 0.018194731520123787 -0.0080751506361812653 0 0.016585532611123849 -0.012710091920533129 0 0.017431489347988834 -0.012686871796868388 0 0.017149641795643072 -0.013930261380068724 0 0.016585532611123849 -0.012710091920533129 0 0.016378111147401408 -0.012398347039207223 0 0.016139931973589892 -0.013660620724207781 0 0.015137829672538185 -0.013072001665355526 0 0.016378111147401408 -0.012398347039207223 0 0.016139931973589892 -0.013660620724207781 0 0.018415876574285155 -0.0092395934635404117 0 0.018194731520123787 -0.0080751506361812653 0 0.017968963819718159 -0.011668479536641711 0 0.016585532611123849 -0.012710091920533129 0 0.017431489347988834 -0.012686871796868388 0 0.01883753643350471 -0.012048704516288188 0 0.017968963819718159 -0.011668479536641711 0 0.01795737657065994 -0.012774275427678165 0 0.017968963819718159 -0.011668479536641711 0 0.017431489347988834 -0.012686871796868388 0 0.01795737657065994 -0.012774275427678165 0 0.017431489347988834 -0.012686871796868388 0 0.01795737657065994 -0.012774275427678165 0 0.017149641795643072 -0.013930261380068724 0 0.018518582876531943 -0.014349736700351086 0 0.017149641795643072 -0.013930261380068724 0 0.018613975846437359 -0.015871836704994896 0 0.01795737657065994 -0.012774275427678165 0 0.018518582876531943 -0.014349736700351086 0 0.017149641795643072 -0.013930261380068724 0 0.016585532611123849 -0.012710091920533129 0 0.016139931973589892 -0.013660620724207781 0 0.017149641795643072 -0.013930261380068724 0 0.016139931973589892 -0.013660620724207781 0 0.017149641795643072 -0.013930261380068724 0 0.016475528001213841 -0.015291681192762533 0 0.015165907187437369 -0.01482229538633487 0 0.016139931973589892 -0.013660620724207781 0 0.016475528001213841 -0.015291681192762533 0 0.015165907187437369 -0.01482229538633487 0 0.016475528001213841 -0.015291681192762533 0 0.015430847396811789 -0.016396942737641734 0 0.016475528001213841 -0.015291681192762533 0 0.016688242172999863 -0.017228027739359823 0 0.015430847396811789 -0.016396942737641734 0 0.016475528001213841 -0.015291681192762533 0 0.018613975846437359 -0.015871836704994896 0 0.016688242172999863 -0.017228027739359823 0 0.017149641795643072 -0.013930261380068724 0 0.016475528001213841 -0.015291681192762533 0 0.018613975846437359 -0.015871836704994896 0 0.018613975846437359 -0.015871836704994896 0 0.018878024691398525 -0.018506255620983767 0 0.016688242172999863 -0.017228027739359823 0 0.016111729661506799 -0.019657906852937421 0 0.018878024691398525 -0.018506255620983767 0 0.016688242172999863 -0.017228027739359823 0 0.016111729661506799 -0.019657906852937421 0 0.016688242172999863 -0.017228027739359823 0 0.014798365012591633 -0.018214327045794339 0 0.016688242172999863 -0.017228027739359823 0 0.014798365012591633 -0.018214327045794339 0 0.015430847396811789 -0.016396942737641734 0 0.014798365012591633 -0.018214327045794339 0 0.015430847396811789 -0.016396942737641734 0 0.014021680117471565 -0.016410685509025406 0 0.014798365012591633 -0.018214327045794339 0 0.013653683401188317 -0.01761143561277978 0 0.014021680117471565 -0.016410685509025406 0 0.014798365012591633 -0.018214327045794339 0 0.013155474108122657 -0.018617160498087839 0 0.013653683401188317 -0.01761143561277978 0 0.013155474108122657 -0.018617160498087839 0 0.012564280324515469 -0.017371509074272939 0 0.013653683401188317 -0.01761143561277978 0 0.013155474108122657 -0.018617160498087839 0 0.012564280324515469 -0.017371509074272939 0 0.011914888772016774 -0.018239463880498772 0 0.012564280324515469 -0.017371509074272939 0 0.013653683401188317 -0.01761143561277978 0 0.014021680117471565 -0.016410685509025406 0 0.013787304452481932 -0.0142912986355974 0 0.012747496270367167 -0.014929980322673477 0 0.014021680117471565 -0.016410685509025406 0 0.012564280324515469 -0.017371509074272939 0 0.012418977780185827 -0.016033680982750237 0 0.014021680117471565 -0.016410685509025406 0 0.012747496270367167 -0.014929980322673477 0 0.012418977780185827 -0.016033680982750237 0 0.014021680117471565 -0.016410685509025406 0 0.013787304452481932 -0.0142912986355974 0 0.015165907187437369 -0.01482229538633487 0 0.014021680117471565 -0.016410685509025406 0 0.015165907187437369 -0.01482229538633487 0 0.015430847396811789 -0.016396942737641734 0 0.014021680117471565 -0.016410685509025406 0 0.0099579401763219347 -0.01615860394005612 0 0.010954401074496927 -0.01636432284660801 0 0.010542037303647266 -0.015018603053910919 0 0.011742864297419511 -0.01545459021899926 0 0.010954401074496927 -0.01636432284660801 0 0.010542037303647266 -0.015018603053910919 0 0.011742864297419511 -0.01545459021899926 0 0.011365633085339453 -0.017364705456109419 0 0.012467867463819443 -0.014270169613724524 0 0.012418977780185827 -0.016033680982750237 0 0.011365633085339453 -0.017364705456109419 0 0.011724253359923619 -0.014141949925880786 0 0.011742864297419511 -0.01545459021899926 0 0.010954401074496927 -0.01636432284660801 0 0.011365633085339453 -0.017364705456109419 0 0.011107534103126782 -0.017027218749828574 0 0.013246996680230468 -0.014665010791113799 0 0.010954401074496927 -0.01636432284660801 0 0.011365633085339453 -0.017364705456109419 0 0.010573909383609293 -0.018540649319193317 0 0.012564280324515469 -0.017371509074272939 0 0.011365633085339453 -0.017364705456109419 0 0.011914888772016774 -0.018239463880498772 0 0.012564280324515469 -0.017371509074272939 0 0.012418977780185827 -0.016033680982750237 0 0.011365633085339453 -0.017364705456109419 0 0.011365633085339453 -0.017364705456109419 0 0.011914888772016774 -0.018239463880498772 0 0.010573909383609293 -0.018540649319193317 0 0.0099579401763219347 -0.01615860394005612 0 0.010954401074496927 -0.01636432284660801 0 0.010573909383609293 -0.018540649319193317 0 0.024532216004968275 -0.012953486592047104 0 0.024766860456575099 -0.013738694010802627 0 0.024161155177809177 -0.013531452447571785 0 0.016826978197024833 -0.014835299687410071 0 0.017743188987004749 -0.01614752780065102 0 0.024532216004968275 -0.012953486592047104 0 0.024161155177809177 -0.013531452447571785 0 0.024216021065537167 -0.01302282907756591 0 0.024501829547406095 -0.014292472315245063 0 0.024529004185442741 -0.013529403005290019 0 0.024001071435832889 -0.01322070325013318 0 0.024315000190537846 -0.013454184268877827 0 0.024026222243753701 -0.013028945677157469 0 0.024529004185442741 -0.013529403005290019 0 0.024001071435832889 -0.01322070325013318 0 0.023976908120290095 -0.012933550074774111 0 0.024161155177809177 -0.013531452447571785 0 0.023976908120290095 -0.012933550074774111 0 0.024216021065537167 -0.01302282907756591 0 0.033990147383203419 -0.012175046914856496 0 0.033268929630403912 -0.010228292881221542 0 0.033112259142787356 -0.01092385147646709 0 0.033268929630403912 -0.010228292881221542 0 0.033112259142787356 -0.01092385147646709 0 0.032529477982888563 -0.0096497260811131882 0 0.038716709991142642 -0.0093669046229376465 0 0.039325048425009487 -0.0088185462550544411 0 0.038797398541703956 -0.0086013899930717057 0 0.036218273881127722 -0.0097695937868530116 0 0.035702580914252095 -0.0089441339486001671 0 0.039325048425009487 -0.0088185462550544411 0 0.038797398541703956 -0.0086013899930717057 0 0.038890901980437896 -0.0079173593246753288 0 0.023976908120290095 -0.012933550074774111 0 0.024194191448745409 -0.012707250757174746 0 0.023712793119241588 -0.012386872245338498 0 0.033268929630403912 -0.010228292881221542 0 0.032529477982888563 -0.0096497260811131882 0 0.032560019741224168 -0.0082979787428707 0 0.028109263194157994 -0.012206871745917744 0 0.032561706348567192 -0.0071181783034911655 0 0.024001071435832889 -0.01322070325013318 0 0.023976908120290095 -0.012933550074774111 0 0.023712793119241588 -0.012386872245338498 0 0.023976908120290095 -0.012933550074774111 0 0.024216021065537167 -0.01302282907756591 0 0.024194191448745409 -0.012707250757174746 0 0.024532216004968275 -0.012953486592047104 0 0.024216021065537167 -0.01302282907756591 0 0.024194191448745409 -0.012707250757174746 0 0.024532216004968275 -0.012953486592047104 0 0.024194191448745409 -0.012707250757174746 0 0.024344757079796747 -0.012333973942225853 0 0.029172910681530224 -0.006325845861271058 0 0.028256627520207817 -0.0064475387879160762 0 0.02865962299113959 -0.0059119264096195558 0 0.021786017888856417 -0.010698293732341997 0 0.030249756968630748 -0.0058875588200848015 0 0.024194191448745409 -0.012707250757174746 0 0.024344757079796747 -0.012333973942225853 0 0.023917270926964582 -0.012377623484703512 0 0.024194191448745409 -0.012707250757174746 0 0.023917270926964582 -0.012377623484703512 0 0.023712793119241588 -0.012386872245338498 0 0.030249756968630748 -0.0058875588200848015 0 0.032561706348567192 -0.0071181783034911655 0 0.037446513214414889 -0.0026678320384106078 0 0.037104023934723215 -0.0027137351032782116 0 0.03722242710963742 -0.0022057318524172421 0 0.028256627520207817 -0.0064475387879160762 0 0.02865962299113959 -0.0059119264096195558 0 0.028265470798411348 -0.0052810579883384567 0 0.030249756968630748 -0.0058875588200848015 0 0.033042566123697603 -0.0032874381765709464 0 0.037446513214414889 -0.0026678320384106078 0 0.03722242710963742 -0.0022057318524172421 0 0.037491884713163885 -0.0017797422457132006 0 0.03722242710963742 -0.0022057318524172421 0 0.037491884713163885 -0.0017797422457132006 0 0.037165947682914577 -0.0017768473434805385 0 0.021786017888856417 -0.010698293732341997 0 0.026562045712933784 -0.0061634415371108822 0 0.024425697012122924 -0.0075479690202789503 0 0.024330566517905092 -0.0071367155722736617 0 0.024467985009641483 -0.0071214813201023281 0 0.029172910681530224 -0.006325845861271058 0 0.02865962299113959 -0.0059119264096195558 0 0.028898324566427127 -0.0054424177810116726 0 0.02865962299113959 -0.0059119264096195558 0 0.028898324566427127 -0.0054424177810116726 0 0.028265470798411348 -0.0052810579883384567 0 0.028886812960211464 -0.0037000142701594948 0 0.029471639921351492 -0.0046038506737255879 0 0.029992048040607056 -0.0036757081136271101 0 0.024425697012122924 -0.0075479690202789503 0 0.024467985009641483 -0.0071214813201023281 0 0.024676070155152476 -0.0075145962295865244 0 0.027005773222322966 -0.0054230281248426179 0 0.018941154394551369 -0.010221371282711864 0 0.011742864297419511 -0.01545459021899926 0 0.010431429262674916 -0.013735943010340961 0 0.010542037303647266 -0.015018603053910919 0 0.021786017888856417 -0.010698293732341997 0 0.018941154394551369 -0.010221371282711864 0 0.016826978197024833 -0.014835299687410071 0 0.021786017888856417 -0.010698293732341997 0 0.0099579401763219347 -0.01615860394005612 0 0.0093076712033792058 -0.013889906393315023 0 0.010542037303647266 -0.015018603053910919 0 0.0093076712033792058 -0.013889906393315023 0 0.010431429262674916 -0.013735943010340961 0 0.010542037303647266 -0.015018603053910919 0 0.010104086917776783 -0.015270970341133092 0 0.018941154394551369 -0.010221371282711864 0 0.011742864297419511 -0.01545459021899926 0 0.010427471438462906 -0.013499663498534924 0 0.012467867463819443 -0.014270169613724524 0 0.010427471438462906 -0.013499663498534924 0 0.012467867463819443 -0.014270169613724524 0 0.012765770224217394 -0.013187176792530472 0 0.013246996680230468 -0.014665010791113799 0 0.020203846849356045 -0.0085098622434898689 0 0.030977954329262532 -0.0033999737789316979 0 0.029992048040607056 -0.0036757081136271101 0 0.030654991676021884 -0.0044644009903160066 0 0.018941154394551369 -0.010221371282711864 0 0.020203846849356045 -0.0085098622434898689 0 0.029471639921351492 -0.0046038506737255879 0 0.029992048040607056 -0.0036757081136271101 0 0.030654991676021884 -0.0044644009903160066 0 0.029992048040607056 -0.0036757081136271101 0 0.029554434182075397 -0.0030491802589108111 0 0.030283144025690233 -0.0026178470556950661 0 0.030977954329262532 -0.0033999737789316979 0 0.029992048040607056 -0.0036757081136271101 0 0.030283144025690233 -0.0026178470556950661 0 0.028886812960211464 -0.0037000142701594948 0 0.029992048040607056 -0.0036757081136271101 0 0.029554434182075397 -0.0030491802589108111 0 0.028886812960211464 -0.0037000142701594948 0 0.029554434182075397 -0.0030491802589108111 0 0.02897005737956649 -0.0027627924238207303 0 0.029554434182075397 -0.0030491802589108111 0 0.029611983504333028 -0.0022973463474511456 0 0.02897005737956649 -0.0027627924238207303 0 0.029611983504333028 -0.0022973463474511456 0 0.028926349259114328 -0.0021055756582692721 0 0.02897005737956649 -0.0027627924238207303 0 0.029554434182075397 -0.0030491802589108111 0 0.029611983504333028 -0.0022973463474511456 0 0.030283144025690233 -0.0026178470556950661 0 0.029611983504333028 -0.0022973463474511456 0 0.030114165013130363 -0.0014472002523660897 0 0.029369507373000224 -0.0016934535767979674 0 0.029611983504333028 -0.0022973463474511456 0 0.029369507373000224 -0.0016934535767979674 0 0.028926349259114328 -0.0021055756582692721 0 0.0314379356912593 -0.0017482139911673264 0 0.030283144025690233 -0.0026178470556950661 0 0.030114165013130363 -0.0014472002523660897 0 0.029611983504333028 -0.0022973463474511456 0 0.030283144025690233 -0.0026178470556950661 0 0.030114165013130363 -0.0014472002523660897 0 0.0314379356912593 -0.0017482139911673264 0 0.030114165013130363 -0.0014472002523660897 0 0.030839449552231168 -0.00066187020843901936 0 0.030114165013130363 -0.0014472002523660897 0 0.030839449552231168 -0.00066187020843901936 0 0.030111659489993513 -0.00065968310926904845 0 0.030114165013130363 -0.0014472002523660897 0 0.029369507373000224 -0.0016934535767979674 0 0.029325557372440431 -0.0010197688465835297 0 0.030114165013130363 -0.0014472002523660897 0 0.029325557372440431 -0.0010197688465835297 0 0.030111659489993513 -0.00065968310926904845 0 0.029325557372440431 -0.0010197688465835297 0 0.029653721278263628 -0.00023491417814839834 0 0.030111659489993513 -0.00065968310926904845 0 0.029653721278263628 -0.00023491417814839834 0 0.030111659489993513 -0.00065968310926904845 0 0.030280006127800012 0.00051604125521873326 0 0.029325557372440431 -0.0010197688465835297 0 0.029653721278263628 -0.00023491417814839834 0 0.028857463983054638 -0.00036391000873370815 0 0.030524007372896806 0.0014766394752397151 0 0.03016434938984423 0.00069830226898207786 0 0.030839449552231168 -0.00066187020843901936 0 0.030111659489993513 -0.00065968310926904845 0 0.030280006127800012 0.00051604125521873326 0 0.028965409507193493 0.0016582945817816724 0 0.029265498086483675 0.0034583554288345466 0 0.030280006127800012 0.00051604125521873326 0 0.034338113784193068 -9.7813618876484192e-05 0 0.037699709793382816 0.00052164718983799914 0 0.03671393740449324 0.0010506124987334524 0 0.03666976227581336 0.001319698623818035 0 0.036824470364885391 -3.2048658129900162e-05 0 0.037199866949993499 -3.7146343279692324e-05 0 0.037371098891231094 0.00020671826617658907 0 0.036824470364885391 -3.2048658129900162e-05 0 0.028061028683961417 -0.00021594500787353957 0 0.028508212522569128 -0.00062930232315033059 0 0.028350734663946133 -0.001036059917543843 0 0.03671393740449324 0.0010506124987334524 0 0.03666976227581336 0.001319698623818035 0 0.036686153311693122 0.0012077437320976814 0 0.028061028683961417 -0.00021594500787353957 0 0.028857463983054638 -0.00036391000873370815 0 0.029159943825334596 0.00042784552819046917 0 0.029653721278263628 -0.00023491417814839834 0 0.028857463983054638 -0.00036391000873370815 0 0.029159943825334596 0.00042784552819046917 0 0.029325557372440431 -0.0010197688465835297 0 0.028857463983054638 -0.00036391000873370815 0 0.028759866258902967 -0.00089474040552520054 0 0.028061028683961417 -0.00021594500787353957 0 0.028857463983054638 -0.00036391000873370815 0 0.028508212522569128 -0.00062930232315033059 0 0.028857463983054638 -0.00036391000873370815 0 0.028508212522569128 -0.00062930232315033059 0 0.028759866258902967 -0.00089474040552520054 0 0.028350734663946133 -0.001036059917543843 0 0.028759866258902967 -0.00089474040552520054 0 0.028680212985506309 -0.0015731945740278994 0 0.028508212522569128 -0.00062930232315033059 0 0.028350734663946133 -0.001036059917543843 0 0.028759866258902967 -0.00089474040552520054 0 0.029325557372440431 -0.0010197688465835297 0 0.028759866258902967 -0.00089474040552520054 0 0.028680212985506309 -0.0015731945740278994 0 0.029369507373000224 -0.0016934535767979674 0 0.029325557372440431 -0.0010197688465835297 0 0.028680212985506309 -0.0015731945740278994 0 0.028350734663946133 -0.001036059917543843 0 0.028680212985506309 -0.0015731945740278994 0 0.028006771338510081 -0.0018904118406996104 0 0.037199866949993499 -3.7146343279692324e-05 0 0.037371098891231094 0.00020671826617658907 0 0.037286665579077775 -0.00045357857149827692 0 0.034338113784193068 -9.7813618876484192e-05 0 0.033207477586034352 -0.0012291704969602804 0 0.037199866949993499 -3.7146343279692324e-05 0 0.037463203217085607 -0.00067447853820225734 0 0.037092492096971595 -0.00036717824277925104 0 0.037545451110439013 -0.0002949752075344703 0 0.033207477586034352 -0.0012291704969602804 0 0.028061028683961417 -0.00021594500787353957 0 0.028350734663946133 -0.001036059917543843 0 0.028006771338510081 -0.0018904118406996104 0 0.037241690295096407 -0.00065682192692621767 0 0.037002660639241229 -0.00078045599776146882 0 0.037092492096971595 -0.00036717824277925104 0 0.037241690295096407 -0.00065682192692621767 0 0.037463203217085607 -0.00067447853820225734 0 0.037092492096971595 -0.00036717824277925104 0 0.033207477586034352 -0.0012291704969602804 0 0.028200886350019366 -0.0039328917296624138 0 0.037241690295096407 -0.00065682192692621767 0 0.037494109852581461 -0.00098416755816776937 0 0.037232404039030012 -0.00093568400854485926 0 0.031058545105366899 -0.0023097544145255279 0 0.031039199111039292 -0.0025888034670827021 0 0.03120997041797138 -0.002850123641979928 0 0.03628907102073263 -0.0018041723283536923 0 0.033070012185396978 -0.002462678587646767 0 0.037241690295096407 -0.00065682192692621767 0 0.037232404039030012 -0.00093568400854485926 0 0.037002660639241229 -0.00078045599776146882 0 0.037241690295096407 -0.00065682192692621767 0 0.037463203217085607 -0.00067447853820225734 0 0.037441211821043867 -0.00095784154138910723 0 0.033207477586034352 -0.0012291704969602804 0 0.033070012185396978 -0.002462678587646767 0 0.033070012185396978 -0.002462678587646767 0 0.028200886350019366 -0.0039328917296624138 0 0.037494109852581461 -0.00098416755816776937 0 0.037232404039030012 -0.00093568400854485926 0 0.037290189222499916 -0.0012441765871010527 0 0.037232404039030012 -0.00093568400854485926 0 0.037290189222499916 -0.0012441765871010527 0 0.037079430280154771 -0.0010801853318342398 0 0.037232404039030012 -0.00093568400854485926 0 0.037079430280154771 -0.0010801853318342398 0 0.037002660639241229 -0.00078045599776146882 0 0.028006771338510081 -0.0018904118406996104 0 0.028515238968323725 -0.0022392863254461341 0 0.028293714338788602 -0.0028033120734303101 0 0.029369507373000224 -0.0016934535767979674 0 0.028680212985506309 -0.0015731945740278994 0 0.028926349259114328 -0.0021055756582692721 0 0.028680212985506309 -0.0015731945740278994 0 0.028926349259114328 -0.0021055756582692721 0 0.028515238968323725 -0.0022392863254461341 0 0.028680212985506309 -0.0015731945740278994 0 0.028006771338510081 -0.0018904118406996104 0 0.028515238968323725 -0.0022392863254461341 0 0.028515238968323725 -0.0022392863254461341 0 0.02897005737956649 -0.0027627924238207303 0 0.028293714338788602 -0.0028033120734303101 0 0.028926349259114328 -0.0021055756582692721 0 0.028515238968323725 -0.0022392863254461341 0 0.02897005737956649 -0.0027627924238207303 0 0.024330566517905092 -0.0071367155722736617 0 0.024467985009641483 -0.0071214813201023281 0 0.024255989706235947 -0.0066639703936238678 0 0.028898324566427127 -0.0054424177810116726 0 0.028614656725290601 -0.004525041125673682 0 0.028265470798411348 -0.0052810579883384567 0 0.028886812960211464 -0.0037000142701594948 0 0.02897005737956649 -0.0027627924238207303 0 0.028293714338788602 -0.0028033120734303101 0 0.026562045712933784 -0.0061634415371108822 0 0.028200886350019366 -0.0039328917296624138 0 0.027005773222322966 -0.0054230281248426179 0 0.028200886350019366 -0.0039328917296624138 0 0.033070012185396978 -0.002462678587646767 0 0.033042566123697603 -0.0032874381765709464 0 0.028308301750602727 -0.0040900112223507708 0 0.028614656725290601 -0.004525041125673682 0 0.028265470798411348 -0.0052810579883384567 0 0.037494109852581461 -0.00098416755816776937 0 0.037290189222499916 -0.0012441765871010527 0 0.037491884713163885 -0.0017797422457132006 0 0.037290189222499916 -0.0012441765871010527 0 0.037123557121079134 -0.0014778389376758935 0 0.037079430280154771 -0.0010801853318342398 0 0.037123557121079134 -0.0014778389376758935 0 0.037491884713163885 -0.0017797422457132006 0 0.037165947682914577 -0.0017768473434805385 0 0.037290189222499916 -0.0012441765871010527 0 0.037123557121079134 -0.0014778389376758935 0 0.037491884713163885 -0.0017797422457132006 0 0.037123557121079134 -0.0014778389376758935 0 0.037165947682914577 -0.0017768473434805385 0 0.036839354720031622 -0.0016494661143089387 0 0.037123557121079134 -0.0014778389376758935 0 0.036839354720031622 -0.0016494661143089387 0 0.036912683863080831 -0.001319535080059815 0 0.036839354720031622 -0.0016494661143089387 0 0.036676120045620868 -0.0013379065438267144 0 0.036405888000498786 -0.0017675999294798257 0 0.036676120045620868 -0.0013379065438267144 0 0.036912683863080831 -0.001319535080059815 0 0.036758567633210039 -0.00096564272944024124 0 0.036839354720031622 -0.0016494661143089387 0 0.036676120045620868 -0.0013379065438267144 0 0.036912683863080831 -0.001319535080059815 0 0.037123557121079134 -0.0014778389376758935 0 0.036912683863080831 -0.001319535080059815 0 0.037079430280154771 -0.0010801853318342398 0 0.036676120045620868 -0.0013379065438267144 0 0.036535942351849801 -0.0010997969363514778 0 0.036405888000498786 -0.0017675999294798257 0 0.03642669994187242 -0.0018245376006349374 0 0.036832988374525137 -0.0042163772507510938 0 0.03642669994187242 -0.0018245376006349374 0 0.036735571609939358 -0.0023304070838587577 0 0.036352750382373948 -0.0035238971948766519 0 0.036032807526269688 -0.0018116932261602076 0 0.036999948386403719 -0.0037814258251223872 0 0.036352750382373948 -0.0035238971948766519 0 0.036032807526269688 -0.0018116932261602076 0 0.036274894421548451 -0.0038964681002246061 0 0.036295505694276323 -0.00085059604224901539 0 0.036535942351849801 -0.0010997969363514778 0 0.036405888000498786 -0.0017675999294798257 0 0.036535942351849801 -0.0010997969363514778 0 0.036513580111479656 -0.00069089515708251027 0 0.036758567633210039 -0.00096564272944024124 0 0.036295505694276323 -0.00085059604224901539 0 0.036535942351849801 -0.0010997969363514778 0 0.036513580111479656 -0.00069089515708251027 0 0.036912683863080831 -0.001319535080059815 0 0.037079430280154771 -0.0010801853318342398 0 0.036758567633210039 -0.00096564272944024124 0 0.037079430280154771 -0.0010801853318342398 0 0.036758567633210039 -0.00096564272944024124 0 0.037002660639241229 -0.00078045599776146882 0 0.036676120045620868 -0.0013379065438267144 0 0.036535942351849801 -0.0010997969363514778 0 0.036758567633210039 -0.00096564272944024124 0 0.036513580111479656 -0.00069089515708251027 0 0.036758567633210039 -0.00096564272944024124 0 0.036787041122277007 -0.000539778446314692 0 0.036758567633210039 -0.00096564272944024124 0 0.037002660639241229 -0.00078045599776146882 0 0.036787041122277007 -0.000539778446314692 0 0.037002660639241229 -0.00078045599776146882 0 0.037092492096971595 -0.00036717824277925104 0 0.036787041122277007 -0.000539778446314692 0 0.037092492096971595 -0.00036717824277925104 0 0.036824470364885391 -3.2048658129900162e-05 0 0.036787041122277007 -0.000539778446314692 0 0.037199866949993499 -3.7146343279692324e-05 0 0.037092492096971595 -0.00036717824277925104 0 0.036824470364885391 -3.2048658129900162e-05 0 0.036824470364885391 -3.2048658129900162e-05 0 0.036787041122277007 -0.000539778446314692 0 0.036571207943293452 -0.00037688705560711864 0 0.036513580111479656 -0.00069089515708251027 0 0.036787041122277007 -0.000539778446314692 0 0.036571207943293452 -0.00037688705560711864 0 0.036295505694276323 -0.00085059604224901539 0 0.036513580111479656 -0.00069089515708251027 0 0.036499533028996757 -0.00071187017839721744 0 0.036513580111479656 -0.00069089515708251027 0 0.036571207943293452 -0.00037688705560711864 0 0.036499533028996757 -0.00071187017839721744 0 0.036571207943293452 -0.00037688705560711864 0 0.036560647833318721 0.00013674327410688572 0 0.036499533028996757 -0.00071187017839721744 0 0.036560647833318721 0.00013674327410688572 0 0.036224775979615521 3.6206776375278613e-05 0 0.036499533028996757 -0.00071187017839721744 0 0.036824470364885391 -3.2048658129900162e-05 0 0.036571207943293452 -0.00037688705560711864 0 0.036560647833318721 0.00013674327410688572 0 0.036824470364885391 -3.2048658129900162e-05 0 0.036560647833318721 0.00013674327410688572 0 0.03671322425926582 0.00082743160057502667 0 0.03671393740449324 0.0010506124987334524 0 0.036824470364885391 -3.2048658129900162e-05 0 0.03671322425926582 0.00082743160057502667 0 0.034999782212655879 -0.0010376148894942535 0 0.035679676975063794 -2.9300343039040971e-05 0 0.035865061770963984 -0.00070269190057645572 0 0.034999782212655879 -0.0010376148894942535 0 0.035679676975063794 -2.9300343039040971e-05 0 0.034999962005345102 0.00081384061907901757 0 0.036224775979615521 3.6206776375278613e-05 0 0.035865061770963984 -0.00070269190057645572 0 0.036499533028996757 -0.00071187017839721744 0 0.035679676975063794 -2.9300343039040971e-05 0 0.036224775979615521 3.6206776375278613e-05 0 0.035865061770963984 -0.00070269190057645572 0 0.035865061770963984 -0.00070269190057645572 0 0.036499533028996757 -0.00071187017839721744 0 0.03585319398484943 -0.0018017034963138119 0 0.03642669994187242 -0.0018245376006349374 0 0.036551760364974532 -0.00081763779131749251 0 0.037101329679913406 -0.0025236381063913379 0 0.036499533028996757 -0.00071187017839721744 0 0.03585319398484943 -0.0018017034963138119 0 0.034999782212655879 -0.0010376148894942535 0 0.03585319398484943 -0.0018017034963138119 0 0.03499975385332442 -0.0028906352433506971 0 0.034999782212655879 -0.0010376148894942535 0 0.035865061770963984 -0.00070269190057645572 0 0.03585319398484943 -0.0018017034963138119 0 0.03585319398484943 -0.0018017034963138119 0 0.03499975385332442 -0.0028906352433506971 0 0.036147262999763688 -0.0032936175389347237 0 0.037101329679913406 -0.0025236381063913379 0 0.03585319398484943 -0.0018017034963138119 0 0.036147262999763688 -0.0032936175389347237 0 0.037101329679913406 -0.0025236381063913379 0 0.036147262999763688 -0.0032936175389347237 0 0.037402182569071594 -0.0044333136873236914 0 0.036147262999763688 -0.0032936175389347237 0 0.036156287873910613 -0.0045355564119484741 0 0.037402182569071594 -0.0044333136873236914 0 0.036147262999763688 -0.0032936175389347237 0 0.034999956922388158 -0.0047435530779901883 0 0.036156287873910613 -0.0045355564119484741 0 0.03499975385332442 -0.0028906352433506971 0 0.036147262999763688 -0.0032936175389347237 0 0.034999956922388158 -0.0047435530779901883 0 0.034999956922388158 -0.0047435530779901883 0 0.036289583411538123 -0.006373273090931217 0 0.036156287873910613 -0.0045355564119484741 0 0.034999956922388158 -0.0047435530779901883 0 0.036289583411538123 -0.006373273090931217 0 0.03499997342981126 -0.0065961231255792022 0 0.036317313737499121 -0.0064385388195556843 0 0.035000254391669122 -0.0065961899507602471 0 0.036289583411538123 -0.006373273090931217 0 0.036849983473574592 -0.0053546749228624881 0 0.037614339804386603 -0.0061791779867910466 0 0.036317313737499121 -0.0064385388195556843 0 0.037289838702300016 -0.0061925640306634781 0 0.036289583411538123 -0.006373273090931217 0 0.036156287873910613 -0.0045355564119484741 0 0.036849983473574592 -0.0053546749228624881 0 0.036156287873910613 -0.0045355564119484741 0 0.036849983473574592 -0.0053546749228624881 0 0.037402182569071594 -0.0044333136873236914 0 0.036252859457157019 -0.003447458109158722 0 0.03750165945317227 -0.0062558711787883284 0 0.036832988374525137 -0.0042163772507510938 0 0.037289838702300016 -0.0061925640306634781 0 0.036352750382373948 -0.0035238971948766519 0 0.036999948386403719 -0.0037814258251223872 0 0.037079400582567652 -0.0058337345452005186 0 0.036352750382373948 -0.0035238971948766519 0 0.036274894421548451 -0.0038964681002246061 0 0.037148870126153144 -0.0059360526119855497 0 0.036849983473574592 -0.0053546749228624881 0 0.037402182569071594 -0.0044333136873236914 0 0.037614339804386603 -0.0061791779867910466 0 0.036735571609939358 -0.0023304070838587577 0 0.036316999969377636 -0.0063643080024312114 0 0.032561706348567192 -0.0071181783034911655 0 0.037855488135147372 -0.00026668747486007985 0 0.037104023934723215 -0.0027137351032782116 0 0.03722242710963742 -0.0022057318524172421 0 0.036839354720031622 -0.0016494661143089387 0 0.03729303772665022 -0.0028916589743915285 0 0.036839354720031622 -0.0016494661143089387 0 0.036870686889298981 -0.0029436116255748363 0 0.036839354720031622 -0.0016494661143089387 0 0.036405888000498786 -0.0017675999294798257 0 0.036870686889298981 -0.0029436116255748363 0 0.03722242710963742 -0.0022057318524172421 0 0.037165947682914577 -0.0017768473434805385 0 0.036839354720031622 -0.0016494661143089387 0 0.032529477982888563 -0.0096497260811131882 0 0.032560019741224168 -0.0082979787428707 0 0.031944935173462669 -0.0083834782921640722 0 0.036999948386403719 -0.0037814258251223872 0 0.037949526467347242 -0.0057079137247454349 0 0.037079400582567652 -0.0058337345452005186 0 0.032561706348567192 -0.0071181783034911655 0 0.036316999969377636 -0.0063643080024312114 0 0.036316999969377636 -0.0063643080024312114 0 0.03750165945317227 -0.0062558711787883284 0 0.038406715632001792 -0.0069554679753985578 0 0.037831187414596457 -0.007038445195715874 0 0.038349031585472731 -0.0075459508869514993 0 0.036274894421548451 -0.0038964681002246061 0 0.037148870126153144 -0.0059360526119855497 0 0.036553694214832365 -0.0060222669381709342 0 0.03750165945317227 -0.0062558711787883284 0 0.037289838702300016 -0.0061925640306634781 0 0.037925310552904858 -0.0064162829740402631 0 0.037496387078415919 -0.0064774629437254075 0 0.037648764188921297 -0.0076791596137520696 0 0.037516881762856273 -0.0063568449581478358 0 0.037648764188921297 -0.0076791596137520696 0 0.036910869231619653 -0.0072161242904543003 0 0.037925310552904858 -0.0064162829740402631 0 0.037648764188921297 -0.0076791596137520696 0 0.038384273196847993 -0.0078722668589423055 0 0.037648764188921297 -0.0076791596137520696 0 0.037240325545143317 -0.0083180880354011555 0 0.036910869231619653 -0.0072161242904543003 0 0.037289838702300016 -0.0061925640306634781 0 0.037664153648178385 -0.0076524638864326382 0 0.03750165945317227 -0.0062558711787883284 0 0.038382027866205953 -0.0081930354420007342 0 0.037831187414596457 -0.007038445195715874 0 0.038349031585472731 -0.0075459508869514993 0 0.038263915859737346 -0.0082664062768199372 0 0.038890901980437896 -0.0079173593246753288 0 0.038406715632001792 -0.0069554679753985578 0 0.038349031585472731 -0.0075459508869514993 0 0.035702580914252095 -0.0089441339486001671 0 0.036316999969377636 -0.0063643080024312114 0 0.038890901980437896 -0.0079173593246753288 0 0.038349031585472731 -0.0075459508869514993 0 0.038263915859737346 -0.0082664062768199372 0 0.038716709991142642 -0.0093669046229376465 0 0.038384273196847993 -0.0078722668589423055 0 0.037923064988204143 -0.008332252611877233 0 0.038671109723784916 -0.0092205523673618128 0 0.038382027866205953 -0.0081930354420007342 0 0.038716709991142642 -0.0093669046229376465 0 0.038797398541703956 -0.0086013899930717057 0 0.038263915859737346 -0.0082664062768199372 0 0.038797398541703956 -0.0086013899930717057 0 0.038890901980437896 -0.0079173593246753288 0 0.038263915859737346 -0.0082664062768199372 0 0.037648764188921297 -0.0076791596137520696 0 0.037923064988204143 -0.008332252611877233 0 0.037240325545143317 -0.0083180880354011555 0 0.037648764188921297 -0.0076791596137520696 0 0.038384273196847993 -0.0078722668589423055 0 0.037923064988204143 -0.008332252611877233 0 0.037755139931135821 -0.0088946326699032123 0 0.037923064988204143 -0.008332252611877233 0 0.037240325545143317 -0.0083180880354011555 0 0.037240325545143317 -0.0083180880354011555 0 0.036387684013931977 -0.0083389605106879549 0 0.036910869231619653 -0.0072161242904543003 0 0.037108027595730529 -0.0091026950229236032 0 0.037240325545143317 -0.0083180880354011555 0 0.036387684013931977 -0.0083389605106879549 0 0.036387684013931977 -0.0083389605106879549 0 0.034999989968938473 -0.0084671365982516462 0 0.035921712284154146 -0.0074210306065368298 0 0.034999989968938473 -0.0084671365982516462 0 0.035921712284154146 -0.0074210306065368298 0 0.034999959735297508 -0.0065964889164777194 0 0.036263100945666558 -0.0065131703621519694 0 0.035921712284154146 -0.0074210306065368298 0 0.034999959735297508 -0.0065964889164777194 0 0.036263100945666558 -0.0065131703621519694 0 0.035921712284154146 -0.0074210306065368298 0 0.036910869231619653 -0.0072161242904543003 0 0.036387684013931977 -0.0083389605106879549 0 0.035921712284154146 -0.0074210306065368298 0 0.036910869231619653 -0.0072161242904543003 0 0.036263100945666558 -0.0065131703621519694 0 0.037516881762856273 -0.0063568449581478358 0 0.036910869231619653 -0.0072161242904543003 0 0.0057138028035168585 -0.029639963995758148 0 0.0050862547482235631 -0.028942796702728573 0 0.0058046086087845776 -0.028541190478967155 0 0.0057138028035168585 -0.029639963995758148 0 0.0066737744019177668 -0.02941590196417455 0 0.0058046086087845776 -0.028541190478967155 0 0.0066737744019177668 -0.02941590196417455 0 0.0070427585515502635 -0.031259956869482762 0 0.0060384432359910801 -0.030993847491614698 0 0.0057138028035168585 -0.029639963995758148 0 0.0066737744019177668 -0.02941590196417455 0 0.0060384432359910801 -0.030993847491614698 0 0.0048801766553372592 -0.029929937312215535 0 0.0060384432359910801 -0.030993847491614698 0 0.0053536049109509584 -0.031851197081496405 0 0.0057138028035168585 -0.029639963995758148 0 0.0048801766553372592 -0.029929937312215535 0 0.0060384432359910801 -0.030993847491614698 0 0.0048801766553372592 -0.029929937312215535 0 0.0040876736316840939 -0.030552054221101032 0 0.0053536049109509584 -0.031851197081496405 0 0.0048801766553372592 -0.029929937312215535 0 0.0040876736316840939 -0.030552054221101032 0 0.0040292737188426051 -0.029560059744437275 0 0.0048801766553372592 -0.029929937312215535 0 0.0043654369222561381 -0.028927329737585186 0 0.0040292737188426051 -0.029560059744437275 0 0.0048801766553372592 -0.029929937312215535 0 0.0043654369222561381 -0.028927329737585186 0 0.0050862547482235631 -0.028942796702728573 0 0.0057138028035168585 -0.029639963995758148 0 0.0048801766553372592 -0.029929937312215535 0 0.0050862547482235631 -0.028942796702728573 0 0.0043654369222561381 -0.028927329737585186 0 0.0050862547482235631 -0.028942796702728573 0 0.0049150133910497388 -0.028059385818117004 0 0.0050862547482235631 -0.028942796702728573 0 0.0049150133910497388 -0.028059385818117004 0 0.0058046086087845776 -0.028541190478967155 0 0.0043654369222561381 -0.028927329737585186 0 0.0049150133910497388 -0.028059385818117004 0 0.0039785488485659789 -0.028384696117845824 0 0.0049150133910497388 -0.028059385818117004 0 0.0039785488485659789 -0.028384696117845824 0 0.0041652651280565086 -0.027315658223213902 0 0.0049150133910497388 -0.028059385818117004 0 0.0053563775547568688 -0.027066988465804312 0 0.0041652651280565086 -0.027315658223213902 0 0.0049150133910497388 -0.028059385818117004 0 0.0059471535442239803 -0.027484998923874623 0 0.0053563775547568688 -0.027066988465804312 0 0.0059471535442239803 -0.027484998923874623 0 0.0061072588858646828 -0.026791053483159889 0 0.0053563775547568688 -0.027066988465804312 0 0.0059471535442239803 -0.027484998923874623 0 0.0066548076364990622 -0.02709242064433405 0 0.0061072588858646828 -0.026791053483159889 0 0.0049150133910497388 -0.028059385818117004 0 0.0059471535442239803 -0.027484998923874623 0 0.0058046086087845776 -0.028541190478967155 0 0.0059471535442239803 -0.027484998923874623 0 0.0058046086087845776 -0.028541190478967155 0 0.0067019624470787678 -0.027861994347405925 0 0.0066737744019177668 -0.02941590196417455 0 0.0058046086087845776 -0.028541190478967155 0 0.0067019624470787678 -0.027861994347405925 0 0.0066737744019177668 -0.02941590196417455 0 0.0067019624470787678 -0.027861994347405925 0 0.0078016888218107976 -0.027516802868320558 0 0.0067019624470787678 -0.027861994347405925 0 0.0066548076364990622 -0.02709242064433405 0 0.0083999478717828157 -0.026945901343786077 0 0.0066548076364990622 -0.02709242064433405 0 0.0083999478717828157 -0.026945901343786077 0 0.0067820475619132497 -0.026103071944437062 0 0.0059471535442239803 -0.027484998923874623 0 0.0067019624470787678 -0.027861994347405925 0 0.0066548076364990622 -0.02709242064433405 0 0.0066548076364990622 -0.02709242064433405 0 0.0067820475619132497 -0.026103071944437062 0 0.0061072588858646828 -0.026791053483159889 0 0.0067118180418679306 -0.028430165354159355 0 0.0078078404805310316 -0.023698364618623763 0 0.0067019624470787678 -0.027861994347405925 0 0.007912565879228544 -0.025538364535728487 0 0.0078016888218107976 -0.027516802868320558 0 0.0064541533083089936 -0.024409264198046211 0 0.008579209008822768 -0.025565235506687812 0 0.0096267388552884157 -0.021071878380333416 0 0.0078078404805310316 -0.023698364618623763 0 0.0084896034806281762 -0.025013932337487568 0 0.007912565879228544 -0.025538364535728487 0 0.008579209008822768 -0.025565235506687812 0 0.0078016888218107976 -0.027516802868320558 0 0.0090171312422839406 -0.027720549170058017 0 0.0078016888218107976 -0.027516802868320558 0 0.008612922643722631 -0.029737378364383144 0 0.008579209008822768 -0.025565235506687812 0 0.0090171312422839406 -0.027720549170058017 0 0.0078016888218107976 -0.027516802868320558 0 0.0090171312422839406 -0.027720549170058017 0 0.011064065567734083 -0.027790017893164702 0 0.008612922643722631 -0.029737378364383144 0 0.008579209008822768 -0.025565235506687812 0 0.0090171312422839406 -0.027720549170058017 0 0.011064065567734083 -0.027790017893164702 0 0.010843850031841063 -0.028385430929843799 0 0.0087741484974133595 -0.029679158687210664 0 0.0059006927540224512 -0.031875863300254596 0 0.0060012209144163541 -0.032225130258294696 0 0.0064022351121545548 -0.031841667724807884 0 0.015397555561644868 -0.023578840752885612 0 0.011389505912169464 -0.02393198291016475 0 0.011064065567734083 -0.027790017893164702 0 0.008579209008822768 -0.025565235506687812 0 0.011389505912169464 -0.02393198291016475 0 0.011064065567734083 -0.027790017893164702 0 0.008579209008822768 -0.025565235506687812 0 0.011389505912169464 -0.02393198291016475 0 0.0096267388552884157 -0.021071878380333416 0 0.0059006927540224512 -0.031875863300254596 0 0.0064022351121545548 -0.031841667724807884 0 0.0061329332723746161 -0.03167361909909111 0 0.0059006927540224512 -0.031875863300254596 0 0.0057869838529374818 -0.031525701186754594 0 0.0061329332723746161 -0.03167361909909111 0 0.0060230677119650902 -0.031514619046194348 0 0.0061329332723746161 -0.03167361909909111 0 0.0063920853455775818 -0.031595717754939419 0 0.0057869838529374818 -0.031525701186754594 0 0.0060230677119650902 -0.031514619046194348 0 0.0061329332723746161 -0.03167361909909111 0 0.0064022351121545548 -0.031841667724807884 0 0.0063920853455775818 -0.031595717754939419 0 0.0067360142790846515 -0.031608640443605118 0 0.0064022351121545548 -0.031841667724807884 0 0.0061329332723746161 -0.03167361909909111 0 0.0063920853455775818 -0.031595717754939419 0 0.0063920853455775818 -0.031595717754939419 0 0.006691442183417896 -0.031422409082255527 0 0.0060911736207657644 -0.031408698036416577 0 0.0060230677119650902 -0.031514619046194348 0 0.0063920853455775818 -0.031595717754939419 0 0.0060911736207657644 -0.031408698036416577 0 0.0066737744019177668 -0.02941590196417455 0 0.0078016888218107976 -0.027516802868320558 0 0.008612922643722631 -0.029737378364383144 0 0.0087741484974133595 -0.029679158687210664 0 0.0076877494540200045 -0.030685044693715222 0 0.0063920853455775818 -0.031595717754939419 0 0.0067360142790846515 -0.031608640443605118 0 0.006691442183417896 -0.031422409082255527 0 0.0067360142790846515 -0.031608640443605118 0 0.0070427585515502635 -0.031259956869482762 0 0.006691442183417896 -0.031422409082255527 0 0.0076877494540200045 -0.030685044693715222 0 0.0070841169672772779 -0.031227832736340447 0 0.0066737744019177668 -0.02941590196417455 0 0.008612922643722631 -0.029737378364383144 0 0.0070427585515502635 -0.031259956869482762 0 0.0070427585515502635 -0.031259956869482762 0 0.006691442183417896 -0.031422409082255527 0 0.0069465899091685091 -0.031531367282971477 0 0.006691442183417896 -0.031422409082255527 0 0.0068555510859238588 -0.03141471658963179 0 0.0069465899091685091 -0.031531367282971477 0 0.0068555510859238588 -0.03141471658963179 0 0.0069465899091685091 -0.031531367282971477 0 0.006813219023930393 -0.031998897402928106 0 0.0071869492660245407 -0.031501660557661966 0 0.0069479535321449234 -0.031971211900357684 0 0.0056091683264615231 -0.031259164860693363 0 0.0060911736207657644 -0.031408698036416577 0 0.0063972402085581111 -0.031402534279952654 0 0.006691442183417896 -0.031422409082255527 0 0.0068555510859238588 -0.03141471658963179 0 0.0063972402085581111 -0.031402534279952654 0 0.006691442183417896 -0.031422409082255527 0 0.0060911736207657644 -0.031408698036416577 0 0.0063972402085581111 -0.031402534279952654 0 0.0071869492660245407 -0.031501660557661966 0 0.0065033459970207739 -0.031441202062254633 0 0.0076029599752708704 -0.031582039428402264 0 0.0063972402085581111 -0.031402534279952654 0 0.0069366690178312698 -0.031171087071418198 0 0.0056091683264615231 -0.031259164860693363 0 0.0063972402085581111 -0.031402534279952654 0 0.0061497747862864554 -0.031135274719357415 0 0.0063972402085581111 -0.031402534279952654 0 0.0061497747862864554 -0.031135274719357415 0 0.0069366690178312698 -0.031171087071418198 0 0.0059703820533496613 -0.030558001293238709 0 0.0069366690178312698 -0.031171087071418198 0 0.0070218079163320403 -0.030297393063100857 0 0.0059703820533496613 -0.030558001293238709 0 0.0061497747862864554 -0.031135274719357415 0 0.0069366690178312698 -0.031171087071418198 0 0.0069366690178312698 -0.031171087071418198 0 0.0070218079163320403 -0.030297393063100857 0 0.0077224869508823986 -0.031662602464571379 0 0.0080136234315068069 -0.03129211957594881 0 0.0078104509620307086 -0.031515209309155419 0 0.0059703820533496613 -0.030558001293238709 0 0.0062317594002171493 -0.029341520471822598 0 0.0070218079163320403 -0.030297393063100857 0 0.0071449012855621715 -0.031909139501524832 0 0.0073748047211513804 -0.032494872346629275 0 0.0068730670517534367 -0.032963835156677015 0 0.0071449012855621715 -0.031909139501524832 0 0.0077224869508823986 -0.031662602464571379 0 0.0073748047211513804 -0.032494872346629275 0 0.0077224869508823986 -0.031662602464571379 0 0.0078691534719711603 -0.032838686446456614 0 0.0073748047211513804 -0.032494872346629275 0 0.0076029599752708704 -0.031582039428402264 0 0.0071449012855621715 -0.031909139501524832 0 0.0077224869508823986 -0.031662602464571379 0 0.0078104509620307086 -0.031515209309155419 0 0.0077344104288373794 -0.031601266019358462 0 0.0076029599752708704 -0.031582039428402264 0 0.0069366690178312698 -0.031171087071418198 0 0.0077224869508823986 -0.031662602464571379 0 0.0081847592967948801 -0.033699058894037119 0 0.0087602530340376537 -0.032750477757550078 0 0.0078691534719711603 -0.032838686446456614 0 0.0087602530340376537 -0.032750477757550078 0 0.0077224869508823986 -0.031662602464571379 0 0.0078691534719711603 -0.032838686446456614 0 0.0073990019144549533 -0.033355241959656341 0 0.0073748047211513804 -0.032494872346629275 0 0.0068730670517534367 -0.032963835156677015 0 0.0073990019144549533 -0.033355241959656341 0 0.0078691534719711603 -0.032838686446456614 0 0.0073748047211513804 -0.032494872346629275 0 0.0062668297655757935 -0.033620513712657805 0 0.0068730670517534367 -0.032963835156677015 0 0.0061801566864764703 -0.032581793115218256 0 0.0062668297655757935 -0.033620513712657805 0 0.0061801566864764703 -0.032581793115218256 0 0.0054987153911120841 -0.033091790152055614 0 0.0071449012855621715 -0.031909139501524832 0 0.0068730670517534367 -0.032963835156677015 0 0.0061801566864764703 -0.032581793115218256 0 0.006813219023930393 -0.031998897402928106 0 0.0061801566864764703 -0.032581793115218256 0 0.0063431480597740328 -0.031866635292677171 0 0.0069479535321449234 -0.031971211900357684 0 0.0062208766723621722 -0.032502173339363963 0 0.0069465899091685091 -0.031531367282971477 0 0.006813219023930393 -0.031998897402928106 0 0.0063431480597740328 -0.031866635292677171 0 0.0061801566864764703 -0.032581793115218256 0 0.0063431480597740328 -0.031866635292677171 0 0.0055842459129159527 -0.032429561706823325 0 0.0063431480597740328 -0.031866635292677171 0 0.0060384432359910801 -0.030993847491614698 0 0.0053536049109509584 -0.031851197081496405 0 0.0070427585515502635 -0.031259956869482762 0 0.0063431480597740328 -0.031866635292677171 0 0.0060384432359910801 -0.030993847491614698 0 0.0070427585515502635 -0.031259956869482762 0 0.0069465899091685091 -0.031531367282971477 0 0.0063431480597740328 -0.031866635292677171 0 0.0054609293320338464 -0.033042145818575432 0 0.0053536049109509584 -0.031851197081496405 0 0.0054740948446710723 -0.032447198641761522 0 0.0048625685628482717 -0.031824893035085157 0 0.0053596820787532506 -0.031918527246156993 0 0.0053536049109509584 -0.031851197081496405 0 0.0054740948446710723 -0.032447198641761522 0 0.0055842459129159527 -0.032429561706823325 0 0.0063431480597740328 -0.031866635292677171 0 0.0053536049109509584 -0.031851197081496405 0 0.0055842459129159527 -0.032429561706823325 0 0.0054253644564044067 -0.032788680846038719 0 0.0055842459129159527 -0.032429561706823325 0 0.0054987153911120841 -0.033091790152055614 0 0.0054740948446710723 -0.032447198641761522 0 0.0054253644564044067 -0.032788680846038719 0 0.0055842459129159527 -0.032429561706823325 0 0.0061801566864764703 -0.032581793115218256 0 0.0055842459129159527 -0.032429561706823325 0 0.0054987153911120841 -0.033091790152055614 0 0.0052108156349834137 -0.033510756369404628 0 0.0054987153911120841 -0.033091790152055614 0 0.0052197177927446967 -0.033255201222493647 0 0.0054253644564044067 -0.032788680846038719 0 0.0054987153911120841 -0.033091790152055614 0 0.0052197177927446967 -0.033255201222493647 0 0.0052819875932515487 -0.033429210727259656 0 0.0052197177927446967 -0.033255201222493647 0 0.0055204125032173434 -0.032974459622801378 0 0.0054253644564044067 -0.032788680846038719 0 0.0052197177927446967 -0.033255201222493647 0 0.0055204125032173434 -0.032974459622801378 0 0.0054253644564044067 -0.032788680846038719 0 0.0056881544013143333 -0.032703913720493798 0 0.0055204125032173434 -0.032974459622801378 0 0.0054740948446710723 -0.032447198641761522 0 0.0054253644564044067 -0.032788680846038719 0 0.0056881544013143333 -0.032703913720493798 0 0.0056881544013143333 -0.032703913720493798 0 0.0059434369835598289 -0.032782472694280848 0 0.0055204125032173434 -0.032974459622801378 0 0.0052819875932515487 -0.033429210727259656 0 0.0055204125032173434 -0.032974459622801378 0 0.0056535960587415536 -0.032969395387104326 0 0.0059434369835598289 -0.032782472694280848 0 0.0055204125032173434 -0.032974459622801378 0 0.0056535960587415536 -0.032969395387104326 0 0.017070299819146529 -0.032427649417367539 0 0.016060762209659497 -0.032618950402570991 0 0.016238515997284278 -0.031645714857828557 0 0.011099037995727505 -0.03259744236779679 0 0.012883115753213234 -0.032053006455825483 0 0.015021969022607263 -0.033018478531361466 0 0.015257307725935462 -0.032983384210657114 0 0.014591794858943777 -0.032640884328831499 0 0.015257307725935462 -0.032983384210657114 0 0.014591794858943777 -0.032640884328831499 0 0.014821138642482228 -0.032551968631378075 0 0.01574183884986587 -0.032781652127419257 0 0.012883115753213234 -0.032053006455825483 0 0.013945914417178353 -0.032330807973075797 0 0.013029482042513604 -0.031439033393092224 0 0.012365893808153054 -0.03271808361493217 0 0.014591794858943777 -0.032640884328831499 0 0.013945914417178353 -0.032330807973075797 0 0.014380817471056443 -0.032623885007178895 0 0.014591794858943777 -0.032640884328831499 0 0.013945914417178353 -0.032330807973075797 0 0.014821138642482228 -0.032551968631378075 0 0.014084770775596259 -0.032474680251635288 0 0.012883115753213234 -0.032053006455825483 0 0.0059434369835598289 -0.032782472694280848 0 0.0060089087683693572 -0.032802432614884157 0 0.0063466249225619846 -0.032790723087538082 0 0.0059434369835598289 -0.032782472694280848 0 0.0056535960587415536 -0.032969395387104326 0 0.0060089087683693572 -0.032802432614884157 0 0.012883115753213234 -0.032053006455825483 0 0.009119152278001837 -0.032925662402377674 0 0.0059434369835598289 -0.032782472694280848 0 0.0063466249225619846 -0.032790723087538082 0 0.0065185288062558034 -0.032820591749433269 0 0.013945914417178353 -0.032330807973075797 0 0.013675064216558282 -0.032881104054541789 0 0.014380817471056443 -0.032623885007178895 0 0.012365893808153054 -0.03271808361493217 0 0.013675064216558282 -0.032881104054541789 0 0.01253291739827447 -0.033397187338836898 0 0.013945914417178353 -0.032330807973075797 0 0.012365893808153054 -0.03271808361493217 0 0.013675064216558282 -0.032881104054541789 0 0.01253291739827447 -0.033397187338836898 0 0.01381449594921666 -0.033463397497413741 0 0.013677788204324687 -0.034214334112044581 0 0.013675064216558282 -0.032881104054541789 0 0.01253291739827447 -0.033397187338836898 0 0.01381449594921666 -0.033463397497413741 0 0.0063466249225619846 -0.032790723087538082 0 0.0072652292133359884 -0.033089307693310727 0 0.0065185288062558034 -0.032820591749433269 0 0.009119152278001837 -0.032925662402377674 0 0.0091259561609192373 -0.033532434846130083 0 0.01253291739827447 -0.033397187338836898 0 0.011026225836090859 -0.033509743298330362 0 0.011269058107109868 -0.034593083300497859 0 0.012365893808153054 -0.03271808361493217 0 0.01253291739827447 -0.033397187338836898 0 0.011026225836090859 -0.033509743298330362 0 0.0072652292133359884 -0.033089307693310727 0 0.0065400921243368368 -0.033183104281066467 0 0.0073147126111653849 -0.033805362329074266 0 0.0072652292133359884 -0.033089307693310727 0 0.0065400921243368368 -0.033183104281066467 0 0.0065185288062558034 -0.032820591749433269 0 0.0065400921243368368 -0.033183104281066467 0 0.0060260321786803376 -0.032703886417839757 0 0.0065185288062558034 -0.032820591749433269 0 0.0054609293320338464 -0.033042145818575432 0 0.0054740948446710723 -0.032447198641761522 0 0.0060260321786803376 -0.032703886417839757 0 0.0054609293320338464 -0.033042145818575432 0 0.0065400921243368368 -0.033183104281066467 0 0.0060260321786803376 -0.032703886417839757 0 0.0054740948446710723 -0.032447198641761522 0 0.0056881544013143333 -0.032703913720493798 0 0.0060260321786803376 -0.032703886417839757 0 0.0056881544013143333 -0.032703913720493798 0 0.0059434369835598289 -0.032782472694280848 0 0.0060260321786803376 -0.032703886417839757 0 0.0059434369835598289 -0.032782472694280848 0 0.0060260321786803376 -0.032703886417839757 0 0.0065185288062558034 -0.032820591749433269 0 0.015652507283542959 -0.032790680101859954 0 0.014972670981913107 -0.032866115058882275 0 0.015117345439247873 -0.033050893185310799 0 0.015447935646919212 -0.03292375172448006 0 0.015002307305040001 -0.032876015385436767 0 0.01492081648021425 -0.033017929385121832 0 0.015100068228173164 -0.033000765699316877 0 0.014972670981913107 -0.032866115058882275 0 0.015100068228173164 -0.033000765699316877 0 0.015203249224416283 -0.033070980806588622 0 0.014972670981913107 -0.032866115058882275 0 0.01492081648021425 -0.033017929385121832 0 0.014972670981913107 -0.032866115058882275 0 0.01483200205819296 -0.032895943844224333 0 0.014972670981913107 -0.032866115058882275 0 0.01476465051796615 -0.032928540334523242 0 0.015117345439247873 -0.033050893185310799 0 0.014972670981913107 -0.032866115058882275 0 0.014736181003173424 -0.032782537630512781 0 0.01476465051796615 -0.032928540334523242 0 0.014736181003173424 -0.032782537630512781 0 0.014380817471056443 -0.032623885007178895 0 0.01476465051796615 -0.032928540334523242 0 0.014972670981913107 -0.032866115058882275 0 0.014736181003173424 -0.032782537630512781 0 0.01483200205819296 -0.032895943844224333 0 0.014736181003173424 -0.032782537630512781 0 0.01483200205819296 -0.032895943844224333 0 0.014734369366079945 -0.032769241970277821 0 0.015021969022607263 -0.033018478531361466 0 0.014591794858943777 -0.032640884328831499 0 0.014734369366079945 -0.032769241970277821 0 0.015021969022607263 -0.033018478531361466 0 0.01483200205819296 -0.032895943844224333 0 0.014734369366079945 -0.032769241970277821 0 0.014591794858943777 -0.032640884328831499 0 0.014734369366079945 -0.032769241970277821 0 0.014380817471056443 -0.032623885007178895 0 0.014736181003173424 -0.032782537630512781 0 0.014734369366079945 -0.032769241970277821 0 0.014380817471056443 -0.032623885007178895 0 0.013675064216558282 -0.032881104054541789 0 0.014380817471056443 -0.032623885007178895 0 0.014368809614688829 -0.033150069331768298 0 0.014368809614688829 -0.033150069331768298 0 0.01381449594921666 -0.033463397497413741 0 0.014381980951505178 -0.033726715255334203 0 0.013675064216558282 -0.032881104054541789 0 0.014368809614688829 -0.033150069331768298 0 0.01381449594921666 -0.033463397497413741 0 0.014368809614688829 -0.033150069331768298 0 0.014866653239578221 -0.033378359012600327 0 0.014381980951505178 -0.033726715255334203 0 0.014866653239578221 -0.033378359012600327 0 0.014775768497975558 -0.033843397332931215 0 0.014381980951505178 -0.033726715255334203 0 0.014380817471056443 -0.032623885007178895 0 0.014368809614688829 -0.033150069331768298 0 0.01476465051796615 -0.032928540334523242 0 0.014368809614688829 -0.033150069331768298 0 0.01476465051796615 -0.032928540334523242 0 0.014866653239578221 -0.033378359012600327 0 0.01476465051796615 -0.032928540334523242 0 0.015117345439247873 -0.033050893185310799 0 0.014866653239578221 -0.033378359012600327 0 0.015117345439247873 -0.033050893185310799 0 0.014866653239578221 -0.033378359012600327 0 0.015307332798048684 -0.03343346056444986 0 0.014866653239578221 -0.033378359012600327 0 0.015307332798048684 -0.03343346056444986 0 0.01506145197499829 -0.033696024644860739 0 0.014866653239578221 -0.033378359012600327 0 0.01506145197499829 -0.033696024644860739 0 0.014775768497975558 -0.033843397332931215 0 0.015568910442625873 -0.033354450001208964 0 0.015307332798048684 -0.03343346056444986 0 0.015472752424292521 -0.03371859952411458 0 0.015568910442625873 -0.033354450001208964 0 0.015307332798048684 -0.03343346056444986 0 0.015452553260573682 -0.033163277049812902 0 0.015117345439247873 -0.033050893185310799 0 0.015307332798048684 -0.03343346056444986 0 0.015452553260573682 -0.033163277049812902 0 0.015652507283542959 -0.032790680101859954 0 0.015117345439247873 -0.033050893185310799 0 0.015452553260573682 -0.033163277049812902 0 0.021231186855870568 -0.029199094587030405 0 0.023547099070032395 -0.027703661190225954 0 0.019121635381051712 -0.028616051979218536 0 0.022241253944434398 -0.027539669626317945 0 0.021714085840841814 -0.025676188855171502 0 0.022241253944434398 -0.027539669626317945 0 0.02124487124322404 -0.029212481336273865 0 0.024170744133338556 -0.026934953281614542 0 0.022241253944434398 -0.027539669626317945 0 0.024170744133338556 -0.026934953281614542 0 0.021714085840841814 -0.025676188855171502 0 0.020130981323189086 -0.029300829800462752 0 0.022241253944434398 -0.027539669626317945 0 0.02124487124322404 -0.029212481336273865 0 0.015472752424292521 -0.03371859952411458 0 0.015203373482075646 -0.033748412243748881 0 0.01495524314940625 -0.034203120534813981 0 0.02124487124322404 -0.029212481336273865 0 0.021063927412581913 -0.02983182854010278 0 0.02213332630841118 -0.028954762333014781 0 0.020130981323189086 -0.029300829800462752 0 0.02124487124322404 -0.029212481336273865 0 0.021063927412581913 -0.02983182854010278 0 0.018135006956974883 -0.03182731561474951 0 0.018916568551128981 -0.03149357143116422 0 0.015307332798048684 -0.03343346056444986 0 0.015472752424292521 -0.03371859952411458 0 0.015203373482075646 -0.033748412243748881 0 0.015307332798048684 -0.03343346056444986 0 0.015203373482075646 -0.033748412243748881 0 0.01506145197499829 -0.033696024644860739 0 0.015203373482075646 -0.033748412243748881 0 0.01506145197499829 -0.033696024644860739 0 0.01495524314940625 -0.034203120534813981 0 0.01506145197499829 -0.033696024644860739 0 0.01495524314940625 -0.034203120534813981 0 0.014775768497975558 -0.033843397332931215 0 0.02124487124322404 -0.029212481336273865 0 0.02213332630841118 -0.028954762333014781 0 0.02201442450193962 -0.028663444074190397 0 0.02213332630841118 -0.028954762333014781 0 0.02201442450193962 -0.028663444074190397 0 0.022207649650992343 -0.028694021587036652 0 0.02213332630841118 -0.028954762333014781 0 0.022207649650992343 -0.028694021587036652 0 0.022367981552944706 -0.02868526996268005 0 0.018916568551128981 -0.03149357143116422 0 0.016294438631452982 -0.031833425664210845 0 0.01495524314940625 -0.034203120534813981 0 0.01444665377937058 -0.034183461500829196 0 0.014197432278408898 -0.034691958282238887 0 0.01495524314940625 -0.034203120534813981 0 0.014775768497975558 -0.033843397332931215 0 0.01444665377937058 -0.034183461500829196 0 0.014775768497975558 -0.033843397332931215 0 0.014381980951505178 -0.033726715255334203 0 0.01444665377937058 -0.034183461500829196 0 0.014381980951505178 -0.033726715255334203 0 0.01444665377937058 -0.034183461500829196 0 0.013677788204324687 -0.034214334112044581 0 0.01381449594921666 -0.033463397497413741 0 0.014381980951505178 -0.033726715255334203 0 0.013677788204324687 -0.034214334112044581 0 0.013164593707540018 -0.034839394002377504 0 0.016294438631452982 -0.031833425664210845 0 0.01444665377937058 -0.034183461500829196 0 0.013677788204324687 -0.034214334112044581 0 0.014197432278408898 -0.034691958282238887 0 0.013851927514056919 -0.036262645698752316 0 0.012678673824059249 -0.035887723872026982 0 0.012257056727176167 -0.037027654114429417 0 0.0127435105430788 -0.034613407932550189 0 0.013851927514056919 -0.036262645698752316 0 0.012678673824059249 -0.035887723872026982 0 0.016294438631452982 -0.031833425664210845 0 0.012056160268333274 -0.028911956156593564 0 0.015885338684934976 -0.027557682199061902 0 0.016017060237761296 -0.028195460713086491 0 0.014685438263473457 -0.027466156275900405 0 0.015875553335030653 -0.026907193496047282 0 0.015885338684934976 -0.027557682199061902 0 0.014685438263473457 -0.027466156275900405 0 0.012960083044446416 -0.021178954198171479 0 0.015604407785970921 -0.022754714198290824 0 0.015454763795234458 -0.021132831617154405 0 0.016228160751330781 -0.022367103929107887 0 0.012056160268333274 -0.028911956156593564 0 0.016102417538451159 -0.018757706278690556 0 0.016090978665747338 -0.018571468461735234 0 0.016161343264172807 -0.018627922900683803 0 0.012960083044446416 -0.021178954198171479 0 0.015454763795234458 -0.021132831617154405 0 0.015820088819295822 -0.019789476284262211 0 0.012960083044446416 -0.021178954198171479 0 0.015820088819295822 -0.019789476284262211 0 0.016271803008191851 -0.018652127447821448 0 0.016228160751330781 -0.022367103929107887 0 0.015755798869219264 -0.018044847998297264 0 0.016102417538451159 -0.018757706278690556 0 0.016271803008191851 -0.018652127447821448 0 0.016161343264172807 -0.018627922900683803 0 0.016102417538451159 -0.018757706278690556 0 0.015951327358599322 -0.018654754514341676 0 0.016090978665747338 -0.018571468461735234 0 0.019563263826904091 -0.022679095594494571 0 0.019131878934482798 -0.023036716000565508 0 0.018473096884079533 -0.022021624459613528 0 0.016228160751330781 -0.022367103929107887 0 0.019068729949828351 -0.020642389768069074 0 0.027001618445863299 -0.024469624162001838 0 0.025444450514469086 -0.024072571424568558 0 0.025207125057979785 -0.022213832150698106 0 0.0211646501674474 -0.025645563786671047 0 0.019068729949828351 -0.020642389768069074 0 0.024170744133338556 -0.026934953281614542 0 0.027001618445863299 -0.024469624162001838 0 0.025444450514469086 -0.024072571424568558 0 0.023547099070032395 -0.027703661190225954 0 0.0211646501674474 -0.025645563786671047 0 0.02201442450193962 -0.028663444074190397 0 0.022207649650992343 -0.028694021587036652 0 0.022279387133696465 -0.028512593651080491 0 0.015885338684934976 -0.027557682199061902 0 0.016017060237761296 -0.028195460713086491 0 0.016508565370629027 -0.027809717508897259 0 0.016228160751330781 -0.022367103929107887 0 0.0211646501674474 -0.025645563786671047 0 0.022207649650992343 -0.028694021587036652 0 0.022367981552944706 -0.02868526996268005 0 0.022279387133696465 -0.028512593651080491 0 0.015875553335030653 -0.026907193496047282 0 0.015885338684934976 -0.027557682199061902 0 0.016508565370629027 -0.027809717508897259 0 0.016294438631452982 -0.031833425664210845 0 0.0211646501674474 -0.025645563786671047 0 0.024077680786991792 -0.024794349213347919 0 0.02496695557974031 -0.022510287810965732 0 0.021714085840841814 -0.025676188855171502 0 0.024868092866452782 -0.022600096863784655 0 0.023359888777379531 -0.024178591149634474 0 0.024170744133338556 -0.026934953281614542 0 0.024077680786991792 -0.024794349213347919 0 0.025444450514469086 -0.024072571424568558 0 0.024170744133338556 -0.026934953281614542 0 0.024077680786991792 -0.024794349213347919 0 0.021714085840841814 -0.025676188855171502 0 0.024077680786991792 -0.024794349213347919 0 0.025444450514469086 -0.024072571424568558 0 0.02496695557974031 -0.022510287810965732 0 0.025444450514469086 -0.024072571424568558 0 0.02496695557974031 -0.022510287810965732 0 0.025207125057979785 -0.022213832150698106 0 0.02496695557974031 -0.022510287810965732 0 0.024815233380071175 -0.022429922676097707 0 0.024925025040155153 -0.022644414430826959 0 0.02496695557974031 -0.022510287810965732 0 0.024815233380071175 -0.022429922676097707 0 0.02474803030071087 -0.02208799603543601 0 0.02496695557974031 -0.022510287810965732 0 0.025207125057979785 -0.022213832150698106 0 0.02474803030071087 -0.02208799603543601 0 0.02444457296532597 -0.022296918313887169 0 0.024815233380071175 -0.022429922676097707 0 0.02474803030071087 -0.02208799603543601 0 0.024629444758053263 -0.02251929170385282 0 0.024815233380071175 -0.022429922676097707 0 0.024925025040155153 -0.022644414430826959 0 0.0051761472393798786 -0.031950787309250502 0 0.0063247799751157806 -0.032839568558523144 0 0.0064750071145552044 -0.034401925178749265 0 0.0088282007854994359 -0.03499959577846859 0 0.010004995468545474 -0.036164514900849994 0 0.0035680034255764531 -0.029007437963880105 0 0.0035349495686021939 -0.029510151513896667 0 0.0036202953390003919 -0.02889893342751295 0 0.0035680034255764531 -0.029007437963880105 0 0.0037732352700975361 -0.029029351126255258 0 0.0035349495686021939 -0.029510151513896667 0 0.0040292737188426051 -0.029560059744437275 0 0.0037732352700975361 -0.029029351126255258 0 0.0035349495686021939 -0.029510151513896667 0 0.0043654369222561381 -0.028927329737585186 0 0.0040292737188426051 -0.029560059744437275 0 0.0037732352700975361 -0.029029351126255258 0 0.0054609293320338464 -0.033042145818575432 0 0.0065400921243368368 -0.033183104281066467 0 0.0064750071145552044 -0.034401925178749265 0 0.0048625685628482717 -0.031824893035085157 0 0.0051761472393798786 -0.031950787309250502 0 0.0040876736316840939 -0.030552054221101032 0 0.0040292737188426051 -0.029560059744437275 0 0.0035349495686021939 -0.029510151513896667 0 0.0065400921243368368 -0.033183104281066467 0 0.0064750071145552044 -0.034401925178749265 0 0.0073147126111653849 -0.033805362329074266 0 0.0064750071145552044 -0.034401925178749265 0 0.0073147126111653849 -0.033805362329074266 0 0.0088282007854994359 -0.03499959577846859 0 0.0091259561609192373 -0.033532434846130083 0 0.0087938255814154521 -0.03508043645631416 0 0.0072652292133359884 -0.033089307693310727 0 0.0073147126111653849 -0.033805362329074266 0 0.0088282007854994359 -0.03499959577846859 0 0.011026225836090859 -0.033509743298330362 0 0.011269058107109868 -0.034593083300497859 0 0.0088282007854994359 -0.03499959577846859 0 0.012499204519752309 -0.033275879522333886 0 0.013164593707540018 -0.034839394002377504 0 0.01253291739827447 -0.033397187338836898 0 0.0127435105430788 -0.034613407932550189 0 0.011269058107109868 -0.034593083300497859 0 0.0127435105430788 -0.034613407932550189 0 0.011269058107109868 -0.034593083300497859 0 0.011863424795314001 -0.035659211722469157 0 0.011863424795314001 -0.035659211722469157 0 0.010004995468545474 -0.036164514900849994 0 0.012257056727176167 -0.037027654114429417 0 0.0063247799751157806 -0.032839568558523144 0 0.012056160268333274 -0.028911956156593564 0 0.0127435105430788 -0.034613407932550189 0 0.012678673824059249 -0.035887723872026982 0 0.011863424795314001 -0.035659211722469157 0 0.012678673824059249 -0.035887723872026982 0 0.011863424795314001 -0.035659211722469157 0 0.012257056727176167 -0.037027654114429417 0 0.011269058107109868 -0.034593083300497859 0 0.0088282007854994359 -0.03499959577846859 0 0.010004995468545474 -0.036164514900849994 0 0.011269058107109868 -0.034593083300497859 0 0.011863424795314001 -0.035659211722469157 0 0.010004995468545474 -0.036164514900849994 0 0.0035680034255764531 -0.029007437963880105 0 0.0036202953390003919 -0.02889893342751295 0 0.0036224729696331969 -0.028926049838491216 0 0.006648572112918489 -0.02174205483017333 0 0.0060918476409853282 -0.021991689339673604 0 0.0068311537608965033 -0.022199278552537782 0 0.0036224729696331969 -0.028926049838491216 0 0.0036982343876721261 -0.028979499998164553 0 0.0035740180648307501 -0.02875554733847548 0 0.0036224729696331969 -0.028926049838491216 0 0.0037498731901893503 -0.029003744009377431 0 0.0036982343876721261 -0.028979499998164553 0 0.0036202953390003919 -0.02889893342751295 0 0.0036224729696331969 -0.028926049838491216 0 0.0037498731901893503 -0.029003744009377431 0 0.0073281152361911279 -0.026091603489657982 0 0.0076177371228541299 -0.024465081684541191 0 0.0036202953390003919 -0.02889893342751295 0 0.0037498731901893503 -0.029003744009377431 0 0.0043930245105196107 -0.028994458559025837 0 0.0037498731901893503 -0.029003744009377431 0 0.0038197050375155315 -0.029167796247865207 0 0.0043930245105196107 -0.028994458559025837 0 0.0076177371228541299 -0.024465081684541191 0 0.012056160268333274 -0.028911956156593564 0 0.017461125283116351 -0.021836612658273059 0 0.015604407785970921 -0.022754714198290824 0 0.015454763795234458 -0.021132831617154405 0 0.017461125283116351 -0.021836612658273059 0 0.015820088819295822 -0.019789476284262211 0 0.016339534895024488 -0.018680368140979956 0 0.0076177371228541299 -0.024465081684541191 0 0.011889831351100232 -0.019991631213553986 0 0.017461125283116351 -0.021836612658273059 0 0.015454763795234458 -0.021132831617154405 0 0.015820088819295822 -0.019789476284262211 0 0.0076177371228541299 -0.024465081684541191 0 0.0043352572798930266 -0.025343224135995605 0 0.0035414703913114495 -0.028305289419152439 0 0.0035740180648307501 -0.02875554733847548 0 0.0039785488485659789 -0.028384696117845824 0 0.0036982343876721261 -0.028979499998164553 0 0.0035414703913114495 -0.028305289419152439 0 0.0035740180648307501 -0.02875554733847548 0 0.0035680034255764531 -0.029007437963880105 0 0.0037732352700975361 -0.029029351126255258 0 0.0035740180648307501 -0.02875554733847548 0 0.0035680034255764531 -0.029007437963880105 0 0.0036224729696331969 -0.028926049838491216 0 0.0035740180648307501 -0.02875554733847548 0 0.0043654369222561381 -0.028927329737585186 0 0.0037732352700975361 -0.029029351126255258 0 0.0039785488485659789 -0.028384696117845824 0 0.0037732352700975361 -0.029029351126255258 0 0.0035740180648307501 -0.02875554733847548 0 0.0039785488485659789 -0.028384696117845824 0 0.0043352572798930266 -0.025343224135995605 0 0.00497970840655634 -0.024788710476358659 0 0.0035414703913114495 -0.028305289419152439 0 0.0039785488485659789 -0.028384696117845824 0 0.0041652651280565086 -0.027315658223213902 0 0.0060918476409853282 -0.021991689339673604 0 0.0059353799342619154 -0.022457978339063097 0 0.0055283554402771303 -0.02225479214930046 0 0.0059353799342619154 -0.022457978339063097 0 0.0055283554402771303 -0.02225479214930046 0 0.0055272174248237578 -0.022693180120794104 0 0.0050758893597306039 -0.022414048064104401 0 0.0047830456955927246 -0.022600962434536024 0 0.0040793565986483107 -0.022269498453137915 0 0.003575898443023751 -0.021952907006787634 0 0.0041323466682956648 -0.02268209005159777 0 0.0059353799342619154 -0.022457978339063097 0 0.0060873089183647276 -0.022836089900340233 0 0.0055272174248237578 -0.022693180120794104 0 0.0059353799342619154 -0.022457978339063097 0 0.0060873089183647276 -0.022836089900340233 0 0.0064339269186089116 -0.022517269230485418 0 0.0060918476409853282 -0.021991689339673604 0 0.0059353799342619154 -0.022457978339063097 0 0.0064339269186089116 -0.022517269230485418 0 0.0060918476409853282 -0.021991689339673604 0 0.0068311537608965033 -0.022199278552537782 0 0.0064339269186089116 -0.022517269230485418 0 0.0068311537608965033 -0.022199278552537782 0 0.0070103004631711548 -0.022643140675004149 0 0.0064339269186089116 -0.022517269230485418 0 0.011889831351100232 -0.019991631213553986 0 0.011811196786968639 -0.021277722263233614 0 0.016271803008191851 -0.018652127447821448 0 0.016339534895024488 -0.018680368140979956 0 0.016257894851683451 -0.018311367786364195 0 0.016271803008191851 -0.018652127447821448 0 0.016257894851683451 -0.018311367786364195 0 0.016182301069678082 -0.018510223058394698 0 0.015820088819295822 -0.019789476284262211 0 0.016271803008191851 -0.018652127447821448 0 0.016339534895024488 -0.018680368140979956 0 0.0070103004631711548 -0.022643140675004149 0 0.0064339269186089116 -0.022517269230485418 0 0.0066443554719778503 -0.02295681054137198 0 0.0060873089183647276 -0.022836089900340233 0 0.0064339269186089116 -0.022517269230485418 0 0.0066443554719778503 -0.02295681054137198 0 0.0050758893597306039 -0.022414048064104401 0 0.0037236468027410626 -0.022635784495522681 0 0.0037236468027410626 -0.022635784495522681 0 0.011186618189073494 -0.016730596113491831 0 0.0070103004631711548 -0.022643140675004149 0 0.0066443554719778503 -0.02295681054137198 0 0.0071990708142231023 -0.023053668734605431 0 0.0030723096053855803 -0.021503979319318058 0 0.0027609159668232179 -0.020795898657038219 0 0.0023954209373778998 -0.021147142032947392 0 0.0030723096053855803 -0.021503979319318058 0 0.0027609159668232179 -0.020795898657038219 0 0.0032087729812349049 -0.020737862171291345 0 0.0030723096053855803 -0.021503979319318058 0 0.0032087729812349049 -0.020737862171291345 0 0.0036453870773883248 -0.021278169144247343 0 0.0054718752911839669 -0.013748941303980761 0 0.0059815154009784577 -0.014244891630319854 0 0.007724914041098329 -0.0068316218392583082 0 0.0075549362458958271 -0.0069461499388536012 0 0.0076018963740720029 -0.0069023924435055936 0 0.0075549362458958271 -0.0069461499388536012 0 0.0074630439994113331 -0.0070140013825610963 0 0.0074114498052900686 -0.0070245084394220678 0 0.0075549362458958271 -0.0069461499388536012 0 0.0074630439994113331 -0.0070140013825610963 0 0.0074895357251308428 -0.0069862528602381482 0 0.0074630439994113331 -0.0070140013825610963 0 0.0074895357251308428 -0.0069862528602381482 0 0.0073926623102004464 -0.0070785298497461294 0 0.0074630439994113331 -0.0070140013825610963 0 0.0074114498052900686 -0.0070245084394220678 0 0.0074018454621449731 -0.0070598159940543611 0 0.0040793565986483107 -0.022269498453137915 0 0.003575898443023751 -0.021952907006787634 0 0.0040285467774235318 -0.021851635404197382 0 0.0036453870773883248 -0.021278169144247343 0 0.0040861461208154589 -0.02185473634741578 0 0.0040285467774235318 -0.021851635404197382 0 0.0059815154009784577 -0.014244891630319854 0 0.0035950634352138224 -0.014173514829871449 0 0.0040793565986483107 -0.022269498453137915 0 0.004100233060830411 -0.021847630614392884 0 0.0040285467774235318 -0.021851635404197382 0 0.0035950634352138224 -0.014173514829871449 0 0.003514081490367488 -0.014604185372102698 0 0.003575898443023751 -0.021952907006787634 0 0.0036453870773883248 -0.021278169144247343 0 0.0040285467774235318 -0.021851635404197382 0 0.003575898443023751 -0.021952907006787634 0 0.0030723096053855803 -0.021503979319318058 0 0.0036453870773883248 -0.021278169144247343 0 0.01548079814460792 -0.017986915070194804 0 0.01573876654390275 -0.018178437948834513 0 0.015641223184371209 -0.018299164087029203 0 0.01573876654390275 -0.018178437948834513 0 0.015780706354923291 -0.018366141919208635 0 0.015641223184371209 -0.018299164087029203 0 0.015780706354923291 -0.018366141919208635 0 0.015641223184371209 -0.018299164087029203 0 0.015742762391413541 -0.01852203499398981 0 0.015463465741626362 -0.018380322741763065 0 0.015641223184371209 -0.018299164087029203 0 0.015742762391413541 -0.01852203499398981 0 0.020445965589155873 -0.017665303369111603 0 0.014571714286271159 -0.017902613852776729 0 0.020445965589155873 -0.017665303369111603 0 0.020604194950887892 -0.020617483873029113 0 0.015970468798572866 -0.018432672390913257 0 0.015713067984950296 -0.018537478005350327 0 0.015742762391413541 -0.01852203499398981 0 0.015713067984950296 -0.018537478005350327 0 0.015742762391413541 -0.01852203499398981 0 0.015857514210307087 -0.018471436811302422 0 0.015780706354923291 -0.018366141919208635 0 0.015742762391413541 -0.01852203499398981 0 0.015857514210307087 -0.018471436811302422 0 0.019068729949828351 -0.020642389768069074 0 0.020604194950887892 -0.020617483873029113 0 0.016131468624098137 -0.018851575720695742 0 0.015713067984950296 -0.018537478005350327 0 0.015857514210307087 -0.018471436811302422 0 0.015951327358599322 -0.018654754514341676 0 0.015857514210307087 -0.018471436811302422 0 0.015983372749078534 -0.018449501393080978 0 0.019068729949828351 -0.020642389768069074 0 0.015207276821328343 -0.017589736631570419 0 0.015857514210307087 -0.018471436811302422 0 0.015881558976499566 -0.018305573331451115 0 0.015983372749078534 -0.018449501393080978 0 0.015780706354923291 -0.018366141919208635 0 0.015857514210307087 -0.018471436811302422 0 0.015881558976499566 -0.018305573331451115 0 0.01573876654390275 -0.018178437948834513 0 0.015780706354923291 -0.018366141919208635 0 0.015881558976499566 -0.018305573331451115 0 0.01573876654390275 -0.018178437948834513 0 0.015881558976499566 -0.018305573331451115 0 0.0158498631192352 -0.01808016240292723 0 0.015881558976499566 -0.018305573331451115 0 0.01599776646212292 -0.018178392738491134 0 0.0158498631192352 -0.01808016240292723 0 0.015881558976499566 -0.018305573331451115 0 0.015983372749078534 -0.018449501393080978 0 0.01599776646212292 -0.018178392738491134 0 0.015983372749078534 -0.018449501393080978 0 0.016115348824842085 -0.018339641497498671 0 0.01599776646212292 -0.018178392738491134 0 0.015983372749078534 -0.018449501393080978 0 0.016090978665747338 -0.018571468461735234 0 0.016115348824842085 -0.018339641497498671 0 0.015951327358599322 -0.018654754514341676 0 0.015983372749078534 -0.018449501393080978 0 0.016090978665747338 -0.018571468461735234 0 0.016090978665747338 -0.018571468461735234 0 0.016182301069678082 -0.018510223058394698 0 0.016115348824842085 -0.018339641497498671 0 0.016090978665747338 -0.018571468461735234 0 0.016161343264172807 -0.018627922900683803 0 0.016182301069678082 -0.018510223058394698 0 0.016271803008191851 -0.018652127447821448 0 0.016161343264172807 -0.018627922900683803 0 0.016182301069678082 -0.018510223058394698 0 0.016257894851683451 -0.018311367786364195 0 0.016182301069678082 -0.018510223058394698 0 0.016115348824842085 -0.018339641497498671 0 0.016257894851683451 -0.018311367786364195 0 0.016115348824842085 -0.018339641497498671 0 0.016191901837614823 -0.018000365769836248 0 0.016115348824842085 -0.018339641497498671 0 0.016191901837614823 -0.018000365769836248 0 0.01599776646212292 -0.018178392738491134 0 0.011811196786968639 -0.021277722263233614 0 0.011186618189073494 -0.016730596113491831 0 0.011186618189073494 -0.016730596113491831 0 0.0089038165384758335 -0.012530549285919573 0 0.0027609159668232179 -0.020795898657038219 0 0.0023954209373778998 -0.021147142032947392 0 0.0021359487844029726 -0.02041267105386816 0 0.011186618189073494 -0.016730596113491831 0 0.016207486251771673 -0.011147524108408632 0 0.016314928854143498 -0.0060885679543799115 0 0.014902186818117278 -0.0054268197352704377 0 0.015980930377397187 -0.0049840096532983861 0 0.016191901837614823 -0.018000365769836248 0 0.01599776646212292 -0.018178392738491134 0 0.015910341585916615 -0.017803526052209469 0 0.01599776646212292 -0.018178392738491134 0 0.0158498631192352 -0.01808016240292723 0 0.015910341585916615 -0.017803526052209469 0 0.0158498631192352 -0.01808016240292723 0 0.015910341585916615 -0.017803526052209469 0 0.015703322582367247 -0.017926310945023585 0 0.01573876654390275 -0.018178437948834513 0 0.0158498631192352 -0.01808016240292723 0 0.015703322582367247 -0.017926310945023585 0 0.015512981767775803 -0.017562418135423242 0 0.015910341585916615 -0.017803526052209469 0 0.015703322582367247 -0.017926310945023585 0 0.015296026495442558 -0.010365377926102886 0 0.016207486251771673 -0.011147524108408632 0 0.01548079814460792 -0.017986915070194804 0 0.015512981767775803 -0.017562418135423242 0 0.015703322582367247 -0.017926310945023585 0 0.013378230283442906 -0.0048436681353793039 0 0.014902186818117278 -0.0054268197352704377 0 0.014329248387080076 -0.0046688351389161005 0 0.01548079814460792 -0.017986915070194804 0 0.01573876654390275 -0.018178437948834513 0 0.015703322582367247 -0.017926310945023585 0 0.013150422617927298 -0.0029171070752767115 0 0.013816258040071826 -0.0027126384599536696 0 0.013539180700389333 -0.0022951946899552713 0 0.013150422617927298 -0.0029171070752767115 0 0.013816258040071826 -0.0027126384599536696 0 0.013559777581035139 -0.0033693723586020611 0 0.013816258040071826 -0.0027126384599536696 0 0.013948353106194165 -0.0031624488909153458 0 0.013559777581035139 -0.0033693723586020611 0 0.013816258040071826 -0.0027126384599536696 0 0.014255796060754763 -0.0026420095700654292 0 0.014187969458885475 -0.0019653186178154704 0 0.013816258040071826 -0.0027126384599536696 0 0.014255796060754763 -0.0026420095700654292 0 0.013948353106194165 -0.0031624488909153458 0 0.014255796060754763 -0.0026420095700654292 0 0.013948353106194165 -0.0031624488909153458 0 0.01421607002756101 -0.0040437208235055864 0 0.013948353106194165 -0.0031624488909153458 0 0.013559777581035139 -0.0033693723586020611 0 0.01421607002756101 -0.0040437208235055864 0 0.012952411183350087 -0.0035287501687374864 0 0.013559777581035139 -0.0033693723586020611 0 0.013404794652989112 -0.0039497321372851555 0 0.013559777581035139 -0.0033693723586020611 0 0.013404794652989112 -0.0039497321372851555 0 0.01421607002756101 -0.0040437208235055864 0 0.013378230283442906 -0.0048436681353793039 0 0.013841188876576172 -0.0043924253849754189 0 0.014329248387080076 -0.0046688351389161005 0 0.013404794652989112 -0.0039497321372851555 0 0.013841188876576172 -0.0043924253849754189 0 0.01421607002756101 -0.0040437208235055864 0 0.013378230283442906 -0.0048436681353793039 0 0.013404794652989112 -0.0039497321372851555 0 0.013841188876576172 -0.0043924253849754189 0 0.015296026495442558 -0.010365377926102886 0 0.01418964108677746 -0.0031055278576950385 0 0.013841188876576172 -0.0043924253849754189 0 0.01421607002756101 -0.0040437208235055864 0 0.014329248387080076 -0.0046688351389161005 0 0.01421607002756101 -0.0040437208235055864 0 0.014329248387080076 -0.0046688351389161005 0 0.014862476672772438 -0.0043526436516851249 0 0.014902186818117278 -0.0054268197352704377 0 0.014329248387080076 -0.0046688351389161005 0 0.014862476672772438 -0.0043526436516851249 0 0.014902186818117278 -0.0054268197352704377 0 0.014862476672772438 -0.0043526436516851249 0 0.0153337289972151 -0.0046698175261961289 0 0.01421607002756101 -0.0040437208235055864 0 0.014862476672772438 -0.0043526436516851249 0 0.014667819900401006 -0.0038534328803994651 0 0.014862476672772438 -0.0043526436516851249 0 0.014667819900401006 -0.0038534328803994651 0 0.014964215028507583 -0.0039303361303805783 0 0.01421607002756101 -0.0040437208235055864 0 0.014667819900401006 -0.0038534328803994651 0 0.014656975497103748 -0.0035197565538912295 0 0.014255796060754763 -0.0026420095700654292 0 0.01421607002756101 -0.0040437208235055864 0 0.014647886009523511 -0.0021082609852737444 0 0.01415078307314631 -0.0040662580707665459 0 0.014852016949043118 -0.0026278107580385824 0 0.014667819900401006 -0.0038534328803994651 0 0.014770267052705026 -0.0035994677958957073 0 0.014656975497103748 -0.0035197565538912295 0 0.014667819900401006 -0.0038534328803994651 0 0.014964215028507583 -0.0039303361303805783 0 0.014770267052705026 -0.0035994677958957073 0 0.0079345077506957039 -0.0067982875661848109 0 0.0079783041636884832 -0.0066836350176128594 0 0.0077520621403861147 -0.0066009812977692725 0 0.0092484322819644197 -0.0089938902138283379 0 0.01115254013026072 -0.0048023704360848109 0 0.014770267052705026 -0.0035994677958957073 0 0.014801370900624649 -0.0036806665195944694 0 0.014802236364762765 -0.0035335734445728893 0 0.015629729760237229 -0.0040770767244522194 0 0.0092484322819644197 -0.0089938902138283379 0 0.014964215028507583 -0.0039303361303805783 0 0.014770267052705026 -0.0035994677958957073 0 0.01557531897093466 -0.0039473171875139519 0 0.014862476672772438 -0.0043526436516851249 0 0.014964215028507583 -0.0039303361303805783 0 0.01557531897093466 -0.0039473171875139519 0 0.014862476672772438 -0.0043526436516851249 0 0.01557531897093466 -0.0039473171875139519 0 0.0153337289972151 -0.0046698175261961289 0 0.01557531897093466 -0.0039473171875139519 0 0.0153337289972151 -0.0046698175261961289 0 0.015980930377397187 -0.0049840096532983861 0 0.0092484322819644197 -0.0089938902138283379 0 0.0089038165384758335 -0.012530549285919573 0 0.014902186818117278 -0.0054268197352704377 0 0.0153337289972151 -0.0046698175261961289 0 0.015980930377397187 -0.0049840096532983861 0 0.0027609159668232179 -0.020795898657038219 0 0.0021359487844029726 -0.02041267105386816 0 0.0026479165204524964 -0.020139625477317041 0 0.0092484322819644197 -0.0089938902138283379 0 0.0047165276581270284 -0.013716354069963422 0 0.0019113331402349427 -0.019514823971504169 0 0.0021359487844029726 -0.02041267105386816 0 0.0026479165204524964 -0.020139625477317041 0 0.0079345077506957039 -0.0067982875661848109 0 0.0080070922611991027 -0.0067329315645880223 0 0.0079281616264977681 -0.0067802224734249249 0 0.0079345077506957039 -0.0067982875661848109 0 0.0080070922611991027 -0.0067329315645880223 0 0.0079783041636884832 -0.0066836350176128594 0 0.0080070922611991027 -0.0067329315645880223 0 0.0082226635502131943 -0.0065713173110673925 0 0.0079783041636884832 -0.0066836350176128594 0 0.0082226635502131943 -0.0065713173110673925 0 0.0079783041636884832 -0.0066836350176128594 0 0.0078853038652139575 -0.0063055222235570245 0 0.0082226635502131943 -0.0065713173110673925 0 0.0081344338907131004 -0.005794871043448546 0 0.0078853038652139575 -0.0063055222235570245 0 0.0082226635502131943 -0.0065713173110673925 0 0.0081344338907131004 -0.005794871043448546 0 0.0091493384241568259 -0.0049453104854575982 0 0.0082754277054701269 -0.0064918888599505946 0 0.0084784782822792584 -0.0058793936126865067 0 0.0081344338907131004 -0.005794871043448546 0 0.0074519247196691892 -0.0060337648638513763 0 0.0080870979191083204 -0.0049795417137117551 0 0.0081344338907131004 -0.005794871043448546 0 0.0074519247196691892 -0.0060337648638513763 0 0.0078853038652139575 -0.0063055222235570245 0 0.011938105706206955 -0.0031740088904633227 0 0.0087641050911522952 -0.0040714676578177365 0 0.014749269475380893 -0.0033805763507356312 0 0.014802236364762765 -0.0035335734445728893 0 0.01474335671472869 -0.0035030515834503771 0 0.0074519247196691892 -0.0060337648638513763 0 0.0078853038652139575 -0.0063055222235570245 0 0.0077520621403861147 -0.0066009812977692725 0 0.011938105706206955 -0.0031740088904633227 0 0.01115254013026072 -0.0048023704360848109 0 0.0079783041636884832 -0.0066836350176128594 0 0.0078853038652139575 -0.0063055222235570245 0 0.0077520621403861147 -0.0066009812977692725 0 0.014770267052705026 -0.0035994677958957073 0 0.014802236364762765 -0.0035335734445728893 0 0.01474335671472869 -0.0035030515834503771 0 0.014749269475380893 -0.0033805763507356312 0 0.01474335671472869 -0.0035030515834503771 0 0.014656975497103748 -0.0035197565538912295 0 0.014166925427907463 -0.0014730446495018392 0 0.014647886009523511 -0.0021082609852737444 0 0.014352260402312645 -0.0017466858967238328 0 0.011938105706206955 -0.0031740088904633227 0 0.014852016949043118 -0.0026278107580385824 0 0.014770267052705026 -0.0035994677958957073 0 0.01474335671472869 -0.0035030515834503771 0 0.014656975497103748 -0.0035197565538912295 0 0.014255796060754763 -0.0026420095700654292 0 0.014647886009523511 -0.0021082609852737444 0 0.014187969458885475 -0.0019653186178154704 0 0.014647886009523511 -0.0021082609852737444 0 0.014352260402312645 -0.0017466858967238328 0 0.014187969458885475 -0.0019653186178154704 0 0.014166925427907463 -0.0014730446495018392 0 0.014191617962100993 -0.0015386181414221742 0 0.014352260402312645 -0.0017466858967238328 0 0.014191617962100993 -0.0015386181414221742 0 0.014352260402312645 -0.0017466858967238328 0 0.014187969458885475 -0.0019653186178154704 0 0.014166925427907463 -0.0014730446495018392 0 0.014054710174695529 -0.0015388040620300744 0 0.01373889460947123 -0.0019077591906867381 0 0.014166925427907463 -0.0014730446495018392 0 0.014191617962100993 -0.0015386181414221742 0 0.014054710174695529 -0.0015388040620300744 0 0.014191617962100993 -0.0015386181414221742 0 0.014054710174695529 -0.0015388040620300744 0 0.013991888541104228 -0.0013250355824295989 0 0.014054710174695529 -0.0015388040620300744 0 0.014295767400082766 -0.0013878946201234782 0 0.014358161875498352 -0.0017399776981817138 0 0.014054710174695529 -0.0015388040620300744 0 0.014295767400082766 -0.0013878946201234782 0 0.013991888541104228 -0.0013250355824295989 0 0.014492441658159319 -0.00096212027688811488 0 0.014295767400082766 -0.0013878946201234782 0 0.013991888541104228 -0.0013250355824295989 0 0.014191617962100993 -0.0015386181414221742 0 0.013991888541104228 -0.0013250355824295989 0 0.014187969458885475 -0.0019653186178154704 0 0.013816258040071826 -0.0027126384599536696 0 0.014187969458885475 -0.0019653186178154704 0 0.013539180700389333 -0.0022951946899552713 0 0.013991888541104228 -0.0013250355824295989 0 0.014187969458885475 -0.0019653186178154704 0 0.013539180700389333 -0.0022951946899552713 0 0.0075138229786856298 -0.0069407361409803275 0 0.0076018963740720029 -0.0069023924435055936 0 0.0076599169000262889 -0.0068496611040531202 0 0.0076018963740720029 -0.0069023924435055936 0 0.0077420734988411302 -0.00682638557369701 0 0.0076599169000262889 -0.0068496611040531202 0 0.0075138229786856298 -0.0069407361409803275 0 0.0074895357251308428 -0.0069862528602381482 0 0.0076018963740720029 -0.0069023924435055936 0 0.0075138229786856298 -0.0069407361409803275 0 0.0074895357251308428 -0.0069862528602381482 0 0.0074115319270242723 -0.007034223208179969 0 0.0075549362458958271 -0.0069461499388536012 0 0.0074895357251308428 -0.0069862528602381482 0 0.0076018963740720029 -0.0069023924435055936 0 0.007724914041098329 -0.0068316218392583082 0 0.0076018963740720029 -0.0069023924435055936 0 0.0077420734988411302 -0.00682638557369701 0 0.0054718752911839669 -0.013748941303980761 0 0.0047165276581270284 -0.013716354069963422 0 0.007724914041098329 -0.0068316218392583082 0 0.0079281616264977681 -0.0067802224734249249 0 0.0077420734988411302 -0.00682638557369701 0 0.0027609159668232179 -0.020795898657038219 0 0.0032087729812349049 -0.020737862171291345 0 0.0026479165204524964 -0.020139625477317041 0 0.0079281616264977681 -0.0067802224734249249 0 0.0078840041713127227 -0.0067419202469356744 0 0.0077420734988411302 -0.00682638557369701 0 0.0080070922611991027 -0.0067329315645880223 0 0.0079281616264977681 -0.0067802224734249249 0 0.0078840041713127227 -0.0067419202469356744 0 0.0078840041713127227 -0.0067419202469356744 0 0.0077420734988411302 -0.00682638557369701 0 0.0076599169000262889 -0.0068496611040531202 0 0.0078223459108589261 -0.0067697601287029178 0 0.0076639137996391809 -0.0068176422583594723 0 0.0076599169000262889 -0.0068496611040531202 0 0.0078840041713127227 -0.0067419202469356744 0 0.0078223459108589261 -0.0067697601287029178 0 0.0076599169000262889 -0.0068496611040531202 0 0.0080070922611991027 -0.0067329315645880223 0 0.0082226635502131943 -0.0065713173110673925 0 0.0078840041713127227 -0.0067419202469356744 0 0.0082226635502131943 -0.0065713173110673925 0 0.0078840041713127227 -0.0067419202469356744 0 0.0078223459108589261 -0.0067697601287029178 0 0.0082226635502131943 -0.0065713173110673925 0 0.0078223459108589261 -0.0067697601287029178 0 0.0078919345738214224 -0.0068289959724781198 0 0.0078223459108589261 -0.0067697601287029178 0 0.0076639137996391809 -0.0068176422583594723 0 0.0077873433116450027 -0.0067986729492150334 0 0.0076639137996391809 -0.0068176422583594723 0 0.0075481992610647395 -0.0068996878640863223 0 0.0076489687182430483 -0.0067400704174491472 0 0.0076639137996391809 -0.0068176422583594723 0 0.0076599169000262889 -0.0068496611040531202 0 0.0075481992610647395 -0.0068996878640863223 0 0.0075138229786856298 -0.0069407361409803275 0 0.0075481992610647395 -0.0068996878640863223 0 0.0073898537566212215 -0.0069837077406478569 0 0.0075138229786856298 -0.0069407361409803275 0 0.0076599169000262889 -0.0068496611040531202 0 0.0075481992610647395 -0.0068996878640863223 0 0.0075481992610647395 -0.0068996878640863223 0 0.0073839881594605673 -0.0069595973610082837 0 0.0074914648908454085 -0.0069520878287998586 0 0.0073839881594605673 -0.0069595973610082837 0 0.0072498492282928682 -0.0069306199443673064 0 0.0073167523251128274 -0.0070052972080301571 0 0.0073839881594605673 -0.0069595973610082837 0 0.0073167523251128274 -0.0070052972080301571 0 0.0074914648908454085 -0.0069520878287998586 0 0.0073839881594605673 -0.0069595973610082837 0 0.0072902681515804877 -0.0070038408684224215 0 0.0072498492282928682 -0.0069306199443673064 0 0.0073839881594605673 -0.0069595973610082837 0 0.0072902681515804877 -0.0070038408684224215 0 0.0073898537566212215 -0.0069837077406478569 0 0.0075481992610647395 -0.0068996878640863223 0 0.0073839881594605673 -0.0069595973610082837 0 0.0073898537566212215 -0.0069837077406478569 0 0.0029853689705583272 -0.006812603524486897 0 0.0033897064049312384 -0.007059866989635886 0 0.0071389722083035345 -0.0068367671430694501 0 0.0072498492282928682 -0.0069306199443673064 0 0.007288556641250582 -0.0069877438853627695 0 0.0071389722083035345 -0.0068367671430694501 0 0.0074737160104318317 -0.0068654486487252225 0 0.0069611221780449027 -0.0066964493581260186 0 0.0071389722083035345 -0.0068367671430694501 0 0.007288556641250582 -0.0069877438853627695 0 0.0074737160104318317 -0.0068654486487252225 0 0.0071342122634719222 -0.0068469256629096883 0 0.0070159422937521561 -0.0068297968574123 0 0.0071389722083035345 -0.0068367671430694501 0 0.0072498492282928682 -0.0069306199443673064 0 0.0073167523251128274 -0.0070052972080301571 0 0.0072902681515804877 -0.0070038408684224215 0 0.0072498492282928682 -0.0069306199443673064 0 0.007288556641250582 -0.0069877438853627695 0 0.0072902681515804877 -0.0070038408684224215 0 0.007288556641250582 -0.0069877438853627695 0 0.0072742147445212738 -0.0071465457853205844 0 0.007288556641250582 -0.0069877438853627695 0 0.0073620480813204325 -0.0071568105639323604 0 0.0075095220534641838 -0.007064472538243223 0 0.007288556641250582 -0.0069877438853627695 0 0.0073620480813204325 -0.0071568105639323604 0 0.0072742147445212738 -0.0071465457853205844 0 0.0073620480813204325 -0.0071568105639323604 0 0.0072621140718985228 -0.0074191943132099255 0 0.0075506468461772006 -0.0073318966114843615 0 0.0073620480813204325 -0.0071568105639323604 0 0.0072742147445212738 -0.0071465457853205844 0 0.0072621140718985228 -0.0074191943132099255 0 0.0072902681515804877 -0.0070038408684224215 0 0.0072742147445212738 -0.0071465457853205844 0 0.0073109133030521264 -0.0070945748776849275 0 0.0072742147445212738 -0.0071465457853205844 0 0.0072679547882362446 -0.0072646538218993665 0 0.0073109133030521264 -0.0070945748776849275 0 0.0072742147445212738 -0.0071465457853205844 0 0.0072679547882362446 -0.0072646538218993665 0 0.0072621140718985228 -0.0074191943132099255 0 0.0072621140718985228 -0.0074191943132099255 0 0.0073182613765342148 -0.0077105794943729128 0 0.0075506468461772006 -0.0073318966114843615 0 0.0075138229786856298 -0.0069407361409803275 0 0.0073898537566212215 -0.0069837077406478569 0 0.0074115319270242723 -0.007034223208179969 0 0.0073898537566212215 -0.0069837077406478569 0 0.0073109133030521264 -0.0070945748776849275 0 0.0074115319270242723 -0.007034223208179969 0 0.0072902681515804877 -0.0070038408684224215 0 0.0073898537566212215 -0.0069837077406478569 0 0.0073109133030521264 -0.0070945748776849275 0 0.0073109133030521264 -0.0070945748776849275 0 0.0073289467039880599 -0.0071408792816633595 0 0.0074115319270242723 -0.007034223208179969 0 0.0072679547882362446 -0.0072646538218993665 0 0.0073109133030521264 -0.0070945748776849275 0 0.0073289467039880599 -0.0071408792816633595 0 0.0072679547882362446 -0.0072646538218993665 0 0.0073289467039880599 -0.0071408792816633595 0 0.0072932643613364562 -0.0072058220227908159 0 0.0073289467039880599 -0.0071408792816633595 0 0.0074115319270242723 -0.007034223208179969 0 0.0073926623102004464 -0.0070785298497461294 0 0.0074895357251308428 -0.0069862528602381482 0 0.0074115319270242723 -0.007034223208179969 0 0.0073926623102004464 -0.0070785298497461294 0 0.0073926623102004464 -0.0070785298497461294 0 0.007357061149929213 -0.0071094805546608212 0 0.0072932643613364562 -0.0072058220227908159 0 0.0074630439994113331 -0.0070140013825610963 0 0.0073926623102004464 -0.0070785298497461294 0 0.0074018454621449731 -0.0070598159940543611 0 0.0073926623102004464 -0.0070785298497461294 0 0.007357061149929213 -0.0071094805546608212 0 0.0074018454621449731 -0.0070598159940543611 0 0.0040793565986483107 -0.022269498453137915 0 0.004100233060830411 -0.021847630614392884 0 0.0049555109069411999 -0.023041092488013511 0 0.0035950634352138224 -0.014173514829871449 0 0.0039377311013554352 -0.0080601060756140055 0 0.0074114498052900686 -0.0070245084394220678 0 0.007357061149929213 -0.0071094805546608212 0 0.0074018454621449731 -0.0070598159940543611 0 0.0074114498052900686 -0.0070245084394220678 0 0.007357061149929213 -0.0071094805546608212 0 0.007284929788968335 -0.007174891402709169 0 0.0035950634352138224 -0.014173514829871449 0 0.002420777194806083 -0.017941370329117402 0 0.00071998383772998629 -0.010113888399545981 0 0.0020860448134174658 -0.011047033561890863 0 0.0008326189749667378 -0.012198436576531175 0 -0.0018688560650619102 -0.010626667807939392 0 0.00071998383772998629 -0.010113888399545981 0 0.0008326189749667378 -0.012198436576531175 0 0.0073289467039880599 -0.0071408792816633595 0 0.0073926623102004464 -0.0070785298497461294 0 0.0072932643613364562 -0.0072058220227908159 0 0.007357061149929213 -0.0071094805546608212 0 0.007284929788968335 -0.007174891402709169 0 0.0072932643613364562 -0.0072058220227908159 0 0.007284929788968335 -0.007174891402709169 0 0.0072932643613364562 -0.0072058220227908159 0 0.0072106618170555076 -0.0075480433831911706 0 0.0072679547882362446 -0.0072646538218993665 0 0.0072932643613364562 -0.0072058220227908159 0 0.0072106618170555076 -0.0075480433831911706 0 0.0072679547882362446 -0.0072646538218993665 0 0.0072621140718985228 -0.0074191943132099255 0 0.0072106618170555076 -0.0075480433831911706 0 0.0072621140718985228 -0.0074191943132099255 0 0.0072106618170555076 -0.0075480433831911706 0 0.0073182613765342148 -0.0077105794943729128 0 0.0055595944240494043 -0.0084806791576267342 0 0.0073505368030039138 -0.0082581499957885586 0 0.0072106618170555076 -0.0075480433831911706 0 0.0073182613765342148 -0.0077105794943729128 0 0.0074242485555730663 -0.0083068950667383179 0 0.0037090973565635419 -0.009263530758467144 0 0.0052950583552717869 -0.010817698797960424 0 0.0074242485555730663 -0.0083068950667383179 0 0.0037090973565635419 -0.009263530758467144 0 0.0052950583552717869 -0.010817698797960424 0 0.0033000726437752074 -0.011262221012606434 0 0.0039377311013554352 -0.0080601060756140055 0 0.0055595944240494043 -0.0084806791576267342 0 0.00071998383772998629 -0.010113888399545981 0 0.0037090973565635419 -0.009263530758467144 0 0.0020860448134174658 -0.011047033561890863 0 0.0037090973565635419 -0.009263530758467144 0 0.0033000726437752074 -0.011262221012606434 0 0.0020860448134174658 -0.011047033561890863 0 0.0053409833509726855 -0.019501588877751923 0 0.002420777194806083 -0.017941370329117402 0 0.0065226380595578047 -0.025418636012687915 0 0.0049555109069411999 -0.023041092488013511 0 0.0052708853157064335 -0.023958916430923564 0 0.0020860448134174658 -0.011047033561890863 0 0.0028756402571218386 -0.012277212784718508 0 0.0008326189749667378 -0.012198436576531175 0 0.0028756402571218386 -0.012277212784718508 0 0.004033913950481755 -0.014333704752411433 0 0.0008326189749667378 -0.012198436576531175 0 0.0033000726437752074 -0.011262221012606434 0 0.0028756402571218386 -0.012277212784718508 0 0.0041959957525987699 -0.012602639559197439 0 0.0033000726437752074 -0.011262221012606434 0 0.0020860448134174658 -0.011047033561890863 0 0.0028756402571218386 -0.012277212784718508 0 0.0052950583552717869 -0.010817698797960424 0 0.0041959957525987699 -0.012602639559197439 0 0.0055345072814926202 -0.012700404925278692 0 0.0052950583552717869 -0.010817698797960424 0 0.0033000726437752074 -0.011262221012606434 0 0.0041959957525987699 -0.012602639559197439 0 0.0028756402571218386 -0.012277212784718508 0 0.0041959957525987699 -0.012602639559197439 0 0.004033913950481755 -0.014333704752411433 0 0.0041959957525987699 -0.012602639559197439 0 0.0055345072814926202 -0.012700404925278692 0 0.005489579682504052 -0.014134845166955439 0 0.0083999478717828157 -0.026945901343786077 0 0.0065226380595578047 -0.025418636012687915 0 0.0067820475619132497 -0.026103071944437062 0 0.0041959957525987699 -0.012602639559197439 0 0.005489579682504052 -0.014134845166955439 0 0.004033913950481755 -0.014333704752411433 0 0.0065226380595578047 -0.025418636012687915 0 0.0067820475619132497 -0.026103071944437062 0 0.0058522709825501017 -0.025053702000511515 0 0.0067482999415636544 -0.026062805425517116 0 0.0060484635414859355 -0.025733060091458339 0 0.0065226380595578047 -0.025418636012687915 0 0.0058522709825501017 -0.025053702000511515 0 0.0052708853157064335 -0.023958916430923564 0 0.0058522709825501017 -0.025053702000511515 0 0.0048164474817621126 -0.024126430979625788 0 0.0052708853157064335 -0.023958916430923564 0 0.0060484635414859355 -0.025733060091458339 0 0.0050382107282283461 -0.024053262328627575 0 0.0058948839655170813 -0.026423683582424983 0 0.0053563775547568688 -0.027066988465804312 0 0.0051923152568476363 -0.026397338531161215 0 0.0067820475619132497 -0.026103071944437062 0 0.0058948839655170813 -0.026423683582424983 0 0.0061072588858646828 -0.026791053483159889 0 0.0058948839655170813 -0.026423683582424983 0 0.0061072588858646828 -0.026791053483159889 0 0.0053563775547568688 -0.027066988465804312 0 0.0053563775547568688 -0.027066988465804312 0 0.0051923152568476363 -0.026397338531161215 0 0.0041652651280565086 -0.027315658223213902 0 0.0049713781023203087 -0.022537559766596861 0 0.0055283554402771303 -0.02225479214930046 0 0.0055272174248237578 -0.022693180120794104 0 0.0050382107282283461 -0.024053262328627575 0 0.00497970840655634 -0.024788710476358659 0 0.0040793565986483107 -0.022269498453137915 0 0.0041323466682956648 -0.02268209005159777 0 0.0049555109069411999 -0.023041092488013511 0 0.0050382107282283461 -0.024053262328627575 0 0.0047830456955927246 -0.022600962434536024 0 0.0049670235226672724 -0.023767763095263426 0 0.0041323466682956648 -0.02268209005159777 0 0.0049555109069411999 -0.023041092488013511 0 0.0049670235226672724 -0.023767763095263426 0 0.0049555109069411999 -0.023041092488013511 0 0.0052708853157064335 -0.023958916430923564 0 0.0050382107282283461 -0.024053262328627575 0 0.0051625631199929368 -0.023979007186901453 0 0.013284503527788488 -0.013267572059476934 0 0.0094358421010281024 -0.012147171345550966 0 0.011156912874802137 -0.010651702177092987 0 0.013284503527788488 -0.013267572059476934 0 0.010288748956695942 -0.01488749270429628 0 0.0094358421010281024 -0.012147171345550966 0 0.01335832924470802 -0.015010854681328479 0 0.010105362451127432 -0.017601814786903348 0 0.017550411863511469 -0.011760121848484441 0 0.016801653076877868 -0.015988256646596873 0 0.013018937682216094 -0.016915373967528978 0 0.0173166682842236 -0.011910599194425848 0 0.01335832924470802 -0.015010854681328479 0 0.016801653076877868 -0.015988256646596873 0 0.016412231655287879 -0.01860440891924672 0 0.013018937682216094 -0.016915373967528978 0 0.016412231655287879 -0.01860440891924672 0 0.013018937682216094 -0.016915373967528978 0 0.012951738818895209 -0.021127159515463657 0 0.015397555561644868 -0.023578840752885612 0 0.016412231655287879 -0.01860440891924672 0 0.012951738818895209 -0.021127159515463657 0 0.015397555561644868 -0.023578840752885612 0 0.011389505912169464 -0.02393198291016475 0 0.012951738818895209 -0.021127159515463657 0 0.013018937682216094 -0.016915373967528978 0 0.012951738818895209 -0.021127159515463657 0 0.0096267388552884157 -0.021071878380333416 0 0.011389505912169464 -0.02393198291016475 0 0.012951738818895209 -0.021127159515463657 0 0.0096267388552884157 -0.021071878380333416 0 0.0078078404805310316 -0.023698364618623763 0 0.010105362451127432 -0.017601814786903348 0 0.0077189611260190831 -0.01665150202485589 0 0.010288748956695942 -0.01488749270429628 0 0.0080156829844626326 -0.01505127960285357 0 0.010288748956695942 -0.01488749270429628 0 0.0080156829844626326 -0.01505127960285357 0 0.0078998183622846305 -0.013740719105298444 0 0.0077189611260190831 -0.01665150202485589 0 0.005489579682504052 -0.014134845166955439 0 0.004033913950481755 -0.014333704752411433 0 0.0078078404805310316 -0.023698364618623763 0 0.0053409833509726855 -0.019501588877751923 0 0.0077189611260190831 -0.01665150202485589 0 0.005489579682504052 -0.014134845166955439 0 0.0068316349514466581 -0.014661922553394924 0 0.0077189611260190831 -0.01665150202485589 0 0.0080156829844626326 -0.01505127960285357 0 0.0068316349514466581 -0.014661922553394924 0 0.0068316349514466581 -0.014661922553394924 0 0.0065307539462442022 -0.013489772293985562 0 0.0078998183622846305 -0.013740719105298444 0 0.0080156829844626326 -0.01505127960285357 0 0.0068316349514466581 -0.014661922553394924 0 0.0078998183622846305 -0.013740719105298444 0 0.005489579682504052 -0.014134845166955439 0 0.0068316349514466581 -0.014661922553394924 0 0.0065307539462442022 -0.013489772293985562 0 0.0055345072814926202 -0.012700404925278692 0 0.005489579682504052 -0.014134845166955439 0 0.0065307539462442022 -0.013489772293985562 0 0.0055345072814926202 -0.012700404925278692 0 0.0065307539462442022 -0.013489772293985562 0 0.0069497826182452916 -0.012214887368143119 0 0.0065307539462442022 -0.013489772293985562 0 0.0069497826182452916 -0.012214887368143119 0 0.0078998183622846305 -0.013740719105298444 0 0.0052950583552717869 -0.010817698797960424 0 0.0055345072814926202 -0.012700404925278692 0 0.0069497826182452916 -0.012214887368143119 0 0.0069497826182452916 -0.012214887368143119 0 0.0094358421010281024 -0.012147171345550966 0 0.0075672375722090424 -0.010329499073327097 0 0.0069497826182452916 -0.012214887368143119 0 0.0094358421010281024 -0.012147171345550966 0 0.0078998183622846305 -0.013740719105298444 0 0.010288748956695942 -0.01488749270429628 0 0.0094358421010281024 -0.012147171345550966 0 0.0078998183622846305 -0.013740719105298444 0 0.0094358421010281024 -0.012147171345550966 0 0.0087916347781989233 -0.0089082737118820806 0 0.0075672375722090424 -0.010329499073327097 0 0.0094358421010281024 -0.012147171345550966 0 0.0087916347781989233 -0.0089082737118820806 0 0.011156912874802137 -0.010651702177092987 0 0.0087916347781989233 -0.0089082737118820806 0 0.0075672375722090424 -0.010329499073327097 0 0.0074242485555730663 -0.0083068950667383179 0 0.0052950583552717869 -0.010817698797960424 0 0.0069497826182452916 -0.012214887368143119 0 0.0075672375722090424 -0.010329499073327097 0 0.0052950583552717869 -0.010817698797960424 0 0.0075672375722090424 -0.010329499073327097 0 0.0074242485555730663 -0.0083068950667383179 0 0.0073182613765342148 -0.0077105794943729128 0 0.0074242485555730663 -0.0083068950667383179 0 0.0080995389967134044 -0.0077368600022837295 0 0.0087916347781989233 -0.0089082737118820806 0 0.0074242485555730663 -0.0083068950667383179 0 0.0080995389967134044 -0.0077368600022837295 0 0.0087916347781989233 -0.0089082737118820806 0 0.0086532377540109572 -0.008160214867021098 0 0.0080995389967134044 -0.0077368600022837295 0 0.0086532377540109572 -0.008160214867021098 0 0.0087036977594293873 -0.0081268414206840424 0 0.008699011272152557 -0.007751704456304697 0 0.0087916347781989233 -0.0089082737118820806 0 0.0086532377540109572 -0.008160214867021098 0 0.0087036977594293873 -0.0081268414206840424 0 0.013284503527788488 -0.013267572059476934 0 0.011156912874802137 -0.010651702177092987 0 0.014557599711247156 -0.010394923042514928 0 0.0087916347781989233 -0.0089082737118820806 0 0.011156912874802137 -0.010651702177092987 0 0.012592148384897545 -0.0088654752942957677 0 0.0084444014121634013 -0.0088340831226569883 0 0.011840278308797232 -0.0084502610629543767 0 0.011156912874802137 -0.010651702177092987 0 0.012592148384897545 -0.0088654752942957677 0 0.014557599711247156 -0.010394923042514928 0 0.017550411863511469 -0.011760121848484441 0 0.013284503527788488 -0.013267572059476934 0 0.014557599711247156 -0.010394923042514928 0 0.0063709998539320627 -0.0085414364470280946 0 0.011840278308797232 -0.0084502610629543767 0 0.016940547756968877 -0.0084324461191889778 0 0.012592148384897545 -0.0088654752942957677 0 0.014557599711247156 -0.010394923042514928 0 0.017550411863511469 -0.011760121848484441 0 0.016940547756968877 -0.0084324461191889778 0 0.014557599711247156 -0.010394923042514928 0 0.0086041841486144566 -0.0079030704448195491 0 0.0087036977594293873 -0.0081268414206840424 0 0.008699011272152557 -0.007751704456304697 0 0.0063709998539320627 -0.0085414364470280946 0 0.0019838087837913093 -0.0060463494055378354 0 -0.0039603296379755589 -0.0045881830664698028 0 -0.0039426744143572423 -0.0055856967920297328 0 -0.0030675445890636201 -0.0055988725902321361 0 -0.0039426744143572423 -0.0055856967920297328 0 -0.0030675445890636201 -0.0055988725902321361 0 -0.0033696250167090267 -0.0062455934787659919 0 0.0086532377540109572 -0.008160214867021098 0 0.008699011272152557 -0.007751704456304697 0 0.0080995389967134044 -0.0077368600022837295 0 -0.0033696250167090267 -0.0062455934787659919 0 -0.0022848454511340166 -0.0063196573379435753 0 -0.0032750302918958304 -0.006909705255210865 0 -0.0030675445890636201 -0.0055988725902321361 0 -0.0033696250167090267 -0.0062455934787659919 0 -0.0022848454511340166 -0.0063196573379435753 0 0.0019838087837913093 -0.0060463494055378354 0 0.0030546684292356774 -0.0068698209471091702 0 -0.0045529255634155982 -0.0063037371067825214 0 -0.0033696250167090267 -0.0062455934787659919 0 -0.0032750302918958304 -0.006909705255210865 0 -0.0045529255634155982 -0.0063037371067825214 0 -0.0039426744143572423 -0.0055856967920297328 0 -0.0033696250167090267 -0.0062455934787659919 0 0.0073182613765342148 -0.0077105794943729128 0 0.0080995389967134044 -0.0077368600022837295 0 0.0075506468461772006 -0.0073318966114843615 0 0.008699011272152557 -0.007751704456304697 0 0.0080995389967134044 -0.0077368600022837295 0 0.0080239967412903748 -0.0070713947996246893 0 0.0080995389967134044 -0.0077368600022837295 0 0.0080239967412903748 -0.0070713947996246893 0 0.0075506468461772006 -0.0073318966114843615 0 0.0080239967412903748 -0.0070713947996246893 0 0.0075506468461772006 -0.0073318966114843615 0 0.0075095220534641838 -0.007064472538243223 0 0.0073620480813204325 -0.0071568105639323604 0 0.0075506468461772006 -0.0073318966114843615 0 0.0075095220534641838 -0.007064472538243223 0 0.0080239967412903748 -0.0070713947996246893 0 0.0075095220534641838 -0.007064472538243223 0 0.0074737160104318317 -0.0068654486487252225 0 0.007288556641250582 -0.0069877438853627695 0 0.0075095220534641838 -0.007064472538243223 0 0.0074737160104318317 -0.0068654486487252225 0 -0.0022848454511340166 -0.0063196573379435753 0 -0.0022878457020592824 -0.0068186807778191768 0 -0.0014893720284104722 -0.0068011819330216512 0 0.0030546684292356774 -0.0068698209471091702 0 0.0029853689705583272 -0.006812603524486897 0 -0.0022878457020592824 -0.0068186807778191768 0 -0.0014893720284104722 -0.0068011819330216512 0 -0.0025033734446372803 -0.007292966988721639 0 -0.0014893720284104722 -0.0068011819330216512 0 -0.0025033734446372803 -0.007292966988721639 0 -0.0013215060139567815 -0.0073332038615640987 0 -0.0045130711261579361 -0.0063013724633348206 0 -0.0037356333600784943 -0.0068992692556198547 0 -0.0022848454511340166 -0.0063196573379435753 0 -0.0022878457020592824 -0.0068186807778191768 0 -0.0032750302918958304 -0.006909705255210865 0 -0.0022878457020592824 -0.0068186807778191768 0 -0.0032750302918958304 -0.006909705255210865 0 -0.0025033734446372803 -0.007292966988721639 0 -0.0037356333600784943 -0.0068992692556198547 0 -0.0028678692933785483 -0.00735132661244266 0 -0.0052075209510565575 -0.0073286870845913751 0 -0.0041496473457443422 -0.00696058652185112 0 -0.0045695000429050057 -0.0076293465457058108 0 -0.0041496473457443422 -0.00696058652185112 0 -0.0033136793309924595 -0.0073551277976678774 0 -0.0045695000429050057 -0.0076293465457058108 0 -0.0045695000429050057 -0.0076293465457058108 0 -0.0041831800065069234 -0.0080611764523944359 0 -0.0049626600544164868 -0.0082008670894940672 0 -0.0041831800065069234 -0.0080611764523944359 0 -0.004702260108634981 -0.0084830797091257019 0 -0.0049626600544164868 -0.0082008670894940672 0 -0.0033136793309924595 -0.0073551277976678774 0 -0.0045695000429050057 -0.0076293465457058108 0 -0.0041831800065069234 -0.0080611764523944359 0 -0.0033136793309924595 -0.0073551277976678774 0 -0.0041831800065069234 -0.0080611764523944359 0 -0.0033823894563927395 -0.0081945159775295914 0 -0.0033823894563927395 -0.0081945159775295914 0 -0.0025996206485507855 -0.0088211011176997766 0 -0.0034956007166961831 -0.0089435597525040749 0 -0.0041831800065069234 -0.0080611764523944359 0 -0.0033823894563927395 -0.0081945159775295914 0 -0.004111080422037507 -0.0085911037031831325 0 -0.0033823894563927395 -0.0081945159775295914 0 -0.004111080422037507 -0.0085911037031831325 0 -0.0034956007166961831 -0.0089435597525040749 0 -0.004111080422037507 -0.0085911037031831325 0 -0.004702260108634981 -0.0084830797091257019 0 -0.0048629256217850303 -0.0087682162290471273 0 -0.0041831800065069234 -0.0080611764523944359 0 -0.004111080422037507 -0.0085911037031831325 0 -0.004702260108634981 -0.0084830797091257019 0 -0.0014893720284104722 -0.0068011819330216512 0 -0.0013215060139567815 -0.0073332038615640987 0 -0.00026322323410548547 -0.00732272677213547 0 -0.0013215060139567815 -0.0073332038615640987 0 -0.0018516980062461381 -0.0079171800181815633 0 -0.001056414515428944 -0.007921920430315978 0 -0.0025033734446372803 -0.007292966988721639 0 -0.0013215060139567815 -0.0073332038615640987 0 -0.0018516980062461381 -0.0079171800181815633 0 -0.0033136793309924595 -0.0073551277976678774 0 -0.0033823894563927395 -0.0081945159775295914 0 -0.0018516980062461381 -0.0079171800181815633 0 -0.0028678692933785483 -0.00735132661244266 0 -0.0019262775498596293 -0.0079367394889557318 0 -0.0033823894563927395 -0.0081945159775295914 0 -0.0018516980062461381 -0.0079171800181815633 0 -0.0025996206485507855 -0.0088211011176997766 0 -0.0018516980062461381 -0.0079171800181815633 0 -0.0014813058453886578 -0.0086788355525779185 0 -0.0025996206485507855 -0.0088211011176997766 0 -0.001056414515428944 -0.007921920430315978 0 -0.0014813058453886578 -0.0086788355525779185 0 -0.00037662643041464823 -0.0085079740220093455 0 -0.0018516980062461381 -0.0079171800181815633 0 -0.001056414515428944 -0.007921920430315978 0 -0.0014813058453886578 -0.0086788355525779185 0 -0.0014813058453886578 -0.0086788355525779185 0 -0.0022273409636770279 -0.0095695995515810532 0 -0.00096877320846719839 -0.0095582968032880376 0 -0.0014813058453886578 -0.0086788355525779185 0 -0.00096877320846719839 -0.0095582968032880376 0 -0.00037662643041464823 -0.0085079740220093455 0 -0.0014813058453886578 -0.0086788355525779185 0 -0.0022273409636770279 -0.0095695995515810532 0 -0.0025996206485507855 -0.0088211011176997766 0 -0.0022273409636770279 -0.0095695995515810532 0 -0.0025996206485507855 -0.0088211011176997766 0 -0.0029295216631164724 -0.0094391184139359565 0 -0.0022273409636770279 -0.0095695995515810532 0 -0.0022301760918614238 -0.010572216314384609 0 -0.0014803298756740726 -0.010530072910357794 0 -0.0022273409636770279 -0.0095695995515810532 0 -0.0027044409494107633 -0.010124745014864359 0 -0.0022301760918614238 -0.010572216314384609 0 -0.0022273409636770279 -0.0095695995515810532 0 -0.0027044409494107633 -0.010124745014864359 0 -0.0029295216631164724 -0.0094391184139359565 0 -0.00096877320846719839 -0.0095582968032880376 0 -0.0011484390732041906 -0.010417050838342021 0 -0.00020887052264399405 -0.010583221230509879 0 -0.0021714357667645249 -0.0095856306325296081 0 -0.0013252925681177148 -0.010548248916631767 0 -0.0022273409636770279 -0.0095695995515810532 0 -0.00096877320846719839 -0.0095582968032880376 0 -0.0011484390732041906 -0.010417050838342021 0 -0.0048629256217850303 -0.0087682162290471273 0 -0.0051122583129688945 -0.0088787803143990165 0 -0.0053027386401029676 -0.0088249360495841513 0 -0.0048721730307005363 -0.0088262998261513948 0 -0.0047450124470889959 -0.0094363166322862947 0 -0.0040532465768326614 -0.0091717409164784637 0 -0.0048629256217850303 -0.0087682162290471273 0 -0.0043206992535755927 -0.010076606465174493 0 -0.0040532465768326614 -0.0091717409164784637 0 -0.0035385182700360782 -0.0096590577858494137 0 -0.0043206992535755927 -0.010076606465174493 0 -0.004111080422037507 -0.0085911037031831325 0 -0.0040532465768326614 -0.0091717409164784637 0 -0.0048629256217850303 -0.0087682162290471273 0 -0.004111080422037507 -0.0085911037031831325 0 -0.0040532465768326614 -0.0091717409164784637 0 -0.0034956007166961831 -0.0089435597525040749 0 -0.0025996206485507855 -0.0088211011176997766 0 -0.0034956007166961831 -0.0089435597525040749 0 -0.0029295216631164724 -0.0094391184139359565 0 -0.0034956007166961831 -0.0089435597525040749 0 -0.0029295216631164724 -0.0094391184139359565 0 -0.0035385182700360782 -0.0096590577858494137 0 -0.0040532465768326614 -0.0091717409164784637 0 -0.0034956007166961831 -0.0089435597525040749 0 -0.0035385182700360782 -0.0096590577858494137 0 -0.0036234427844722967 -0.010323940301435804 0 -0.0043206992535755927 -0.010076606465174493 0 -0.0038389917992733766 -0.011333708714224407 0 -0.0027044409494107633 -0.010124745014864359 0 -0.0036234427844722967 -0.010323940301435804 0 -0.0038389917992733766 -0.011333708714224407 0 -0.0035385182700360782 -0.0096590577858494137 0 -0.0036234427844722967 -0.010323940301435804 0 -0.0043206992535755927 -0.010076606465174493 0 -0.0027044409494107633 -0.010124745014864359 0 -0.0029295216631164724 -0.0094391184139359565 0 -0.0035385182700360782 -0.0096590577858494137 0 -0.0027044409494107633 -0.010124745014864359 0 -0.0035385182700360782 -0.0096590577858494137 0 -0.0036234427844722967 -0.010323940301435804 0 -0.0051122583129688945 -0.0088787803143990165 0 -0.0053027386401029676 -0.0088249360495841513 0 -0.0053424336391324516 -0.0090575295227438048 0 -0.0047450124470889959 -0.0094363166322862947 0 -0.0038344519707653561 -0.01021057589606475 0 -0.0052801871348640284 -0.0094640539767303824 0 -0.0050017298806583422 -0.0091845858453739639 0 -0.0053424336391324516 -0.0090575295227438048 0 -0.0051122583129688945 -0.0088787803143990165 0 -0.0050017298806583422 -0.0091845858453739639 0 -0.0053424336391324516 -0.0090575295227438048 0 -0.0036799585072009996 -0.0090210047044989115 0 -0.0034415244909803571 -0.0089994041412371599 0 -0.0035036342213498124 -0.0088488669911687516 0 -0.0044835024721063526 -0.00829534731734736 0 -0.0021246922822363355 -0.0085258101503164953 0 -0.0030705952380365355 -0.0056507910772710286 0 -0.0018615980923837407 -0.0055250356699551107 0 -0.0021260082086030623 -0.0066229961130688676 0 -0.0044835024721063526 -0.00829534731734736 0 -0.0038344519707653561 -0.01021057589606475 0 -0.0021246922822363355 -0.0085258101503164953 0 -0.0038344519707653561 -0.01021057589606475 0 -0.0027044409494107633 -0.010124745014864359 0 -0.0035230373055046204 -0.011031023945264964 0 -0.0026977717170093896 -0.010978950093452729 0 -0.0032834474089616099 -0.011657212995324986 0 -0.0035230373055046204 -0.011031023945264964 0 -0.0026977717170093896 -0.010978950093452729 0 -0.0028202495974353407 -0.010470969331622414 0 -0.0038344519707653561 -0.01021057589606475 0 -0.0027044409494107633 -0.010124745014864359 0 -0.0022301760918614238 -0.010572216314384609 0 -0.0026977717170093896 -0.010978950093452729 0 -0.0022301760918614238 -0.010572216314384609 0 -0.0026977717170093896 -0.010978950093452729 0 -0.0020146243516382402 -0.011547390086822838 0 -0.0022301760918614238 -0.010572216314384609 0 -0.0014803298756740726 -0.010530072910357794 0 -0.0020146243516382402 -0.011547390086822838 0 -0.0014803298756740726 -0.010530072910357794 0 -0.0020146243516382402 -0.011547390086822838 0 -0.00071254794557254952 -0.011404536959153671 0 -0.00029366475579542599 -0.0088116622868785934 0 -0.00029865332387080042 -0.008784727453366354 0 -0.00030428254408300062 -0.0087664112400644093 0 -0.0011703868944148068 -0.010259022526156418 0 -0.00014161569497755426 -0.010766579996015697 0 -0.00029366475579542599 -0.0088116622868785934 0 -0.00029865332387080042 -0.008784727453366354 0 -0.00027840640958127735 -0.0087586007300781404 0 -0.0032834474089616099 -0.011657212995324986 0 -0.0026977717170093896 -0.010978950093452729 0 -0.0020146243516382402 -0.011547390086822838 0 -0.0021246922822363355 -0.0085258101503164953 0 -0.0011703868944148068 -0.010259022526156418 0 -0.0002644297629207202 -0.0087500363278859676 0 -0.00029865332387080042 -0.008784727453366354 0 -0.00028327125716370242 -0.0087258921742793035 0 -0.00029865332387080042 -0.008784727453366354 0 -0.00028327125716370242 -0.0087258921742793035 0 -0.00027840640958127735 -0.0087586007300781404 0 -0.00031459348896706969 -0.0086783898391436746 0 -0.00028327125716370242 -0.0087258921742793035 0 -0.00023617777373916647 -0.0086480401670794953 0 -0.00028327125716370242 -0.0087258921742793035 0 -0.00027840640958127735 -0.0087586007300781404 0 -0.00023617777373916647 -0.0086480401670794953 0 -0.00029366475579542599 -0.0088116622868785934 0 -0.00027840640958127735 -0.0087586007300781404 0 -0.00026504847214268675 -0.0088189436089993415 0 -0.00027840640958127735 -0.0087586007300781404 0 -0.00023617777373916647 -0.0086480401670794953 0 -0.00026504847214268675 -0.0088189436089993415 0 -0.00023617777373916647 -0.0086480401670794953 0 5.344803756833212e-05 -0.0087256547450480695 0 -0.00052237775751260134 -0.0088569349396963228 0 -0.00023617777373916647 -0.0086480401670794953 0 5.344803756833212e-05 -0.0087256547450480695 0 0.0005940902128213709 -0.0084454075089940538 0 -0.00067571345972258789 -0.007668843812386552 0 -0.00052116198734047567 -0.0089088664127591945 0 -0.00031459348896706969 -0.0086783898391436746 0 -0.00023617777373916647 -0.0086480401670794953 0 -0.00052237775751260134 -0.0088569349396963228 0 -0.0012074223327964088 -0.0071289401480055395 0 -0.0019660198788779577 -0.0079602955439060132 0 -0.0021260082086030623 -0.0066229961130688676 0 -0.0012074223327964088 -0.0071289401480055395 0 -0.0019660198788779577 -0.0079602955439060132 0 -0.00052237775751260134 -0.0088569349396963228 0 -0.0019660198788779577 -0.0079602955439060132 0 -0.0028378848943410905 -0.0071603668691777233 0 -0.0021260082086030623 -0.0066229961130688676 0 -0.0028378848943410905 -0.0071603668691777233 0 -0.0028786529479294374 -0.0085700166710162857 0 -0.0038911935606321113 -0.0078482047158597631 0 -0.0019660198788779577 -0.0079602955439060132 0 -0.0028378848943410905 -0.0071603668691777233 0 -0.0028786529479294374 -0.0085700166710162857 0 -0.0030705952380365355 -0.0056507910772710286 0 -0.0028378848943410905 -0.0071603668691777233 0 -0.0021260082086030623 -0.0066229961130688676 0 -0.0018615980923837407 -0.0055250356699551107 0 -0.0012074223327964088 -0.0071289401480055395 0 -0.0021260082086030623 -0.0066229961130688676 0 -0.0021246922822363355 -0.0085258101503164953 0 -0.00067571345972258789 -0.007668843812386552 0 -0.0002644297629207202 -0.0087500363278859676 0 -0.00031459348896706969 -0.0086783898391436746 0 -0.00028327125716370242 -0.0087258921742793035 0 0.0013730450334872414 -0.010915501185150904 0 0.0015969487994128555 -0.01096720820621359 0 0.0014182117947015452 -0.011055968749366195 0 0.0019663303527996572 -0.01218718128574592 0 0.0039729917936277013 -0.011144286657673384 0 0.0013730450334872414 -0.010915501185150904 0 0.0012676066803449951 -0.010894220511811298 0 0.0015969487994128555 -0.01096720820621359 0 0.0013730450334872414 -0.010915501185150904 0 0.0014182117947015452 -0.011055968749366195 0 0.0011548832374420148 -0.010724418068183583 0 0.0013730450334872414 -0.010915501185150904 0 0.0012413556673785693 -0.010861614930775429 0 0.0011548832374420148 -0.010724418068183583 0 0.0012413556673785693 -0.010861614930775429 0 0.0012676066803449951 -0.010894220511811298 0 0.0012906115293065418 -0.010998284661333754 0 0.0013730450334872414 -0.010915501185150904 0 0.0012413556673785693 -0.010861614930775429 0 0.0012676066803449951 -0.010894220511811298 0 0.0025858009157984471 -0.0130500277493241 0 0.0045893192648908338 -0.015036010930827058 0 0.0040294375927461875 -0.012677647884247897 0 0.0054218816513646904 -0.013189764318605527 0 0.0045893192648908338 -0.015036010930827058 0 0.0040294375927461875 -0.012677647884247897 0 0.0042459735479859102 -0.0084675244586374307 0 0.0039824050647901824 -0.0088744039943855543 0 0.0043173676519305867 -0.0091963400112162232 0 0.0042459735479859102 -0.0084675244586374307 0 0.0047148245264197596 -0.0092166969245277338 0 0.0043173676519305867 -0.0091963400112162232 0 0.0042459735479859102 -0.0084675244586374307 0 0.0039824050647901824 -0.0088744039943855543 0 0.0035252936029892732 -0.0084629082089656051 0 0.0039729917936277013 -0.011144286657673384 0 0.0023171537997194293 -0.0097332800209455842 0 0.0039824050647901824 -0.0088744039943855543 0 0.0035252936029892732 -0.0084629082089656051 0 0.0036211158252603347 -0.0089015039486027205 0 0.0036211158252603347 -0.0089015039486027205 0 0.0033476138828561525 -0.0087401407308127579 0 0.003346611273450986 -0.0091153922654027032 0 0.0035252936029892732 -0.0084629082089656051 0 0.0036211158252603347 -0.0089015039486027205 0 0.0033476138828561525 -0.0087401407308127579 0 0.0035252936029892732 -0.0084629082089656051 0 0.0033476138828561525 -0.0087401407308127579 0 0.0028063551670980797 -0.0084604867987862417 0 0.0030976340126617728 -0.0088876220790549947 0 0.0028063551670980797 -0.0084604867987862417 0 0.0028145470073201854 -0.0091962603671245768 0 0.0023171537997194293 -0.0097332800209455842 0 0.00087430677350484908 -0.009071065423894617 0 0.0033476138828561525 -0.0087401407308127579 0 0.0030976340126617728 -0.0088876220790549947 0 0.003346611273450986 -0.0091153922654027032 0 0.0033476138828561525 -0.0087401407308127579 0 0.0030976340126617728 -0.0088876220790549947 0 0.0028063551670980797 -0.0084604867987862417 0 0.0005940902128213709 -0.0084454075089940538 0 0.00045132290434279465 -0.0086997646123352576 0 0.00061837791926950137 -0.0090236638867842132 0 0.00087430677350484908 -0.009071065423894617 0 0.0013848804256067183 -0.0087243637267137956 0 -0.00051419308930533009 -0.0085252916292214258 0 0.00087430677350484908 -0.009071065423894617 0 5.344803756833212e-05 -0.0087256547450480695 0 0.0005940902128213709 -0.0084454075089940538 0 0.00045132290434279465 -0.0086997646123352576 0 5.344803756833212e-05 -0.0087256547450480695 0 0.00045132290434279465 -0.0086997646123352576 0 0.00032962996534337144 -0.008947845054393019 0 -0.00029344070737052913 -0.0088344543227829118 0 -0.00022980074758810923 -0.0089216006408860751 0 -0.00017218654480844923 -0.0090018204216187787 0 -0.00023617777373916647 -0.0086480401670794953 0 -0.00029344070737052913 -0.0088344543227829118 0 -0.00026504847214268675 -0.0088189436089993415 0 -0.00029344070737052913 -0.0088344543227829118 0 -0.00024538739989775544 -0.0088943987220393445 0 -0.00026504847214268675 -0.0088189436089993415 0 -0.00029344070737052913 -0.0088344543227829118 0 -0.00022980074758810923 -0.0089216006408860751 0 -0.00024538739989775544 -0.0088943987220393445 0 -0.00022980074758810923 -0.0089216006408860751 0 -0.00017218654480844923 -0.0090018204216187787 0 -0.00023515640050414188 -0.0089261231026461184 0 -0.00022980074758810923 -0.0089216006408860751 0 -0.00024538739989775544 -0.0088943987220393445 0 -0.00023515640050414188 -0.0089261231026461184 0 -0.00029366475579542599 -0.0088116622868785934 0 -0.00026504847214268675 -0.0088189436089993415 0 -0.00027323127199042169 -0.0088641618365325921 0 -0.00024538739989775544 -0.0088943987220393445 0 -0.00026504847214268675 -0.0088189436089993415 0 -0.00027323127199042169 -0.0088641618365325921 0 0.00087430677350484908 -0.009071065423894617 0 -0.00027453984971399027 -0.0094185200965008434 0 0.0014182117947015452 -0.011055968749366195 0 -0.00020080047281671067 -0.011144855124195878 0 0.0011548832374420148 -0.010724418068183583 0 -0.00020080047281671067 -0.011144855124195878 0 0.00016490265195205845 -0.009969315049758936 0 -0.00017218654480844923 -0.0090018204216187787 0 -0.00020080047281671067 -0.011144855124195878 0 0.0011548832374420148 -0.010724418068183583 0 0.00016490265195205845 -0.009969315049758936 0 0.00016490265195205845 -0.009969315049758936 0 -2.5028104319450554e-05 -0.0090460386316563723 0 -0.00017218654480844923 -0.0090018204216187787 0 0.0011548832374420148 -0.010724418068183583 0 0.00016490265195205845 -0.009969315049758936 0 -2.5028104319450554e-05 -0.0090460386316563723 0 0.0011040175394092457 -0.010637820993057533 0 0.00062708718439629025 -0.010104025693380253 0 0.0011548832374420148 -0.010724418068183583 0 0.0012906115293065418 -0.010998284661333754 0 0.0014167652072400363 -0.011174193241131848 0 0.0012413556673785693 -0.010861614930775429 0 0.0011548832374420148 -0.010724418068183583 0 0.0012906115293065418 -0.010998284661333754 0 0.0012676066803449951 -0.010894220511811298 0 0.0012906115293065418 -0.010998284661333754 0 0.0014164914878846773 -0.011267235417834353 0 0.0014164914878846773 -0.011267235417834353 0 0.00086607102036589782 -0.011166295200798117 0 0.0019244874299744086 -0.011194513565784594 0 0.0014164914878846773 -0.011267235417834353 0 0.0019244874299744086 -0.011194513565784594 0 0.0026241119669667247 -0.01179447824680353 0 0.0019663303527996572 -0.01218718128574592 0 0.0014348629943639569 -0.011308382296304265 0 0.0012906115293065418 -0.010998284661333754 0 0.0014167652072400363 -0.011174193241131848 0 0.0014164914878846773 -0.011267235417834353 0 0.0014167652072400363 -0.011174193241131848 0 0.0014164914878846773 -0.011267235417834353 0 0.00086607102036589782 -0.011166295200798117 0 -0.00027323127199042169 -0.0088641618365325921 0 -0.00023515640050414188 -0.0089261231026461184 0 -0.00030428254408300062 -0.0087664112400644093 0 -0.00029366475579542599 -0.0088116622868785934 0 -0.00027323127199042169 -0.0088641618365325921 0 -0.00030428254408300062 -0.0087664112400644093 0 -2.5028104319450554e-05 -0.0090460386316563723 0 -0.00017218654480844923 -0.0090018204216187787 0 -0.00030428254408300062 -0.0087664112400644093 0 -0.00017218654480844923 -0.0090018204216187787 0 -0.00023515640050414188 -0.0089261231026461184 0 -0.00030428254408300062 -0.0087664112400644093 0 -0.00024538739989775544 -0.0088943987220393445 0 -0.00027323127199042169 -0.0088641618365325921 0 -0.00023515640050414188 -0.0089261231026461184 0 0.00062708718439629025 -0.010104025693380253 0 -0.00014161569497755426 -0.010766579996015697 0 -0.0013252925681177148 -0.010548248916631767 0 -0.00014161569497755426 -0.010766579996015697 0 -0.0011484390732041906 -0.010417050838342021 0 -0.00010319229578246415 -0.011549713935879285 0 -0.00020887052264399405 -0.010583221230509879 0 -0.00010319229578246415 -0.011549713935879285 0 -0.00020887052264399405 -0.010583221230509879 0 0.00074578533070980709 -0.010534411179911623 0 0.0019244874299744086 -0.011194513565784594 0 0.00074578533070980709 -0.010534411179911623 0 0.0018383905537816402 -0.0098658865122314404 0 -0.00014161569497755426 -0.010766579996015697 0 0.0020060300886539824 -0.011305102904670749 0 -0.00010319229578246415 -0.011549713935879285 0 0.0019244874299744086 -0.011194513565784594 0 0.00074578533070980709 -0.010534411179911623 0 0.0019244874299744086 -0.011194513565784594 0 0.0029759912230758879 -0.010800528618017764 0 0.0018383905537816402 -0.0098658865122314404 0 0.0019244874299744086 -0.011194513565784594 0 0.0029759912230758879 -0.010800528618017764 0 0.0026241119669667247 -0.01179447824680353 0 0.0025858009157984471 -0.0130500277493241 0 0.0014164914878846773 -0.011267235417834353 0 0.0026241119669667247 -0.01179447824680353 0 0.0029759912230758879 -0.010800528618017764 0 0.0026241119669667247 -0.01179447824680353 0 0.0038594876201256531 -0.011515327125567234 0 0.0026241119669667247 -0.01179447824680353 0 0.0040294375927461875 -0.012677647884247897 0 0.0038594876201256531 -0.011515327125567234 0 0.0025858009157984471 -0.0130500277493241 0 0.0026241119669667247 -0.01179447824680353 0 0.0040294375927461875 -0.012677647884247897 0 0.0054218816513646904 -0.013189764318605527 0 0.0040294375927461875 -0.012677647884247897 0 0.0052800709860532551 -0.011756641577273595 0 0.0040294375927461875 -0.012677647884247897 0 0.0038594876201256531 -0.011515327125567234 0 0.0052800709860532551 -0.011756641577273595 0 0.0038594876201256531 -0.011515327125567234 0 0.0052800709860532551 -0.011756641577273595 0 0.0043364642386892853 -0.010630676626747064 0 0.0048981030928990374 -0.0085254049511632683 0 0.0063970983621985979 -0.010361466861445921 0 0.0052800709860532551 -0.011756641577273595 0 0.0043364642386892853 -0.010630676626747064 0 0.0063731736488114197 -0.010360342003026997 0 0.0029759912230758879 -0.010800528618017764 0 0.0043364642386892853 -0.010630676626747064 0 0.0033560582626812568 -0.0091144448122840119 0 0.0043364642386892853 -0.010630676626747064 0 0.0033560582626812568 -0.0091144448122840119 0 0.0063731736488114197 -0.010360342003026997 0 0.0029759912230758879 -0.010800528618017764 0 0.0038594876201256531 -0.011515327125567234 0 0.0043364642386892853 -0.010630676626747064 0 0.0062508459930391141 -0.007674695165168258 0 0.006892806058929779 -0.0079587685000025773 0 0.0063731736488114197 -0.010360342003026997 0 0.0033560582626812568 -0.0091144448122840119 0 0.0018383905537816402 -0.0098658865122314404 0 0.0013950455393961032 -0.0081601553791365647 0 0.0029759912230758879 -0.010800528618017764 0 0.0033560582626812568 -0.0091144448122840119 0 0.0018383905537816402 -0.0098658865122314404 0 0.0048981030928990374 -0.0085254049511632683 0 0.0039621336532939923 -0.0075153496967726606 0 0.0062508459930391141 -0.007674695165168258 0 0.0068281584478442287 -0.0069301229324305455 0 0.0064722855325063415 -0.0067921707518068869 0 0.0062508459930391141 -0.007674695165168258 0 0.0068281584478442287 -0.0069301229324305455 0 0.006892806058929779 -0.0079587685000025773 0 -0.00096877320846719839 -0.0095582968032880376 0 -0.00020887052264399405 -0.010583221230509879 0 0.00034661613080189634 -0.0095831213078126573 0 -0.00020887052264399405 -0.010583221230509879 0 0.00074578533070980709 -0.010534411179911623 0 0.00034661613080189634 -0.0095831213078126573 0 0.0018383905537816402 -0.0098658865122314404 0 0.00034661613080189634 -0.0095831213078126573 0 0.0013950455393961032 -0.0081601553791365647 0 0.00074578533070980709 -0.010534411179911623 0 0.0018383905537816402 -0.0098658865122314404 0 0.00034661613080189634 -0.0095831213078126573 0 0.00034661613080189634 -0.0095831213078126573 0 -0.00037662643041464823 -0.0085079740220093455 0 0.0013950455393961032 -0.0081601553791365647 0 -0.00096877320846719839 -0.0095582968032880376 0 0.00034661613080189634 -0.0095831213078126573 0 -0.00037662643041464823 -0.0085079740220093455 0 -0.001056414515428944 -0.007921920430315978 0 -0.00037662643041464823 -0.0085079740220093455 0 -0.00026322323410548547 -0.00732272677213547 0 0.0039621336532939923 -0.0075153496967726606 0 0.0033897064049312384 -0.007059866989635886 0 -0.00037662643041464823 -0.0085079740220093455 0 0.0013950455393961032 -0.0081601553791365647 0 -0.00026322323410548547 -0.00732272677213547 0 0.0071389722083035345 -0.0068367671430694501 0 0.0069611221780449027 -0.0066964493581260186 0 0.0066634008082416853 -0.0066873834642436729 0 0.0064722855325063415 -0.0067921707518068869 0 0.0069611221780449027 -0.0066964493581260186 0 0.0066634008082416853 -0.0066873834642436729 0 -0.0013215060139567815 -0.0073332038615640987 0 -0.001056414515428944 -0.007921920430315978 0 -0.00026322323410548547 -0.00732272677213547 0 0.0068281584478442287 -0.0069301229324305455 0 0.0067092224966550269 -0.0067180161366391178 0 0.0069890489740407277 -0.0065000751383518527 0 0.0064722855325063415 -0.0067921707518068869 0 0.0067092224966550269 -0.0067180161366391178 0 0.0066634008082416853 -0.0066873834642436729 0 0.0068281584478442287 -0.0069301229324305455 0 0.0064722855325063415 -0.0067921707518068869 0 0.0067092224966550269 -0.0067180161366391178 0 0.0067092224966550269 -0.0067180161366391178 0 0.0066634008082416853 -0.0066873834642436729 0 0.0069890489740407277 -0.0065000751383518527 0 0.0070159422937521561 -0.0068297968574123 0 0.0072414212296028693 -0.0067378736811225257 0 0.0069890489740407277 -0.0065000751383518527 0 0.0074907887514882058 -0.0067872421448574452 0 0.0076489687182430483 -0.0067400704174491472 0 0.0072414212296028693 -0.0067378736811225257 0 0.0075996686146052577 -0.0067394144599648015 0 0.0075481992610647395 -0.0068996878640863223 0 0.0074914648908454085 -0.0069520878287998586 0 0.0076489687182430483 -0.0067400704174491472 0 0.0068281584478442287 -0.0069301229324305455 0 0.0069890489740407277 -0.0065000751383518527 0 0.0074907887514882058 -0.0067872421448574452 0 0.0074907887514882058 -0.0067872421448574452 0 0.0076489687182430483 -0.0067400704174491472 0 0.0078554847495535297 -0.0067488127011436612 0 0.0076489687182430483 -0.0067400704174491472 0 0.0077873433116450027 -0.0067986729492150334 0 0.0078554847495535297 -0.0067488127011436612 0 0.0076639137996391809 -0.0068176422583594723 0 0.0076489687182430483 -0.0067400704174491472 0 0.0077873433116450027 -0.0067986729492150334 0 0.0078223459108589261 -0.0067697601287029178 0 0.0077873433116450027 -0.0067986729492150334 0 0.0078919345738214224 -0.0068289959724781198 0 0.0084784782822792584 -0.0058793936126865067 0 0.00834389203662869 -0.0055663930982830512 0 0.0077873433116450027 -0.0067986729492150334 0 0.0078919345738214224 -0.0068289959724781198 0 0.0077802367799970013 -0.0067312465920229703 0 0.0077873433116450027 -0.0067986729492150334 0 0.0077802367799970013 -0.0067312465920229703 0 0.0078554847495535297 -0.0067488127011436612 0 0.0079699136470573993 -0.0065154356904950222 0 0.0078513486544559297 -0.0065927290280890843 0 0.0078554847495535297 -0.0067488127011436612 0 0.0079699136470573993 -0.0065154356904950222 0 0.0077802367799970013 -0.0067312465920229703 0 0.0078554847495535297 -0.0067488127011436612 0 0.00834389203662869 -0.0055663930982830512 0 0.008196905318083151 -0.0060248795740010519 0 0.0079699136470573993 -0.0065154356904950222 0 0.0077802367799970013 -0.0067312465920229703 0 0.0082006679535214268 -0.0060424718170383005 0 0.0088722323796593065 -0.0042889996778263774 0 0.0082006679535214268 -0.0060424718170383005 0 0.0096475396335654121 -0.0051335940291799796 0 0.0079699136470573993 -0.0065154356904950222 0 0.0082006679535214268 -0.0060424718170383005 0 0.0078513486544559297 -0.0065927290280890843 0 0.0082006679535214268 -0.0060424718170383005 0 0.0078513486544559297 -0.0065927290280890843 0 0.0078353663749075077 -0.0065644295376757643 0 0.0078513486544559297 -0.0065927290280890843 0 0.0076934065027461024 -0.0070405203135286264 0 0.0077287482442780359 -0.0065967093131843249 0 0.0078513486544559297 -0.0065927290280890843 0 0.0077287482442780359 -0.0065967093131843249 0 0.0078353663749075077 -0.0065644295376757643 0 0.006892806058929779 -0.0079587685000025773 0 0.0076934065027461024 -0.0070405203135286264 0 0.0076158986377159506 -0.0092900257965609859 0 0.0076919423872286122 -0.0071045106197480234 0 0.0076379312781812677 -0.0079149961021323899 0 0.0068281584478442287 -0.0069301229324305455 0 0.0074907887514882058 -0.0067872421448574452 0 0.0076934065027461024 -0.0070405203135286264 0 0.0068281584478442287 -0.0069301229324305455 0 0.006892806058929779 -0.0079587685000025773 0 0.0076934065027461024 -0.0070405203135286264 0 0.0078513486544559297 -0.0065927290280890843 0 0.0076934065027461024 -0.0070405203135286264 0 0.0078554847495535297 -0.0067488127011436612 0 0.0074907887514882058 -0.0067872421448574452 0 0.0076934065027461024 -0.0070405203135286264 0 0.0078554847495535297 -0.0067488127011436612 0 0.014021073587334218 -0.0020170377122282236 0 0.013605530014402364 -0.002828771845634659 0 0.014331575521795157 -0.002383755870203431 0 0.013605530014402364 -0.002828771845634659 0 0.014331575521795157 -0.002383755870203431 0 0.014166418094115894 -0.0030162666456368717 0 0.014021073587334218 -0.0020170377122282236 0 0.014358161875498352 -0.0017399776981817138 0 0.014331575521795157 -0.002383755870203431 0 0.014054710174695529 -0.0015388040620300744 0 0.014021073587334218 -0.0020170377122282236 0 0.014358161875498352 -0.0017399776981817138 0 0.011938105706206955 -0.0031740088904633227 0 0.012488787304170454 -0.0020256485094728507 0 0.014054710174695529 -0.0015388040620300744 0 0.014021073587334218 -0.0020170377122282236 0 0.01373889460947123 -0.0019077591906867381 0 0.012488787304170454 -0.0020256485094728507 0 0.012689815696220939 -0.0035180530887957916 0 0.014021073587334218 -0.0020170377122282236 0 0.01373889460947123 -0.0019077591906867381 0 0.013605530014402364 -0.002828771845634659 0 0.01123075997147205 -0.0027370265977632526 0 0.010553584384400138 -0.0036116482201478768 0 0.011723201354281924 -0.0040436161336404389 0 0.010553584384400138 -0.0036116482201478768 0 0.010053980888614878 -0.0025789723571286432 0 0.0092343643823847455 -0.0041180999692612182 0 0.0087641050911522952 -0.0040714676578177365 0 0.0092448243435525462 -0.0039927371784914938 0 0.010553584384400138 -0.0036116482201478768 0 0.0092343643823847455 -0.0041180999692612182 0 0.010254523844759715 -0.0044900819368088119 0 0.010713099244221152 -0.0013080242288075622 0 0.01123075997147205 -0.0027370265977632526 0 0.010053980888614878 -0.0025789723571286432 0 0.01123075997147205 -0.0027370265977632526 0 0.010553584384400138 -0.0036116482201478768 0 0.010053980888614878 -0.0025789723571286432 0 0.0091493384241568259 -0.0049453104854575982 0 0.0080870979191083204 -0.0049795417137117551 0 0.0092343643823847455 -0.0041180999692612182 0 0.0081344338907131004 -0.005794871043448546 0 0.0091493384241568259 -0.0049453104854575982 0 0.0080870979191083204 -0.0049795417137117551 0 0.0091493384241568259 -0.0049453104854575982 0 0.0088722323796593065 -0.0042889996778263774 0 0.0092343643823847455 -0.0041180999692612182 0 0.0088722323796593065 -0.0042889996778263774 0 0.0092343643823847455 -0.0041180999692612182 0 0.0096475396335654121 -0.0051335940291799796 0 0.0092343643823847455 -0.0041180999692612182 0 0.0096475396335654121 -0.0051335940291799796 0 0.010254523844759715 -0.0044900819368088119 0 0.0082006679535214268 -0.0060424718170383005 0 0.0096475396335654121 -0.0051335940291799796 0 0.0095598141022772802 -0.0062594602100328346 0 0.0096475396335654121 -0.0051335940291799796 0 0.010254523844759715 -0.0044900819368088119 0 0.010926525267110469 -0.0050454057435363369 0 0.0096475396335654121 -0.0051335940291799796 0 0.010926525267110469 -0.0050454057435363369 0 0.010468990116767302 -0.0058137569430965035 0 0.010254523844759715 -0.0044900819368088119 0 0.011723201354281924 -0.0040436161336404389 0 0.010926525267110469 -0.0050454057435363369 0 0.010553584384400138 -0.0036116482201478768 0 0.010254523844759715 -0.0044900819368088119 0 0.011723201354281924 -0.0040436161336404389 0 0.011723201354281924 -0.0040436161336404389 0 0.010926525267110469 -0.0050454057435363369 0 0.012329521755992412 -0.0049178367724974749 0 0.012689815696220939 -0.0035180530887957916 0 0.012916304005922254 -0.0044931888398548588 0 0.013605530014402364 -0.002828771845634659 0 0.013417014987369722 -0.0039384075351122675 0 0.014166418094115894 -0.0030162666456368717 0 0.011737044026273699 -0.0059080377855178041 0 0.012991904964170973 -0.0066303537542395435 0 0.013333927601240688 -0.0056381866884630382 0 0.012329521755992412 -0.0049178367724974749 0 0.011737044026273699 -0.0059080377855178041 0 0.013333927601240688 -0.0056381866884630382 0 0.012916304005922254 -0.0044931888398548588 0 0.013321700126677979 -0.0056300481661704822 0 0.010926525267110469 -0.0050454057435363369 0 0.012329521755992412 -0.0049178367724974749 0 0.011737044026273699 -0.0059080377855178041 0 0.010926525267110469 -0.0050454057435363369 0 0.011737044026273699 -0.0059080377855178041 0 0.010468990116767302 -0.0058137569430965035 0 0.011737044026273699 -0.0059080377855178041 0 0.011856876056834446 -0.0070004325394748684 0 0.012991904964170973 -0.0066303537542395435 0 0.011737044026273699 -0.0059080377855178041 0 0.010304277281629864 -0.0066805554805853947 0 0.011856876056834446 -0.0070004325394748684 0 0.010304277281629864 -0.0066805554805853947 0 0.010468990116767302 -0.0058137569430965035 0 0.0095598141022772802 -0.0062594602100328346 0 0.011737044026273699 -0.0059080377855178041 0 0.010304277281629864 -0.0066805554805853947 0 0.010468990116767302 -0.0058137569430965035 0 0.0096475396335654121 -0.0051335940291799796 0 0.010468990116767302 -0.0058137569430965035 0 0.0095598141022772802 -0.0062594602100328346 0 0.009468225753488678 -0.0063380773320367038 0 0.0089730937341403142 -0.0069518233812757325 0 0.010304277281629864 -0.0066805554805853947 0 0.0095598141022772802 -0.0062594602100328346 0 0.0090170896786796653 -0.0068287949897481723 0 0.010304277281629864 -0.0066805554805853947 0 0.0095989545523582336 -0.0075341683566159693 0 0.0090170896786796653 -0.0068287949897481723 0 0.0095989545523582336 -0.0075341683566159693 0 0.010336692758337327 -0.0086779755745493969 0 0.0094631793617119611 -0.0086689463591874648 0 0.0095989545523582336 -0.0075341683566159693 0 0.0084581233884068862 -0.0087838955995947852 0 0.0094631793617119611 -0.0086689463591874648 0 0.0095989545523582336 -0.0075341683566159693 0 0.010746735573623904 -0.0076584261378345843 0 0.010336692758337327 -0.0086779755745493969 0 0.010985275119491282 -0.0083966586747998527 0 0.010746735573623904 -0.0076584261378345843 0 0.010336692758337327 -0.0086779755745493969 0 0.010304277281629864 -0.0066805554805853947 0 0.010746735573623904 -0.0076584261378345843 0 0.011856876056834446 -0.0070004325394748684 0 0.010304277281629864 -0.0066805554805853947 0 0.0095989545523582336 -0.0075341683566159693 0 0.010746735573623904 -0.0076584261378345843 0 0.011856876056834446 -0.0070004325394748684 0 0.012454893445659195 -0.0075757617731973623 0 0.013163283940110114 -0.0073871832890179722 0 0.010746735573623904 -0.0076584261378345843 0 0.011856876056834446 -0.0070004325394748684 0 0.011726360467462289 -0.0082613738675730176 0 0.011916394079944654 -0.0069852863807936157 0 0.012053710644405285 -0.0079989191120226084 0 0.010985275119491282 -0.0083966586747998527 0 0.011726360467462289 -0.0082613738675730176 0 0.011134078121968547 -0.0090118405158637338 0 0.010985275119491282 -0.0083966586747998527 0 0.010746735573623904 -0.0076584261378345843 0 0.011726360467462289 -0.0082613738675730176 0 0.012454893445659195 -0.0075757617731973623 0 0.013163283940110114 -0.0073871832890179722 0 0.013190134928067393 -0.0078240774558855797 0 0.013163283940110114 -0.0073871832890179722 0 0.013662990820033175 -0.0076762270288980314 0 0.013190134928067393 -0.0078240774558855797 0 0.013163283940110114 -0.0073871832890179722 0 0.012991904964170973 -0.0066303537542395435 0 0.013767207586433666 -0.0071113539834725742 0 0.011856876056834446 -0.0070004325394748684 0 0.013163283940110114 -0.0073871832890179722 0 0.012991904964170973 -0.0066303537542395435 0 0.00778286443309722 -0.0067791980849165679 0 0.0075152994772691335 -0.0070390513651481038 0 0.0079438181660410057 -0.0072147191888464069 0 0.00778286443309722 -0.0067791980849165679 0 0.0075152994772691335 -0.0070390513651481038 0 0.0077287482442780359 -0.0065967093131843249 0 0.00778286443309722 -0.0067791980849165679 0 0.0080360574480362861 -0.0066974440815313705 0 0.0079438181660410057 -0.0072147191888464069 0 0.0054218816513646904 -0.013189764318605527 0 0.0052800709860532551 -0.011756641577273595 0 0.0073525325414685793 -0.012315636462694216 0 0.0052800709860532551 -0.011756641577273595 0 0.0073525325414685793 -0.012315636462694216 0 0.0063731736488114197 -0.010360342003026997 0 0.006892806058929779 -0.0079587685000025773 0 0.0063731736488114197 -0.010360342003026997 0 0.0076158986377159506 -0.0092900257965609859 0 0.0075398833928620986 -0.0098628903601069538 0 0.0076379312781812677 -0.0079149961021323899 0 0.0073525325414685793 -0.012315636462694216 0 0.0063731736488114197 -0.010360342003026997 0 0.0076158986377159506 -0.0092900257965609859 0 0.00778286443309722 -0.0067791980849165679 0 0.0077287482442780359 -0.0065967093131843249 0 0.0078353663749075077 -0.0065644295376757643 0 0.00778286443309722 -0.0067791980849165679 0 0.0078353663749075077 -0.0065644295376757643 0 0.0080360574480362861 -0.0066974440815313705 0 0.0082006679535214268 -0.0060424718170383005 0 0.0080360574480362861 -0.0066974440815313705 0 0.0085661919504321574 -0.006541844615900053 0 0.0082006679535214268 -0.0060424718170383005 0 0.0078353663749075077 -0.0065644295376757643 0 0.0080360574480362861 -0.0066974440815313705 0 0.0082006679535214268 -0.0060424718170383005 0 0.0095598141022772802 -0.0062594602100328346 0 0.0085661919504321574 -0.006541844615900053 0 0.0095598141022772802 -0.0062594602100328346 0 0.0085661919504321574 -0.006541844615900053 0 0.0087244457004774009 -0.007217689412030992 0 0.0080360574480362861 -0.0066974440815313705 0 0.0085661919504321574 -0.006541844615900053 0 0.0087244457004774009 -0.007217689412030992 0 0.0080360574480362861 -0.0066974440815313705 0 0.0087244457004774009 -0.007217689412030992 0 0.0079438181660410057 -0.0072147191888464069 0 0.0087244457004774009 -0.007217689412030992 0 0.008295134698320503 -0.0077184320368728085 0 0.0079438181660410057 -0.0072147191888464069 0 0.0089730937341403142 -0.0069518233812757325 0 0.007832593787475698 -0.0077405992474235998 0 0.0095989545523582336 -0.0075341683566159693 0 0.0090170896786796653 -0.0068287949897481723 0 0.0084776795658361957 -0.0075229290542416618 0 0.0095989545523582336 -0.0075341683566159693 0 0.00747436648922637 -0.0083240769052793651 0 0.0084581233884068862 -0.0087838955995947852 0 0.0095989545523582336 -0.0075341683566159693 0 0.00747436648922637 -0.0083240769052793651 0 0.0069503036876944289 -0.0072396793234292588 0 0.0094514073818211339 -0.0074122968541726307 0 0.007832593787475698 -0.0077405992474235998 0 0.00747436648922637 -0.0083240769052793651 0 0.0069503036876944289 -0.0072396793234292588 0 0.0061042388367529244 -0.0083296878590949034 0 0.0071029765552242273 -0.0087945579626452445 0 0.0067033946687450399 -0.0093151265187681569 0 0.0063086627137789331 -0.0091992990681293921 0 0.007832593787475698 -0.0077405992474235998 0 0.0063393272497356459 -0.0089104420372336218 0 0.0063086627137789331 -0.0091992990681293921 0 0.0060094747741252091 -0.0088072781333730747 0 0.0060152229256833405 -0.0095562231383765749 0 0.0071029765552242273 -0.0087945579626452445 0 0.0063086627137789331 -0.0091992990681293921 0 0.0060094747741252091 -0.0088072781333730747 0 0.007832593787475698 -0.0077405992474235998 0 0.0062896255257464074 -0.010448584007236654 0 0.0075152994772691335 -0.0070390513651481038 0 0.0079438181660410057 -0.0072147191888464069 0 0.007465358551910114 -0.0077022225395926933 0 0.008295134698320503 -0.0077184320368728085 0 0.0079438181660410057 -0.0072147191888464069 0 0.007465358551910114 -0.0077022225395926933 0 0.0054218816513646904 -0.013189764318605527 0 0.0073525325414685793 -0.012315636462694216 0 0.0072832436588068589 -0.015066996513926815 0 0.0054218816513646904 -0.013189764318605527 0 0.0045893192648908338 -0.015036010930827058 0 0.0072832436588068589 -0.015066996513926815 0 0.0075398833928620986 -0.0098628903601069538 0 0.0062896255257464074 -0.010448584007236654 0 0.0062896255257464074 -0.010448584007236654 0 0.0052934952444680453 -0.0093852431049708147 0 0.0039729917936277013 -0.011144286657673384 0 0.0062896255257464074 -0.010448584007236654 0 0.0042459735479859102 -0.0084675244586374307 0 0.0047148245264197596 -0.0092166969245277338 0 0.0050565876435956988 -0.0091854444147103972 0 0.0039729917936277013 -0.011144286657673384 0 0.0052934952444680453 -0.0093852431049708147 0 0.0050085531291411325 -0.010264187818343529 0 0.0051292054421434577 -0.010258438753143924 0 0.0051302140516203409 -0.010355910600887457 0 0.0050565876435956988 -0.0091854444147103972 0 0.0047140203429460658 -0.0095164741044826643 0 0.0053545911600290643 -0.0094527468477936978 0 0.0047148245264197596 -0.0092166969245277338 0 0.0047140203429460658 -0.0095164741044826643 0 0.0043173676519305867 -0.0091963400112162232 0 0.0047148245264197596 -0.0092166969245277338 0 0.0050565876435956988 -0.0091854444147103972 0 0.0047140203429460658 -0.0095164741044826643 0 0.0047140203429460658 -0.0095164741044826643 0 0.0049664195754411597 -0.0099808825859670925 0 0.0053545911600290643 -0.0094527468477936978 0 0.0047140203429460658 -0.0095164741044826643 0 0.0049664195754411597 -0.0099808825859670925 0 0.0045022011536003442 -0.0099248892551280967 0 0.0049664195754411597 -0.0099808825859670925 0 0.0046061302590445193 -0.010386256380013127 0 0.0045022011536003442 -0.0099248892551280967 0 0.0055192442061411141 -0.010109127150052705 0 0.0058535510710232518 -0.0097058593393919441 0 0.0060854855309283775 -0.010092352808235864 0 0.0055192442061411141 -0.010109127150052705 0 0.0060854855309283775 -0.010092352808235864 0 0.0057958044802354754 -0.010566973417114529 0 0.004984916803318298 -0.0099589689236523633 0 0.0057056271600469961 -0.0094583994256721461 0 0.0049664195754411597 -0.0099808825859670925 0 0.0055192442061411141 -0.010109127150052705 0 0.005464299914822373 -0.0093695519456199559 0 0.0057396133145553273 -0.0095594826030060802 0 0.0057056271600469961 -0.0094583994256721461 0 0.0055192442061411141 -0.010109127150052705 0 0.0058535510710232518 -0.0097058593393919441 0 0.005464299914822373 -0.0093695519456199559 0 0.0058535510710232518 -0.0097058593393919441 0 0.0053798869818871501 -0.0092753356217701328 0 0.0060907541009809956 -0.0091543598436957703 0 0.0067033946687450399 -0.0093151265187681569 0 0.0063086627137789331 -0.0091992990681293921 0 0.0063051704153815856 -0.0098257896416605907 0 0.0063086627137789331 -0.0091992990681293921 0 0.0060152229256833405 -0.0095562231383765749 0 0.0063051704153815856 -0.0098257896416605907 0 0.0061042388367529244 -0.0083296878590949034 0 0.0053798869818871501 -0.0092753356217701328 0 0.0060907541009809956 -0.0091543598436957703 0 0.0052934952444680453 -0.0093852431049708147 0 0.0057056271600469961 -0.0094583994256721461 0 0.0063393272497356459 -0.0089104420372336218 0 0.0057056271600469961 -0.0094583994256721461 0 0.0061042388367529244 -0.0083296878590949034 0 0.0068615373681857978 -0.0091032276774319111 0 0.0060907541009809956 -0.0091543598436957703 0 0.00747436648922637 -0.0083240769052793651 0 0.0061042388367529244 -0.0083296878590949034 0 0.0068615373681857978 -0.0091032276774319111 0 0.0068615373681857978 -0.0091032276774319111 0 0.0063741919745267115 -0.0094999185506701323 0 0.0070396494403251438 -0.009691520525902806 0 0.0068615373681857978 -0.0091032276774319111 0 0.0060907541009809956 -0.0091543598436957703 0 0.0063741919745267115 -0.0094999185506701323 0 0.00747436648922637 -0.0083240769052793651 0 0.0084581233884068862 -0.0087838955995947852 0 0.0079656313917524924 -0.0094662715629238604 0 0.0068615373681857978 -0.0091032276774319111 0 0.0079656313917524924 -0.0094662715629238604 0 0.0070396494403251438 -0.009691520525902806 0 0.00747436648922637 -0.0083240769052793651 0 0.0068615373681857978 -0.0091032276774319111 0 0.0079656313917524924 -0.0094662715629238604 0 0.0084581233884068862 -0.0087838955995947852 0 0.0079656313917524924 -0.0094662715629238604 0 0.0090860204017875965 -0.0092090441674078614 0 0.0079656313917524924 -0.0094662715629238604 0 0.0075718143706445 -0.010184005991473163 0 0.0087765308622001718 -0.0096915821488986233 0 0.0079656313917524924 -0.0094662715629238604 0 0.0075718143706445 -0.010184005991473163 0 0.0070396494403251438 -0.009691520525902806 0 0.0075718143706445 -0.010184005991473163 0 0.0067648610904684553 -0.010168264121881803 0 0.0076812455036269116 -0.010584443615958424 0 0.0075718143706445 -0.010184005991473163 0 0.0076812455036269116 -0.010584443615958424 0 0.0082679726421187889 -0.010224069519564283 0 0.0058535510710232518 -0.0097058593393919441 0 0.0064850742208084657 -0.00982283830040615 0 0.0060854855309283775 -0.010092352808235864 0 0.0058535510710232518 -0.0097058593393919441 0 0.0060907541009809956 -0.0091543598436957703 0 0.0063741919745267115 -0.0094999185506701323 0 0.0058535510710232518 -0.0097058593393919441 0 0.0063741919745267115 -0.0094999185506701323 0 0.0064850742208084657 -0.00982283830040615 0 0.0064850742208084657 -0.00982283830040615 0 0.0070396494403251438 -0.009691520525902806 0 0.0067648610904684553 -0.010168264121881803 0 0.0063741919745267115 -0.0094999185506701323 0 0.0064850742208084657 -0.00982283830040615 0 0.0070396494403251438 -0.009691520525902806 0 0.0075718143706445 -0.010184005991473163 0 0.0070396494403251438 -0.009691520525902806 0 0.0067648610904684553 -0.010168264121881803 0 0.0067648610904684553 -0.010168264121881803 0 0.0060854855309283775 -0.010092352808235864 0 0.0057958044802354754 -0.010566973417114529 0 0.0064850742208084657 -0.00982283830040615 0 0.0067648610904684553 -0.010168264121881803 0 0.0060854855309283775 -0.010092352808235864 0 0.0057958044802354754 -0.010566973417114529 0 0.0059361448019301377 -0.01045121689917387 0 0.0058944348955855992 -0.010669322328062818 0 0.0058906934177927577 -0.010599896551361463 0 0.0068594591642809257 -0.010456656676096049 0 0.0067648610904684553 -0.010168264121881803 0 0.0057958044802354754 -0.010566973417114529 0 0.0076812455036269116 -0.010584443615958424 0 0.0060166536802173064 -0.010559497599335214 0 0.0059361448019301377 -0.01045121689917387 0 0.0058944348955855992 -0.010669322328062818 0 0.0060166536802173064 -0.010559497599335214 0 0.0058944348955855992 -0.010669322328062818 0 0.0060650746918408036 -0.010681115402782821 0 0.0060166536802173064 -0.010559497599335214 0 0.0059361448019301377 -0.01045121689917387 0 0.006157097063073309 -0.010477080269245371 0 0.0059361448019301377 -0.01045121689917387 0 0.0062341418184659343 -0.010365604837197579 0 0.006157097063073309 -0.010477080269245371 0 0.0060166536802173064 -0.010559497599335214 0 0.006157097063073309 -0.010477080269245371 0 0.0060650746918408036 -0.010681115402782821 0 0.0058944348955855992 -0.010669322328062818 0 0.0058382606384884067 -0.010853600298282202 0 0.0059899971590189885 -0.010794850184564601 0 0.0058944348955855992 -0.010669322328062818 0 0.0060650746918408036 -0.010681115402782821 0 0.0059899971590189885 -0.010794850184564601 0 0.0058944348955855992 -0.010669322328062818 0 0.0055654422080101719 -0.010835817692591744 0 0.0058382606384884067 -0.010853600298282202 0 0.0057958044802354754 -0.010566973417114529 0 0.0058944348955855992 -0.010669322328062818 0 0.0055654422080101719 -0.010835817692591744 0 0.0055654422080101719 -0.010835817692591744 0 0.0047617144761962398 -0.010977473189555947 0 0.0052171394430112839 -0.010522437596426716 0 0.0047617144761962398 -0.010977473189555947 0 0.0046061302590445193 -0.010386256380013127 0 0.0052171394430112839 -0.010522437596426716 0 0.0049664195754411597 -0.0099808825859670925 0 0.0046061302590445193 -0.010386256380013127 0 0.0052171394430112839 -0.010522437596426716 0 0.0049664195754411597 -0.0099808825859670925 0 0.0055192442061411141 -0.010109127150052705 0 0.0052171394430112839 -0.010522437596426716 0 0.0057958044802354754 -0.010566973417114529 0 0.0055654422080101719 -0.010835817692591744 0 0.0052171394430112839 -0.010522437596426716 0 0.0055192442061411141 -0.010109127150052705 0 0.0057958044802354754 -0.010566973417114529 0 0.0052171394430112839 -0.010522437596426716 0 0.0142092317481558 -0.0077338437168435747 0 0.014222385386626762 -0.0076893711591197265 0 0.014228234646387448 -0.0077349921763140584 0 0.014222385386626762 -0.0076893711591197265 0 0.014228234646387448 -0.0077349921763140584 0 0.014087497992372577 -0.0078266930215029219 0 0.0142092317481558 -0.0077338437168435747 0 0.014222385386626762 -0.0076893711591197265 0 0.014218847949718753 -0.0077693665277100889 0 0.014228234646387448 -0.0077349921763140584 0 0.014261074938390395 -0.007727442405733081 0 0.014087497992372577 -0.0078266930215029219 0 0.012429949058227965 -0.0084893063964013131 0 0.014447833849383928 -0.0077386710014276609 0 0.013190134928067393 -0.0078240774558855797 0 0.012538970295302255 -0.0084963622743091625 0 0.014087497992372577 -0.0078266930215029219 0 0.013662990820033175 -0.0076762270288980314 0 0.013190134928067393 -0.0078240774558855797 0 0.014087497992372577 -0.0078266930215029219 0 0.012454893445659195 -0.0075757617731973623 0 0.013190134928067393 -0.0078240774558855797 0 0.012538970295302255 -0.0084963622743091625 0 0.012053710644405285 -0.0079989191120226084 0 0.012429949058227965 -0.0084893063964013131 0 0.011726360467462289 -0.0082613738675730176 0 0.011769895552635259 -0.0096085781505872575 0 0.011134078121968547 -0.0090118405158637338 0 0.011769895552635259 -0.0096085781505872575 0 0.011134078121968547 -0.0090118405158637338 0 0.011458521739922995 -0.0096729910621288582 0 0.011134078121968547 -0.0090118405158637338 0 0.011458521739922995 -0.0096729910621288582 0 0.010994006319509633 -0.0094502978690206001 0 0.011133931628215242 -0.0092139922988797619 0 0.010884642097018298 -0.0082875050149233669 0 0.010983981639842263 -0.0082657438931261241 0 0.0142092317481558 -0.0077338437168435747 0 0.014212037309466647 -0.0077344239508557299 0 0.014183553648140999 -0.00775764973425169 0 0.011133931628215242 -0.0092139922988797619 0 0.010925000519898701 -0.0092741288813585395 0 0.010884642097018298 -0.0082875050149233669 0 0.012423788581025979 -0.008388994077795614 0 0.012221498656633774 -0.008403935740278843 0 0.0099236885129452296 -0.009178595327581026 0 0.0090468838016332029 -0.0095317448787219511 0 0.0072967996022400899 -0.0098374293756628619 0 0.006948522307086499 -0.010251214841880118 0 0.0073933310762605764 -0.010541269582970832 0 0.0099236885129452296 -0.009178595327581026 0 0.012423788581025979 -0.008388994077795614 0 0.012429949058227965 -0.0084893063964013131 0 0.01056167913351626 -0.0091196891044440769 0 0.011101176264508994 -0.0087315193135755285 0 0.011078615989994616 -0.0085786360853333712 0 0.011398481590730527 -0.008646116698944448 0 0.0099236885129452296 -0.009178595327581026 0 0.01056167913351626 -0.0091196891044440769 0 0.0142092317481558 -0.0077338437168435747 0 0.014228234646387448 -0.0077349921763140584 0 0.014212037309466647 -0.0077344239508557299 0 0.011394912760393028 -0.0085186663408606186 0 0.011078615989994616 -0.0085786360853333712 0 0.011398481590730527 -0.008646116698944448 0 0.014228234646387448 -0.0077349921763140584 0 0.014261074938390395 -0.007727442405733081 0 0.014259158212193987 -0.0077165692295295225 0 0.012429949058227965 -0.0084893063964013131 0 0.012423788581025979 -0.008388994077795614 0 0.013585057535202281 -0.0080229023158091169 0 0.012423788581025979 -0.008388994077795614 0 0.010125323017915334 -0.0098157008799611822 0 0.010108179122346642 -0.0096985129452250764 0 0.0088755614300649946 -0.009951724515851532 0 0.011458521739922995 -0.0096729910621288582 0 0.01052454717705948 -0.0095670766839029316 0 0.009704173456301193 -0.010051514843227943 0 0.01056167913351626 -0.0091196891044440769 0 0.0092960781541269449 -0.010036461130039108 0 0.0099236885129452296 -0.009178595327581026 0 0.0074418733752577102 -0.010264929105426115 0 0.0072967996022400899 -0.0098374293756628619 0 0.006948522307086499 -0.010251214841880118 0 0.0064551759108420238 -0.010126755754423646 0 0.010125323017915334 -0.0098157008799611822 0 0.0088755614300649946 -0.009951724515851532 0 0.0089381871176622083 -0.010178466669364158 0 0.006948522307086499 -0.010251214841880118 0 0.0064551759108420238 -0.010126755754423646 0 0.0066237852384698715 -0.010370928917854575 0 0.01052454717705948 -0.0095670766839029316 0 0.0099846352563741792 -0.0095226503958878734 0 0.009704173456301193 -0.010051514843227943 0 0.011458521739922995 -0.0096729910621288582 0 0.010994006319509633 -0.0094502978690206001 0 0.01052454717705948 -0.0095670766839029316 0 0.010994006319509633 -0.0094502978690206001 0 0.01052454717705948 -0.0095670766839029316 0 0.01065168384617767 -0.0091849493999743865 0 0.011134078121968547 -0.0090118405158637338 0 0.010994006319509633 -0.0094502978690206001 0 0.01065168384617767 -0.0091849493999743865 0 0.011134078121968547 -0.0090118405158637338 0 0.01065168384617767 -0.0091849493999743865 0 0.010336692758337327 -0.0086779755745493969 0 0.010985275119491282 -0.0083966586747998527 0 0.011134078121968547 -0.0090118405158637338 0 0.010336692758337327 -0.0086779755745493969 0 0.01065168384617767 -0.0091849493999743865 0 0.010336692758337327 -0.0086779755745493969 0 0.010258736784640709 -0.0092264098885456586 0 0.010336692758337327 -0.0086779755745493969 0 0.010258736784640709 -0.0092264098885456586 0 0.0097833153795720343 -0.0091723533153645186 0 0.010258736784640709 -0.0092264098885456586 0 0.0099846352563741792 -0.0095226503958878734 0 0.0097833153795720343 -0.0091723533153645186 0 0.01052454717705948 -0.0095670766839029316 0 0.01065168384617767 -0.0091849493999743865 0 0.010258736784640709 -0.0092264098885456586 0 0.01052454717705948 -0.0095670766839029316 0 0.010258736784640709 -0.0092264098885456586 0 0.0099846352563741792 -0.0095226503958878734 0 0.0099846352563741792 -0.0095226503958878734 0 0.0095592747370683868 -0.0095527804622660226 0 0.0097833153795720343 -0.0091723533153645186 0 0.0095592747370683868 -0.0095527804622660226 0 0.0097833153795720343 -0.0091723533153645186 0 0.0090860204017875965 -0.0092090441674078614 0 0.0097833153795720343 -0.0091723533153645186 0 0.0094631793617119611 -0.0086689463591874648 0 0.0090860204017875965 -0.0092090441674078614 0 0.010336692758337327 -0.0086779755745493969 0 0.0097833153795720343 -0.0091723533153645186 0 0.0094631793617119611 -0.0086689463591874648 0 0.0084581233884068862 -0.0087838955995947852 0 0.0094631793617119611 -0.0086689463591874648 0 0.0090860204017875965 -0.0092090441674078614 0 0.0079656313917524924 -0.0094662715629238604 0 0.0090860204017875965 -0.0092090441674078614 0 0.0087765308622001718 -0.0096915821488986233 0 0.0095592747370683868 -0.0095527804622660226 0 0.0090860204017875965 -0.0092090441674078614 0 0.0087765308622001718 -0.0096915821488986233 0 0.0059361448019301377 -0.01045121689917387 0 0.0064551759108420238 -0.010126755754423646 0 0.0062341418184659343 -0.010365604837197579 0 0.0075718143706445 -0.010184005991473163 0 0.0087765308622001718 -0.0096915821488986233 0 0.009704173456301193 -0.010051514843227943 0 0.0076994532773627024 -0.010182929659140225 0 0.0092960781541269449 -0.010036461130039108 0 0.0068594591642809257 -0.010456656676096049 0 0.0074418733752577102 -0.010264929105426115 0 0.0076812455036269116 -0.010584443615958424 0 0.0089381871176622083 -0.010178466669364158 0 0.0082679726421187889 -0.010224069519564283 0 0.0075718143706445 -0.010184005991473163 0 0.0088755614300649946 -0.009951724515851532 0 0.0082679726421187889 -0.010224069519564283 0 0.0095592747370683868 -0.0095527804622660226 0 0.0087765308622001718 -0.0096915821488986233 0 0.009704173456301193 -0.010051514843227943 0 0.0099846352563741792 -0.0095226503958878734 0 0.0095592747370683868 -0.0095527804622660226 0 0.009704173456301193 -0.010051514843227943 0 0.0064551759108420238 -0.010126755754423646 0 0.0064243852268293031 -0.010434795954598895 0 0.0066237852384698715 -0.010370928917854575 0 0.0088755614300649946 -0.009951724515851532 0 0.0089381871176622083 -0.010178466669364158 0 0.0082679726421187889 -0.010224069519564283 0 0.0064551759108420238 -0.010126755754423646 0 0.0062341418184659343 -0.010365604837197579 0 0.0064243852268293031 -0.010434795954598895 0 0.006274676299451977 -0.010649140286397588 0 0.0059402291891330243 -0.01077605380938975 0 0.0064243852268293031 -0.010434795954598895 0 0.0060650746918408036 -0.010681115402782821 0 0.0066759811882915118 -0.010669838809514007 0 0.006157097063073309 -0.010477080269245371 0 0.0064243852268293031 -0.010434795954598895 0 0.0060650746918408036 -0.010681115402782821 0 0.0062341418184659343 -0.010365604837197579 0 0.006157097063073309 -0.010477080269245371 0 0.0064243852268293031 -0.010434795954598895 0 0.0060793522667362395 -0.010718513614664481 0 0.0060697717714167992 -0.010773767656571585 0 0.0059899971590189885 -0.010794850184564601 0 0.0060650746918408036 -0.010681115402782821 0 0.0060793522667362395 -0.010718513614664481 0 0.0059899971590189885 -0.010794850184564601 0 0.0060650746918408036 -0.010681115402782821 0 0.0060793522667362395 -0.010718513614664481 0 0.0061106481544804638 -0.010655421294409944 0 0.0060793522667362395 -0.010718513614664481 0 0.0061344025142094256 -0.010722171908595398 0 0.0061106481544804638 -0.010655421294409944 0 0.0061344025142094256 -0.010722171908595398 0 0.0061106481544804638 -0.010655421294409944 0 0.0061698248174402682 -0.010674171097346724 0 0.0060793522667362395 -0.010718513614664481 0 0.0061344025142094256 -0.010722171908595398 0 0.0060697717714167992 -0.010773767656571585 0 0.0059402291891330243 -0.01077605380938975 0 0.0090468838016332029 -0.0095317448787219511 0 0.0061106481544804638 -0.010655421294409944 0 0.0062212354025514179 -0.010614035986891887 0 0.0061698248174402682 -0.010674171097346724 0 0.006948522307086499 -0.010251214841880118 0 0.0066759811882915118 -0.010669838809514007 0 0.0073933310762605764 -0.010541269582970832 0 0.0064243852268293031 -0.010434795954598895 0 0.0066759811882915118 -0.010669838809514007 0 0.0066237852384698715 -0.010370928917854575 0 0.006948522307086499 -0.010251214841880118 0 0.0066759811882915118 -0.010669838809514007 0 0.0066237852384698715 -0.010370928917854575 0 0.012221498656633774 -0.008403935740278843 0 0.010405674060303025 -0.0092057992686558118 0 0.0090468838016332029 -0.0095317448787219511 0 0.010405674060303025 -0.0092057992686558118 0 0.0062212354025514179 -0.010614035986891887 0 0.0061698248174402682 -0.010674171097346724 0 0.0062152541717825707 -0.010701575403129559 0 0.014743243631439305 -0.0074635708429545006 0 0.014734487708839526 -0.0074323872420807525 0 0.014733860868360281 -0.0074345573468597081 0 0.010508800244325421 -0.0096855581264307447 0 0.01060089490534509 -0.0096653751800987731 0 0.010474441468117362 -0.0088752969475350951 0 0.012221498656633774 -0.008403935740278843 0 0.0090468838016332029 -0.0095317448787219511 0 0.0061344025142094256 -0.010722171908595398 0 0.0061698248174402682 -0.010674171097346724 0 0.0062152541717825707 -0.010701575403129559 0 0.0061344025142094256 -0.010722171908595398 0 0.0062152541717825707 -0.010701575403129559 0 0.0061633443744226937 -0.010747031019609037 0 0.014734487708839526 -0.0074323872420807525 0 0.014706355749920812 -0.0074121728764751397 0 0.014733860868360281 -0.0074345573468597081 0 0.014734487708839526 -0.0074323872420807525 0 0.014706355749920812 -0.0074121728764751397 0 0.014721993366382314 -0.0073805701631203865 0 0.014743243631439305 -0.0074635708429545006 0 0.014733860868360281 -0.0074345573468597081 0 0.014746642187772064 -0.0074857291755081063 0 0.014733860868360281 -0.0074345573468597081 0 0.014746642187772064 -0.0074857291755081063 0 0.014753720928666501 -0.0073949595545973303 0 0.0142092317481558 -0.0077338437168435747 0 0.014183553648140999 -0.00775764973425169 0 0.014218847949718753 -0.0077693665277100889 0 0.012221498656633774 -0.008403935740278843 0 0.014898003123186137 -0.0075278206573042919 0 0.011630540062179059 -0.005186543015401065 0 0.014414124598440162 -0.0062494125280288118 0 0.014700782007623611 -0.0073122039565134125 0 0.014697184144494873 -0.0073708348638543367 0 0.014721993366382314 -0.0073805701631203865 0 0.014700782007623611 -0.0073122039565134125 0 0.014697184144494873 -0.0073708348638543367 0 0.014658369754751694 -0.0073721594908025727 0 0.014706355749920812 -0.0074121728764751397 0 0.014697184144494873 -0.0073708348638543367 0 0.014721993366382314 -0.0073805701631203865 0 0.014706355749920812 -0.0074121728764751397 0 0.014697184144494873 -0.0073708348638543367 0 0.014658369754751694 -0.0073721594908025727 0 0.010405674060303025 -0.0092057992686558118 0 0.012414565801816218 -0.0081409690377662394 0 0.0062152541717825707 -0.010701575403129559 0 0.0061726118733597081 -0.010784934758955868 0 0.0061633443744226937 -0.010747031019609037 0 0.010405674060303025 -0.0092057992686558118 0 0.0081303567678109034 -0.0099746295603392304 0 0.010252464490307813 -0.0099025496077179958 0 0.01000355465326854 -0.0083522044221125014 0 0.010184620178421538 -0.0082184639987735158 0 0.0097369897652676493 -0.0067242890666276865 0 0.01000355465326854 -0.0083522044221125014 0 0.010184620178421538 -0.0082184639987735158 0 0.0061726118733597081 -0.010784934758955868 0 0.0061633443744226937 -0.010747031019609037 0 0.0061372678285590374 -0.010768176917620253 0 0.0061726118733597081 -0.010784934758955868 0 0.006177218878754733 -0.010733519278278458 0 0.0061372678285590374 -0.010768176917620253 0 0.006177218878754733 -0.010733519278278458 0 0.0061285437583225386 -0.010772334446153341 0 0.0061372678285590374 -0.010768176917620253 0 0.0058068151239199341 -0.01200421383661544 0 0.0062331526805421283 -0.0066642137067013238 0 0.011630540062179059 -0.005186543015401065 0 0.012414565801816218 -0.0081409690377662394 0 0.006177218878754733 -0.010733519278278458 0 0.0061111659474331996 -0.010804643205850936 0 0.0061368069316480338 -0.010860431917750555 0 0.006177218878754733 -0.010733519278278458 0 0.0061244409049143649 -0.010596472549431553 0 0.0062900671486205654 -0.010446450166073568 0 0.0081303567678109034 -0.0099746295603392304 0 0.0081552508795891352 -0.0068460527232652073 0 0.006177218878754733 -0.010733519278278458 0 0.0061111659474331996 -0.010804643205850936 0 0.0061285437583225386 -0.010772334446153341 0 0.0061726118733597081 -0.010784934758955868 0 0.006177218878754733 -0.010733519278278458 0 0.0061244409049143649 -0.010596472549431553 0 0.0097369897652676493 -0.0067242890666276865 0 0.010184620178421538 -0.0082184639987735158 0 0.010107602964564071 -0.0064492303094570097 0 0.011630540062179059 -0.005186543015401065 0 0.0081552508795891352 -0.0068460527232652073 0 0.0061111659474331996 -0.010804643205850936 0 0.0060698575398368147 -0.010803560197836641 0 0.00606353545037535 -0.01084447801492411 0 0.0060698575398368147 -0.010803560197836641 0 0.0059866835254121951 -0.010844112773286533 0 0.00606353545037535 -0.01084447801492411 0 0.0061111659474331996 -0.010804643205850936 0 0.0060698575398368147 -0.010803560197836641 0 0.0061285437583225386 -0.010772334446153341 0 0.0060698575398368147 -0.010803560197836641 0 0.0061285437583225386 -0.010772334446153341 0 0.0061372678285590374 -0.010768176917620253 0 0.0061344025142094256 -0.010722171908595398 0 0.0061633443744226937 -0.010747031019609037 0 0.0061372678285590374 -0.010768176917620253 0 0.0061344025142094256 -0.010722171908595398 0 0.0061372678285590374 -0.010768176917620253 0 0.0060697717714167992 -0.010773767656571585 0 0.0060698575398368147 -0.010803560197836641 0 0.0061372678285590374 -0.010768176917620253 0 0.0060697717714167992 -0.010773767656571585 0 0.0060697717714167992 -0.010773767656571585 0 0.0059767003441177089 -0.010840479030805657 0 0.0059899971590189885 -0.010794850184564601 0 0.0060698575398368147 -0.010803560197836641 0 0.0060697717714167992 -0.010773767656571585 0 0.0059767003441177089 -0.010840479030805657 0 0.0060698575398368147 -0.010803560197836641 0 0.0059767003441177089 -0.010840479030805657 0 0.0059866835254121951 -0.010844112773286533 0 0.0059767003441177089 -0.010840479030805657 0 0.0059866835254121951 -0.010844112773286533 0 0.0058915181569994621 -0.01086145523965535 0 0.0059866835254121951 -0.010844112773286533 0 0.0060257256558509231 -0.010920309300736761 0 0.00606353545037535 -0.01084447801492411 0 0.0059866835254121951 -0.010844112773286533 0 0.0060257256558509231 -0.010920309300736761 0 0.0058915181569994621 -0.01086145523965535 0 0.0060257256558509231 -0.010920309300736761 0 0.0058915181569994621 -0.01086145523965535 0 0.0059065386791829948 -0.010991941762461353 0 0.004964085245072059 -0.00071614426963541593 0 0.0046738905938292982 -0.0016145529548599556 0 0.0057830123686616938 -0.00070520699257093982 0 0.0052248463057043559 -0.0062835837916398515 0 0.0055714279012262537 -0.0065035374242166629 0 0.0062331526805421283 -0.0066642137067013238 0 0.0055548119825511938 0.0058080342094211134 0 0.0093168681348518804 -0.0028724874971188903 0 0.0083307996482992266 -0.00015709502672758412 0 0.011001758944922115 0.0023086848656948466 0 0.004964085245072059 -0.00071614426963541593 0 0.0046738905938292982 -0.0016145529548599556 0 0.0041845914462477372 -0.00035916710355214117 0 0.0046738905938292982 -0.0016145529548599556 0 0.0034936091141906564 -0.0025369643250732358 0 0.0041845914462477372 -0.00035916710355214117 0 0.0052248463057043559 -0.0062835837916398515 0 0.0062331526805421283 -0.0066642137067013238 0 0.0060257256558509231 -0.010920309300736761 0 0.00606353545037535 -0.01084447801492411 0 0.0061368069316480338 -0.010860431917750555 0 0.0061111659474331996 -0.010804643205850936 0 0.00606353545037535 -0.01084447801492411 0 0.0061368069316480338 -0.010860431917750555 0 0.0081552508795891352 -0.0068460527232652073 0 0.0062331526805421283 -0.0066642137067013238 0 0.0081552508795891352 -0.0068460527232652073 0 0.0076288657162150199 -0.0025455257909337667 0 0.0074494699778368603 -0.0042643483206313056 0 0.0093168681348518804 -0.0028724874971188903 0 0.0073952102832531919 -0.0023736606408390035 0 0.0067557089513789574 -0.0047933965569511797 0 0.0074747140786993026 -0.0042646145605729838 0 0.0073952102832531919 -0.0023736606408390035 0 0.0093168681348518804 -0.0028724874971188903 0 0.0073952102832531919 -0.0023736606408390035 0 0.0083307996482992266 -0.00015709502672758412 0 0.0083307996482992266 -0.00015709502672758412 0 0.0079721350343752752 0.0017253323943698135 0 0.011001758944922115 0.0023086848656948466 0 0.010563680679159686 0.0010425004073099829 0 0.0087150086048334279 0.0091401799542589375 0 0.0083307996482992266 -0.00015709502672758412 0 0.0059584415972364167 0.00042329751086497348 0 0.0079721350343752752 0.0017253323943698135 0 0.0073952102832531919 -0.0023736606408390035 0 0.0083307996482992266 -0.00015709502672758412 0 0.0059584415972364167 0.00042329751086497348 0 0.011118895622458982 0.0055337280021948198 0 0.011120645604038918 0.0055398060233204979 0 0.011086965427201891 0.0055727494895426747 0 0.0095664447147576839 0.011881238752686154 0 0.0087150086048334279 0.0091401799542589375 0 0.011118895622458982 0.0055337280021948198 0 0.011120645604038918 0.0055398060233204979 0 0.011117734105128223 0.0054440243352682476 0 0.010563680679159686 0.0010425004073099829 0 0.0120495755573634 0.0018265261036331157 0 0.0067557089513789574 -0.0047933965569511797 0 0.0073952102832531919 -0.0023736606408390035 0 0.0059584415972364167 0.00042329751086497348 0 0.013880047522654107 -0.0032191938544513768 0 0.013605242661099758 -0.001443777664471047 0 0.012704712485360608 -0.0020436391922776793 0 0.013880047522654107 -0.0032191938544513768 0 0.012503509954202408 -0.0030652004998075852 0 0.012704712485360608 -0.0020436391922776793 0 0.011630540062179059 -0.005186543015401065 0 0.010563680679159686 0.0010425004073099829 0 0.0055474150645197298 -0.010577255455702671 0 0.0057543561701055655 -0.010817840018360636 0 0.005515365374763998 -0.010795432005416456 0 0.0055474150645197298 -0.010577255455702671 0 0.005515365374763998 -0.010795432005416456 0 0.0052880830011631024 -0.010661728373947337 0 0.0054574153872323991 -0.011072010788731004 0 0.0046408100984818108 -0.011210772896975117 0 0.0055474150645197298 -0.010577255455702671 0 0.0052880830011631024 -0.010661728373947337 0 0.004997089364178255 -0.01038892265280399 0 0.0054410627083867884 -0.011549863578439717 0 0.0044780085036878192 -0.011445594980423359 0 0.0044520648251388777 -0.01212758168155462 0 0.0047617144761962398 -0.010977473189555947 0 0.0054410627083867884 -0.011549863578439717 0 0.0044780085036878192 -0.011445594980423359 0 0.0055654422080101719 -0.010835817692591744 0 0.0047617144761962398 -0.010977473189555947 0 0.0054410627083867884 -0.011549863578439717 0 0.0055654422080101719 -0.010835817692591744 0 0.0054410627083867884 -0.011549863578439717 0 0.0058382606384884067 -0.010853600298282202 0 0.0054410627083867884 -0.011549863578439717 0 0.0058382606384884067 -0.010853600298282202 0 0.0058608199533383134 -0.010907546211513552 0 0.0059767003441177089 -0.010840479030805657 0 0.0059899971590189885 -0.010794850184564601 0 0.0058608199533383134 -0.010907546211513552 0 0.0058382606384884067 -0.010853600298282202 0 0.0059899971590189885 -0.010794850184564601 0 0.0058608199533383134 -0.010907546211513552 0 0.0058608199533383134 -0.010907546211513552 0 0.0057543561701055655 -0.010817840018360636 0 0.0058915181569994621 -0.01086145523965535 0 0.0059767003441177089 -0.010840479030805657 0 0.0058608199533383134 -0.010907546211513552 0 0.0058915181569994621 -0.01086145523965535 0 0.0055474150645197298 -0.010577255455702671 0 0.0058608199533383134 -0.010907546211513552 0 0.0057543561701055655 -0.010817840018360636 0 0.0054574153872323991 -0.011072010788731004 0 0.0057929331563561295 -0.010936974209642798 0 0.0057543561701055655 -0.010817840018360636 0 0.0056563595780316223 -0.010904651498227719 0 0.005515365374763998 -0.010795432005416456 0 0.0057543561701055655 -0.010817840018360636 0 0.0057968504229934242 -0.01094092720856818 0 0.0056563595780316223 -0.010904651498227719 0 0.0057543561701055655 -0.010817840018360636 0 0.0058915181569994621 -0.01086145523965535 0 0.0057968504229934242 -0.01094092720856818 0 0.0057968504229934242 -0.01094092720856818 0 0.0059065386791829948 -0.010991941762461353 0 0.0057497273740547469 -0.011100509112968509 0 0.0058915181569994621 -0.01086145523965535 0 0.0057968504229934242 -0.01094092720856818 0 0.0059065386791829948 -0.010991941762461353 0 0.0057968504229934242 -0.01094092720856818 0 0.0056640317616142646 -0.011022193081076903 0 0.0057497273740547469 -0.011100509112968509 0 0.0056563595780316223 -0.010904651498227719 0 0.0056640317616142646 -0.011022193081076903 0 0.0054935461924500361 -0.011002182183365818 0 0.0057968504229934242 -0.01094092720856818 0 0.0056563595780316223 -0.010904651498227719 0 0.0056640317616142646 -0.011022193081076903 0 0.0056563595780316223 -0.010904651498227719 0 0.0054935461924500361 -0.011002182183365818 0 0.005515365374763998 -0.010795432005416456 0 0.0054935461924500361 -0.011002182183365818 0 0.005515365374763998 -0.010795432005416456 0 0.0052610365197784913 -0.010874196819261883 0 0.0054935461924500361 -0.011002182183365818 0 0.0052610365197784913 -0.010874196819261883 0 0.0052793980225998571 -0.01115008081218055 0 0.005515365374763998 -0.010795432005416456 0 0.0052880830011631024 -0.010661728373947337 0 0.0052610365197784913 -0.010874196819261883 0 0.0050377274183112108 -0.010675316172452166 0 0.0052610365197784913 -0.010874196819261883 0 0.0047760211427833321 -0.01107011571357997 0 0.0050377274183112108 -0.010675316172452166 0 0.0052880830011631024 -0.010661728373947337 0 0.004997089364178255 -0.01038892265280399 0 0.0050377274183112108 -0.010675316172452166 0 0.0052880830011631024 -0.010661728373947337 0 0.0052610365197784913 -0.010874196819261883 0 0.0052610365197784913 -0.010874196819261883 0 0.0047760211427833321 -0.01107011571357997 0 0.0052793980225998571 -0.01115008081218055 0 0.0019666326953170525 -0.0051908410670439718 0 0.0029127459223298215 -0.0059901454415337797 0 -0.00071281649944638249 0.00057718747470257104 0 -0.0011364710987604705 0.00041129218301845174 0 -0.00078736300922459712 0.00016549013737139398 0 -0.0011364710987604705 0.00041129218301845174 0 -0.001339215837482719 0.00077824663206306857 0 -0.0015530484830114683 0.0003016483246905486 0 -0.00071281649944638249 0.00057718747470257104 0 -0.0011364710987604705 0.00041129218301845174 0 -0.001339215837482719 0.00077824663206306857 0 0.0019666326953170525 -0.0051908410670439718 0 0.0013234588901675814 -0.0048431744747986305 0 0.0047760211427833321 -0.01107011571357997 0 0.0040631549088547998 -0.010848503564072886 0 0.0046642513101432742 -0.010664318515367739 0 0.0040631549088547998 -0.010848503564072886 0 0.0046642513101432742 -0.010664318515367739 0 0.0042072183518135301 -0.010338723299715224 0 0.0050377274183112108 -0.010675316172452166 0 0.0047760211427833321 -0.01107011571357997 0 0.0046642513101432742 -0.010664318515367739 0 0.0050377274183112108 -0.010675316172452166 0 0.0046642513101432742 -0.010664318515367739 0 0.004997089364178255 -0.01038892265280399 0 0.0046408100984818108 -0.011210772896975117 0 0.0037357417323045272 -0.011980751752264382 0 0.0046642513101432742 -0.010664318515367739 0 0.004997089364178255 -0.01038892265280399 0 0.0042072183518135301 -0.010338723299715224 0 0.0044520648251388777 -0.01212758168155462 0 0.003805398910133536 -0.011905471457767909 0 0.0027506950144259132 -0.012621974069968457 0 0.0044780085036878192 -0.011445594980423359 0 0.0044520648251388777 -0.01212758168155462 0 0.003805398910133536 -0.011905471457767909 0 0.003805398910133536 -0.011905471457767909 0 0.0027506950144259132 -0.012621974069968457 0 0.0025747721656380227 -0.011707143481485627 0 0.0027506950144259132 -0.012621974069968457 0 0.0025747721656380227 -0.011707143481485627 0 0.0020694565855398687 -0.012109558832694349 0 0.003805398910133536 -0.011905471457767909 0 0.0025747721656380227 -0.011707143481485627 0 0.0026942598256238233 -0.010548892980689215 0 0.0025747721656380227 -0.011707143481485627 0 0.001620460535723927 -0.011499323739122238 0 0.0026942598256238233 -0.010548892980689215 0 0.0037852139129024727 -0.01188243139511023 0 0.0031803377992755096 -0.010771698883318302 0 0.0044780085036878192 -0.011445594980423359 0 0.003805398910133536 -0.011905471457767909 0 0.0036550743221582917 -0.010925735936452236 0 0.0047617144761962398 -0.010977473189555947 0 0.0044780085036878192 -0.011445594980423359 0 0.0036550743221582917 -0.010925735936452236 0 0.00069845227408238907 -0.011563556887627434 0 0.001620460535723927 -0.011499323739122238 0 0.0011387095366481006 -0.010310162700697952 0 0.00069845227408238907 -0.011563556887627434 0 0.00015449587202293524 -0.01096689626773511 0 0.0011387095366481006 -0.010310162700697952 0 0.0027506950144259132 -0.012621974069968457 0 0.0020694565855398687 -0.012109558832694349 0 0.0011621363066082137 -0.012771786116290235 0 0.001620460535723927 -0.011499323739122238 0 0.0020694565855398687 -0.012109558832694349 0 0.0011621363066082137 -0.012771786116290235 0 0.0025747721656380227 -0.011707143481485627 0 0.001620460535723927 -0.011499323739122238 0 0.0020694565855398687 -0.012109558832694349 0 0.00044475438933286771 -0.0066322985750895723 0 -0.0013776083399367354 -0.0054074073260984576 0 0.00069845227408238907 -0.011563556887627434 0 0.0011621363066082137 -0.012771786116290235 0 0.00014184703185411078 -0.012141702800078183 0 0.00069845227408238907 -0.011563556887627434 0 0.001620460535723927 -0.011499323739122238 0 0.0011621363066082137 -0.012771786116290235 0 -0.0023378218907299606 0.00089627881563874223 0 -0.002039470614453661 0.00095786210177836197 0 -0.0025542998731587336 0.0011323666194714944 0 -0.00197683105962169 0.00097229455075502835 0 -0.002039470614453661 0.00095786210177836197 0 -0.0025542998731587336 0.0011323666194714944 0 0.00044475438933286771 -0.0066322985750895723 0 0.00022990561686579941 -0.0063086116800811654 0 -0.002039470614453661 0.00095786210177836197 0 -0.0021993638769156965 0.00072535165834897131 0 -0.0019094445190734018 0.00062558355156561521 0 -0.0019731846918682756 0.00097471633937252068 0 -0.002039470614453661 0.00095786210177836197 0 -0.0019094445190734018 0.00062558355156561521 0 -0.0023378218907299606 0.00089627881563874223 0 -0.002039470614453661 0.00095786210177836197 0 -0.0021993638769156965 0.00072535165834897131 0 -0.0023378218907299606 0.00089627881563874223 0 -0.0021993638769156965 0.00072535165834897131 0 -0.0025532415771320036 0.00076539652088487527 0 0.0040631549088547998 -0.010848503564072886 0 0.0042072183518135301 -0.010338723299715224 0 0.0032195948403186563 -0.010436025240619842 0 0.0013234588901675814 -0.0048431744747986305 0 0.00044475438933286771 -0.0066322985750895723 0 -0.001339215837482719 0.00077824663206306857 0 -0.0019731846918682756 0.00097471633937252068 0 -0.0019094445190734018 0.00062558355156561521 0 0.0037357417323045272 -0.011980751752264382 0 0.00044475438933286771 -0.0066322985750895723 0 -0.001339215837482719 0.00077824663206306857 0 -0.0019094445190734018 0.00062558355156561521 0 -0.0015530484830114683 0.0003016483246905486 0 -0.0019094445190734018 0.00062558355156561521 0 -0.0019702881784276352 0.00023870724528241922 0 -0.0015530484830114683 0.0003016483246905486 0 -0.0021993638769156965 0.00072535165834897131 0 -0.0023044452056552376 0.00038063811443493953 0 -0.0025532415771320036 0.00076539652088487527 0 -0.0021993638769156965 0.00072535165834897131 0 -0.0019094445190734018 0.00062558355156561521 0 -0.0023044452056552376 0.00038063811443493953 0 -0.0019094445190734018 0.00062558355156561521 0 -0.0023044452056552376 0.00038063811443493953 0 -0.0019702881784276352 0.00023870724528241922 0 -0.0023044452056552376 0.00038063811443493953 0 -0.0026609230296955992 0.00043732607991691139 0 -0.0024499740995734581 0.00016989172415284642 0 -0.0023044452056552376 0.00038063811443493953 0 -0.0026609230296955992 0.00043732607991691139 0 -0.0025532415771320036 0.00076539652088487527 0 -0.0026609230296955992 0.00043732607991691139 0 -0.0029711526817407957 0.00065358595893699571 0 -0.0025532415771320036 0.00076539652088487527 0 -0.0026609230296955992 0.00043732607991691139 0 -0.0030038804253719113 0.00032867940439436182 0 -0.0029711526817407957 0.00065358595893699571 0 -0.0030038804253719113 0.00032867940439436182 0 -0.0029711526817407957 0.00065358595893699571 0 -0.0033262305078060554 0.0005376015030339826 0 -0.0029711526817407957 0.00065358595893699571 0 -0.0029833136612821671 0.00095869656767521953 0 -0.0025532415771320036 0.00076539652088487527 0 -0.0029711526817407957 0.00065358595893699571 0 -0.0029833136612821671 0.00095869656767521953 0 -0.0033138805048963564 0.00082983647271410075 0 -0.0029711526817407957 0.00065358595893699571 0 -0.0033262305078060554 0.0005376015030339826 0 -0.0033138805048963564 0.00082983647271410075 0 -0.0029833136612821671 0.00095869656767521953 0 -0.0025532415771320036 0.00076539652088487527 0 -0.0025542998731587336 0.0011323666194714944 0 -0.0023378218907299606 0.00089627881563874223 0 -0.0025532415771320036 0.00076539652088487527 0 -0.0025542998731587336 0.0011323666194714944 0 -0.0037568289817884941 0.00075143016300212014 0 -0.0043995112205175591 0.00081725011002340797 0 -0.0041139040360827321 0.00036162514670092454 0 -0.0036556173583351184 0.0003843377852073347 0 -0.0037568289817884941 0.00075143016300212014 0 -0.0041139040360827321 0.00036162514670092454 0 -0.0036556173583351184 0.0003843377852073347 0 -0.0033262305078060554 0.0005376015030339826 0 -0.0037568289817884941 0.00075143016300212014 0 -0.0036556173583351184 0.0003843377852073347 0 -0.0033262305078060554 0.0005376015030339826 0 -0.0033706153456212824 0.00021073352817333954 0 -0.0030038804253719113 0.00032867940439436182 0 -0.0033262305078060554 0.0005376015030339826 0 -0.0033706153456212824 0.00021073352817333954 0 -0.0033262305078060554 0.0005376015030339826 0 -0.0033138805048963564 0.00082983647271410075 0 -0.0037568289817884941 0.00075143016300212014 0 -0.0033138805048963564 0.00082983647271410075 0 -0.0037568289817884941 0.00075143016300212014 0 -0.0036256055890625171 0.00087039974535216183 0 -0.0029833136612821671 0.00095869656767521953 0 -0.0033138805048963564 0.00082983647271410075 0 -0.0033693754543904064 0.0010713412212561121 0 -0.0033138805048963564 0.00082983647271410075 0 -0.0036256055890625171 0.00087039974535216183 0 -0.0033693754543904064 0.0010713412212561121 0 -0.0037568289817884941 0.00075143016300212014 0 -0.0036256055890625171 0.00087039974535216183 0 -0.0038459736360621001 0.00068415076963718906 0 -0.0036256055890625171 0.00087039974535216183 0 -0.0037066810000105786 0.0010993221562490443 0 -0.0033693754543904064 0.0010713412212561121 0 -0.0034787876277894108 0.0012902728577984151 0 -0.0040445714468338089 0.00049408474059278458 0 -0.0036256055890625171 0.00087039974535216183 0 -0.0037066810000105786 0.0010993221562490443 0 -0.0038459736360621001 0.00068415076963718906 0 -0.0043051038944971649 0.00026916089880156893 0 -0.00396721803161805 0.00037338862565122245 0 -0.0038459736360621001 0.00068415076963718906 0 -0.0033693754543904064 0.0010713412212561121 0 -0.0034850201549348147 0.0013722809445407627 0 -0.0030581424539386651 0.0012475368893589422 0 -0.0037066810000105786 0.0010993221562490443 0 -0.0033693754543904064 0.0010713412212561121 0 -0.0034850201549348147 0.0013722809445407627 0 -0.0014933075951253753 -0.011192292848231172 0 -0.00070152759865960395 -0.011616611594504321 0 -0.00081277133416247395 -0.010404588367859161 0 -0.0029941527302896941 -0.0059686003295190962 0 -0.001800425558024257 -0.0051408088259316783 0 -0.0029941527302896941 -0.0059686003295190962 0 -0.0038504589180501318 -0.0061846948709472901 0 -0.0043051038944971649 0.00026916089880156893 0 -0.0045986532600952651 -0.00016069600230698259 0 -0.0039847100705526668 -0.00045184374894136113 0 -0.0034787876277894108 0.0012902728577984151 0 -0.0029941527302896941 -0.0059686003295190962 0 -0.0013776083399367354 -0.0054074073260984576 0 -0.001800425558024257 -0.0051408088259316783 0 -0.0029833136612821671 0.00095869656767521953 0 -0.0033693754543904064 0.0010713412212561121 0 -0.0030581424539386651 0.0012475368893589422 0 -0.0029833136612821671 0.00095869656767521953 0 -0.0025542998731587336 0.0011323666194714944 0 -0.0030581424539386651 0.0012475368893589422 0 -0.00070152759865960395 -0.011616611594504321 0 0.00015449587202293524 -0.01096689626773511 0 -0.00081277133416247395 -0.010404588367859161 0 0.00014184703185411078 -0.012141702800078183 0 -0.00070152759865960395 -0.011616611594504321 0 0.00015449587202293524 -0.01096689626773511 0 0.00069845227408238907 -0.011563556887627434 0 0.00014184703185411078 -0.012141702800078183 0 0.00015449587202293524 -0.01096689626773511 0 0.00015449587202293524 -0.01096689626773511 0 -0.0001352014560735717 -0.010325215335810305 0 0.00041004383971822547 -0.009998072077963981 0 0.00015449587202293524 -0.01096689626773511 0 -0.0001352014560735717 -0.010325215335810305 0 -0.00081277133416247395 -0.010404588367859161 0 -0.0011838347867706264 -0.011252068429642409 0 -0.0017368997286690323 -0.01040223974600837 0 -0.00020055266906311058 -0.0098225868285288023 0 -0.0001352014560735717 -0.010325215335810305 0 -0.00081277133416247395 -0.010404588367859161 0 -0.00020055266906311058 -0.0098225868285288023 0 -0.0011636214823974361 -0.011816285080895911 0 -0.00011292855994886537 -0.0095409439586802026 0 -0.0001352014560735717 -0.010325215335810305 0 -0.00020055266906311058 -0.0098225868285288023 0 0.00041004383971822547 -0.009998072077963981 0 -0.0021792475309577509 -0.012474191360294573 0 -0.0024108268141453514 -0.011340138567197752 0 -0.0036181214580803408 -0.01180807122237122 0 -0.0024108268141453514 -0.011340138567197752 0 -0.0036181214580803408 -0.01180807122237122 0 -0.003871750082837491 -0.010752567606186184 0 -0.0021792475309577509 -0.012474191360294573 0 -0.0011838347867706264 -0.011252068429642409 0 -0.0024108268141453514 -0.011340138567197752 0 -0.0029941527302896941 -0.0059686003295190962 0 -0.0011636214823974361 -0.011816285080895911 0 -0.0011838347867706264 -0.011252068429642409 0 -0.0024108268141453514 -0.011340138567197752 0 -0.0017368997286690323 -0.01040223974600837 0 -0.0024108268141453514 -0.011340138567197752 0 -0.0017368997286690323 -0.01040223974600837 0 -0.0027080230907864187 -0.010301942860453025 0 -0.0024108268141453514 -0.011340138567197752 0 -0.0027080230907864187 -0.010301942860453025 0 -0.003871750082837491 -0.010752567606186184 0 -0.0017688823704717419 -0.0094240211617160237 0 -0.0028786529479294374 -0.0085700166710162857 0 -0.0035976639917071809 -0.009566649413271679 0 -0.0027080230907864187 -0.010301942860453025 0 -0.0017688823704717419 -0.0094240211617160237 0 -0.0035976639917071809 -0.009566649413271679 0 -0.0017368997286690323 -0.01040223974600837 0 -0.0027080230907864187 -0.010301942860453025 0 -0.0017688823704717419 -0.0094240211617160237 0 -0.0019660198788779577 -0.0079602955439060132 0 -0.0017688823704717419 -0.0094240211617160237 0 -0.00052237775751260134 -0.0088569349396963228 0 -0.0019660198788779577 -0.0079602955439060132 0 -0.0017688823704717419 -0.0094240211617160237 0 -0.0028786529479294374 -0.0085700166710162857 0 -0.00020055266906311058 -0.0098225868285288023 0 0.00042783830396203164 -0.0093572517681062058 0 0.00041004383971822547 -0.009998072077963981 0 -0.00020055266906311058 -0.0098225868285288023 0 6.5639145942685792e-05 -0.0090614987564798209 0 0.00042783830396203164 -0.0093572517681062058 0 -0.00020055266906311058 -0.0098225868285288023 0 -0.00052237775751260134 -0.0088569349396963228 0 6.5639145942685792e-05 -0.0090614987564798209 0 -0.0017688823704717419 -0.0094240211617160237 0 -0.00020055266906311058 -0.0098225868285288023 0 -0.00052237775751260134 -0.0088569349396963228 0 -0.0017368997286690323 -0.01040223974600837 0 -0.0017688823704717419 -0.0094240211617160237 0 -0.00020055266906311058 -0.0098225868285288023 0 5.344803756833212e-05 -0.0087256547450480695 0 6.5639145942685792e-05 -0.0090614987564798209 0 0.00032962996534337144 -0.008947845054393019 0 5.344803756833212e-05 -0.0087256547450480695 0 -0.00052237775751260134 -0.0088569349396963228 0 6.5639145942685792e-05 -0.0090614987564798209 0 0.00065626911935309068 -0.00867262608629394 0 0.0013848804256067183 -0.0087243637267137956 0 0.00045132290434279465 -0.0086997646123352576 0 0.00032962996534337144 -0.008947845054393019 0 0.00068669897496352464 -0.0089829987572332595 0 0.00032962996534337144 -0.008947845054393019 0 0.00068669897496352464 -0.0089829987572332595 0 0.00042783830396203164 -0.0093572517681062058 0 6.5639145942685792e-05 -0.0090614987564798209 0 0.00032962996534337144 -0.008947845054393019 0 0.00042783830396203164 -0.0093572517681062058 0 0.00042783830396203164 -0.0093572517681062058 0 0.00084667243287099147 -0.0096307294879225402 0 0.00041004383971822547 -0.009998072077963981 0 0.0013848804256067183 -0.0087243637267137956 0 0.00099465650783099342 -0.0092784506094127483 0 0.00068669897496352464 -0.0089829987572332595 0 0.00042783830396203164 -0.0093572517681062058 0 0.00084667243287099147 -0.0096307294879225402 0 0.0013848804256067183 -0.0087243637267137956 0 0.0026753662413608768 -0.0096074029499052371 0 0.0012036516081995938 -0.0077873260865384047 0 0.001193087831080644 -0.0090028702793862048 0 0.0019007352517564583 -0.0091829287817485131 0 0.0028145470073201854 -0.0091962603671245768 0 0.0033666502660847641 -0.0095192024283579126 0 0.0032802053872851341 -0.010092792655805516 0 0.0028145470073201854 -0.0091962603671245768 0 0.0033666502660847641 -0.0095192024283579126 0 0.003346611273450986 -0.0091153922654027032 0 0.0030976340126617728 -0.0088876220790549947 0 0.0028145470073201854 -0.0091962603671245768 0 0.003346611273450986 -0.0091153922654027032 0 0.0036211158252603347 -0.0089015039486027205 0 0.003346611273450986 -0.0091153922654027032 0 0.0037500721694561541 -0.0093179863115216387 0 0.0039824050647901824 -0.0088744039943855543 0 0.0036211158252603347 -0.0089015039486027205 0 0.0037500721694561541 -0.0093179863115216387 0 0.0033666502660847641 -0.0095192024283579126 0 0.003346611273450986 -0.0091153922654027032 0 0.0037500721694561541 -0.0093179863115216387 0 0.0039824050647901824 -0.0088744039943855543 0 0.0037500721694561541 -0.0093179863115216387 0 0.0043173676519305867 -0.0091963400112162232 0 0.0037500721694561541 -0.0093179863115216387 0 0.0043173676519305867 -0.0091963400112162232 0 0.0041418035604683977 -0.009628135766516617 0 0.0047140203429460658 -0.0095164741044826643 0 0.0043173676519305867 -0.0091963400112162232 0 0.0041418035604683977 -0.009628135766516617 0 0.0047140203429460658 -0.0095164741044826643 0 0.0041418035604683977 -0.009628135766516617 0 0.0045022011536003442 -0.0099248892551280967 0 0.0041418035604683977 -0.009628135766516617 0 0.0037108657265750044 -0.0098132873367366303 0 0.0040977404712421008 -0.010099545028746814 0 0.0041418035604683977 -0.009628135766516617 0 0.0045022011536003442 -0.0099248892551280967 0 0.0040977404712421008 -0.010099545028746814 0 0.0033666502660847641 -0.0095192024283579126 0 0.0037108657265750044 -0.0098132873367366303 0 0.0032802053872851341 -0.010092792655805516 0 0.0033666502660847641 -0.0095192024283579126 0 0.0037500721694561541 -0.0093179863115216387 0 0.0037108657265750044 -0.0098132873367366303 0 0.0037500721694561541 -0.0093179863115216387 0 0.0041418035604683977 -0.009628135766516617 0 0.0037108657265750044 -0.0098132873367366303 0 0.0037108657265750044 -0.0098132873367366303 0 0.0037617773857853928 -0.01029605780979221 0 0.0040977404712421008 -0.010099545028746814 0 0.0037108657265750044 -0.0098132873367366303 0 0.0037617773857853928 -0.01029605780979221 0 0.0032802053872851341 -0.010092792655805516 0 0.0037617773857853928 -0.01029605780979221 0 0.0036550743221582917 -0.010925735936452236 0 0.0032802053872851341 -0.010092792655805516 0 0.0037617773857853928 -0.01029605780979221 0 0.0041495620645868305 -0.010540420334622566 0 0.0036550743221582917 -0.010925735936452236 0 0.0031803377992755096 -0.010771698883318302 0 0.0026753662413608768 -0.0096074029499052371 0 0.0046061302590445193 -0.010386256380013127 0 0.0045022011536003442 -0.0099248892551280967 0 0.0040977404712421008 -0.010099545028746814 0 0.0046061302590445193 -0.010386256380013127 0 0.0040977404712421008 -0.010099545028746814 0 0.0041495620645868305 -0.010540420334622566 0 0.0037617773857853928 -0.01029605780979221 0 0.0040977404712421008 -0.010099545028746814 0 0.0041495620645868305 -0.010540420334622566 0 0.0047617144761962398 -0.010977473189555947 0 0.0041495620645868305 -0.010540420334622566 0 0.0036550743221582917 -0.010925735936452236 0 0.0047617144761962398 -0.010977473189555947 0 0.0046061302590445193 -0.010386256380013127 0 0.0041495620645868305 -0.010540420334622566 0 0.001620460535723927 -0.011499323739122238 0 0.0026942598256238233 -0.010548892980689215 0 0.0011387095366481006 -0.010310162700697952 0 0.00015449587202293524 -0.01096689626773511 0 0.0011387095366481006 -0.010310162700697952 0 0.00041004383971822547 -0.009998072077963981 0 0.00099465650783099342 -0.0092784506094127483 0 0.0011127420182026149 -0.010281082338347274 0 0.00084667243287099147 -0.0096307294879225402 0 0.0011387095366481006 -0.010310162700697952 0 0.00041004383971822547 -0.009998072077963981 0 0.0026942598256238233 -0.010548892980689215 0 0.0011387095366481006 -0.010310162700697952 0 0.0019007352517564583 -0.0091829287817485131 0 0.001193087831080644 -0.0090028702793862048 0 0.0011387095366481006 -0.010310162700697952 0 0.0019007352517564583 -0.0091829287817485131 0 0.036628645249148328 0.0072322764854936611 0 0.034999794807374175 0.0071006324043201086 0 0.036114948138675197 0.0063385071197162388 0 0.036628645249148328 0.0072322764854936611 0 0.034999794807374175 0.0071006324043201086 0 0.035962631522326045 0.0083696709599738444 0 0.034999794807374175 0.0071006324043201086 0 0.035962631522326045 0.0083696709599738444 0 0.034999900177743425 0.0091957405444010182 0 0.036628645249148328 0.0072322764854936611 0 0.035962631522326045 0.0083696709599738444 0 0.036952151330968935 0.0086639269935525048 0 0.036952151330968935 0.0086639269935525048 0 0.038013440391313748 0.0083383350517550643 0 0.037522991660376398 0.0095825811548340741 0 0.036628645249148328 0.0072322764854936611 0 0.036952151330968935 0.0086639269935525048 0 0.037342810596992633 0.0077976564870168522 0 0.036952151330968935 0.0086639269935525048 0 0.038013440391313748 0.0083383350517550643 0 0.037342810596992633 0.0077976564870168522 0 0.038013440391313748 0.0083383350517550643 0 0.038957466028795712 0.0086249123435706895 0 0.038516821690468536 0.0095244535798746036 0 0.037728112129027679 0.0069575594267096098 0 0.038969480927259749 0.0074033112244057571 0 0.038013440391313748 0.0083383350517550643 0 0.037767747719067116 0.006932097909577716 0 0.038704450496179342 0.0075664910937318312 0 0.038013440391313748 0.0083383350517550643 0 0.037767747719067116 0.006932097909577716 0 0.037342810596992633 0.0077976564870168522 0 0.036628645249148328 0.0072322764854936611 0 0.037767747719067116 0.006932097909577716 0 0.037342810596992633 0.0077976564870168522 0 0.036628645249148328 0.0072322764854936611 0 0.037767747719067116 0.006932097909577716 0 0.037105795027680015 0.0058339183041314331 0 0.036615838714574189 0.0050041447724533169 0 0.038139167951227723 0.0052740633571288827 0 0.037767747719067116 0.006932097909577716 0 0.037105795027680015 0.0058339183041314331 0 0.038354444179434066 0.0061424028492179147 0 0.037767747719067116 0.006932097909577716 0 0.038354444179434066 0.0061424028492179147 0 0.038849589215304556 0.0070622793435377081 0 0.037289843474285815 0.0039101810816700461 0 0.037415078881100336 0.0030565532602598697 0 0.038395111625108898 0.002812645924869905 0 0.037289843474285815 0.0039101810816700461 0 0.037415078881100336 0.0030565532602598697 0 0.036853907228479026 0.0028520520467868495 0 0.036434803808577158 0.0041569583196995868 0 0.036853907228479026 0.0028520520467868495 0 0.036292611377601827 0.0036525487340278006 0 0.036434803808577158 0.0041569583196995868 0 0.037289843474285815 0.0039101810816700461 0 0.036853907228479026 0.0028520520467868495 0 0.036292611377601827 0.0036525487340278006 0 0.035671608999076426 0.0052352312276543527 0 0.035735215319164737 0.0036609299223838423 0 0.036434803808577158 0.0041569583196995868 0 0.036292611377601827 0.0036525487340278006 0 0.035671608999076426 0.0052352312276543527 0 0.036615838714574189 0.0050041447724533169 0 0.035688641506241292 0.0051538624078848955 0 0.036628645249148328 0.0072322764854936611 0 0.037105795027680015 0.0058339183041314331 0 0.036114948138675197 0.0063385071197162388 0 0.037105795027680015 0.0058339183041314331 0 0.036114948138675197 0.0063385071197162388 0 0.035671608999076426 0.0052352312276543527 0 0.034999794807374175 0.0071006324043201086 0 0.035671608999076426 0.0052352312276543527 0 0.034999678059521193 0.0050040462185472244 0 0.034999794807374175 0.0071006324043201086 0 0.036114948138675197 0.0063385071197162388 0 0.035671608999076426 0.0052352312276543527 0 0.035671608999076426 0.0052352312276543527 0 0.034999678059521193 0.0050040462185472244 0 0.035735215319164737 0.0036609299223838423 0 0.034999678059521193 0.0050040462185472244 0 0.035735215319164737 0.0036609299223838423 0 0.034999835625908401 0.002908931589564259 0 0.035735215319164737 0.0036609299223838423 0 0.035880686245150187 0.0025565670344494286 0 0.034999835625908401 0.002908931589564259 0 0.036292611377601827 0.0036525487340278006 0 0.035735215319164737 0.0036609299223838423 0 0.036501288407024247 0.0024189296839571333 0 0.035735215319164737 0.0036609299223838423 0 0.035880686245150187 0.0025565670344494286 0 0.036501288407024247 0.0024189296839571333 0 0.035880686245150187 0.0025565670344494286 0 0.036437081783691289 0.001707289191068713 0 0.036501288407024247 0.0024189296839571333 0 0.035880686245150187 0.0025565670344494286 0 0.035762570773748857 0.0018051367215537021 0 0.036437081783691289 0.001707289191068713 0 0.035880686245150187 0.0025565670344494286 0 0.034999835625908401 0.002908931589564259 0 0.035762570773748857 0.0018051367215537021 0 0.034999835625908401 0.002908931589564259 0 0.035762570773748857 0.0018051367215537021 0 0.034999945929338375 0.00081496686357764025 0 0.035762570773748857 0.0018051367215537021 0 0.036127715061306971 0.001072795077018817 0 0.034999945929338375 0.00081496686357764025 0 0.036437081783691289 0.001707289191068713 0 0.036127715061306971 0.001072795077018817 0 0.036798740973078302 0.0012316475055867417 0 0.035762570773748857 0.0018051367215537021 0 0.036437081783691289 0.001707289191068713 0 0.036127715061306971 0.001072795077018817 0 0.035679676975063794 -2.9300343039040971e-05 0 0.036224775979615521 3.6206776375278613e-05 0 0.036050377451995026 0.0006785507755620293 0 0.036224775979615521 3.6206776375278613e-05 0 0.036050377451995026 0.0006785507755620293 0 0.036575245819484216 0.00083215172650162996 0 0.036054769872109274 0.00088697409727183524 0 0.035000196862631915 0.00081436691527904251 0 0.035679676975063794 -2.9300343039040971e-05 0 0.036050377451995026 0.0006785507755620293 0 0.034999962005345102 0.00081384061907901757 0 0.036682881469632264 0.0010498814891232303 0 0.036772504480086982 0.0012265720020175662 0 0.03671322425926582 0.00082743160057502667 0 0.036575245819484216 0.00083215172650162996 0 0.036742134106376501 0.0012926723241432467 0 0.03671322425926582 0.00082743160057502667 0 0.036686153311693122 0.0012077437320976814 0 0.036742134106376501 0.0012926723241432467 0 0.036560647833318721 0.00013674327410688572 0 0.03671322425926582 0.00082743160057502667 0 0.036575245819484216 0.00083215172650162996 0 0.036560647833318721 0.00013674327410688572 0 0.036224775979615521 3.6206776375278613e-05 0 0.036575245819484216 0.00083215172650162996 0 0.036054769872109274 0.00088697409727183524 0 0.036682881469632264 0.0010498814891232303 0 0.036437081783691289 0.001707289191068713 0 0.036798740973078302 0.0012316475055867417 0 0.036983690251644136 0.0014350827292279266 0 0.036983690251644136 0.0014350827292279266 0 0.03660899493751929 0.0011839410636931035 0 0.036742134106376501 0.0012926723241432467 0 0.036798740973078302 0.0012316475055867417 0 0.036983690251644136 0.0014350827292279266 0 0.036742134106376501 0.0012926723241432467 0 0.036983690251644136 0.0014350827292279266 0 0.036954260042851822 0.0018044581595732909 0 0.03739513952615809 0.0009086334364092546 0 0.036437081783691289 0.001707289191068713 0 0.036983690251644136 0.0014350827292279266 0 0.036501288407024247 0.0024189296839571333 0 0.036983690251644136 0.0014350827292279266 0 0.036501288407024247 0.0024189296839571333 0 0.036954260042851822 0.0018044581595732909 0 0.036853907228479026 0.0028520520467868495 0 0.036292611377601827 0.0036525487340278006 0 0.036501288407024247 0.0024189296839571333 0 0.036853907228479026 0.0028520520467868495 0 0.036501288407024247 0.0024189296839571333 0 0.036954260042851822 0.0018044581595732909 0 0.036853907228479026 0.0028520520467868495 0 0.036954260042851822 0.0018044581595732909 0 0.03739513952615809 0.0009086334364092546 0 0.037415078881100336 0.0030565532602598697 0 0.036853907228479026 0.0028520520467868495 0 0.03739513952615809 0.0009086334364092546 0 0.03739513952615809 0.0009086334364092546 0 0.035688911699173292 -0.00084621927025150753 0 0.036931763597496094 -0.0021459555486130007 0 0.03739513952615809 0.0009086334364092546 0 0.035688911699173292 -0.00084621927025150753 0 0.035698550293304702 0.0003772746759602462 0 0.037415078881100336 0.0030565532602598697 0 0.03739513952615809 0.0009086334364092546 0 0.038395111625108898 0.002812645924869905 0 0.037549602878883558 0.00090905881583837193 0 0.0374648858339423 -8.4013694091596353e-06 0 0.035688911699173292 -0.00084621927025150753 0 0.033982148075068892 -0.00073861534881309275 0 0.034733377198164231 -0.0024022999997942592 0 0.035688911699173292 -0.00084621927025150753 0 0.035698550293304702 0.0003772746759602462 0 0.033982148075068892 -0.00073861534881309275 0 0.035698550293304702 0.0003772746759602462 0 0.03660899493751929 0.0011839410636931035 0 0.035548087375480347 0.001183119806617785 0 0.035698550293304702 0.0003772746759602462 0 0.035548087375480347 0.001183119806617785 0 0.034574210333939773 0.00049957344821153593 0 0.035698550293304702 0.0003772746759602462 0 0.034574210333939773 0.00049957344821153593 0 0.033982148075068892 -0.00073861534881309275 0 0.03739513952615809 0.0009086334364092546 0 0.035698550293304702 0.0003772746759602462 0 0.03660899493751929 0.0011839410636931035 0 0.036983690251644136 0.0014350827292279266 0 0.03739513952615809 0.0009086334364092546 0 0.03660899493751929 0.0011839410636931035 0 0.03660899493751929 0.0011839410636931035 0 0.036742134106376501 0.0012926723241432467 0 0.036305694363995104 0.0015729309745067604 0 0.035548087375480347 0.001183119806617785 0 0.035459718146807512 0.0021324787605825329 0 0.034351120437420841 0.0013082692560286355 0 0.03660899493751929 0.0011839410636931035 0 0.035548087375480347 0.001183119806617785 0 0.036305694363995104 0.0015729309745067604 0 0.035548087375480347 0.001183119806617785 0 0.034351120437420841 0.0013082692560286355 0 0.034574210333939773 0.00049957344821153593 0 0.034338113784193068 -9.7813618876484192e-05 0 0.031954006260061993 0.0011129393319249232 0 0.03666976227581336 0.001319698623818035 0 0.035459718146807512 0.0021324787605825329 0 0.036305694363995104 0.0015729309745067604 0 0.035548087375480347 0.001183119806617785 0 0.035459718146807512 0.0021324787605825329 0 0.036305694363995104 0.0015729309745067604 0 0.03666976227581336 0.001319698623818035 0 0.036686153311693122 0.0012077437320976814 0 0.036305694363995104 0.0015729309745067604 0 0.03671393740449324 0.0010506124987334524 0 0.03671322425926582 0.00082743160057502667 0 0.036686153311693122 0.0012077437320976814 0 0.036686153311693122 0.0012077437320976814 0 0.036742134106376501 0.0012926723241432467 0 0.036305694363995104 0.0015729309745067604 0 0.029902479940540166 0.00034695860820237417 0 0.030280006127800012 0.00051604125521873326 0 0.030062145874611507 0.00061767299804819735 0 0.028965409507193493 0.0016582945817816724 0 0.029902479940540166 0.00034695860820237417 0 0.030280006127800012 0.00051604125521873326 0 0.035459718146807512 0.0021324787605825329 0 0.033342188247522622 0.0021287838877612208 0 0.034351120437420841 0.0013082692560286355 0 0.029159943825334596 0.00042784552819046917 0 0.029791127502826826 0.00039574636991240224 0 0.030062145874611507 0.00061767299804819735 0 0.031954006260061993 0.0011129393319249232 0 0.031668035394340079 0.001314375966339622 0 0.029653721278263628 -0.00023491417814839834 0 0.030280006127800012 0.00051604125521873326 0 0.029791127502826826 0.00039574636991240224 0 0.029653721278263628 -0.00023491417814839834 0 0.029159943825334596 0.00042784552819046917 0 0.029791127502826826 0.00039574636991240224 0 0.030280006127800012 0.00051604125521873326 0 0.029791127502826826 0.00039574636991240224 0 0.030062145874611507 0.00061767299804819735 0 0.033342188247522622 0.0021287838877612208 0 0.034351120437420841 0.0013082692560286355 0 0.03293150738421554 0.00024869219098533558 0 0.031668035394340079 0.001314375966339622 0 0.030597093924913769 0.00083295736835891558 0 0.029902479940540166 0.00034695860820237417 0 0.030062145874611507 0.00061767299804819735 0 0.030493910234734616 0.00081645933208367876 0 0.033342188247522622 0.0021287838877612208 0 0.03293150738421554 0.00024869219098533558 0 0.030493910234734616 0.00081645933208367876 0 0.03293150738421554 0.00024869219098533558 0 0.032546093314430931 -0.0012644478683507677 0 0.030898427934868165 -0.0010158141293370748 0 0.03293150738421554 0.00024869219098533558 0 0.030898427934868165 -0.0010158141293370748 0 0.030493910234734616 0.00081645933208367876 0 0.03293150738421554 0.00024869219098533558 0 0.033982148075068892 -0.00073861534881309275 0 0.032546093314430931 -0.0012644478683507677 0 0.034351120437420841 0.0013082692560286355 0 0.034574210333939773 0.00049957344821153593 0 0.03293150738421554 0.00024869219098533558 0 0.034574210333939773 0.00049957344821153593 0 0.03293150738421554 0.00024869219098533558 0 0.033982148075068892 -0.00073861534881309275 0 0.033982148075068892 -0.00073861534881309275 0 0.033372114935492886 -0.0022573416676127671 0 0.034733377198164231 -0.0024022999997942592 0 0.033982148075068892 -0.00073861534881309275 0 0.032546093314430931 -0.0012644478683507677 0 0.033372114935492886 -0.0022573416676127671 0 0.032546093314430931 -0.0012644478683507677 0 0.031951246511050739 -0.0025278010440747747 0 0.030898427934868165 -0.0010158141293370748 0 0.031951246511050739 -0.0025278010440747747 0 0.030626523740676016 -0.0026101486780814392 0 0.030898427934868165 -0.0010158141293370748 0 0.032546093314430931 -0.0012644478683507677 0 0.031951246511050739 -0.0025278010440747747 0 0.033372114935492886 -0.0022573416676127671 0 0.031951246511050739 -0.0025278010440747747 0 0.031445032603418521 -0.0046981887246555351 0 0.030626523740676016 -0.0026101486780814392 0 0.033384138375206464 -0.0010364973647565307 0 0.034755792681658543 -0.0013064247117836 0 0.031951246511050739 -0.0025278010440747747 0 0.031445032603418521 -0.0046981887246555351 0 0.033677854480555949 -0.0044505673017889531 0 0.033677854480555949 -0.0044505673017889531 0 0.033372114935492886 -0.0022573416676127671 0 0.034733377198164231 -0.0024022999997942592 0 0.031951246511050739 -0.0025278010440747747 0 0.033677854480555949 -0.0044505673017889531 0 0.033372114935492886 -0.0022573416676127671 0 0.034733377198164231 -0.0024022999997942592 0 0.036931763597496094 -0.0021459555486130007 0 0.036184406071092107 -0.0041769643901897035 0 0.035688911699173292 -0.00084621927025150753 0 0.034733377198164231 -0.0024022999997942592 0 0.036931763597496094 -0.0021459555486130007 0 0.037289843474285815 0.0039101810816700461 0 0.038395111625108898 0.002812645924869905 0 0.038835047330607615 0.0040095644687842989 0 0.0374648858339423 -8.4013694091596353e-06 0 0.037782090634443641 0.0020559043857705122 0 0.038354444179434066 0.0061424028492179147 0 0.039456939198836534 0.0062481553448103851 0 0.038849589215304556 0.0070622793435377081 0 0.038139167951227723 0.0052740633571288827 0 0.037782090634443641 0.0020559043857705122 0 0.033677854480555949 -0.0044505673017889531 0 0.034733377198164231 -0.0024022999997942592 0 0.036184406071092107 -0.0041769643901897035 0 0.036312363660611587 0.0023453083313105779 0 0.037881277318500078 0.0024948683827832343 0 0.037366660687742796 0.0011056131538967704 0 0.034755792681658543 -0.0013064247117836 0 0.037782090634443641 0.0020559043857705122 0 0.037782090634443641 0.0020559043857705122 0 0.038719895019262207 0.0063031625645935596 0 0.038719895019262207 0.0063031625645935596 0 0.038969480927259749 0.0074033112244057571 0 0.039456939198836534 0.0062481553448103851 0 0.039819382803388224 0.0072585872140100149 0 0.038849589215304556 0.0070622793435377081 0 0.039604503923897735 0.0079793012283691407 0 0.038704450496179342 0.0075664910937318312 0 0.038957466028795712 0.0086249123435706895 0 0.038013440391313748 0.0083383350517550643 0 0.038704450496179342 0.0075664910937318312 0 0.038957466028795712 0.0086249123435706895 0 0.039604503923897735 0.0079793012283691407 0 0.038957466028795712 0.0086249123435706895 0 0.039792304577913488 0.0088961676227923715 0 0.038957466028795712 0.0086249123435706895 0 0.039792304577913488 0.0088961676227923715 0 0.039242671066554678 0.0096511902561953571 0 0.038719895019262207 0.0063031625645935596 0 0.039736982962973434 0.0092765160872644702 0 0.039474799386054492 0.0090408588659445944 0 0.040224654479853697 0.0090202904651898314 0 0.040147069733124277 0.0094447168704298885 0 0.039474799386054492 0.0090408588659445944 0 0.040224654479853697 0.0090202904651898314 0 0.040164921493087195 0.0085285721004221878 0 0.039177230148026369 0.0082668896408338056 0 0.039474799386054492 0.0090408588659445944 0 0.040164921493087195 0.0085285721004221878 0 0.040224654479853697 0.0090202904651898314 0 0.040466511529778725 0.0092882536914432115 0 0.040147069733124277 0.0094447168704298885 0 0.040647607933429461 0.0090747856750432454 0 0.040164921493087195 0.0085285721004221878 0 0.041104471012637193 0.0087896091568962654 0 0.040224654479853697 0.0090202904651898314 0 0.040647607933429461 0.0090747856750432454 0 0.040466511529778725 0.0092882536914432115 0 0.040647607933429461 0.0090747856750432454 0 0.040736723245153546 0.0092554755042690492 0 0.040466511529778725 0.0092882536914432115 0 0.037811922393730546 0.0044712940346512946 0 0.038200043916952871 0.0049740144968989748 0 0.040647607933429461 0.0090747856750432454 0 0.040623339515921272 0.0091959530483583379 0 0.040642453090958347 0.0091622960813512646 0 0.040647607933429461 0.0090747856750432454 0 0.040642453090958347 0.0091622960813512646 0 0.040736723245153546 0.0092554755042690492 0 0.040039178903957938 0.0078004866612378628 0 0.038200043916952871 0.0049740144968989748 0 0.040224654479853697 0.0090202904651898314 0 0.040647607933429461 0.0090747856750432454 0 0.040164921493087195 0.0085285721004221878 0 0.034713157940828104 0.0021906551189748848 0 0.035912591078143603 0.0007413031213905452 0 0.034434436092098064 0.00037553630582169749 0 0.034713157940828104 0.0021906551189748848 0 0.036312363660611587 0.0023453083313105779 0 0.035912591078143603 0.0007413031213905452 0 0.038719895019262207 0.0063031625645935596 0 0.037811922393730546 0.0044712940346512946 0 0.036312363660611587 0.0023453083313105779 0 0.037366660687742796 0.0011056131538967704 0 0.035912591078143603 0.0007413031213905452 0 0.028555483313484151 -0.0045192169484047978 0 0.026305229186184505 -0.0032924026692020135 0 0.028830510106776459 -0.0030505423644336016 0 0.025237148928597887 -0.003345189268947489 0 0.025007448920008796 -0.0045417404681906866 0 0.0234697063056118 -0.0035674952976702964 0 0.029398990821859979 -0.00060218105125204593 0 0.026003300744881136 -0.0009974697521687888 0 0.029398990821859979 -0.00060218105125204593 0 0.030106903598046172 -0.0037286253794470456 0 0.032929365623910904 0.0011562670274068104 0 0.033879823813785008 0.0014367064645599194 0 0.033088620866636817 0.0020251389844173698 0 0.029398990821859979 -0.00060218105125204593 0 0.038200043916952871 0.0049740144968989748 0 0.034713157940828104 0.0021906551189748848 0 0.033879823813785008 0.0014367064645599194 0 0.034434436092098064 0.00037553630582169749 0 0.032929365623910904 0.0011562670274068104 0 0.033879823813785008 0.0014367064645599194 0 0.034434436092098064 0.00037553630582169749 0 0.040642453090958347 0.0091622960813512646 0 0.040375938369314121 0.0091207027557643986 0 0.040668562322235022 0.0091177066697546386 0 0.040623339515921272 0.0091959530483583379 0 0.040642453090958347 0.0091622960813512646 0 0.040375938369314121 0.0091207027557643986 0 0.038200043916952871 0.0049740144968989748 0 0.032358045149647435 0.0026693026724137997 0 0.031526438910947127 0.0035094724256769035 0 0.03563804478720093 0.0012567380300481177 0 0.031863384690069371 0.0003571678926868528 0 0.032258535532046731 0.0048490919684982285 0 0.031463582906344094 0.004653395671929233 0 0.032665989427823477 0.0028963237139350449 0 0.031526438910947127 0.0035094724256769035 0 0.031863384690069371 0.0003571678926868528 0 0.031044566729716963 0.0008981005101670748 0 0.019113580223609442 -0.006293611470374107 0 0.019059413038238219 -0.0065646780578400591 0 0.017924809789046408 -0.0055706404171917429 0 0.032358045149647435 0.0026693026724137997 0 0.023098259401740658 -0.0015552237639162448 0 0.02687012408011023 0.0013991311052069461 0 0.026961866940416374 0.0013241688530137774 0 0.026976529410953746 0.0014216833982287056 0 0.032358045149647435 0.0026693026724137997 0 0.026003300744881136 -0.0009974697521687888 0 0.026003300744881136 -0.0009974697521687888 0 0.023098259401740658 -0.0015552237639162448 0 0.026003300744881136 -0.0009974697521687888 0 0.020272180280668361 -0.0045248960541886315 0 0.019059413038238219 -0.0065646780578400591 0 0.017924809789046408 -0.0055706404171917429 0 0.016963823056828961 -0.0070401612606767541 0 0.023098259401740658 -0.0015552237639162448 0 0.014767595939790334 -0.0077824828998460972 0 0.016834004603611386 -0.0057986979331667932 0 0.017924809789046408 -0.0055706404171917429 0 0.016963823056828961 -0.0070401612606767541 0 0.016834004603611386 -0.0057986979331667932 0 0.01610501273870096 -0.0062761392009544883 0 0.016963823056828961 -0.0070401612606767541 0 0.016834004603611386 -0.0057986979331667932 0 0.017924809789046408 -0.0055706404171917429 0 0.016803460819514508 -0.0049083705725779178 0 0.020272180280668361 -0.0045248960541886315 0 0.019792112711409317 -0.0053548396177615139 0 0.016834004603611386 -0.0057986979331667932 0 0.016803460819514508 -0.0049083705725779178 0 0.016187675106875347 -0.0055874683899338915 0 0.0234697063056118 -0.0035674952976702964 0 0.023499848503960436 -0.0024163773211421449 0 0.021908986639511886 -0.0025816277808417701 0 0.025237148928597887 -0.003345189268947489 0 0.0234697063056118 -0.0035674952976702964 0 0.023499848503960436 -0.0024163773211421449 0 0.029398990821859979 -0.00060218105125204593 0 0.024475198106209722 -0.0060735735726640616 0 0.024834820817208635 -0.0094783069078409384 0 0.02663982949742582 -0.0073761102166079477 0 0.023450175833825661 -0.0072714097926464411 0 0.024475198106209722 -0.0060735735726640616 0 0.019792112711409317 -0.0053548396177615139 0 0.024834820817208635 -0.0094783069078409384 0 0.023450175833825661 -0.0072714097926464411 0 0.021310180790676883 -0.0074559189503858722 0 0.024086895569931564 -0.0089960372629525505 0 0.021506821569396154 -0.0092575780532358209 0 0.021310180790676883 -0.0074559189503858722 0 0.024475198106209722 -0.0060735735726640616 0 0.021923861297687117 -0.0081580897796764539 0 0.021506821569396154 -0.0092575780532358209 0 0.021310180790676883 -0.0074559189503858722 0 0.019902619254208196 -0.0082592014426074601 0 0.019792112711409317 -0.0053548396177615139 0 0.018834445410753735 -0.0068782188008728474 0 0.023450175833825661 -0.0072714097926464411 0 0.021310180790676883 -0.0074559189503858722 0 0.021431074746902385 -0.0065008012178205217 0 0.021310180790676883 -0.0074559189503858722 0 0.021431074746902385 -0.0065008012178205217 0 0.019902619254208196 -0.0082592014426074601 0 0.021431074746902385 -0.0065008012178205217 0 0.022709684337616203 -0.0059090977870577613 0 0.020655225665229548 -0.0052954462712813738 0 0.021431074746902385 -0.0065008012178205217 0 0.020655225665229548 -0.0052954462712813738 0 0.020006984212726779 -0.006392453695599422 0 0.023450175833825661 -0.0072714097926464411 0 0.021431074746902385 -0.0065008012178205217 0 0.022709684337616203 -0.0059090977870577613 0 0.022709684337616203 -0.0059090977870577613 0 0.02272057811113061 -0.0042903139837398262 0 0.024911593235442491 -0.0057890839988716533 0 0.022709684337616203 -0.0059090977870577613 0 0.02272057811113061 -0.0042903139837398262 0 0.020655225665229548 -0.0052954462712813738 0 0.02272057811113061 -0.0042903139837398262 0 0.020655225665229548 -0.0052954462712813738 0 0.020295200370345694 -0.0035182651042067687 0 0.02663982949742582 -0.0073761102166079477 0 0.023450175833825661 -0.0072714097926464411 0 0.024911593235442491 -0.0057890839988716533 0 0.02663982949742582 -0.0073761102166079477 0 0.024911593235442491 -0.0057890839988716533 0 0.026786373382021323 -0.0050767734545384482 0 0.023450175833825661 -0.0072714097926464411 0 0.022709684337616203 -0.0059090977870577613 0 0.024911593235442491 -0.0057890839988716533 0 0.02272057811113061 -0.0042903139837398262 0 0.024911593235442491 -0.0057890839988716533 0 0.025126746383783979 -0.0039281236283216876 0 0.025126746383783979 -0.0039281236283216876 0 0.026786373382021323 -0.0050767734545384482 0 0.027572435082008288 -0.0027926906547941026 0 0.024911593235442491 -0.0057890839988716533 0 0.025126746383783979 -0.0039281236283216876 0 0.026786373382021323 -0.0050767734545384482 0 0.026786373382021323 -0.0050767734545384482 0 0.029582941967054421 -0.005412730112030039 0 0.027572435082008288 -0.0027926906547941026 0 0.02663982949742582 -0.0073761102166079477 0 0.026786373382021323 -0.0050767734545384482 0 0.029582941967054421 -0.005412730112030039 0 0.029505438562163398 -0.004922537972886068 0 0.030106903598046172 -0.0037286253794470456 0 0.024834820817208635 -0.0094783069078409384 0 0.02663982949742582 -0.0073761102166079477 0 0.028945419071757524 -0.0090768263750429512 0 0.02663982949742582 -0.0073761102166079477 0 0.029582941967054421 -0.005412730112030039 0 0.028945419071757524 -0.0090768263750429512 0 0.024475198106209722 -0.0060735735726640616 0 0.030106903598046172 -0.0037286253794470456 0 0.033384138375206464 -0.0010364973647565307 0 0.030106903598046172 -0.0037286253794470456 0 0.031445032603418521 -0.0046981887246555351 0 0.029726266926933063 -0.0032404035395740371 0 0.029440037667869404 -0.0048703151158815986 0 0.034713157940828104 0.0021906551189748848 0 0.033879823813785008 0.0014367064645599194 0 0.033088620866636817 0.0020251389844173698 0 0.029726266926933063 -0.0032404035395740371 0 0.030626523740676016 -0.0026101486780814392 0 0.029879015920215826 -0.0019072461440150625 0 0.031445032603418521 -0.0046981887246555351 0 0.029726266926933063 -0.0032404035395740371 0 0.030626523740676016 -0.0026101486780814392 0 0.029505438562163398 -0.004922537972886068 0 0.02993857117233082 -0.0019598963711195093 0 0.030626523740676016 -0.0026101486780814392 0 0.029879015920215826 -0.0019072461440150625 0 0.030898427934868165 -0.0010158141293370748 0 0.029879015920215826 -0.0019072461440150625 0 0.030898427934868165 -0.0010158141293370748 0 0.029456733975160614 -0.00076159332745520691 0 0.027572435082008288 -0.0027926906547941026 0 0.028103569089229917 -0.00061522760591897492 0 0.026745399920573256 -0.0013014696430161564 0 0.029582941967054421 -0.005412730112030039 0 0.029879015920215826 -0.0019072461440150625 0 0.027572435082008288 -0.0027926906547941026 0 0.027572435082008288 -0.0027926906547941026 0 0.028103569089229917 -0.00061522760591897492 0 0.029456733975160614 -0.00076159332745520691 0 0.029879015920215826 -0.0019072461440150625 0 0.027572435082008288 -0.0027926906547941026 0 0.029456733975160614 -0.00076159332745520691 0 0.028103569089229917 -0.00061522760591897492 0 0.029456733975160614 -0.00076159332745520691 0 0.029617435428706575 0.00027661392459176929 0 0.028103569089229917 -0.00061522760591897492 0 0.029617435428706575 0.00027661392459176929 0 0.028229941986549104 0.00032686063613359659 0 0.030898427934868165 -0.0010158141293370748 0 0.029617435428706575 0.00027661392459176929 0 0.030493910234734616 0.00081645933208367876 0 0.030898427934868165 -0.0010158141293370748 0 0.029456733975160614 -0.00076159332745520691 0 0.029617435428706575 0.00027661392459176929 0 0.029648602528586612 0.00027316857477975559 0 0.026790769122865103 -0.00071399726433865975 0 0.029902479940540166 0.00034695860820237417 0 0.030493910234734616 0.00081645933208367876 0 0.029841158507399705 0.00084318425499141998 0 0.029617435428706575 0.00027661392459176929 0 0.030493910234734616 0.00081645933208367876 0 0.029841158507399705 0.00084318425499141998 0 0.029902479940540166 0.00034695860820237417 0 0.029841158507399705 0.00084318425499141998 0 0.029096079700071751 0.0012917214030358525 0 0.029617435428706575 0.00027661392459176929 0 0.029841158507399705 0.00084318425499141998 0 0.029096079700071751 0.0012917214030358525 0 0.029617435428706575 0.00027661392459176929 0 0.028229941986549104 0.00032686063613359659 0 0.029096079700071751 0.0012917214030358525 0 0.028229941986549104 0.00032686063613359659 0 0.029096079700071751 0.0012917214030358525 0 0.025781759428654571 0.00043834666437379409 0 0.023259905175154284 -0.0020336428857207398 0 0.02464968452523501 -0.0027098416133255329 0 0.024742707470017097 -0.00089674749262951545 0 0.025638695350819297 0.0029841816780536061 0 0.02463294951232747 -0.0011516031948901513 0 0.02361737256743528 0.00017773439930979555 0 0.024333570887085328 0.0008725150996750702 0 0.024742707470017097 -0.00089674749262951545 0 0.023259905175154284 -0.0020336428857207398 0 0.024742707470017097 -0.00089674749262951545 0 0.023320429235458923 -0.00077615055704814587 0 0.02361737256743528 0.00017773439930979555 0 0.024742707470017097 -0.00089674749262951545 0 0.023320429235458923 -0.00077615055704814587 0 0.029902479940540166 0.00034695860820237417 0 0.02464968452523501 -0.0027098416133255329 0 0.024742707470017097 -0.00089674749262951545 0 0.029902479940540166 0.00034695860820237417 0 0.024742707470017097 -0.00089674749262951545 0 0.027359837666306851 0.0010237766670331504 0 0.026298322960511791 0.0032224516513284329 0 0.024742707470017097 -0.00089674749262951545 0 0.027359837666306851 0.0010237766670331504 0 0.028965409507193493 0.0016582945817816724 0 0.029902479940540166 0.00034695860820237417 0 0.027359837666306851 0.0010237766670331504 0 0.020269431469439641 0.00014192641401532006 0 0.020733991296479463 -0.0016967669581549772 0 0.018983085472759564 -0.0015542397927678364 0 0.02222212065806168 -1.8908757472143287e-05 0 0.020269431469439641 0.00014192641401532006 0 0.020733991296479463 -0.0016967669581549772 0 0.020733991296479463 -0.0016967669581549772 0 0.019455873356397625 -0.0031246890904302461 0 0.018983085472759564 -0.0015542397927678364 0 0.02222212065806168 -1.8908757472143287e-05 0 0.023320429235458923 -0.00077615055704814587 0 0.022277630472478906 -0.0015932994290390836 0 0.02222212065806168 -1.8908757472143287e-05 0 0.02361737256743528 0.00017773439930979555 0 0.023320429235458923 -0.00077615055704814587 0 0.023259905175154284 -0.0020336428857207398 0 0.023320429235458923 -0.00077615055704814587 0 0.022277630472478906 -0.0015932994290390836 0 0.02222212065806168 -1.8908757472143287e-05 0 0.020733991296479463 -0.0016967669581549772 0 0.022277630472478906 -0.0015932994290390836 0 0.023259905175154284 -0.0020336428857207398 0 0.022277630472478906 -0.0015932994290390836 0 0.021324498447690351 -0.0038789316615384711 0 0.023259905175154284 -0.0020336428857207398 0 0.02464968452523501 -0.0027098416133255329 0 0.021324498447690351 -0.0038789316615384711 0 0.020733991296479463 -0.0016967669581549772 0 0.022277630472478906 -0.0015932994290390836 0 0.021324498447690351 -0.0038789316615384711 0 0.026790769122865103 -0.00071399726433865975 0 0.023835101957488978 -0.0017632167197050039 0 0.020733991296479463 -0.0016967669581549772 0 0.021324498447690351 -0.0038789316615384711 0 0.019455873356397625 -0.0031246890904302461 0 0.023835101957488978 -0.0017632167197050039 0 0.019244532859601298 -0.0022737901262310052 0 0.024575348865639418 -0.0016820870488516838 0 0.019244532859601298 -0.0022737901262310052 0 0.025781759428654571 0.00043834666437379409 0 0.025355057392692198 -0.0018024863113919563 0 0.022717486629002304 -0.00081747011581444554 0 0.021324498447690351 -0.0038789316615384711 0 0.019455873356397625 -0.0031246890904302461 0 0.01854184285547477 -0.0048607999670567488 0 0.028103569089229917 -0.00061522760591897492 0 0.025781759428654571 0.00043834666437379409 0 0.026745399920573256 -0.0013014696430161564 0 0.028103569089229917 -0.00061522760591897492 0 0.028229941986549104 0.00032686063613359659 0 0.025781759428654571 0.00043834666437379409 0 0.025781759428654571 0.00043834666437379409 0 0.026745399920573256 -0.0013014696430161564 0 0.025355057392692198 -0.0018024863113919563 0 0.027249360413195919 -0.002745598910233018 0 0.024575348865639418 -0.0016820870488516838 0 0.027572435082008288 -0.0027926906547941026 0 0.026745399920573256 -0.0013014696430161564 0 0.025355057392692198 -0.0018024863113919563 0 0.025126746383783979 -0.0039281236283216876 0 0.027572435082008288 -0.0027926906547941026 0 0.023090454457205208 -0.0016189404465474049 0 0.02272057811113061 -0.0042903139837398262 0 0.025126746383783979 -0.0039281236283216876 0 0.023090454457205208 -0.0016189404465474049 0 0.023090454457205208 -0.0016189404465474049 0 0.020295200370345694 -0.0035182651042067687 0 0.019193813890702148 -0.00068582884697390657 0 0.02272057811113061 -0.0042903139837398262 0 0.023090454457205208 -0.0016189404465474049 0 0.020295200370345694 -0.0035182651042067687 0 0.020295200370345694 -0.0035182651042067687 0 0.017816868209836786 -0.0037280318198636619 0 0.019193813890702148 -0.00068582884697390657 0 0.017816868209836786 -0.0037280318198636619 0 0.015692159833676667 -0.0031916968541541783 0 0.019193813890702148 -0.00068582884697390657 0 0.017816868209836786 -0.0037280318198636619 0 0.015692159833676667 -0.0031916968541541783 0 0.01589511282048656 -0.0052824716744178154 0 0.015692159833676667 -0.0031916968541541783 0 0.015679272823550344 -0.0028109703120121608 0 0.01618533291709193 -0.0029768670082820272 0 0.015869493495238526 -0.0033693282184349611 0 0.019244532859601298 -0.0022737901262310052 0 0.015286101045613679 -0.0030393897391597195 0 0.019244532859601298 -0.0022737901262310052 0 0.016568252030683888 -0.0038641587654282541 0 0.01854184285547477 -0.0048607999670567488 0 0.018091808651278341 -0.0031576485563510662 0 0.019455873356397625 -0.0031246890904302461 0 0.01854184285547477 -0.0048607999670567488 0 0.018091808651278341 -0.0031576485563510662 0 0.018091808651278341 -0.0031576485563510662 0 0.017076466653808575 -0.0023438394275027996 0 0.018983085472759564 -0.0015542397927678364 0 0.019455873356397625 -0.0031246890904302461 0 0.018091808651278341 -0.0031576485563510662 0 0.018983085472759564 -0.0015542397927678364 0 0.016568252030683888 -0.0038641587654282541 0 0.018091808651278341 -0.0031576485563510662 0 0.017076466653808575 -0.0023438394275027996 0 0.016568252030683888 -0.0038641587654282541 0 0.017076466653808575 -0.0023438394275027996 0 0.015956241661673396 -0.0024449929354393172 0 0.017076466653808575 -0.0023438394275027996 0 0.016075764839733636 -0.0016124416217499354 0 0.015956241661673396 -0.0024449929354393172 0 0.017076466653808575 -0.0023438394275027996 0 0.017210217560581022 -0.0013406022911509731 0 0.016075764839733636 -0.0016124416217499354 0 0.01784856388321527 -0.00069501852313299259 0 0.017210217560581022 -0.0013406022911509731 0 0.018983085472759564 -0.0015542397927678364 0 0.017076466653808575 -0.0023438394275027996 0 0.017210217560581022 -0.0013406022911509731 0 0.018983085472759564 -0.0015542397927678364 0 0.018067005642189656 -0.00017960972301785032 0 0.018883858822310671 -0.001492092488530506 0 0.015085068364771106 -0.0012235504629663566 0 0.014358161875498352 -0.0017399776981817138 0 0.015023945419946312 -0.0019773235073633302 0 0.014358161875498352 -0.0017399776981817138 0 0.015023945419946312 -0.0019773235073633302 0 0.014331575521795157 -0.002383755870203431 0 0.015085068364771106 -0.0012235504629663566 0 0.015023945419946312 -0.0019773235073633302 0 0.016075764839733636 -0.0016124416217499354 0 0.015023945419946312 -0.0019773235073633302 0 0.016075764839733636 -0.0016124416217499354 0 0.015956241661673396 -0.0024449929354393172 0 0.015023945419946312 -0.0019773235073633302 0 0.015956241661673396 -0.0024449929354393172 0 0.015011531718876045 -0.0027201737813726005 0 0.016568252030683888 -0.0038641587654282541 0 0.015956241661673396 -0.0024449929354393172 0 0.015011531718876045 -0.0027201737813726005 0 0.015869493495238526 -0.0033693282184349611 0 0.01522316124357106 -0.0028329269292883116 0 0.015011531718876045 -0.0027201737813726005 0 0.014331575521795157 -0.002383755870203431 0 0.014166418094115894 -0.0030162666456368717 0 0.015023945419946312 -0.0019773235073633302 0 0.015011531718876045 -0.0027201737813726005 0 0.014331575521795157 -0.002383755870203431 0 0.013417014987369722 -0.0039384075351122675 0 0.014166418094115894 -0.0030162666456368717 0 0.014590724723767629 -0.003366858519817011 0 0.015011531718876045 -0.0027201737813726005 0 0.014166418094115894 -0.0030162666456368717 0 0.014590724723767629 -0.003366858519817011 0 0.015011531718876045 -0.0027201737813726005 0 0.015254429887581446 -0.0030274276466626601 0 0.014590724723767629 -0.003366858519817011 0 0.015679272823550344 -0.0028109703120121608 0 0.015011531718876045 -0.0027201737813726005 0 0.015254429887581446 -0.0030274276466626601 0 0.015692159833676667 -0.0031916968541541783 0 0.015679272823550344 -0.0028109703120121608 0 0.015254429887581446 -0.0030274276466626601 0 0.015692159833676667 -0.0031916968541541783 0 0.015254429887581446 -0.0030274276466626601 0 0.014590724723767629 -0.003366858519817011 0 0.015692159833676667 -0.0031916968541541783 0 0.014590724723767629 -0.003366858519817011 0 0.014524331784366471 -0.0049704380671448719 0 0.013417014987369722 -0.0039384075351122675 0 0.014590724723767629 -0.003366858519817011 0 0.014524331784366471 -0.0049704380671448719 0 0.013417014987369722 -0.0039384075351122675 0 0.013333927601240688 -0.0056381866884630382 0 0.014524331784366471 -0.0049704380671448719 0 0.013333927601240688 -0.0056381866884630382 0 0.014046790962369569 -0.0064474506468011235 0 0.014524331784366471 -0.0049704380671448719 0 0.012991904964170973 -0.0066303537542395435 0 0.013333927601240688 -0.0056381866884630382 0 0.014046790962369569 -0.0064474506468011235 0 0.014046790962369569 -0.0064474506468011235 0 0.015131073789632486 -0.0064141821711499484 0 0.014524331784366471 -0.0049704380671448719 0 0.015692159833676667 -0.0031916968541541783 0 0.014524331784366471 -0.0049704380671448719 0 0.01589511282048656 -0.0052824716744178154 0 0.015131073789632486 -0.0064141821711499484 0 0.014524331784366471 -0.0049704380671448719 0 0.01589511282048656 -0.0052824716744178154 0 0.017816868209836786 -0.0037280318198636619 0 0.01589511282048656 -0.0052824716744178154 0 0.018584126906806619 -0.0055936662473294891 0 0.01589511282048656 -0.0052824716744178154 0 0.018584126906806619 -0.0055936662473294891 0 0.019664571397811914 -0.0082869753291052329 0 0.020655225665229548 -0.0052954462712813738 0 0.020295200370345694 -0.0035182651042067687 0 0.018584126906806619 -0.0055936662473294891 0 0.020295200370345694 -0.0035182651042067687 0 0.017816868209836786 -0.0037280318198636619 0 0.018584126906806619 -0.0055936662473294891 0 0.018584126906806619 -0.0055936662473294891 0 0.020006984212726779 -0.006392453695599422 0 0.019664571397811914 -0.0082869753291052329 0 0.020655225665229548 -0.0052954462712813738 0 0.018584126906806619 -0.0055936662473294891 0 0.020006984212726779 -0.006392453695599422 0 0.01589511282048656 -0.0052824716744178154 0 0.01637441496378178 -0.0061451173036203288 0 0.016739205354034861 -0.0061028582397682453 0 0.01938937314288175 -0.0061334281810991355 0 0.018228562530943362 -0.0053591627260868172 0 0.017359753692298294 -0.0063172168659241471 0 0.020915055225457859 -0.0066764089410809172 0 0.018834445410753735 -0.0068782188008728474 0 0.021431074746902385 -0.0065008012178205217 0 0.020006984212726779 -0.006392453695599422 0 0.019664571397811914 -0.0082869753291052329 0 0.018834445410753735 -0.0068782188008728474 0 0.016425576856867546 -0.0061721710466184328 0 0.01637441496378178 -0.0061451173036203288 0 0.016739205354034861 -0.0061028582397682453 0 0.016421561130410548 -0.0065027739324513304 0 0.01637441496378178 -0.0061451173036203288 0 0.016062646482720624 -0.0063295525665207353 0 0.016421561130410548 -0.0065027739324513304 0 0.01589511282048656 -0.0052824716744178154 0 0.01637441496378178 -0.0061451173036203288 0 0.015837832824066811 -0.0061474538070951344 0 0.015131073789632486 -0.0064141821711499484 0 0.01589511282048656 -0.0052824716744178154 0 0.015837832824066811 -0.0061474538070951344 0 0.015786737075158656 -0.0054542712614724098 0 0.018834445410753735 -0.0068782188008728474 0 0.01637441496378178 -0.0061451173036203288 0 0.016062646482720624 -0.0063295525665207353 0 0.015837832824066811 -0.0061474538070951344 0 0.016062646482720624 -0.0063295525665207353 0 0.015837832824066811 -0.0061474538070951344 0 0.015697123468812073 -0.0065846147045397953 0 0.015131073789632486 -0.0064141821711499484 0 0.015837832824066811 -0.0061474538070951344 0 0.015697123468812073 -0.0065846147045397953 0 0.016425576856867546 -0.0061721710466184328 0 0.014938734104133385 -0.0068345206165773432 0 0.015697123468812073 -0.0065846147045397953 0 0.016421561130410548 -0.0065027739324513304 0 0.01518941715157284 -0.0074265326690217716 0 0.015659852712208346 -0.0050745955221142792 0 0.015472415316754091 -0.0060324904547891609 0 0.014704105435534253 -0.0063968808477017315 0 0.015131073789632486 -0.0064141821711499484 0 0.015697123468812073 -0.0065846147045397953 0 0.01518941715157284 -0.0074265326690217716 0 0.016062646482720624 -0.0063295525665207353 0 0.015697123468812073 -0.0065846147045397953 0 0.016421561130410548 -0.0065027739324513304 0 0.016803460819514508 -0.0049083705725779178 0 0.015659852712208346 -0.0050745955221142792 0 0.016187675106875347 -0.0055874683899338915 0 0.019792112711409317 -0.0053548396177615139 0 0.016425576856867546 -0.0061721710466184328 0 0.016187675106875347 -0.0055874683899338915 0 0.01610501273870096 -0.0062761392009544883 0 0.015472415316754091 -0.0060324904547891609 0 0.015659852712208346 -0.0050745955221142792 0 0.016187675106875347 -0.0055874683899338915 0 0.015472415316754091 -0.0060324904547891609 0 0.016834004603611386 -0.0057986979331667932 0 0.016187675106875347 -0.0055874683899338915 0 0.01610501273870096 -0.0062761392009544883 0 0.01610501273870096 -0.0062761392009544883 0 0.015472415316754091 -0.0060324904547891609 0 0.015035939000736718 -0.0072614654086000886 0 0.01610501273870096 -0.0062761392009544883 0 0.015035939000736718 -0.0072614654086000886 0 0.016963823056828961 -0.0070401612606767541 0 0.015472415316754091 -0.0060324904547891609 0 0.014704105435534253 -0.0063968808477017315 0 0.015035939000736718 -0.0072614654086000886 0 0.014938734104133385 -0.0068345206165773432 0 0.014383352325684228 -0.0075700590783999424 0 0.01518941715157284 -0.0074265326690217716 0 0.014476204344155787 -0.0072987805202452136 0 0.014308469577916363 -0.0076361361434402093 0 0.014476204344155787 -0.0072987805202452136 0 0.014067980499289406 -0.0075362588202121461 0 0.014308469577916363 -0.0076361361434402093 0 0.013163283940110114 -0.0073871832890179722 0 0.013662990820033175 -0.0076762270288980314 0 0.014067980499289406 -0.0075362588202121461 0 0.013163283940110114 -0.0073871832890179722 0 0.014067980499289406 -0.0075362588202121461 0 0.013767207586433666 -0.0071113539834725742 0 0.014476204344155787 -0.0072987805202452136 0 0.014067980499289406 -0.0075362588202121461 0 0.013767207586433666 -0.0071113539834725742 0 0.014046790962369569 -0.0064474506468011235 0 0.014476204344155787 -0.0072987805202452136 0 0.013767207586433666 -0.0071113539834725742 0 0.012991904964170973 -0.0066303537542395435 0 0.014046790962369569 -0.0064474506468011235 0 0.013767207586433666 -0.0071113539834725742 0 0.014046790962369569 -0.0064474506468011235 0 0.015131073789632486 -0.0064141821711499484 0 0.014476204344155787 -0.0072987805202452136 0 0.015131073789632486 -0.0064141821711499484 0 0.01518941715157284 -0.0074265326690217716 0 0.014476204344155787 -0.0072987805202452136 0 0.014690829245848179 -0.007515097675664429 0 0.01455617742177596 -0.0075983289964557769 0 0.014348588360748638 -0.0076633749286003057 0 0.014690829245848179 -0.007515097675664429 0 0.014348588360748638 -0.0076633749286003057 0 0.014308469577916363 -0.0076361361434402093 0 0.014222385386626762 -0.0076893711591197265 0 0.014218847949718753 -0.0077693665277100889 0 0.01455617742177596 -0.0075983289964557769 0 0.014898003123186137 -0.0075278206573042919 0 0.014391715796876448 -0.0076389069579930052 0 0.014222385386626762 -0.0076893711591197265 0 0.014348588360748638 -0.0076633749286003057 0 0.014087497992372577 -0.0078266930215029219 0 0.014222385386626762 -0.0076893711591197265 0 0.01455617742177596 -0.0075983289964557769 0 0.014348588360748638 -0.0076633749286003057 0 0.014348588360748638 -0.0076633749286003057 0 0.014308469577916363 -0.0076361361434402093 0 0.014087497992372577 -0.0078266930215029219 0 0.013662990820033175 -0.0076762270288980314 0 0.014067980499289406 -0.0075362588202121461 0 0.014087497992372577 -0.0078266930215029219 0 0.014067980499289406 -0.0075362588202121461 0 0.014308469577916363 -0.0076361361434402093 0 0.014087497992372577 -0.0078266930215029219 0 0.014704105435534253 -0.0063968808477017315 0 0.014308469577916363 -0.0076361361434402093 0 0.014681127932030698 -0.0072926658235030646 0 0.014690829245848179 -0.007515097675664429 0 0.014308469577916363 -0.0076361361434402093 0 0.014681127932030698 -0.0072926658235030646 0 0.014704105435534253 -0.0063968808477017315 0 0.014681127932030698 -0.0072926658235030646 0 0.015035939000736718 -0.0072614654086000886 0 0.014690829245848179 -0.007515097675664429 0 0.014681127932030698 -0.0072926658235030646 0 0.015035939000736718 -0.0072614654086000886 0 0.01574880272099978 -0.0069283005693209412 0 0.014767595939790334 -0.0077824828998460972 0 0.015035939000736718 -0.0072614654086000886 0 0.015197090838344775 -0.0072038283116828633 0 0.015368045824435066 -0.0067836084840846803 0 0.015035939000736718 -0.0072614654086000886 0 0.015197090838344775 -0.0072038283116828633 0 0.015000419403992967 -0.0073512245463928719 0 0.015197090838344775 -0.0072038283116828633 0 0.015000419403992967 -0.0073512245463928719 0 0.015055174220109123 -0.007388510180024766 0 0.014690829245848179 -0.007515097675664429 0 0.015035939000736718 -0.0072614654086000886 0 0.015000419403992967 -0.0073512245463928719 0 0.014690829245848179 -0.007515097675664429 0 0.015000419403992967 -0.0073512245463928719 0 0.014898753436553011 -0.0074280401119467682 0 0.014898753436553011 -0.0074280401119467682 0 0.015055174220109123 -0.007388510180024766 0 0.014925933484562729 -0.0073747859340240517 0 0.014690829245848179 -0.007515097675664429 0 0.014898753436553011 -0.0074280401119467682 0 0.014836027465522887 -0.0074321720510110911 0 0.014898753436553011 -0.0074280401119467682 0 0.014925933484562729 -0.0073747859340240517 0 0.014836027465522887 -0.0074321720510110911 0 0.015000419403992967 -0.0073512245463928719 0 0.014898753436553011 -0.0074280401119467682 0 0.015055174220109123 -0.007388510180024766 0 0.015055174220109123 -0.007388510180024766 0 0.014895829444895935 -0.0073138037648275978 0 0.015308565564569264 -0.0074732769325890364 0 0.015055174220109123 -0.007388510180024766 0 0.014895829444895935 -0.0073138037648275978 0 0.014925933484562729 -0.0073747859340240517 0 0.014895829444895935 -0.0073138037648275978 0 0.01495189429384137 -0.0072869909168736544 0 0.01503596378310665 -0.0069138847409826844 0 0.014895829444895935 -0.0073138037648275978 0 0.014925933484562729 -0.0073747859340240517 0 0.01495189429384137 -0.0072869909168736544 0 0.014925933484562729 -0.0073747859340240517 0 0.01495189429384137 -0.0072869909168736544 0 0.014836027465522887 -0.0074321720510110911 0 0.01495189429384137 -0.0072869909168736544 0 0.015029020990885024 -0.0072642373030125419 0 0.01503596378310665 -0.0069138847409826844 0 0.014870717769127349 -0.0073503298246387575 0 0.014836027465522887 -0.0074321720510110911 0 0.014753720928666501 -0.0073949595545973303 0 0.015029020990885024 -0.0072642373030125419 0 0.014870717769127349 -0.0073503298246387575 0 0.014810025833375149 -0.0073784722085711305 0 0.015029020990885024 -0.0072642373030125419 0 0.014870717769127349 -0.0073503298246387575 0 0.014836027465522887 -0.0074321720510110911 0 0.01495189429384137 -0.0072869909168736544 0 0.015029020990885024 -0.0072642373030125419 0 0.014836027465522887 -0.0074321720510110911 0 0.014690829245848179 -0.007515097675664429 0 0.01455617742177596 -0.0075983289964557769 0 0.014836027465522887 -0.0074321720510110911 0 0.01455617742177596 -0.0075983289964557769 0 0.014836027465522887 -0.0074321720510110911 0 0.014753720928666501 -0.0073949595545973303 0 0.014746642187772064 -0.0074857291755081063 0 0.01455617742177596 -0.0075983289964557769 0 0.014753720928666501 -0.0073949595545973303 0 0.014706355749920812 -0.0074121728764751397 0 0.014733860868360281 -0.0074345573468597081 0 0.014753720928666501 -0.0073949595545973303 0 0.014870717769127349 -0.0073503298246387575 0 0.014753720928666501 -0.0073949595545973303 0 0.014810025833375149 -0.0073784722085711305 0 0.014706355749920812 -0.0074121728764751397 0 0.014753720928666501 -0.0073949595545973303 0 0.014810025833375149 -0.0073784722085711305 0 0.014706355749920812 -0.0074121728764751397 0 0.014810025833375149 -0.0073784722085711305 0 0.014761054907143268 -0.0075451548448726979 0 0.014953595431193879 -0.00761633985022104 0 0.014414124598440162 -0.0062494125280288118 0 0.014933759233986653 -0.0069716240583429789 0 0.0150688415250958 -0.0067542167554651934 0 0.01503596378310665 -0.0069138847409826844 0 0.015029020990885024 -0.0072642373030125419 0 0.01568218881171184 -0.0067498291778097554 0 0.015216208090115679 -0.0068985527070717072 0 0.015029020990885024 -0.0072642373030125419 0 0.014810025833375149 -0.0073784722085711305 0 0.014761054907143268 -0.0075451548448726979 0 0.015202713501504402 -0.0074065529680360492 0 0.014414124598440162 -0.0062494125280288118 0 0.013805507216945147 -0.0049471426549097487 0 0.015227353250435099 -0.0074722900165637828 0 0.015241499576117297 -0.0066749387818018308 0 0.015181629076744196 -0.006293625820980326 0 0.01503596378310665 -0.0069138847409826844 0 0.015216208090115679 -0.0068985527070717072 0 0.015241499576117297 -0.0066749387818018308 0 0.01503596378310665 -0.0069138847409826844 0 0.015029020990885024 -0.0072642373030125419 0 0.015216208090115679 -0.0068985527070717072 0 0.01503596378310665 -0.0069138847409826844 0 0.01568218881171184 -0.0067498291778097554 0 0.015216208090115679 -0.0068985527070717072 0 0.015241499576117297 -0.0066749387818018308 0 0.01568218881171184 -0.0067498291778097554 0 0.015241499576117297 -0.0066749387818018308 0 0.015181629076744196 -0.006293625820980326 0 0.014933759233986653 -0.0069716240583429789 0 0.014980902334385917 -0.0071852816512957031 0 0.0150688415250958 -0.0067542167554651934 0 0.011610590748195536 -0.0031712389651133081 0 0.012503509954202408 -0.0030652004998075852 0 0.011811054836794141 -0.0026412182223295414 0 0.013805507216945147 -0.0049471426549097487 0 0.014426702917400034 -0.0051232348577110063 0 0.014414124598440162 -0.0062494125280288118 0 0.013805507216945147 -0.0049471426549097487 0 0.012514615608024245 -0.0042496641072949405 0 0.011610590748195536 -0.0031712389651133081 0 0.012503509954202408 -0.0030652004998075852 0 0.013880047522654107 -0.0032191938544513768 0 0.012514615608024245 -0.0042496641072949405 0 0.012503509954202408 -0.0030652004998075852 0 0.013379041892585984 5.1306507494164368e-05 0 0.012548813598184881 0.010607288675124362 0 0.012503509954202408 -0.0030652004998075852 0 0.012704712485360608 -0.0020436391922776793 0 0.011811054836794141 -0.0026412182223295414 0 0.011117734105128223 0.0054440243352682476 0 0.011036647922767621 0.0053258433587295281 0 0.011076563807257141 0.0055252567757344898 0 0.0120495755573634 0.0018265261036331157 0 0.013379041892585984 5.1306507494164368e-05 0 0.013496170962314409 -0.0041476310076540828 0 0.014240777955401823 -0.0022508754207598643 0 0.012716045844606359 -0.003231746351673196 0 0.013805507216945147 -0.0049471426549097487 0 0.013379041892585984 5.1306507494164368e-05 0 0.015896382026901447 0.0027833146660107442 0 0.015273806815060294 0.002371399946884005 0 0.015224518339132981 0.0043839999934562864 0 0.013379041892585984 5.1306507494164368e-05 0 0.014426702917400034 -0.0051232348577110063 0 0.016093977557404528 0.015632248716453127 0 0.014252642453430345 0.015316370243554927 0 0.016195412240344979 0.014408409399786895 0 0.01603904772356313 0.0099324744399037507 0 0.012548813598184881 0.010607288675124362 0 0.015896382026901447 0.0027833146660107442 0 0.015224518339132981 0.0043839999934562864 0 0.016606697599501792 0.0046763980274438753 0 0.0095664447147576839 0.011881238752686154 0 0.012548813598184881 0.010607288675124362 0 0.0083454998857537942 0.018295364337057342 0 0.0093722486106937869 0.018437289091800608 0 0.0088055138423166531 0.018026480604654463 0 0.011120645604038918 0.0055398060233204979 0 0.011117734105128223 0.0054440243352682476 0 0.011076563807257141 0.0055252567757344898 0 0.021449630435137295 0.0034976539148213379 0 0.017438141830537348 0.0038993863220310523 0 0.019314452111670155 0.0072564938271473508 0 0.020108074371296383 0.0083046516287301943 0 0.020954480906467253 0.0075762607620456224 0 0.021449630435137295 0.0034976539148213379 0 0.021746063715786176 0.015794714216443798 0 0.020230391104155986 0.008465228084839866 0 0.020108074371296383 0.0083046516287301943 0 0.020954480906467253 0.0075762607620456224 0 0.021212199708064827 0.018600327158720262 0 0.021746063715786176 0.015794714216443798 0 0.021212199708064827 0.018600327158720262 0 0.016609457511351622 0.018527640479501568 0 0.021212199708064827 0.018600327158720262 0 0.017438141830537348 0.0038993863220310523 0 0.018900899976366171 0.014887185930503042 0 0.017959704838892161 0.015954242719606507 0 0.016195412240344979 0.014408409399786895 0 0.01603904772356313 0.0099324744399037507 0 0.017438141830537348 0.0038993863220310523 0 0.016093977557404528 0.015632248716453127 0 0.017959704838892161 0.015954242719606507 0 0.016195412240344979 0.014408409399786895 0 0.014237588295221286 -0.0082710926919911144 0 0.016136347468516461 -0.010480053705231937 0 0.016541812429615048 -0.0088033903888562123 0 0.014426702917400034 -0.0051232348577110063 0 0.017438141830537348 0.0038993863220310523 0 0.015273806815060294 0.002371399946884005 0 0.015224518339132981 0.0043839999934562864 0 0.013851415200168525 0.0041076012112900018 0 0.018331309576467985 -0.010176589195768282 0 0.016541812429615048 -0.0088033903888562123 0 0.017863117676817128 -0.0077706775243928687 0 0.018331309576467985 -0.010176589195768282 0 0.016136347468516461 -0.010480053705231937 0 0.016541812429615048 -0.0088033903888562123 0 0.016541812429615048 -0.0088033903888562123 0 0.017863117676817128 -0.0077706775243928687 0 0.016314229450670951 -0.0069493469207939865 0 0.017863117676817128 -0.0077706775243928687 0 0.016314229450670951 -0.0069493469207939865 0 0.017221363181793171 -0.0058988308737542017 0 0.017863117676817128 -0.0077706775243928687 0 0.017221363181793171 -0.0058988308737542017 0 0.01887161469416522 -0.0062484305803771475 0 0.014237588295221286 -0.0082710926919911144 0 0.016541812429615048 -0.0088033903888562123 0 0.016314229450670951 -0.0069493469207939865 0 0.014426702917400034 -0.0051232348577110063 0 0.015982931887798011 -0.0075105916849705391 0 0.014980902334385917 -0.0071852816512957031 0 0.016314229450670951 -0.0069493469207939865 0 0.0150688415250958 -0.0067542167554651934 0 0.014895829444895935 -0.0073138037648275978 0 0.0150688415250958 -0.0067542167554651934 0 0.01503596378310665 -0.0069138847409826844 0 0.017206533787889548 -0.004073827714501029 0 0.0150688415250958 -0.0067542167554651934 0 0.017221363181793171 -0.0058988308737542017 0 0.016492852088915103 -0.0054294471787946982 0 0.014993595813277704 -0.0067342572184529177 0 0.016314229450670951 -0.0069493469207939865 0 0.0150688415250958 -0.0067542167554651934 0 0.017221363181793171 -0.0058988308737542017 0 0.017206533787889548 -0.004073827714501029 0 0.017221363181793171 -0.0058988308737542017 0 0.01887161469416522 -0.0062484305803771475 0 0.017206533787889548 -0.004073827714501029 0 0.020039598455257462 -0.0043587187224368128 0 0.01887161469416522 -0.0062484305803771475 0 0.020039598455257462 -0.0043587187224368128 0 0.01887161469416522 -0.0062484305803771475 0 0.021608962569650978 -0.0066242225317767797 0 0.043075230978922893 0.014030686174992495 0 0.043271020471989802 0.014336492583419805 0 0.043151735528627444 0.012880608584741788 0 0.033587901615345597 0.0060167035798022062 0 0.033301821567027524 0.0055030494680498891 0 0.043075230978922893 0.014030686174992495 0 0.0424255215498665 0.013527769914486938 0 0.043151735528627444 0.012880608584741788 0 0.020039598455257462 -0.0043587187224368128 0 0.021608962569650978 -0.0066242225317767797 0 0.022467180479240699 -0.0030804646420490947 0 0.043274949533086041 0.014351004713831625 0 0.043434472254383703 0.015670989310411502 0 0.042695713915153227 0.014725068154256938 0 0.043075230978922893 0.014030686174992495 0 0.043274949533086041 0.014351004713831625 0 0.042695713915153227 0.014725068154256938 0 0.040871138309346466 0.0137243822889554 0 0.033587901615345597 0.0060167035798022062 0 0.01887161469416522 -0.0062484305803771475 0 0.021608962569650978 -0.0066242225317767797 0 0.019876759435399689 -0.0085097718559999369 0 0.017863117676817128 -0.0077706775243928687 0 0.01887161469416522 -0.0062484305803771475 0 0.019876759435399689 -0.0085097718559999369 0 0.033587901615345597 0.0060167035798022062 0 0.02281098006912306 -0.0032102884924751925 0 0.018331309576467985 -0.010176589195768282 0 0.017863117676817128 -0.0077706775243928687 0 0.019876759435399689 -0.0085097718559999369 0 0.021449630435137295 0.0034976539148213379 0 0.036692603536592698 0.013934834979254691 0 0.026713045929150803 0.0035757051173142774 0 0.028590471810692849 0.0058432106989805789 0 0.029663403563267503 0.00412839997440717 0 0.021449630435137295 0.0034976539148213379 0 0.02281098006912306 -0.0032102884924751925 0 0.043434472254383703 0.015670989310411502 0 0.042212161568211858 0.015538472679694628 0 0.042695713915153227 0.014725068154256938 0 0.041863771752530726 0.018948488425026298 0 0.04077875869466361 0.019707073486800213 0 0.040350134144879306 0.018593231266085454 0 0.030442499099517777 0.0080890940675168027 0 0.028590471810692849 0.0058432106989805789 0 0.029663403563267503 0.00412839997440717 0 0.036692603536592698 0.013934834979254691 0 0.042629283762511259 0.017587272583237036 0 0.033587901615345597 0.0060167035798022062 0 0.036692603536592698 0.013934834979254691 0 0.041863771752530726 0.018948488425026298 0 0.041594421471728565 0.019612610388177222 0 0.041854827117762339 0.019422439681112874 0 0.041863771752530726 0.018948488425026298 0 0.041854827117762339 0.019422439681112874 0 0.041956469462248847 0.019449050778732258 0 0.041594421471728565 0.019612610388177222 0 0.041977873771117717 0.01945031183506149 0 0.041512673323192598 0.020587590825910374 0 0.036692603536592698 0.013934834979254691 0 0.032115878791871069 0.019807272358775128 0 0.041863771752530726 0.018948488425026298 0 0.041594421471728565 0.019612610388177222 0 0.04077875869466361 0.019707073486800213 0 0.041594421471728565 0.019612610388177222 0 0.041854827117762339 0.019422439681112874 0 0.041977873771117717 0.01945031183506149 0 0.033288402194018234 0.020003792757369455 0 0.032115878791871069 0.019807272358775128 0 0.041594421471728565 0.019612610388177222 0 0.04077875869466361 0.019707073486800213 0 0.041512673323192598 0.020587590825910374 0 0.021746063715786176 0.015794714216443798 0 0.032115878791871069 0.019807272358775128 0 0.024775635367618544 0.023072491670874423 0 0.0246933529484363 0.023025623543738129 0 0.024729245705199503 0.023178941884522707 0 0.025232491018538781 0.01463001498902468 0 0.022107813337104418 0.010743232757358031 0 0.03130575882666671 0.012987832014456038 0 0.025232491018538781 0.01463001498902468 0 0.03184826797075483 0.015842153338421538 0 0.03130575882666671 0.012987832014456038 0 0.039344418903027721 0.019668200359653536 0 0.04077875869466361 0.019707073486800213 0 0.040350134144879306 0.018593231266085454 0 0.042629283762511259 0.017587272583237036 0 0.03957833240879384 0.01676038095196454 0 0.039344418903027721 0.019668200359653536 0 0.040350134144879306 0.018593231266085454 0 0.038970325159183868 0.018137131918792525 0 0.042212161568211858 0.015538472679694628 0 0.041926955207034128 0.014427556789693589 0 0.040847063596254396 0.015565698085280865 0 0.041926955207034128 0.014427556789693589 0 0.041067570075540009 0.013965745300616906 0 0.040847063596254396 0.015565698085280865 0 0.042212161568211858 0.015538472679694628 0 0.041926955207034128 0.014427556789693589 0 0.042695713915153227 0.014725068154256938 0 0.041926955207034128 0.014427556789693589 0 0.042695713915153227 0.014725068154256938 0 0.04252635927209851 0.014153521791468377 0 0.043075230978922893 0.014030686174992495 0 0.042695713915153227 0.014725068154256938 0 0.04252635927209851 0.014153521791468377 0 0.041926955207034128 0.014427556789693589 0 0.0424255215498665 0.013527769914486938 0 0.041726332955623009 0.013374281312366728 0 0.043075230978922893 0.014030686174992495 0 0.04252635927209851 0.014153521791468377 0 0.0424255215498665 0.013527769914486938 0 0.041926955207034128 0.014427556789693589 0 0.04252635927209851 0.014153521791468377 0 0.0424255215498665 0.013527769914486938 0 0.041926955207034128 0.014427556789693589 0 0.041726332955623009 0.013374281312366728 0 0.041067570075540009 0.013965745300616906 0 0.041726332955623009 0.013374281312366728 0 0.041166226242671133 0.012776861628267838 0 0.041067570075540009 0.013965745300616906 0 0.041726332955623009 0.013374281312366728 0 0.042178103885375469 0.012360902325047525 0 0.041166226242671133 0.012776861628267838 0 0.041490887534901801 0.011907066737867013 0 0.042178103885375469 0.012360902325047525 0 0.041166226242671133 0.012776861628267838 0 0.041490887534901801 0.011907066737867013 0 0.041994161828520345 0.011386556848374522 0 0.041102004014696616 0.011121181572880577 0 0.041490887534901801 0.011907066737867013 0 0.041994161828520345 0.011386556848374522 0 0.042178103885375469 0.012360902325047525 0 0.042178103885375469 0.012360902325047525 0 0.043151735528627444 0.012880608584741788 0 0.042902791006992895 0.011324674923954791 0 0.041994161828520345 0.011386556848374522 0 0.042178103885375469 0.012360902325047525 0 0.042902791006992895 0.011324674923954791 0 0.0424255215498665 0.013527769914486938 0 0.042178103885375469 0.012360902325047525 0 0.043151735528627444 0.012880608584741788 0 0.0424255215498665 0.013527769914486938 0 0.041726332955623009 0.013374281312366728 0 0.042178103885375469 0.012360902325047525 0 0.017206533787889548 -0.004073827714501029 0 0.020039598455257462 -0.0043587187224368128 0 0.020100664697300107 -0.0016145489252446699 0 0.020039598455257462 -0.0043587187224368128 0 0.022467180479240699 -0.0030804646420490947 0 0.020100664697300107 -0.0016145489252446699 0 0.016492852088915103 -0.0054294471787946982 0 0.015997333853043222 -0.0056454948550392989 0 0.015055174220109123 -0.007388510180024766 0 0.015308565564569264 -0.0074732769325890364 0 0.015370334993885171 -0.0072888946912276036 0 0.033301821567027524 0.0055030494680498891 0 0.027889769797540525 0.0013476813043295278 0 0.015997333853043222 -0.0056454948550392989 0 0.027889769797540525 0.0013476813043295278 0 0.015308565564569264 -0.0074732769325890364 0 0.015887255059601049 -0.0072726609134056829 0 0.015370334993885171 -0.0072888946912276036 0 0.022467180479240699 -0.0030804646420490947 0 0.020100664697300107 -0.0016145489252446699 0 0.023273684707152111 0.00077490302245640757 0 0.015887255059601049 -0.0072726609134056829 0 0.015556501610653256 -0.007101127151796202 0 0.016017552942923931 -0.0069194803355410641 0 0.015887255059601049 -0.0072726609134056829 0 0.015556501610653256 -0.007101127151796202 0 0.015370334993885171 -0.0072888946912276036 0 0.015197090838344775 -0.0072038283116828633 0 0.015055174220109123 -0.007388510180024766 0 0.015370334993885171 -0.0072888946912276036 0 0.015197090838344775 -0.0072038283116828633 0 0.015556501610653256 -0.007101127151796202 0 0.015370334993885171 -0.0072888946912276036 0 0.015197090838344775 -0.0072038283116828633 0 0.015556501610653256 -0.007101127151796202 0 0.015368045824435066 -0.0067836084840846803 0 0.015556501610653256 -0.007101127151796202 0 0.015368045824435066 -0.0067836084840846803 0 0.016017552942923931 -0.0069194803355410641 0 0.016163651500276578 -0.0064351857979523409 0 0.015368045824435066 -0.0067836084840846803 0 0.016017552942923931 -0.0069194803355410641 0 0.031463582906344094 0.004653395671929233 0 0.030912881178367692 0.0016707598331136228 0 0.032665989427823477 0.0028963237139350449 0 0.023098259401740658 -0.0015552237639162448 0 0.023208829765653693 -0.0035817242919330252 0 0.030912881178367692 0.0016707598331136228 0 0.032665989427823477 0.0028963237139350449 0 0.033014479417331682 0.00065648507470530515 0 0.04148969586605656 0.010664272912912918 0 0.042053161527448799 0.010650246280420494 0 0.041218966141948553 0.0099761673915444958 0 0.032665989427823477 0.0028963237139350449 0 0.033014479417331682 0.00065648507470530515 0 0.035692807825390874 0.0026493527028046853 0 0.032358045149647435 0.0026693026724137997 0 0.039738323874101679 0.0073275925240550563 0 0.038722045216027151 0.0064105986707092538 0 0.039738323874101679 0.0073275925240550563 0 0.032258535532046731 0.0048490919684982285 0 0.032665989427823477 0.0028963237139350449 0 0.035692807825390874 0.0026493527028046853 0 0.04148969586605656 0.010664272912912918 0 0.041102004014696616 0.011121181572880577 0 0.041218966141948553 0.0099761673915444958 0 0.041994161828520345 0.011386556848374522 0 0.04148969586605656 0.010664272912912918 0 0.042053161527448799 0.010650246280420494 0 0.041994161828520345 0.011386556848374522 0 0.04148969586605656 0.010664272912912918 0 0.041102004014696616 0.011121181572880577 0 0.027889769797540525 0.0013476813043295278 0 0.038722045216027151 0.0064105986707092538 0 0.027889769797540525 0.0013476813043295278 0 0.023208829765653693 -0.0035817242919330252 0 0.030340767919585222 -0.0012932684917095105 0 0.030912881178367692 0.0016707598331136228 0 0.033014479417331682 0.00065648507470530515 0 0.041994161828520345 0.011386556848374522 0 0.042902791006992895 0.011324674923954791 0 0.042053161527448799 0.010650246280420494 0 0.039988700857245194 0.010640648821891316 0 0.040495089658175255 0.011117095408582458 0 0.03946478725242103 0.011859310559565236 0 0.039988700857245194 0.010640648821891316 0 0.039406059441446026 0.01041573356291251 0 0.03946478725242103 0.011859310559565236 0 0.039988700857245194 0.010640648821891316 0 0.039802611491594538 0.0098076190939507223 0 0.039406059441446026 0.01041573356291251 0 0.040495089658175255 0.011117095408582458 0 0.041102004014696616 0.011121181572880577 0 0.041218966141948553 0.0099761673915444958 0 0.039988700857245194 0.010640648821891316 0 0.040495089658175255 0.011117095408582458 0 0.041218966141948553 0.0099761673915444958 0 0.039988700857245194 0.010640648821891316 0 0.04047423363540998 0.0097217145306848843 0 0.041084827193046493 0.0094755489231604442 0 0.040356760526651207 0.011253581927514715 0 0.039738323874101679 0.0073275925240550563 0 0.04047423363540998 0.0097217145306848843 0 0.041084827193046493 0.0094755489231604442 0 0.040736723245153546 0.0092554755042690492 0 0.040642453090958347 0.0091622960813512646 0 0.040668562322235022 0.0091177066697546386 0 0.040736723245153546 0.0092554755042690492 0 0.039738323874101679 0.0073275925240550563 0 0.040902419774744486 0.0086380374909103604 0 0.04047423363540998 0.0097217145306848843 0 0.040466511529778725 0.0092882536914432115 0 0.040147069733124277 0.0094447168704298885 0 0.04047423363540998 0.0097217145306848843 0 0.040736723245153546 0.0092554755042690492 0 0.040466511529778725 0.0092882536914432115 0 0.039474799386054492 0.0090408588659445944 0 0.040147069733124277 0.0094447168704298885 0 0.039802611491594538 0.0098076190939507223 0 0.039736982962973434 0.0092765160872644702 0 0.039762947184987969 0.0095671310117159663 0 0.039988700857245194 0.010640648821891316 0 0.04047423363540998 0.0097217145306848843 0 0.04010327527955819 0.009881106607619386 0 0.040147069733124277 0.0094447168704298885 0 0.04010327527955819 0.009881106607619386 0 0.039802611491594538 0.0098076190939507223 0 0.04047423363540998 0.0097217145306848843 0 0.040147069733124277 0.0094447168704298885 0 0.04010327527955819 0.009881106607619386 0 0.039988700857245194 0.010640648821891316 0 0.04010327527955819 0.009881106607619386 0 0.039802611491594538 0.0098076190939507223 0 0.039792304577913488 0.0088961676227923715 0 0.039802611491594538 0.0098076190939507223 0 0.039242671066554678 0.0096511902561953571 0 0.039802611491594538 0.0098076190939507223 0 0.039242671066554678 0.0096511902561953571 0 0.039406059441446026 0.01041573356291251 0 0.038957466028795712 0.0086249123435706895 0 0.039242671066554678 0.0096511902561953571 0 0.038516821690468536 0.0095244535798746036 0 0.039242671066554678 0.0096511902561953571 0 0.038516821690468536 0.0095244535798746036 0 0.038881409027162202 0.010268355059665928 0 0.038516821690468536 0.0095244535798746036 0 0.038881409027162202 0.010268355059665928 0 0.038244097998784372 0.010412188119258883 0 0.038881409027162202 0.010268355059665928 0 0.039406059441446026 0.01041573356291251 0 0.03883846930374088 0.011203869768404456 0 0.038881409027162202 0.010268355059665928 0 0.03883846930374088 0.011203869768404456 0 0.038244097998784372 0.010412188119258883 0 0.039350146624223079 0.010488712520384556 0 0.038162516170980668 0.011704837190218644 0 0.039242671066554678 0.0096511902561953571 0 0.038881409027162202 0.010268355059665928 0 0.039406059441446026 0.01041573356291251 0 0.037434861708405515 0.012192824595928759 0 0.038359646142296464 0.013380669721452389 0 0.03946478725242103 0.011859310559565236 0 0.039406059441446026 0.01041573356291251 0 0.037434861708405515 0.012192824595928759 0 0.03946478725242103 0.011859310559565236 0 0.037434861708405515 0.012192824595928759 0 0.038359646142296464 0.013380669721452389 0 0.037117417475220654 0.014259476513132877 0 0.038359646142296464 0.013380669721452389 0 0.039577806929120989 0.013205978586724886 0 0.03946478725242103 0.011859310559565236 0 0.039577806929120989 0.013205978586724886 0 0.04043690381039651 0.012008109025729491 0 0.040464874365160032 0.013276613376779016 0 0.039577806929120989 0.013205978586724886 0 0.03946478725242103 0.011859310559565236 0 0.04043690381039651 0.012008109025729491 0 0.040495089658175255 0.011117095408582458 0 0.03946478725242103 0.011859310559565236 0 0.04043690381039651 0.012008109025729491 0 0.041490887534901801 0.011907066737867013 0 0.04043690381039651 0.012008109025729491 0 0.041166226242671133 0.012776861628267838 0 0.041490887534901801 0.011907066737867013 0 0.041102004014696616 0.011121181572880577 0 0.04043690381039651 0.012008109025729491 0 0.040495089658175255 0.011117095408582458 0 0.041102004014696616 0.011121181572880577 0 0.04043690381039651 0.012008109025729491 0 0.041166226242671133 0.012776861628267838 0 0.040464874365160032 0.013276613376779016 0 0.041067570075540009 0.013965745300616906 0 0.04043690381039651 0.012008109025729491 0 0.041166226242671133 0.012776861628267838 0 0.040464874365160032 0.013276613376779016 0 0.040464874365160032 0.013276613376779016 0 0.041067570075540009 0.013965745300616906 0 0.039983258982423539 0.014419401491695502 0 0.039577806929120989 0.013205978586724886 0 0.040464874365160032 0.013276613376779016 0 0.039983258982423539 0.014419401491695502 0 0.039577806929120989 0.013205978586724886 0 0.039983258982423539 0.014419401491695502 0 0.038518706683132627 0.014683225595156484 0 0.039983258982423539 0.014419401491695502 0 0.040847063596254396 0.015565698085280865 0 0.03926642842308297 0.015740661027198014 0 0.041067570075540009 0.013965745300616906 0 0.039983258982423539 0.014419401491695502 0 0.040847063596254396 0.015565698085280865 0 0.03957833240879384 0.01676038095196454 0 0.038547331249405389 0.016601098135115448 0 0.038970325159183868 0.018137131918792525 0 0.037944677567604633 0.019004261263076951 0 0.037854842276836047 0.017516939195680505 0 0.039344418903027721 0.019668200359653536 0 0.038970325159183868 0.018137131918792525 0 0.037944677567604633 0.019004261263076951 0 0.037704296174978794 0.017673516161703155 0 0.038401041251264756 0.018951383673072454 0 0.038721120515009838 0.016844634629579039 0 0.037936295654262181 0.017902643541192254 0 0.039501137783623352 0.018064718947565259 0 0.037944677567604633 0.019004261263076951 0 0.036666046321053886 0.018444597045659639 0 0.037017024831853935 0.019936703434356638 0 0.037944677567604633 0.019004261263076951 0 0.037306082460700531 0.017522489455230762 0 0.037854842276836047 0.017516939195680505 0 0.037944677567604633 0.019004261263076951 0 0.036666046321053886 0.018444597045659639 0 0.037306082460700531 0.017522489455230762 0 0.037704296174978794 0.017673516161703155 0 0.037075124739994789 0.01614195473501746 0 0.036666046321053886 0.018444597045659639 0 0.037306082460700531 0.017522489455230762 0 0.03636204715682724 0.016535952499018645 0 0.037100802531147559 0.016123792648435914 0 0.038518706683132627 0.014683225595156484 0 0.037216537875253523 0.01509006978957363 0 0.037306082460700531 0.017522489455230762 0 0.037100802531147559 0.016123792648435914 0 0.03636204715682724 0.016535952499018645 0 0.037100802531147559 0.016123792648435914 0 0.037216537875253523 0.01509006978957363 0 0.036774961287286745 0.015310298998526187 0 0.037100802531147559 0.016123792648435914 0 0.03926642842308297 0.015740661027198014 0 0.038518706683132627 0.014683225595156484 0 0.039983258982423539 0.014419401491695502 0 0.03926642842308297 0.015740661027198014 0 0.038518706683132627 0.014683225595156484 0 0.037306082460700531 0.017522489455230762 0 0.037100802531147559 0.016123792648435914 0 0.037854842276836047 0.017516939195680505 0 0.037043782016541869 0.0161609792397687 0 0.038547331249405389 0.016601098135115448 0 0.038359646142296464 0.013380669721452389 0 0.039577806929120989 0.013205978586724886 0 0.038518706683132627 0.014683225595156484 0 0.038518706683132627 0.014683225595156484 0 0.037216537875253523 0.01509006978957363 0 0.037117417475220654 0.014259476513132877 0 0.038359646142296464 0.013380669721452389 0 0.038518706683132627 0.014683225595156484 0 0.037117417475220654 0.014259476513132877 0 0.037216537875253523 0.01509006978957363 0 0.037117417475220654 0.014259476513132877 0 0.036774961287286745 0.015310298998526187 0 0.037117417475220654 0.014259476513132877 0 0.036400550136318086 0.014733444410993599 0 0.036774961287286745 0.015310298998526187 0 0.037117417475220654 0.014259476513132877 0 0.036400550136318086 0.014733444410993599 0 0.036251774872012192 0.013945375809256751 0 0.036400550136318086 0.014733444410993599 0 0.035863003126987786 0.014943306781562785 0 0.036251774872012192 0.013945375809256751 0 0.036139047874883881 0.014483087637800091 0 0.037029664739844932 0.0132512727125713 0 0.036400550136318086 0.014733444410993599 0 0.036602018922396048 0.015503975507056041 0 0.035863003126987786 0.014943306781562785 0 0.036400550136318086 0.014733444410993599 0 0.036774961287286745 0.015310298998526187 0 0.03636204715682724 0.016535952499018645 0 0.036477245110892023 0.014924918071197493 0 0.037075124739994789 0.01614195473501746 0 0.036400550136318086 0.014733444410993599 0 0.036602018922396048 0.015503975507056041 0 0.037741367583137807 0.015639479061366444 0 0.037100802531147559 0.016123792648435914 0 0.036774961287286745 0.015310298998526187 0 0.03636204715682724 0.016535952499018645 0 0.038721120515009838 0.016844634629579039 0 0.037741367583137807 0.015639479061366444 0 0.037457575198864064 0.016760459375588389 0 0.036602018922396048 0.015503975507056041 0 0.037741367583137807 0.015639479061366444 0 0.037457575198864064 0.016760459375588389 0 0.036602018922396048 0.015503975507056041 0 0.037457575198864064 0.016760459375588389 0 0.036435236703283594 0.016506796288743322 0 0.037457575198864064 0.016760459375588389 0 0.036435236703283594 0.016506796288743322 0 0.036963405744944916 0.018070349014029631 0 0.037457575198864064 0.016760459375588389 0 0.037936295654262181 0.017902643541192254 0 0.036963405744944916 0.018070349014029631 0 0.038721120515009838 0.016844634629579039 0 0.037457575198864064 0.016760459375588389 0 0.037936295654262181 0.017902643541192254 0 0.035657270781362368 0.016506657976724994 0 0.034999710288535803 0.017390203561827057 0 0.035922781288882454 0.017779407714548993 0 0.035657270781362368 0.016506657976724994 0 0.034999710288535803 0.017390203561827057 0 0.03499979563660912 0.015482763245195472 0 0.036435236703283594 0.016506796288743322 0 0.035922781288882454 0.017779407714548993 0 0.036963405744944916 0.018070349014029631 0 0.035657270781362368 0.016506657976724994 0 0.036435236703283594 0.016506796288743322 0 0.035922781288882454 0.017779407714548993 0 0.035657270781362368 0.016506657976724994 0 0.036435236703283594 0.016506796288743322 0 0.03591307553593457 0.015733164621512245 0 0.036602018922396048 0.015503975507056041 0 0.036435236703283594 0.016506796288743322 0 0.03591307553593457 0.015733164621512245 0 0.035657270781362368 0.016506657976724994 0 0.03591307553593457 0.015733164621512245 0 0.03499979563660912 0.015482763245195472 0 0.035000158851313252 0.01548156203872973 0 0.036139047874883881 0.014483087637800091 0 0.035000015727361181 0.015481599725131924 0 0.036463148537214822 0.0140550584461541 0 0.034999869393671994 0.01338614303857177 0 0.03591307553593457 0.015733164621512245 0 0.03499979563660912 0.015482763245195472 0 0.035863003126987786 0.014943306781562785 0 0.036602018922396048 0.015503975507056041 0 0.03591307553593457 0.015733164621512245 0 0.035863003126987786 0.014943306781562785 0 0.036463148537214822 0.0140550584461541 0 0.036409691989509649 0.012343345693343387 0 0.037783932116550623 0.012592490388331339 0 0.036463148537214822 0.0140550584461541 0 0.034999869393671994 0.01338614303857177 0 0.036409691989509649 0.012343345693343387 0 0.034999869393671994 0.01338614303857177 0 0.034999936356645972 0.011290919824361662 0 0.036409691989509649 0.012343345693343387 0 0.034999936356645972 0.011290919824361662 0 0.036409691989509649 0.012343345693343387 0 0.036955526860893997 0.010907886784482663 0 0.036409691989509649 0.012343345693343387 0 0.036955526860893997 0.010907886784482663 0 0.03723138962981213 0.011814782713024528 0 0.037783932116550623 0.012592490388331339 0 0.037862392244377929 0.011313968755887268 0 0.03723138962981213 0.011814782713024528 0 0.036409691989509649 0.012343345693343387 0 0.037783932116550623 0.012592490388331339 0 0.03723138962981213 0.011814782713024528 0 0.038162516170980668 0.011704837190218644 0 0.037029664739844932 0.0132512727125713 0 0.037434861708405515 0.012192824595928759 0 0.037117417475220654 0.014259476513132877 0 0.036251774872012192 0.013945375809256751 0 0.03883846930374088 0.011203869768404456 0 0.037783932116550623 0.012592490388331339 0 0.037862392244377929 0.011313968755887268 0 0.03883846930374088 0.011203869768404456 0 0.037862392244377929 0.011313968755887268 0 0.038244097998784372 0.010412188119258883 0 0.037862392244377929 0.011313968755887268 0 0.036955526860893997 0.010907886784482663 0 0.038244097998784372 0.010412188119258883 0 0.037862392244377929 0.011313968755887268 0 0.036955526860893997 0.010907886784482663 0 0.03723138962981213 0.011814782713024528 0 0.036955526860893997 0.010907886784482663 0 0.038244097998784372 0.010412188119258883 0 0.037522991660376398 0.0095825811548340741 0 0.036955526860893997 0.010907886784482663 0 0.037522991660376398 0.0095825811548340741 0 0.036266163238340018 0.009670160511920772 0 0.038013440391313748 0.0083383350517550643 0 0.038516821690468536 0.0095244535798746036 0 0.037522991660376398 0.0095825811548340741 0 0.038516821690468536 0.0095244535798746036 0 0.038244097998784372 0.010412188119258883 0 0.037522991660376398 0.0095825811548340741 0 0.036952151330968935 0.0086639269935525048 0 0.037522991660376398 0.0095825811548340741 0 0.036266163238340018 0.009670160511920772 0 0.035962631522326045 0.0083696709599738444 0 0.036952151330968935 0.0086639269935525048 0 0.036266163238340018 0.009670160511920772 0 0.034999936356645972 0.011290919824361662 0 0.036955526860893997 0.010907886784482663 0 0.036266163238340018 0.009670160511920772 0 0.035962631522326045 0.0083696709599738444 0 0.036266163238340018 0.009670160511920772 0 0.034999900177743425 0.0091957405444010182 0 0.034999936356645972 0.011290919824361662 0 0.036266163238340018 0.009670160511920772 0 0.034999900177743425 0.0091957405444010182 0 0.034583035051207432 0.026296687867146305 0 0.032879247485345292 0.02904870436704806 0 0.031137986771364458 0.029517914097152816 0 0.031614887744881109 0.030044918674097604 0 0.031589594582292262 0.029829393446311945 0 0.03616748129904724 0.024343541384443515 0 0.034999988419149385 0.024273380540366242 0 0.03499999822700138 0.025430172775400706 0 0.034843332883164026 0.026589733610997816 0 0.034998956875618249 0.025435625859399784 0 0.034811765781689728 0.026942239504460296 0 0.034583035051207432 0.026296687867146305 0 0.035001224790967671 0.025429277130687718 0 0.034998956875618249 0.025435625859399784 0 0.034811765781689728 0.026942239504460296 0 0.034842103928975243 0.027384336572377189 0 0.034811765781689728 0.026942239504460296 0 0.034591006693896101 0.027953036149374871 0 0.034842103928975243 0.027384336572377189 0 0.034811765781689728 0.026942239504460296 0 0.034765866983253409 0.027650074194985254 0 0.034591006693896101 0.027953036149374871 0 0.034843332883164026 0.026589733610997816 0 0.034811765781689728 0.026942239504460296 0 0.034765866983253409 0.027650074194985254 0 0.034765866983253409 0.027650074194985254 0 0.034187075138889605 0.028529936069451405 0 0.034591006693896101 0.027953036149374871 0 0.031614887744881109 0.030044918674097604 0 0.031589594582292262 0.029829393446311945 0 0.032247833459702051 0.030178442174638265 0 0.032188074026001462 0.030463064501398834 0 0.032247833459702051 0.030178442174638265 0 0.031888348310655477 0.03030554608538738 0 0.031589594582292262 0.029829393446311945 0 0.032188074026001462 0.030463064501398834 0 0.032247833459702051 0.030178442174638265 0 0.031565159309052356 0.029856030903886402 0 0.031685493384312292 0.029987606557291956 0 0.031343383174448541 0.029502923465593217 0 0.031393280371596465 0.029577000034516087 0 0.031248646226365084 0.029529307840475388 0 0.031589594582292262 0.029829393446311945 0 0.031343383174448541 0.029502923465593217 0 0.031393280371596465 0.029577000034516087 0 0.031137986771364458 0.029517914097152816 0 0.031589594582292262 0.029829393446311945 0 0.031393280371596465 0.029577000034516087 0 0.031137986771364458 0.029517914097152816 0 0.031393280371596465 0.029577000034516087 0 0.031102236332397816 0.029307676966613058 0 0.031393280371596465 0.029577000034516087 0 0.031102236332397816 0.029307676966613058 0 0.031300917412225494 0.029385368641117428 0 0.031393280371596465 0.029577000034516087 0 0.031300917412225494 0.029385368641117428 0 0.031248646226365084 0.029529307840475388 0 0.031300917412225494 0.029385368641117428 0 0.030950414876305236 0.028273942227112499 0 0.031373705468304397 0.028677392500528781 0 0.033864755181073777 0.026153698013454702 0 0.034298196635190577 0.025094499418036313 0 0.037006076526335481 0.022843638431521714 0 0.037268393131459569 0.021718955823864867 0 0.037819335782699776 0.021880779924411384 0 0.031102236332397816 0.029307676966613058 0 0.031300917412225494 0.029385368641117428 0 0.030950414876305236 0.028273942227112499 0 0.037006076526335481 0.022843638431521714 0 0.036049874239941028 0.022558845975501351 0 0.036677468201541948 0.021442477789844636 0 0.034583035051207432 0.026296687867146305 0 0.033864755181073777 0.026153698013454702 0 0.035940365196500228 0.023993466647085938 0 0.037006076526335481 0.022843638431521714 0 0.036049874239941028 0.022558845975501351 0 0.035940365196500228 0.023993466647085938 0 0.036049874239941028 0.022558845975501351 0 0.034999937849833969 0.023116079291962629 0 0.03616748129904724 0.024343541384443515 0 0.034999988419149385 0.024273380540366242 0 0.035000000901648259 0.023116561063367697 0 0.034583035051207432 0.026296687867146305 0 0.035000434379965556 0.0231155448971582 0 0.034999937849833969 0.023116079291962629 0 0.035384113767157499 0.021438797410930292 0 0.03499981983593952 0.021207961985757647 0 0.036049874239941028 0.022558845975501351 0 0.034999937849833969 0.023116079291962629 0 0.035384113767157499 0.021438797410930292 0 0.035384113767157499 0.021438797410930292 0 0.03499981983593952 0.021207961985757647 0 0.035719400161255348 0.020364455454149086 0 0.035472881866317085 0.021406926531356549 0 0.036570981956647222 0.021141944646563819 0 0.036049874239941028 0.022558845975501351 0 0.035384113767157499 0.021438797410930292 0 0.036677468201541948 0.021442477789844636 0 0.035384113767157499 0.021438797410930292 0 0.03675535716089514 0.020742272999942371 0 0.035719400161255348 0.020364455454149086 0 0.03675535716089514 0.020742272999942371 0 0.035719400161255348 0.020364455454149086 0 0.036365339742020338 0.0192139553101064 0 0.03499981983593952 0.021207961985757647 0 0.035719400161255348 0.020364455454149086 0 0.034999864036365222 0.019298956853729593 0 0.034999864036365222 0.019298956853729593 0 0.036365339742020338 0.0192139553101064 0 0.035922781288882454 0.017779407714548993 0 0.035719400161255348 0.020364455454149086 0 0.034999864036365222 0.019298956853729593 0 0.036365339742020338 0.0192139553101064 0 0.036365339742020338 0.0192139553101064 0 0.035922781288882454 0.017779407714548993 0 0.036963405744944916 0.018070349014029631 0 0.034999710288535803 0.017390203561827057 0 0.034999864036365222 0.019298956853729593 0 0.035922781288882454 0.017779407714548993 0 0.037936295654262181 0.017902643541192254 0 0.036963405744944916 0.018070349014029631 0 0.037426635724284681 0.019363448338337308 0 0.036365339742020338 0.0192139553101064 0 0.036963405744944916 0.018070349014029631 0 0.037426635724284681 0.019363448338337308 0 0.037426635724284681 0.019363448338337308 0 0.038081531074057109 0.019596601442197357 0 0.038424065278352834 0.018973887235967362 0 0.037936295654262181 0.017902643541192254 0 0.037426635724284681 0.019363448338337308 0 0.038424065278352834 0.018973887235967362 0 0.038081531074057109 0.019596601442197357 0 0.038582532786440096 0.019687870280537079 0 0.038424065278352834 0.018973887235967362 0 0.038081531074057109 0.019596601442197357 0 0.038031993808559046 0.020297355770708941 0 0.038582532786440096 0.019687870280537079 0 0.037426635724284681 0.019363448338337308 0 0.038081531074057109 0.019596601442197357 0 0.038031993808559046 0.020297355770708941 0 0.03675535716089514 0.020742272999942371 0 0.036365339742020338 0.0192139553101064 0 0.037426635724284681 0.019363448338337308 0 0.03675535716089514 0.020742272999942371 0 0.037426635724284681 0.019363448338337308 0 0.038031993808559046 0.020297355770708941 0 0.036677468201541948 0.021442477789844636 0 0.037690227297048587 0.021381372732741342 0 0.037268393131459569 0.021718955823864867 0 0.037006076526335481 0.022843638431521714 0 0.036677468201541948 0.021442477789844636 0 0.037268393131459569 0.021718955823864867 0 0.036570981956647222 0.021141944646563819 0 0.038276540295661687 0.02064782809330639 0 0.037690227297048587 0.021381372732741342 0 0.037268393131459569 0.021718955823864867 0 0.037819335782699776 0.021880779924411384 0 0.034298196635190577 0.025094499418036313 0 0.03708886015095246 0.021895024793684909 0 0.031972037925825376 0.027409533661524526 0 0.032587947039422124 0.026181047156477188 0 0.03519000775996961 0.026919675316284235 0 0.031972037925825376 0.027409533661524526 0 0.03519000775996961 0.026919675316284235 0 0.031373705468304397 0.028677392500528781 0 0.030950414876305236 0.028273942227112499 0 0.031972037925825376 0.027409533661524526 0 0.031373705468304397 0.028677392500528781 0 0.030950414876305236 0.028273942227112499 0 0.032587947039422124 0.026181047156477188 0 0.033796993396768345 0.023618142154067354 0 0.037690227297048587 0.021381372732741342 0 0.037819335782699776 0.021880779924411384 0 0.038455184876698932 0.021223470496110567 0 0.030950414876305236 0.028273942227112499 0 0.031972037925825376 0.027409533661524526 0 0.032587947039422124 0.026181047156477188 0 0.033006930117815213 0.028264310601425535 0 0.031386949870905859 0.028654506832176595 0 0.032587947039422124 0.026181047156477188 0 0.033927119150252788 0.025446807993060448 0 0.033638413541611775 0.024908596807155584 0 0.032587947039422124 0.026181047156477188 0 0.03519000775996961 0.026919675316284235 0 0.033927119150252788 0.025446807993060448 0 0.03519000775996961 0.026919675316284235 0 0.033927119150252788 0.025446807993060448 0 0.034881217945070604 0.025136512995919243 0 0.03519000775996961 0.026919675316284235 0 0.034881217945070604 0.025136512995919243 0 0.035948932373517296 0.0248170609022627 0 0.035948932373517296 0.0248170609022627 0 0.035316332038089086 0.02402375436281445 0 0.036000080431480591 0.023544083201803002 0 0.035316332038089086 0.02402375436281445 0 0.035273330514052008 0.023508626367630441 0 0.036000080431480591 0.023544083201803002 0 0.034881217945070604 0.025136512995919243 0 0.035948932373517296 0.0248170609022627 0 0.035316332038089086 0.02402375436281445 0 0.035316332038089086 0.02402375436281445 0 0.034332524940467166 0.023572548592363154 0 0.035273330514052008 0.023508626367630441 0 0.035316332038089086 0.02402375436281445 0 0.034259434512051011 0.024382004930159008 0 0.034332524940467166 0.023572548592363154 0 0.033927119150252788 0.025446807993060448 0 0.034881217945070604 0.025136512995919243 0 0.034259434512051011 0.024382004930159008 0 0.034881217945070604 0.025136512995919243 0 0.035316332038089086 0.02402375436281445 0 0.034259434512051011 0.024382004930159008 0 0.033927119150252788 0.025446807993060448 0 0.033638413541611775 0.024908596807155584 0 0.034259434512051011 0.024382004930159008 0 0.033638413541611775 0.024908596807155584 0 0.034259434512051011 0.024382004930159008 0 0.033796993396768345 0.023618142154067354 0 0.034259434512051011 0.024382004930159008 0 0.033796993396768345 0.023618142154067354 0 0.034332524940467166 0.023572548592363154 0 0.033961929238192648 0.023651466783728464 0 0.034332524940467166 0.023572548592363154 0 0.035408448075856254 0.022886817261325285 0 0.039375082291273601 0.019969591498632672 0 0.039077995960670131 0.019549109461806508 0 0.039498937668078167 0.019453212244724159 0 0.039375082291273601 0.019969591498632672 0 0.039498937668078167 0.019453212244724159 0 0.040192635333777267 0.01922622458216525 0 0.03708886015095246 0.021895024793684909 0 0.036375179167550689 0.022125132030438994 0 0.033961929238192648 0.023651466783728464 0 0.035408448075856254 0.022886817261325285 0 0.036039404925155366 0.021797603230188624 0 0.03708886015095246 0.021895024793684909 0 0.03748572157409906 0.020829583863359626 0 0.034332524940467166 0.023572548592363154 0 0.035273330514052008 0.023508626367630441 0 0.035408448075856254 0.022886817261325285 0 0.035273330514052008 0.023508626367630441 0 0.035408448075856254 0.022886817261325285 0 0.036000080431480591 0.023544083201803002 0 0.038276540295661687 0.02064782809330639 0 0.03708886015095246 0.021895024793684909 0 0.038031993808559046 0.020297355770708941 0 0.039375082291273601 0.019969591498632672 0 0.038582532786440096 0.019687870280537079 0 0.032587947039422124 0.026181047156477188 0 0.033638413541611775 0.024908596807155584 0 0.033796993396768345 0.023618142154067354 0 0.039375082291273601 0.019969591498632672 0 0.039077995960670131 0.019549109461806508 0 0.038582532786440096 0.019687870280537079 0 0.039077995960670131 0.019549109461806508 0 0.038582532786440096 0.019687870280537079 0 0.038424065278352834 0.018973887235967362 0 0.038424065278352834 0.018973887235967362 0 0.03935320322428984 0.019065437528615732 0 0.039501137783623352 0.018064718947565259 0 0.039077995960670131 0.019549109461806508 0 0.038424065278352834 0.018973887235967362 0 0.03935320322428984 0.019065437528615732 0 0.039498937668078167 0.019453212244724159 0 0.03935320322428984 0.019065437528615732 0 0.040192635333777267 0.01922622458216525 0 0.03935320322428984 0.019065437528615732 0 0.039501137783623352 0.018064718947565259 0 0.040192635333777267 0.01922622458216525 0 0.039077995960670131 0.019549109461806508 0 0.039498937668078167 0.019453212244724159 0 0.03935320322428984 0.019065437528615732 0 0.038401041251264756 0.018951383673072454 0 0.03748572157409906 0.020829583863359626 0 0.037944677567604633 0.019004261263076951 0 0.037017024831853935 0.019936703434356638 0 0.037536881416782485 0.020329504445963046 0 0.037017024831853935 0.019936703434356638 0 0.037536881416782485 0.020329504445963046 0 0.037517348990829071 0.020977450630723569 0 0.037936295654262181 0.017902643541192254 0 0.038424065278352834 0.018973887235967362 0 0.039501137783623352 0.018064718947565259 0 0.039344418903027721 0.019668200359653536 0 0.037944677567604633 0.019004261263076951 0 0.037974756105539513 0.020646457510219627 0 0.039344418903027721 0.019668200359653536 0 0.037974756105539513 0.020646457510219627 0 0.039183925253735999 0.021279974038839761 0 0.037944677567604633 0.019004261263076951 0 0.037536881416782485 0.020329504445963046 0 0.037974756105539513 0.020646457510219627 0 0.037974756105539513 0.020646457510219627 0 0.036167451156895757 0.021990750098287923 0 0.03783429639948864 0.021945760833055827 0 0.037591725852010364 0.020935347420541896 0 0.03748572157409906 0.020829583863359626 0 0.037536881416782485 0.020329504445963046 0 0.037974756105539513 0.020646457510219627 0 0.037517348990829071 0.020977450630723569 0 0.036167451156895757 0.021990750098287923 0 0.03783429639948864 0.021945760833055827 0 0.036637635535616754 0.022809069905293172 0 0.035408448075856254 0.022886817261325285 0 0.036039404925155366 0.021797603230188624 0 0.036637635535616754 0.022809069905293172 0 0.03748572157409906 0.020829583863359626 0 0.037237618073061377 0.021975384939573323 0 0.037974756105539513 0.020646457510219627 0 0.03783429639948864 0.021945760833055827 0 0.039183925253735999 0.021279974038839761 0 0.03783429639948864 0.021945760833055827 0 0.038899680559122081 0.022871558832928737 0 0.039183925253735999 0.021279974038839761 0 0.038899680559122081 0.022871558832928737 0 0.037934195332356188 0.022983089648738707 0 0.038036249198130923 0.02528934413458048 0 0.03783429639948864 0.021945760833055827 0 0.038899680559122081 0.022871558832928737 0 0.037934195332356188 0.022983089648738707 0 0.037934195332356188 0.022983089648738707 0 0.037047692225167746 0.023928320406692835 0 0.038036249198130923 0.02528934413458048 0 0.035408448075856254 0.022886817261325285 0 0.036000080431480591 0.023544083201803002 0 0.036637635535616754 0.022809069905293172 0 0.036000080431480591 0.023544083201803002 0 0.036637635535616754 0.022809069905293172 0 0.037047692225167746 0.023928320406692835 0 0.03783429639948864 0.021945760833055827 0 0.037934195332356188 0.022983089648738707 0 0.036637635535616754 0.022809069905293172 0 0.037934195332356188 0.022983089648738707 0 0.036637635535616754 0.022809069905293172 0 0.037047692225167746 0.023928320406692835 0 0.035948932373517296 0.0248170609022627 0 0.036000080431480591 0.023544083201803002 0 0.037047692225167746 0.023928320406692835 0 0.035948932373517296 0.0248170609022627 0 0.037047692225167746 0.023928320406692835 0 0.038036249198130923 0.02528934413458048 0 0.033006930117815213 0.028264310601425535 0 0.034389307928861863 0.027560910274491125 0 0.03519000775996961 0.026919675316284235 0 0.035948932373517296 0.0248170609022627 0 0.038036249198130923 0.02528934413458048 0 0.038899680559122081 0.022871558832928737 0 0.038036249198130923 0.02528934413458048 0 0.0397374574824928 0.024212161795753077 0 0.034389307928861863 0.027560910274491125 0 0.034812307580618318 0.026991254817949461 0 0.030697873770414601 0.029823450845054732 0 0.03060434172204371 0.029853960198929167 0 0.03055370182166826 0.029906845691552227 0 0.03060434172204371 0.029853960198929167 0 0.030956961687139236 0.029636334173181619 0 0.030961681539148533 0.029615995849331549 0 0.031133387780817822 0.02964829874701555 0 0.030697873770414601 0.029823450845054732 0 0.030956961687139236 0.029636334173181619 0 0.030697873770414601 0.029823450845054732 0 0.03060434172204371 0.029853960198929167 0 0.030956961687139236 0.029636334173181619 0 0.031133387780817822 0.02964829874701555 0 0.030956961687139236 0.029636334173181619 0 0.031290550153395602 0.029333827964495251 0 0.030956961687139236 0.029636334173181619 0 0.031290550153395602 0.029333827964495251 0 0.031220117414604228 0.0294854092971851 0 0.031300917412225494 0.029385368641117428 0 0.031373705468304397 0.028677392500528781 0 0.031332953731647371 0.029263573431888793 0 0.031133387780817822 0.02964829874701555 0 0.031373705468304397 0.028677392500528781 0 0.031290550153395602 0.029333827964495251 0 0.031373705468304397 0.028677392500528781 0 0.031290550153395602 0.029333827964495251 0 0.031332953731647371 0.029263573431888793 0 0.031290550153395602 0.029333827964495251 0 0.031332953731647371 0.029263573431888793 0 0.031220117414604228 0.0294854092971851 0 0.031300917412225494 0.029385368641117428 0 0.031332953731647371 0.029263573431888793 0 0.031220117414604228 0.0294854092971851 0 0.031300917412225494 0.029385368641117428 0 0.031220117414604228 0.0294854092971851 0 0.031248646226365084 0.029529307840475388 0 0.030956961687139236 0.029636334173181619 0 0.031220117414604228 0.0294854092971851 0 0.030961681539148533 0.029615995849331549 0 0.030961681539148533 0.029615995849331549 0 0.031248646226365084 0.029529307840475388 0 0.031081660880607813 0.029444069874882271 0 0.031220117414604228 0.0294854092971851 0 0.030961681539148533 0.029615995849331549 0 0.031248646226365084 0.029529307840475388 0 0.031343383174448541 0.029502923465593217 0 0.031248646226365084 0.029529307840475388 0 0.031081660880607813 0.029444069874882271 0 0.032188074026001462 0.030463064501398834 0 0.030841173948684842 0.030898475039607975 0 0.031888348310655477 0.03030554608538738 0 0.031685493384312292 0.029987606557291956 0 0.030969627353567016 0.030144067425860895 0 0.030841173948684842 0.030898475039607975 0 0.029945270828484069 0.030599282591529921 0 0.030051527258609625 0.030395602978063346 0 0.030969627353567016 0.030144067425860895 0 0.030347784897868206 0.030135161248610758 0 0.029945270828484069 0.030599282591529921 0 0.030042839682187246 0.030178778176304568 0 0.029785345453544106 0.03041339077517248 0 0.030649907275112857 0.029638394201785354 0 0.030338488696452004 0.029990092176827288 0 0.030042839682187246 0.030178778176304568 0 0.030347784897868206 0.030135161248610758 0 0.030110933817271691 0.030164679930000465 0 0.03060434172204371 0.029853960198929167 0 0.030649907275112857 0.029638394201785354 0 0.030338488696452004 0.029990092176827288 0 0.03060434172204371 0.029853960198929167 0 0.030961681539148533 0.029615995849331549 0 0.030649907275112857 0.029638394201785354 0 0.030961681539148533 0.029615995849331549 0 0.031081660880607813 0.029444069874882271 0 0.030649907275112857 0.029638394201785354 0 0.030297328899211412 0.030120408011578274 0 0.030042839682187246 0.030178778176304568 0 0.030060589957432458 0.030226415187770115 0 0.030297328899211412 0.030120408011578274 0 0.030060589957432458 0.030226415187770115 0 0.030080270618093652 0.030215430800873463 0 0.030297328899211412 0.030120408011578274 0 0.030338488696452004 0.029990092176827288 0 0.030457281493288791 0.030017186471435284 0 0.030297328899211412 0.030120408011578274 0 0.030338488696452004 0.029990092176827288 0 0.030042839682187246 0.030178778176304568 0 0.030042839682187246 0.030178778176304568 0 0.030060589957432458 0.030226415187770115 0 0.029865020191391364 0.030363749294969333 0 0.030042839682187246 0.030178778176304568 0 0.029865020191391364 0.030363749294969333 0 0.029770573029928207 0.030387408663723022 0 0.030060589957432458 0.030226415187770115 0 0.029951946897302722 0.030332465434080046 0 0.030080270618093652 0.030215430800873463 0 0.030060589957432458 0.030226415187770115 0 0.029951946897302722 0.030332465434080046 0 0.029865020191391364 0.030363749294969333 0 0.029951946897302722 0.030332465434080046 0 0.029835013790350133 0.0304818073356126 0 0.029865020191391364 0.030363749294969333 0 0.029951946897302722 0.030332465434080046 0 0.029918167409934769 0.03044056424866818 0 0.030080270618093652 0.030215430800873463 0 0.029951946897302722 0.030332465434080046 0 0.029918167409934769 0.03044056424866818 0 0.029835013790350133 0.0304818073356126 0 0.031160263251941 0.031025382919517716 0 0.031213720704227236 0.030757046336154548 0 0.030950512406779308 0.030630652681522538 0 0.030878204768161398 0.030529835700581705 0 0.030473533083684438 0.030422861878273883 0 0.031213720704227236 0.030757046336154548 0 0.030950512406779308 0.030630652681522538 0 0.031336010922324901 0.030509824206377625 0 0.030950512406779308 0.030630652681522538 0 0.031123708892889377 0.030221766556577063 0 0.030664392124005155 0.030126416910289874 0 0.030473533083684438 0.030422861878273883 0 0.030625079166716793 0.030145655510904139 0 0.032486072985270537 0.030623854678433132 0 0.025972749385807448 0.034344495510960728 0 0.032266865464749168 0.03093401746381778 0 0.033133867210238574 0.030269213736419207 0 0.033310969021512135 0.031761417415140374 0 0.030950512406779308 0.030630652681522538 0 0.031123708892889377 0.030221766556577063 0 0.031336010922324901 0.030509824206377625 0 0.032266865464749168 0.03093401746381778 0 0.033133867210238574 0.030269213736419207 0 0.032181868728584126 0.029701098837607624 0 0.032486072985270537 0.030623854678433132 0 0.03083252069595797 0.029920063977059208 0 0.032266865464749168 0.03093401746381778 0 0.031043860340694607 0.029967377247945463 0 0.032181868728584126 0.029701098837607624 0 0.031123708892889377 0.030221766556577063 0 0.031043860340694607 0.029967377247945463 0 0.030664392124005155 0.030126416910289874 0 0.030783212660112927 0.029844461937926507 0 0.030664392124005155 0.030126416910289874 0 0.03055370182166826 0.029906845691552227 0 0.031043860340694607 0.029967377247945463 0 0.030783212660112927 0.029844461937926507 0 0.030664392124005155 0.030126416910289874 0 0.030297328899211412 0.030120408011578274 0 0.030664392124005155 0.030126416910289874 0 0.030457281493288791 0.030017186471435284 0 0.030297328899211412 0.030120408011578274 0 0.030080270618093652 0.030215430800873463 0 0.030664392124005155 0.030126416910289874 0 0.03060434172204371 0.029853960198929167 0 0.030457281493288791 0.030017186471435284 0 0.03055370182166826 0.029906845691552227 0 0.03060434172204371 0.029853960198929167 0 0.030338488696452004 0.029990092176827288 0 0.030457281493288791 0.030017186471435284 0 0.030664392124005155 0.030126416910289874 0 0.030457281493288791 0.030017186471435284 0 0.03055370182166826 0.029906845691552227 0 0.030783212660112927 0.029844461937926507 0 0.03055370182166826 0.029906845691552227 0 0.030612330759156616 0.029647907474350109 0 0.030697873770414601 0.029823450845054732 0 0.03055370182166826 0.029906845691552227 0 0.030612330759156616 0.029647907474350109 0 0.034812307580618318 0.026991254817949461 0 0.037856037747384302 0.026100636243019948 0 0.031043860340694607 0.029967377247945463 0 0.030783212660112927 0.029844461937926507 0 0.031409225776233923 0.029081923930817922 0 0.030783212660112927 0.029844461937926507 0 0.030612330759156616 0.029647907474350109 0 0.031409225776233923 0.029081923930817922 0 0.0397374574824928 0.024212161795753077 0 0.040225104213242401 0.022573934386957213 0 0.040946183340570742 0.023637962905132599 0 0.040225104213242401 0.022573934386957213 0 0.04132517828400474 0.022422147400986091 0 0.040946183340570742 0.023637962905132599 0 0.038899680559122081 0.022871558832928737 0 0.0397374574824928 0.024212161795753077 0 0.040225104213242401 0.022573934386957213 0 0.038899680559122081 0.022871558832928737 0 0.040225104213242401 0.022573934386957213 0 0.039183925253735999 0.021279974038839761 0 0.040225104213242401 0.022573934386957213 0 0.039183925253735999 0.021279974038839761 0 0.040392790311580384 0.02099248758971247 0 0.040225104213242401 0.022573934386957213 0 0.040392790311580384 0.02099248758971247 0 0.04132517828400474 0.022422147400986091 0 0.039344418903027721 0.019668200359653536 0 0.04077875869466361 0.019707073486800213 0 0.040392790311580384 0.02099248758971247 0 0.04077875869466361 0.019707073486800213 0 0.040392790311580384 0.02099248758971247 0 0.041512673323192598 0.020587590825910374 0 0.039344418903027721 0.019668200359653536 0 0.039183925253735999 0.021279974038839761 0 0.040392790311580384 0.02099248758971247 0 0.032115878791871069 0.019807272358775128 0 0.034058231163709471 0.021826089565429953 0 0.041977873771117717 0.01945031183506149 0 0.041512673323192598 0.020587590825910374 0 0.042231150778577073 0.021507278244136365 0 0.0246933529484363 0.023025623543738129 0 0.02467487834002826 0.023254329176157929 0 0.024729245705199503 0.023178941884522707 0 0.02467487834002826 0.023254329176157929 0 0.02471667690199494 0.023274034362453747 0 0.024729245705199503 0.023178941884522707 0 0.041512673323192598 0.020587590825910374 0 0.04132517828400474 0.022422147400986091 0 0.042231150778577073 0.021507278244136365 0 0.040392790311580384 0.02099248758971247 0 0.041512673323192598 0.020587590825910374 0 0.04132517828400474 0.022422147400986091 0 0.02467487834002826 0.023254329176157929 0 0.024708444508705879 0.023366092082736423 0 0.02471667690199494 0.023274034362453747 0 0.04132517828400474 0.022422147400986091 0 0.042231150778577073 0.021507278244136365 0 0.042170275042885536 0.02340790768075179 0 0.02467487834002826 0.023254329176157929 0 0.024689537779166014 0.02347442351708175 0 0.024708444508705879 0.023366092082736423 0 0.034058231163709471 0.021826089565429953 0 0.029896240063119854 0.027709370344002372 0 0.04132517828400474 0.022422147400986091 0 0.042170275042885536 0.02340790768075179 0 0.040946183340570742 0.023637962905132599 0 0.031043860340694607 0.029967377247945463 0 0.031409225776233923 0.029081923930817922 0 0.032181868728584126 0.029701098837607624 0 0.033024660144233893 0.028698566573077573 0 0.031409225776233923 0.029081923930817922 0 0.032181868728584126 0.029701098837607624 0 0.029896240063119854 0.027709370344002372 0 0.037856037747384302 0.026100636243019948 0 0.033133867210238574 0.030269213736419207 0 0.033024660144233893 0.028698566573077573 0 0.032181868728584126 0.029701098837607624 0 0.025735894948049665 0.034933232198310668 0 0.029896240063119854 0.027709370344002372 0 0.018756814839761635 0.037088435035110556 0 0.018903136718630344 0.037180827795772517 0 0.019102087547232475 0.036979250792278283 0 0.018797919182081395 0.037551486323222812 0 0.018756814839761635 0.037088435035110556 0 0.018891660434331863 0.037394141915639237 0 0.018891660434331863 0.037394141915639237 0 0.018956229044194983 0.037297487013495598 0 0.018903136718630344 0.037180827795772517 0 0.018891660434331863 0.037394141915639237 0 0.018956229044194983 0.037297487013495598 0 0.018997139743722431 0.037423096059088341 0 0.018956229044194983 0.037297487013495598 0 0.018999819823189951 0.037271243779863197 0 0.018997139743722431 0.037423096059088341 0 0.018956229044194983 0.037297487013495598 0 0.018960482318495255 0.037220861376110526 0 0.018903136718630344 0.037180827795772517 0 0.018956229044194983 0.037297487013495598 0 0.018999819823189951 0.037271243779863197 0 0.018960482318495255 0.037220861376110526 0 0.018999819823189951 0.037271243779863197 0 0.018960482318495255 0.037220861376110526 0 0.018966460402966286 0.037174155338461932 0 0.018960482318495255 0.037220861376110526 0 0.018903136718630344 0.037180827795772517 0 0.018966460402966286 0.037174155338461932 0 0.017604823439709216 0.035934682479569768 0 0.020734182867304475 0.030673316509206943 0 0.018756814839761635 0.037088435035110556 0 0.018891660434331863 0.037394141915639237 0 0.018903136718630344 0.037180827795772517 0 0.020734182867304475 0.030673316509206943 0 0.018810781775513059 0.034811020370259065 0 0.019058054424102452 0.037302880492133261 0 0.018966460402966286 0.037174155338461932 0 0.019156078128427189 0.037343894064449108 0 0.019096040508867328 0.0374424668985937 0 0.019058054424102452 0.037302880492133261 0 0.019156078128427189 0.037343894064449108 0 0.019096040508867328 0.0374424668985937 0 0.018997139743722431 0.037423096059088341 0 0.019058054424102452 0.037302880492133261 0 0.018999819823189951 0.037271243779863197 0 0.019058054424102452 0.037302880492133261 0 0.018966460402966286 0.037174155338461932 0 0.018999819823189951 0.037271243779863197 0 0.018997139743722431 0.037423096059088341 0 0.019058054424102452 0.037302880492133261 0 0.018622681110781886 0.032160397103793974 0 0.019668176933627046 0.03200262865084659 0 0.018342831604654813 0.031519374428710695 0 0.01876272587158637 0.028266881770773581 0 0.019553188689204051 0.028177382558119631 0 0.018451897702136941 0.028948999859974206 0 0.020734182867304475 0.030673316509206943 0 0.018777255014487702 0.024547636105240075 0 0.018769319197032518 0.030198523750919342 0 0.020734182867304475 0.030673316509206943 0 0.024725175833413729 0.023445926504197755 0 0.024749152088277056 0.023319284714876543 0 0.024774493013301421 0.023331618484681575 0 0.029896240063119854 0.027709370344002372 0 0.020734182867304475 0.030673316509206943 0 0.024725175833413729 0.023445926504197755 0 0.024726781015223943 0.023327539037506131 0 0.024749152088277056 0.023319284714876543 0 0.024725175833413729 0.023445926504197755 0 0.024708444508705879 0.023366092082736423 0 0.024726781015223943 0.023327539037506131 0 0.024689537779166014 0.02347442351708175 0 0.024725175833413729 0.023445926504197755 0 0.024708444508705879 0.023366092082736423 0 0.024708444508705879 0.023366092082736423 0 0.02471667690199494 0.023274034362453747 0 0.024726781015223943 0.023327539037506131 0 0.02471667690199494 0.023274034362453747 0 0.024726781015223943 0.023327539037506131 0 0.024737734622794241 0.023241315580912116 0 0.024726781015223943 0.023327539037506131 0 0.024749152088277056 0.023319284714876543 0 0.024737734622794241 0.023241315580912116 0 0.024749152088277056 0.023319284714876543 0 0.024765728135574625 0.02323956334890491 0 0.024774493013301421 0.023331618484681575 0 0.021878317770365627 0.02307673401812815 0 0.018777255014487702 0.024547636105240075 0 0.024749152088277056 0.023319284714876543 0 0.024765728135574625 0.02323956334890491 0 0.024737734622794241 0.023241315580912116 0 0.019411375116772996 0.023447365272195167 0 0.018199906527031694 0.021992517388979244 0 0.017019714444833304 0.023057260790015858 0 0.021212199708064827 0.018600327158720262 0 0.021878317770365627 0.02307673401812815 0 0.024726177339556413 0.023137679727782617 0 0.024765728135574625 0.02323956334890491 0 0.024737734622794241 0.023241315580912116 0 0.024726177339556413 0.023137679727782617 0 0.024729245705199503 0.023178941884522707 0 0.024737734622794241 0.023241315580912116 0 0.024783768756246233 0.023083815102020025 0 0.024775635367618544 0.023072491670874423 0 0.024729245705199503 0.023178941884522707 0 0.021212199708064827 0.018600327158720262 0 0.02365206097968308 0.022572156281524838 0 0.02471667690199494 0.023274034362453747 0 0.024729245705199503 0.023178941884522707 0 0.024737734622794241 0.023241315580912116 0 0.014252642453430345 0.015316370243554927 0 0.013643384136686816 0.013840727564322549 0 0.016195412240344979 0.014408409399786895 0 0.014581613346533174 0.02225528419811592 0 0.01468716397880462 0.022519979624904363 0 0.016300444225260415 0.022064205830799773 0 0.011115922396828151 0.024998092756673109 0 0.011744010369547961 0.020910093948694385 0 0.0093199753473789462 0.022337196305708681 0 0.011115922396828151 0.024998092756673109 0 0.010099814908199497 0.022156014508069255 0 0.011491278317673112 0.021112934166804379 0 0.01210202715938131 0.02264834396899143 0 0.0093722486106937869 0.018437289091800608 0 0.0090544959836250313 0.017710084432991539 0 0.0088055138423166531 0.018026480604654463 0 0.0093199753473789462 0.022337196305708681 0 0.011744010369547961 0.020910093948694385 0 0.0088593147762715142 0.017662284217888843 0 0.0088055138423166531 0.018026480604654463 0 0.0083981072975895694 0.01801535841314679 0 0.0088593147762715142 0.017662284217888843 0 0.0090544959836250313 0.017710084432991539 0 0.0088055138423166531 0.018026480604654463 0 0.012548813598184881 0.010607288675124362 0 0.011744010369547961 0.020910093948694385 0 0.01468716397880462 0.022519979624904363 0 0.017019714444833304 0.023057260790015858 0 0.016300444225260415 0.022064205830799773 0 0.018199906527031694 0.021992517388979244 0 0.017019714444833304 0.023057260790015858 0 0.016300444225260415 0.022064205830799773 0 0.011744010369547961 0.020910093948694385 0 0.016609457511351622 0.018527640479501568 0 0.012961924024288318 0.028134266879903658 0 0.012869622856790785 0.028262300561855514 0 0.012918122010882493 0.028234709817637611 0 0.011115922396828151 0.024998092756673109 0 0.018777255014487702 0.024547636105240075 0 0.018199906527031694 0.021992517388979244 0 0.016300444225260415 0.022064205830799773 0 0.016989786420282389 0.020498323390028186 0 0.014581613346533174 0.02225528419811592 0 0.016300444225260415 0.022064205830799773 0 0.016989786420282389 0.020498323390028186 0 0.012869622856790785 0.028262300561855514 0 0.012912843066140435 0.028281365010760409 0 0.012918122010882493 0.028234709817637611 0 0.012912843066140435 0.028281365010760409 0 0.012918122010882493 0.028234709817637611 0 0.012962961882579695 0.028332189721965349 0 0.012918122010882493 0.028234709817637611 0 0.012958830154267751 0.028460871203405409 0 0.013055613220492292 0.028412406235424351 0 0.011115922396828151 0.024998092756673109 0 0.009022876613651077 0.030086947119451989 0 0.0056516925483204817 0.031570022372204957 0 0.0057827615983741766 0.031470720271934371 0 0.0051917887221716967 0.030132687314994716 0 0.012961924024288318 0.028134266879903658 0 0.012918122010882493 0.028234709817637611 0 0.013055613220492292 0.028412406235424351 0 0.012901019977335879 0.028068308551550705 0 0.013789771538998619 0.028896405793712318 0 0.012918122010882493 0.028234709817637611 0 0.012958830154267751 0.028460871203405409 0 0.012882606276843709 0.028465977746293728 0 0.01298672985026508 0.028749911557634386 0 0.013789771538998619 0.028896405793712318 0 0.012958830154267751 0.028460871203405409 0 0.012802518502093229 0.02849025388497918 0 0.012885488935950587 0.028560807422049046 0 0.016118749243909821 0.029310610846061708 0 0.014929680507236132 0.030080117257706134 0 0.012802518502093229 0.02849025388497918 0 0.012885488935950587 0.028560807422049046 0 0.012824356473527133 0.028647943334225896 0 0.013789771538998619 0.028896405793712318 0 0.014929680507236132 0.030080117257706134 0 0.014935139831123339 0.029087685570761867 0 0.014596358307488832 0.02913574519488325 0 0.01499754915498034 0.029650139311429999 0 0.013789771538998619 0.028896405793712318 0 0.016118749243909821 0.029310610846061708 0 0.012958830154267751 0.028460871203405409 0 0.012885488935950587 0.028560807422049046 0 0.012968034990915501 0.028635539019268314 0 0.012958830154267751 0.028460871203405409 0 0.012968034990915501 0.028635539019268314 0 0.013055613220492292 0.028412406235424351 0 0.012885488935950587 0.028560807422049046 0 0.012968034990915501 0.028635539019268314 0 0.012824356473527133 0.028647943334225896 0 0.01876272587158637 0.028266881770773581 0 0.018451897702136941 0.028948999859974206 0 0.017971769745878975 0.02836832981088502 0 0.018769319197032518 0.030198523750919342 0 0.016118749243909821 0.029310610846061708 0 0.018622681110781886 0.032160397103793974 0 0.017604449523652102 0.032290652176247985 0 0.017785630122031958 0.031775485828888873 0 0.012869622856790785 0.028262300561855514 0 0.012912843066140435 0.028281365010760409 0 0.012932791259100854 0.028335575482295532 0 0.018777255014487702 0.024547636105240075 0 0.016118749243909821 0.029310610846061708 0 0.012912843066140435 0.028281365010760409 0 0.012962961882579695 0.028332189721965349 0 0.012932791259100854 0.028335575482295532 0 0.017604449523652102 0.032290652176247985 0 0.017785630122031958 0.031775485828888873 0 0.017231883290575577 0.031821514806897364 0 0.018810781775513059 0.034811020370259065 0 0.017165056499091141 0.034400386503599271 0 0.018342831604654813 0.031519374428710695 0 0.017785630122031958 0.031775485828888873 0 0.017148253661681059 0.031109335677072966 0 0.019156078128427189 0.037343894064449108 0 0.019299658096564233 0.037439476263844106 0 0.01920452385111791 0.037500913803302754 0 0.018622681110781886 0.032160397103793974 0 0.018342831604654813 0.031519374428710695 0 0.017785630122031958 0.031775485828888873 0 0.019096040508867328 0.0374424668985937 0 0.019156078128427189 0.037343894064449108 0 0.01920452385111791 0.037500913803302754 0 0.014929680507236132 0.030080117257706134 0 0.013977652226947811 0.032380596615908898 0 0.015023966369419007 0.031775401304186449 0 0.015077100351053276 0.032299062975725198 0 0.015557824911440518 0.032486902273760748 0 0.012968034990915501 0.028635539019268314 0 0.012824356473527133 0.028647943334225896 0 0.013004966068061808 0.028936187685670342 0 0.017785630122031958 0.031775485828888873 0 0.017231883290575577 0.031821514806897364 0 0.017148253661681059 0.031109335677072966 0 0.014929680507236132 0.030080117257706134 0 0.017165056499091141 0.034400386503599271 0 0.017165056499091141 0.034400386503599271 0 0.013977652226947811 0.032380596615908898 0 0.017165056499091141 0.034400386503599271 0 0.017481954552536712 0.036571466121149136 0 0.015605874049203165 0.035167158570054334 0 0.015401958432340601 0.035047008621825602 0 0.01541930587899277 0.035354897697478176 0 0.015638290796093201 0.035428579265404166 0 0.015605874049203165 0.035167158570054334 0 0.01541930587899277 0.035354897697478176 0 0.019299658096564233 0.037439476263844106 0 0.019295903668018054 0.037571552042784048 0 0.01920452385111791 0.037500913803302754 0 0.017481954552536712 0.036571466121149136 0 0.0178602018823729 0.036945252602764767 0 0.019295903668018054 0.037571552042784048 0 0.019290791795201011 0.037661615376212591 0 0.019210977144159532 0.037621776915133361 0 0.015605874049203165 0.035167158570054334 0 0.015584190659049334 0.034887737336591472 0 0.015401958432340601 0.035047008621825602 0 0.0178602018823729 0.036945252602764767 0 0.01930457634165612 0.037931449207515497 0 0.018633606032703472 0.03807591201283702 0 0.019028096720261317 0.037973602615595313 0 0.019017831714648853 0.037989636650042763 0 0.019028096720261317 0.037973602615595313 0 0.019022322595489138 0.037888559154940028 0 0.019017831714648853 0.037989636650042763 0 0.019295903668018054 0.037571552042784048 0 0.019210977144159532 0.037621776915133361 0 0.01920452385111791 0.037500913803302754 0 0.01930457634165612 0.037931449207515497 0 0.018963234740368283 0.037590545625092231 0 0.019210977144159532 0.037621776915133361 0 0.01920452385111791 0.037500913803302754 0 0.019068201280789669 0.037618801752153014 0 0.019096040508867328 0.0374424668985937 0 0.01920452385111791 0.037500913803302754 0 0.019068201280789669 0.037618801752153014 0 0.019068201280789669 0.037618801752153014 0 0.018934215450899076 0.037665141881307762 0 0.019022322595489138 0.037888559154940028 0 0.018997139743722431 0.037423096059088341 0 0.019068201280789669 0.037618801752153014 0 0.018934215450899076 0.037665141881307762 0 0.019096040508867328 0.0374424668985937 0 0.018997139743722431 0.037423096059088341 0 0.019068201280789669 0.037618801752153014 0 0.018797919182081395 0.037551486323222812 0 0.018891660434331863 0.037394141915639237 0 0.018934215450899076 0.037665141881307762 0 0.018891660434331863 0.037394141915639237 0 0.018997139743722431 0.037423096059088341 0 0.018934215450899076 0.037665141881307762 0 0.018934215450899076 0.037665141881307762 0 0.018859521232480598 0.037875085266307042 0 0.019022322595489138 0.037888559154940028 0 0.018797919182081395 0.037551486323222812 0 0.018934215450899076 0.037665141881307762 0 0.018859521232480598 0.037875085266307042 0 0.025735894948049665 0.034933232198310668 0 0.025972749385807448 0.034344495510960728 0 0.019028096720261317 0.037973602615595313 0 0.019068201280789669 0.037618801752153014 0 0.019022322595489138 0.037888559154940028 0 0.019022322595489138 0.037888559154940028 0 0.018981049772384618 0.037991536773227481 0 0.019017831714648853 0.037989636650042763 0 0.018981049772384618 0.037991536773227481 0 0.019095192978630299 0.038076045571257586 0 0.019017831714648853 0.037989636650042763 0 0.018859521232480598 0.037875085266307042 0 0.019022322595489138 0.037888559154940028 0 0.018981049772384618 0.037991536773227481 0 0.018653266850208364 0.037962980580396863 0 0.019293311530602104 0.038190815377224366 0 0.025972749385807448 0.034344495510960728 0 0.025270330862720125 0.034800120009920492 0 0.019933816655488431 0.038508974562867199 0 0.019542692482289022 0.038313102936776505 0 0.019776155199976792 0.038007284982175052 0 0.031213720704227236 0.030757046336154548 0 0.031336010922324901 0.030509824206377625 0 0.031342762002106679 0.030970146390007627 0 0.025972749385807448 0.034344495510960728 0 0.018653266850208364 0.037962980580396863 0 0.031160263251941 0.031025382919517716 0 0.031213720704227236 0.030757046336154548 0 0.031342762002106679 0.030970146390007627 0 0.019542692482289022 0.038313102936776505 0 0.019776155199976792 0.038007284982175052 0 0.019380128786248115 0.037881429955870065 0 0.019542692482289022 0.038313102936776505 0 0.019095192978630299 0.038076045571257586 0 0.019380128786248115 0.037881429955870065 0 0.019095192978630299 0.038076045571257586 0 0.018920412011986996 0.03808552339756191 0 0.019017831714648853 0.037989636650042763 0 0.019095192978630299 0.038076045571257586 0 0.019080827782506957 0.037931804336041257 0 0.019380128786248115 0.037881429955870065 0 0.019095192978630299 0.038076045571257586 0 0.018920412011986996 0.03808552339756191 0 0.019080827782506957 0.037931804336041257 0 0.018461166575163477 0.037631808339526972 0 0.018377744723364717 0.037894709156947898 0 0.017966509982858706 0.037646909409710334 0 0.018461166575163477 0.037631808339526972 0 0.018377744723364717 0.037894709156947898 0 0.019017831714648853 0.037989636650042763 0 0.018633606032703472 0.03807591201283702 0 0.018377744723364717 0.037894709156947898 0 0.019017831714648853 0.037989636650042763 0 0.0178602018823729 0.036945252602764767 0 0.018428351931442467 0.038315899071837106 0 0.018686171378393658 0.037861293186275978 0 0.018983049853003718 0.038005548231735652 0 0.019116513469448402 0.037514996737656833 0 0.018722995479660949 0.037616326956134143 0 0.019043014987710306 0.03773192019408643 0 0.019116513469448402 0.037514996737656833 0 0.01923513166606031 0.037623592356979679 0 0.019043014987710306 0.03773192019408643 0 0.01923513166606031 0.037623592356979679 0 0.019400025477440457 0.037427503158589025 0 0.019393007486779169 0.037651647455757858 0 0.019116513469448402 0.037514996737656833 0 0.01923513166606031 0.037623592356979679 0 0.019400025477440457 0.037427503158589025 0 0.019116513469448402 0.037514996737656833 0 0.019400025477440457 0.037427503158589025 0 0.01927521482143861 0.037320170680985858 0 0.019116513469448402 0.037514996737656833 0 0.018914702331499968 0.03735624662334603 0 0.01927521482143861 0.037320170680985858 0 0.019116513469448402 0.037514996737656833 0 0.018914702331499968 0.03735624662334603 0 0.018722995479660949 0.037616326956134143 0 0.018914702331499968 0.03735624662334603 0 0.018330228542110614 0.037311117818821384 0 0.018722995479660949 0.037616326956134143 0 0.018330228542110614 0.037311117818821384 0 0.018722995479660949 0.037616326956134143 0 0.018318181732852466 0.03777287351603776 0 0.018461166575163477 0.037631808339526972 0 0.017966509982858706 0.037646909409710334 0 0.017932558286064808 0.03726912141025919 0 0.018686171378393658 0.037861293186275978 0 0.018118617091567837 0.037498222456749206 0 0.018920412011986996 0.03808552339756191 0 0.018839732931770558 0.037842949840543504 0 0.018318181732852466 0.03777287351603776 0 0.018722995479660949 0.037616326956134143 0 0.018839732931770558 0.037842949840543504 0 0.019043014987710306 0.03773192019408643 0 0.018722995479660949 0.037616326956134143 0 0.018839732931770558 0.037842949840543504 0 0.018318181732852466 0.03777287351603776 0 0.018920412011986996 0.03808552339756191 0 0.018839732931770558 0.037842949840543504 0 0.019080827782506957 0.037931804336041257 0 0.018839732931770558 0.037842949840543504 0 0.019080827782506957 0.037931804336041257 0 0.019043014987710306 0.03773192019408643 0 0.019080827782506957 0.037931804336041257 0 0.019043014987710306 0.03773192019408643 0 0.019210228645959723 0.037772110034512217 0 0.01923513166606031 0.037623592356979679 0 0.019210228645959723 0.037772110034512217 0 0.019393007486779169 0.037651647455757858 0 0.01923513166606031 0.037623592356979679 0 0.019043014987710306 0.03773192019408643 0 0.019210228645959723 0.037772110034512217 0 0.019080827782506957 0.037931804336041257 0 0.019210228645959723 0.037772110034512217 0 0.019380128786248115 0.037881429955870065 0 0.019776155199976792 0.038007284982175052 0 0.019380128786248115 0.037881429955870065 0 0.01969253829564864 0.037545143223003154 0 0.019380128786248115 0.037881429955870065 0 0.019393007486779169 0.037651647455757858 0 0.01969253829564864 0.037545143223003154 0 0.019210228645959723 0.037772110034512217 0 0.019380128786248115 0.037881429955870065 0 0.019393007486779169 0.037651647455757858 0 0.029918167409934769 0.03044056424866818 0 0.029822880756705208 0.030865438080304508 0 0.029818805360000755 0.030690162705441101 0 0.025270330862720125 0.034800120009920492 0 0.027946433715547975 0.032883034480837618 0 0.030878204768161398 0.030529835700581705 0 0.027946433715547975 0.032883034480837618 0 0.031160263251941 0.031025382919517716 0 0.031342762002106679 0.030970146390007627 0 0.031346566789012341 0.031394130586108002 0 0.029822880756705208 0.030865438080304508 0 0.029749626867504968 0.030969552904299365 0 0.02942489655369393 0.031153877152307781 0 0.027946433715547975 0.032883034480837618 0 0.029516345626968511 0.030715370523856759 0 0.029822880756705208 0.030865438080304508 0 0.029749626867504968 0.030969552904299365 0 0.029818805360000755 0.030690162705441101 0 0.019400025477440457 0.037427503158589025 0 0.01969253829564864 0.037545143223003154 0 0.019505211234422996 0.037171570263675548 0 0.027946433715547975 0.032883034480837618 0 0.022461811200408955 0.034464712837152023 0 0.019400025477440457 0.037427503158589025 0 0.019393007486779169 0.037651647455757858 0 0.01969253829564864 0.037545143223003154 0 0.029554747048439817 0.031961799198851656 0 0.02942489655369393 0.031153877152307781 0 0.028791245364382528 0.03110358086071013 0 0.02942489655369393 0.031153877152307781 0 0.028791245364382528 0.03110358086071013 0 0.029515475163006146 0.030870199776199002 0 0.022461811200408955 0.034464712837152023 0 0.026064685084635362 0.033678154347843429 0 0.020104271827881551 0.037482226249104834 0 0.020435308188198477 0.036793685146748412 0 0.01970534379380354 0.037110971714402308 0 0.02942489655369393 0.031153877152307781 0 0.029616717191031181 0.031012016193092157 0 0.029515475163006146 0.030870199776199002 0 0.029749626867504968 0.030969552904299365 0 0.02942489655369393 0.031153877152307781 0 0.029616717191031181 0.031012016193092157 0 0.02220611206519528 0.036585810139130648 0 0.02212262707255799 0.0369051059874013 0 0.022047532160768928 0.037065809647271172 0 0.029616717191031181 0.031012016193092157 0 0.029515475163006146 0.030870199776199002 0 0.029699470794227426 0.030938426838734948 0 0.022029685068567395 0.03654566488460035 0 0.022151479251978742 0.036731948831509965 0 0.022208114919142506 0.036824371074537787 0 0.02220611206519528 0.036585810139130648 0 0.022029685068567395 0.03654566488460035 0 0.022151479251978742 0.036731948831509965 0 0.02220611206519528 0.036585810139130648 0 0.022151479251978742 0.036731948831509965 0 0.02212262707255799 0.0369051059874013 0 0.020104271827881551 0.037482226249104834 0 0.022029685068567395 0.03654566488460035 0 0.020435308188198477 0.036793685146748412 0 0.020104271827881551 0.037482226249104834 0 0.02220611206519528 0.036585810139130648 0 0.022029685068567395 0.03654566488460035 0 0.020435308188198477 0.036793685146748412 0 0.020521336190835217 0.036319617952184184 0 0.019833539781952507 0.036551617413965162 0 0.022029685068567395 0.03654566488460035 0 0.020435308188198477 0.036793685146748412 0 0.020521336190835217 0.036319617952184184 0 0.022029685068567395 0.03654566488460035 0 0.022402032552341203 0.03685628839563939 0 0.022208114919142506 0.036824371074537787 0 0.021919014998398961 0.036506642771963832 0 0.021570314434648637 0.036291542286904906 0 0.022029685068567395 0.03654566488460035 0 0.020521336190835217 0.036319617952184184 0 0.020408097221071429 0.035533388452416693 0 0.020521336190835217 0.036319617952184184 0 0.019782055619762238 0.036057714925676665 0 0.020408097221071429 0.035533388452416693 0 0.019782055619762238 0.036057714925676665 0 0.019214511646713197 0.036308339416183201 0 0.019833539781952507 0.036551617413965162 0 0.020521336190835217 0.036319617952184184 0 0.019782055619762238 0.036057714925676665 0 0.019833539781952507 0.036551617413965162 0 0.019782055619762238 0.036057714925676665 0 0.019214511646713197 0.036308339416183201 0 0.019190270205243616 0.035698400941937304 0 0.019214511646713197 0.036308339416183201 0 0.01853104896265061 0.036038706320993902 0 0.019190270205243616 0.035698400941937304 0 0.019214511646713197 0.036308339416183201 0 0.019330366024725328 0.036842650229175669 0 0.018905109922293547 0.036807895996282688 0 0.019833539781952507 0.036551617413965162 0 0.01970534379380354 0.037110971714402308 0 0.019330366024725328 0.036842650229175669 0 0.020435308188198477 0.036793685146748412 0 0.019833539781952507 0.036551617413965162 0 0.01970534379380354 0.037110971714402308 0 0.019214511646713197 0.036308339416183201 0 0.019833539781952507 0.036551617413965162 0 0.019330366024725328 0.036842650229175669 0 0.019606601760102101 0.037169358527914698 0 0.01970534379380354 0.037110971714402308 0 0.019488347824925169 0.037203103132316874 0 0.022461811200408955 0.034464712837152023 0 0.022020339230346093 0.035087160612364589 0 0.01970534379380354 0.037110971714402308 0 0.019356014379188796 0.037137434001168972 0 0.019488347824925169 0.037203103132316874 0 0.01970534379380354 0.037110971714402308 0 0.019356014379188796 0.037137434001168972 0 0.019330366024725328 0.036842650229175669 0 0.019330366024725328 0.036842650229175669 0 0.019063773891692993 0.037011451565953021 0 0.018905109922293547 0.036807895996282688 0 0.019356014379188796 0.037137434001168972 0 0.019330366024725328 0.036842650229175669 0 0.019063773891692993 0.037011451565953021 0 0.018914702331499968 0.03735624662334603 0 0.019121034597846573 0.037227697023122293 0 0.01927521482143861 0.037320170680985858 0 0.019356014379188796 0.037137434001168972 0 0.019063773891692993 0.037011451565953021 0 0.019121034597846573 0.037227697023122293 0 0.019356014379188796 0.037137434001168972 0 0.019121034597846573 0.037227697023122293 0 0.019315853948138003 0.037223766241174683 0 0.019063773891692993 0.037011451565953021 0 0.019121034597846573 0.037227697023122293 0 0.018656271952457899 0.037021074395899481 0 0.019121034597846573 0.037227697023122293 0 0.01927521482143861 0.037320170680985858 0 0.019315853948138003 0.037223766241174683 0 0.019400025477440457 0.037427503158589025 0 0.01927521482143861 0.037320170680985858 0 0.019488347824925169 0.037203103132316874 0 0.019400025477440457 0.037427503158589025 0 0.019505211234422996 0.037171570263675548 0 0.019488347824925169 0.037203103132316874 0 0.022461811200408955 0.034464712837152023 0 0.021377438849874895 0.035249761397562418 0 0.019356014379188796 0.037137434001168972 0 0.019488347824925169 0.037203103132316874 0 0.019315853948138003 0.037223766241174683 0 0.01927521482143861 0.037320170680985858 0 0.019488347824925169 0.037203103132316874 0 0.019315853948138003 0.037223766241174683 0 0.018330228542110614 0.037311117818821384 0 0.018656271952457899 0.037021074395899481 0 0.018061699859407372 0.036907452228086703 0 0.018914702331499968 0.03735624662334603 0 0.019121034597846573 0.037227697023122293 0 0.018656271952457899 0.037021074395899481 0 0.018914702331499968 0.03735624662334603 0 0.018330228542110614 0.037311117818821384 0 0.018656271952457899 0.037021074395899481 0 0.019063773891692993 0.037011451565953021 0 0.018656271952457899 0.037021074395899481 0 0.018905109922293547 0.036807895996282688 0 0.018656271952457899 0.037021074395899481 0 0.018905109922293547 0.036807895996282688 0 0.018578817735791883 0.036547983903755452 0 0.018656271952457899 0.037021074395899481 0 0.018141147358817701 0.036628787087295687 0 0.018578817735791883 0.036547983903755452 0 0.018656271952457899 0.037021074395899481 0 0.018141147358817701 0.036628787087295687 0 0.018061699859407372 0.036907452228086703 0 0.018141147358817701 0.036628787087295687 0 0.018578817735791883 0.036547983903755452 0 0.018180127145640785 0.036323957872282875 0 0.019214511646713197 0.036308339416183201 0 0.018905109922293547 0.036807895996282688 0 0.018578817735791883 0.036547983903755452 0 0.019214511646713197 0.036308339416183201 0 0.018578817735791883 0.036547983903755452 0 0.01853104896265061 0.036038706320993902 0 0.018578817735791883 0.036547983903755452 0 0.01853104896265061 0.036038706320993902 0 0.018180127145640785 0.036323957872282875 0 0.01853104896265061 0.036038706320993902 0 0.018180127145640785 0.036323957872282875 0 0.017947550869266006 0.036043274554418872 0 0.01853104896265061 0.036038706320993902 0 0.019190270205243616 0.035698400941937304 0 0.018143627069140154 0.035278430942003995 0 0.019190270205243616 0.035698400941937304 0 0.019309848741254847 0.035020525094040918 0 0.018143627069140154 0.035278430942003995 0 0.019516175829306506 0.036506396285842915 0 0.017265491388430108 0.035761567526240663 0 0.01853104896265061 0.036038706320993902 0 0.018143627069140154 0.035278430942003995 0 0.017947550869266006 0.036043274554418872 0 0.019190270205243616 0.035698400941937304 0 0.019309848741254847 0.035020525094040918 0 0.020408097221071429 0.035533388452416693 0 0.019782055619762238 0.036057714925676665 0 0.019190270205243616 0.035698400941937304 0 0.020408097221071429 0.035533388452416693 0 0.019516175829306506 0.036506396285842915 0 0.021570314434648637 0.036291542286904906 0 0.019171192468531568 0.037773598568442195 0 0.018995748409828542 0.036880233357943847 0 0.017953712376404314 0.036906991562746384 0 0.019171192468531568 0.037773598568442195 0 0.018995748409828542 0.036880233357943847 0 0.020073254587385948 0.036828249806219175 0 0.017024588111336083 0.036251226169306254 0 0.016805801818618221 0.036235701893600689 0 0.01687245153630338 0.036143632529235768 0 0.019516175829306506 0.036506396285842915 0 0.017237868097183438 0.036454117136057992 0 0.016805801818618221 0.036235701893600689 0 0.01687245153630338 0.036143632529235768 0 0.01679644470422367 0.036191108042261277 0 0.017953712376404314 0.036906991562746384 0 0.017973822726999239 0.036035795878779954 0 0.016739853441383585 0.035930964094672828 0 0.017973822726999239 0.036035795878779954 0 0.018699287270767379 0.035695224987493758 0 0.017989491226413672 0.035142556543759723 0 0.017973822726999239 0.036035795878779954 0 0.018831430481324726 0.036171422496250535 0 0.018699287270767379 0.035695224987493758 0 0.018995748409828542 0.036880233357943847 0 0.017953712376404314 0.036906991562746384 0 0.018831430481324726 0.036171422496250535 0 0.017953712376404314 0.036906991562746384 0 0.017973822726999239 0.036035795878779954 0 0.018831430481324726 0.036171422496250535 0 0.018831430481324726 0.036171422496250535 0 0.018699287270767379 0.035695224987493758 0 0.020003270201158715 0.035436161415777864 0 0.018995748409828542 0.036880233357943847 0 0.018831430481324726 0.036171422496250535 0 0.019718951323599659 0.036267390419083265 0 0.018995748409828542 0.036880233357943847 0 0.019718951323599659 0.036267390419083265 0 0.020073254587385948 0.036828249806219175 0 0.018831430481324726 0.036171422496250535 0 0.019718951323599659 0.036267390419083265 0 0.020003270201158715 0.035436161415777864 0 0.018699287270767379 0.035695224987493758 0 0.017989491226413672 0.035142556543759723 0 0.020003270201158715 0.035436161415777864 0 0.017991631185960782 0.035407413896319552 0 0.019926970777692621 0.035654230837895123 0 0.019590221052416128 0.034999998315805324 0 0.01801798265497067 0.035648787536640039 0 0.019842095378334857 0.035860234985871105 0 0.019590221052416128 0.034999998315805324 0 0.01778537256014328 0.035000016265814823 0 0.01801798265497067 0.035648787536640039 0 0.017973822726999239 0.036035795878779954 0 0.017989491226413672 0.035142556543759723 0 0.017200020962213014 0.035565536860968555 0 0.021395246715684334 0.034999805518377773 0 0.019842095378334857 0.035860234985871105 0 0.021611670646482676 0.035931862628118504 0 0.019590221052416128 0.034999998315805324 0 0.021395246715684334 0.034999805518377773 0 0.019842095378334857 0.035860234985871105 0 0.019926970777692621 0.035654230837895123 0 0.021492293099459429 0.0359035847885553 0 0.020003270201158715 0.035436161415777864 0 0.020650489544238405 0.036338631380075551 0 0.021611670646482676 0.035931862628118504 0 0.019718951323599659 0.036267390419083265 0 0.020003270201158715 0.035436161415777864 0 0.020650489544238405 0.036338631380075551 0 0.019718951323599659 0.036267390419083265 0 0.020650489544238405 0.036338631380075551 0 0.020073254587385948 0.036828249806219175 0 0.021611670646482676 0.035931862628118504 0 0.021466005208600519 0.03676208727501052 0 0.022109066149650292 0.036774689193422423 0 0.020650489544238405 0.036338631380075551 0 0.021611670646482676 0.035931862628118504 0 0.021466005208600519 0.03676208727501052 0 0.021466005208600519 0.03676208727501052 0 0.020798674347688034 0.037588838406561707 0 0.022037976015466827 0.037175573677424426 0 0.021466005208600519 0.03676208727501052 0 0.020785345793771021 0.036907668677375452 0 0.020798674347688034 0.037588838406561707 0 0.020650489544238405 0.036338631380075551 0 0.021466005208600519 0.03676208727501052 0 0.020785345793771021 0.036907668677375452 0 0.019171192468531568 0.037773598568442195 0 0.020073254587385948 0.036828249806219175 0 0.020798674347688034 0.037588838406561707 0 0.020073254587385948 0.036828249806219175 0 0.020785345793771021 0.036907668677375452 0 0.020798674347688034 0.037588838406561707 0 0.020650489544238405 0.036338631380075551 0 0.020073254587385948 0.036828249806219175 0 0.020785345793771021 0.036907668677375452 0 0.019516175829306506 0.036506396285842915 0 0.021806582344705609 0.03737139779628338 0 0.022523687903047623 0.036990568477785271 0 0.022278886498898032 0.037017004906161596 0 0.022402032552341203 0.03685628839563939 0 0.022278886498898032 0.037017004906161596 0 0.022402032552341203 0.03685628839563939 0 0.022208114919142506 0.036824371074537787 0 0.022278886498898032 0.037017004906161596 0 0.022161107418888725 0.036932637998827018 0 0.022037976015466827 0.037175573677424426 0 0.021806582344705609 0.03737139779628338 0 0.021853446864036983 0.037191832545292396 0 0.02212262707255799 0.0369051059874013 0 0.022161107418888725 0.036932637998827018 0 0.022037976015466827 0.037175573677424426 0 0.022278886498898032 0.037017004906161596 0 0.022208114919142506 0.036824371074537787 0 0.022161107418888725 0.036932637998827018 0 0.022151479251978742 0.036731948831509965 0 0.022208114919142506 0.036824371074537787 0 0.022161107418888725 0.036932637998827018 0 0.022151479251978742 0.036731948831509965 0 0.02212262707255799 0.0369051059874013 0 0.022161107418888725 0.036932637998827018 0 0.02212262707255799 0.0369051059874013 0 0.022047532160768928 0.037065809647271172 0 0.022037976015466827 0.037175573677424426 0 0.02973468372283079 0.030814971536648497 0 0.029729078514780044 0.03082711113734336 0 0.029734629961541841 0.03085921763882803 0 0.026567491109406205 0.033752867930371716 0 0.028374744236174292 0.031133707540722515 0 0.026567491109406205 0.033752867930371716 0 0.024768070040433608 0.036598043434752155 0 0.025727593831380489 0.034007526365518237 0 0.026666669569053038 0.033396838607433386 0 0.025570331778821863 0.035778971564351031 0 0.02735204845864914 0.033468957025521981 0 0.026567491109406205 0.033752867930371716 0 0.022047532160768928 0.037065809647271172 0 0.02215578547687971 0.037214940952502502 0 0.022037976015466827 0.037175573677424426 0 0.02735204845864914 0.033468957025521981 0 0.024768070040433608 0.036598043434752155 0 0.029104544470244194 0.033372095871011705 0 0.029368549102794118 0.032877490404367771 0 0.028746838512128243 0.032572376276637012 0 0.029104544470244194 0.033372095871011705 0 0.027624650903933467 0.033633082456119463 0 0.028746838512128243 0.032572376276637012 0 0.030092682146451995 0.033291733615689885 0 0.029368549102794118 0.032877490404367771 0 0.029553037158955853 0.032288710945536155 0 0.030092682146451995 0.033291733615689885 0 0.029104544470244194 0.033372095871011705 0 0.029368549102794118 0.032877490404367771 0 0.025822282669323737 0.035667074506817213 0 0.025824057329046714 0.035629313626467006 0 0.025944004057081842 0.035591081787097426 0 0.02735204845864914 0.033468957025521981 0 0.027238104055139673 0.034961096668583151 0 0.030092682146451995 0.033291733615689885 0 0.029104544470244194 0.033372095871011705 0 0.028648602882832913 0.034418964037659212 0 0.029104544470244194 0.033372095871011705 0 0.028648602882832913 0.034418964037659212 0 0.027624650903933467 0.033633082456119463 0 0.023067807998147796 0.037963571804008937 0 0.023710732057335829 0.036619439930121532 0 0.023155684786858664 0.036609881230683039 0 0.025824057329046714 0.035629313626467006 0 0.025944004057081842 0.035591081787097426 0 0.025803888353505874 0.035383949778112773 0 0.024768070040433608 0.036598043434752155 0 0.024683758675688779 0.035990872853722322 0 0.02215578547687971 0.037214940952502502 0 0.022037976015466827 0.037175573677424426 0 0.022109066149650292 0.036774689193422423 0 0.024768070040433608 0.036598043434752155 0 0.022654066748385156 0.036710558390568672 0 0.02215578547687971 0.037214940952502502 0 0.022109066149650292 0.036774689193422423 0 0.022659891904889956 0.03645063252196859 0 0.021466005208600519 0.03676208727501052 0 0.022037976015466827 0.037175573677424426 0 0.022109066149650292 0.036774689193422423 0 0.021611670646482676 0.035931862628118504 0 0.022109066149650292 0.036774689193422423 0 0.022659891904889956 0.03645063252196859 0 0.023710732057335829 0.036619439930121532 0 0.023155684786858664 0.036609881230683039 0 0.023200217124151098 0.034999991621889728 0 0.023710732057335829 0.036619439930121532 0 0.023200217124151098 0.034999991621889728 0 0.024546903861343471 0.034999960089040619 0 0.022654066748385156 0.036710558390568672 0 0.023199939680382645 0.034999868024058127 0 0.021611670646482676 0.035931862628118504 0 0.022659891904889956 0.03645063252196859 0 0.023199124031004409 0.035000034110944427 0 0.021395246715684334 0.034999805518377773 0 0.021611670646482676 0.035931862628118504 0 0.023199124031004409 0.035000034110944427 0 0.025608163490392986 0.03536095104168379 0 0.025704072496242639 0.035656222595091464 0 0.026361914389452613 0.034999653250304741 0 0.025608163490392986 0.03536095104168379 0 0.024550835427823058 0.035000108456452537 0 0.026361914389452613 0.034999653250304741 0 0.027358974710847209 0.03449923169819144 0 0.026364676845787839 0.034999510443301726 0 0.025803888353505874 0.035383949778112773 0 0.024550835427823058 0.035000108456452537 0 0.025648034111218177 0.035472263735266719 0 0.024683758675688779 0.035990872853722322 0 0.024547547698946431 0.034999891803982705 0 0.025608163490392986 0.03536095104168379 0 0.024550835427823058 0.035000108456452537 0 0.025648034111218177 0.035472263735266719 0 0.025803888353505874 0.035383949778112773 0 0.025648034111218177 0.035472263735266719 0 0.026349180596168191 0.035312656796725898 0 0.025648034111218177 0.035472263735266719 0 0.025704072496242639 0.035656222595091464 0 0.026349180596168191 0.035312656796725898 0 0.025608163490392986 0.03536095104168379 0 0.025648034111218177 0.035472263735266719 0 0.025704072496242639 0.035656222595091464 0 0.029086972016210279 0.03366753824384465 0 0.029943008702116674 0.031891887411456828 0 0.028880831301435528 0.032446086595933288 0 0.027358974710847209 0.03449923169819144 0 0.027942035682494142 0.033211666023978119 0 0.025704072496242639 0.035656222595091464 0 0.026349180596168191 0.035312656796725898 0 0.025923762507920806 0.034479989360020093 0 0.025944004057081842 0.035591081787097426 0 0.025803888353505874 0.035383949778112773 0 0.026349180596168191 0.035312656796725898 0 0.027238104055139673 0.034961096668583151 0 0.026537625692156157 0.035294665634190328 0 0.028648602882832913 0.034418964037659212 0 0.026349180596168191 0.035312656796725898 0 0.027624650903933467 0.033633082456119463 0 0.026349180596168191 0.035312656796725898 0 0.027624650903933467 0.033633082456119463 0 0.025923762507920806 0.034479989360020093 0 0.027624650903933467 0.033633082456119463 0 0.025923762507920806 0.034479989360020093 0 0.027471203578096987 0.031909869950601723 0 0.027942035682494142 0.033211666023978119 0 0.028671051086498259 0.031433742820661296 0 0.029943008702116674 0.031891887411456828 0 0.029868456256528026 0.030728149713174793 0 0.029442393881778654 0.031478354316372012 0 0.029943008702116674 0.031891887411456828 0 0.029442393881778654 0.031478354316372012 0 0.028880831301435528 0.032446086595933288 0 0.029868456256528026 0.030728149713174793 0 0.029680032558901913 0.030428537294428164 0 0.029365174254408766 0.030958587671049309 0 0.029868456256528026 0.030728149713174793 0 0.029365174254408766 0.030958587671049309 0 0.029442393881778654 0.031478354316372012 0 0.029868456256528026 0.030728149713174793 0 0.029348017254762777 0.030543866358977999 0 0.029680032558901913 0.030428537294428164 0 0.028671051086498259 0.031433742820661296 0 0.029216700432493393 0.030667462870533759 0 0.027471203578096987 0.031909869950601723 0 0.029271382874200672 0.031383327713082006 0 0.029348017254762777 0.030543866358977999 0 0.027471203578096987 0.031909869950601723 0 0.028746838512128243 0.032572376276637012 0 0.029271382874200672 0.031383327713082006 0 0.027624650903933467 0.033633082456119463 0 0.027471203578096987 0.031909869950601723 0 0.028746838512128243 0.032572376276637012 0 0.029368549102794118 0.032877490404367771 0 0.028746838512128243 0.032572376276637012 0 0.029553037158955853 0.032288710945536155 0 0.028746838512128243 0.032572376276637012 0 0.029553037158955853 0.032288710945536155 0 0.029271382874200672 0.031383327713082006 0 0.029734629961541841 0.03085921763882803 0 0.029699470794227426 0.030938426838734948 0 0.029858491991509639 0.031012354647686272 0 0.02735204845864914 0.033468957025521981 0 0.03061350592215235 0.030437111885491329 0 0.026064685084635362 0.033678154347843429 0 0.026567491109406205 0.033752867930371716 0 0.030092682146451995 0.033291733615689885 0 0.029553037158955853 0.032288710945536155 0 0.029858491991509639 0.031012354647686272 0 0.029515475163006146 0.030870199776199002 0 0.029734629961541841 0.03085921763882803 0 0.029699470794227426 0.030938426838734948 0 0.029515475163006146 0.030870199776199002 0 0.029763301355604361 0.030825867450401896 0 0.029734629961541841 0.03085921763882803 0 0.02973468372283079 0.030814971536648497 0 0.029734629961541841 0.03085921763882803 0 0.029858491991509639 0.031012354647686272 0 0.029616717191031181 0.031012016193092157 0 0.029699470794227426 0.030938426838734948 0 0.029858491991509639 0.031012354647686272 0 0.029749626867504968 0.030969552904299365 0 0.029616717191031181 0.031012016193092157 0 0.029858491991509639 0.031012354647686272 0 0.029271382874200672 0.031383327713082006 0 0.029587428330246961 0.030761831561892633 0 0.029348017254762777 0.030543866358977999 0 0.029553037158955853 0.032288710945536155 0 0.029858491991509639 0.031012354647686272 0 0.029271382874200672 0.031383327713082006 0 0.029858491991509639 0.031012354647686272 0 0.029271382874200672 0.031383327713082006 0 0.029587428330246961 0.030761831561892633 0 0.029587428330246961 0.030761831561892633 0 0.029664188263000602 0.030506725747911738 0 0.029348017254762777 0.030543866358977999 0 0.029858491991509639 0.031012354647686272 0 0.029587428330246961 0.030761831561892633 0 0.029769762090014015 0.030710210934948412 0 0.029587428330246961 0.030761831561892633 0 0.029769762090014015 0.030710210934948412 0 0.029664188263000602 0.030506725747911738 0 0.029749626867504968 0.030969552904299365 0 0.029858491991509639 0.031012354647686272 0 0.029769762090014015 0.030710210934948412 0 0.029749626867504968 0.030969552904299365 0 0.029769762090014015 0.030710210934948412 0 0.029818805360000755 0.030690162705441101 0 0.029918167409934769 0.03044056424866818 0 0.029818805360000755 0.030690162705441101 0 0.029835013790350133 0.0304818073356126 0 0.029769762090014015 0.030710210934948412 0 0.029818805360000755 0.030690162705441101 0 0.029835013790350133 0.0304818073356126 0 0.029769762090014015 0.030710210934948412 0 0.029664188263000602 0.030506725747911738 0 0.029835013790350133 0.0304818073356126 0 0.029664188263000602 0.030506725747911738 0 0.029835013790350133 0.0304818073356126 0 0.029865020191391364 0.030363749294969333 0 0.029664188263000602 0.030506725747911738 0 0.029865020191391364 0.030363749294969333 0 0.029770573029928207 0.030387408663723022 0 0.030042839682187246 0.030178778176304568 0 0.029770573029928207 0.030387408663723022 0 0.029785345453544106 0.03041339077517248 0 0.029770573029928207 0.030387408663723022 0 0.029348017254762777 0.030543866358977999 0 0.029785345453544106 0.03041339077517248 0 0.029348017254762777 0.030543866358977999 0 0.029785345453544106 0.03041339077517248 0 0.029680032558901913 0.030428537294428164 0 0.029664188263000602 0.030506725747911738 0 0.029770573029928207 0.030387408663723022 0 0.029348017254762777 0.030543866358977999 0 0.029872850039195802 0.030229304484327518 0 0.029785345453544106 0.03041339077517248 0 0.029680032558901913 0.030428537294428164 0 0.029945270828484069 0.030599282591529921 0 0.029785345453544106 0.03041339077517248 0 0.030051527258609625 0.030395602978063346 0 0.029872850039195802 0.030229304484327518 0 0.029785345453544106 0.03041339077517248 0 0.030051527258609625 0.030395602978063346 0 0.029872850039195802 0.030229304484327518 0 0.030051527258609625 0.030395602978063346 0 0.030631087254466685 0.030220305289817433 0 0.030841173948684842 0.030898475039607975 0 0.030631087254466685 0.030220305289817433 0 0.031888348310655477 0.03030554608538738 0 0.030841173948684842 0.030898475039607975 0 0.030051527258609625 0.030395602978063346 0 0.030631087254466685 0.030220305289817433 0 0.031888348310655477 0.03030554608538738 0 0.031963837282008099 0.029754507384569306 0 0.032924727313602284 0.029783991333536611 0 0.030631087254466685 0.030220305289817433 0 0.031888348310655477 0.03030554608538738 0 0.031963837282008099 0.029754507384569306 0 0.029872850039195802 0.030229304484327518 0 0.030631087254466685 0.030220305289817433 0 0.030112784953414028 0.030007814656946376 0 0.030631087254466685 0.030220305289817433 0 0.031963837282008099 0.029754507384569306 0 0.030112784953414028 0.030007814656946376 0 0.030112784953414028 0.030007814656946376 0 0.029540466559779772 0.03022385143694813 0 0.02920453551779029 0.030726404778840567 0 0.030112784953414028 0.030007814656946376 0 0.02920453551779029 0.030726404778840567 0 0.029592389723357659 0.030423957804644412 0 0.031963837282008099 0.029754507384569306 0 0.033523195306384923 0.030224880791813787 0 0.032983369454428646 0.029549688828629427 0 0.031963837282008099 0.029754507384569306 0 0.030112784953414028 0.030007814656946376 0 0.029540466559779772 0.03022385143694813 0 0.031933486737129438 0.029978245532678648 0 0.031531200651122332 0.030374235278084218 0 0.031531200651122332 0.030374235278084218 0 0.030744330555933987 0.031973468866888767 0 0.033523195306384923 0.030224880791813787 0 0.033413792572430046 0.032335968457622329 0 0.033092965136612064 0.031473891017267254 0 0.029540466559779772 0.03022385143694813 0 0.02920453551779029 0.030726404778840567 0 0.028161484752815508 0.031586779133722223 0 0.02920453551779029 0.030726404778840567 0 0.029592389723357659 0.030423957804644412 0 0.029365174254408766 0.030958587671049309 0 0.02920453551779029 0.030726404778840567 0 0.029365174254408766 0.030958587671049309 0 0.028771523503116285 0.031525520514936872 0 0.029872850039195802 0.030229304484327518 0 0.029592389723357659 0.030423957804644412 0 0.029680032558901913 0.030428537294428164 0 0.029872850039195802 0.030229304484327518 0 0.030112784953414028 0.030007814656946376 0 0.029592389723357659 0.030423957804644412 0 0.029592389723357659 0.030423957804644412 0 0.029680032558901913 0.030428537294428164 0 0.029365174254408766 0.030958587671049309 0 0.029365174254408766 0.030958587671049309 0 0.029442393881778654 0.031478354316372012 0 0.028968758969920967 0.031765422341575825 0 0.029442393881778654 0.031478354316372012 0 0.028968758969920967 0.031765422341575825 0 0.028880831301435528 0.032446086595933288 0 0.029365174254408766 0.030958587671049309 0 0.028771523503116285 0.031525520514936872 0 0.028968758969920967 0.031765422341575825 0 0.028771523503116285 0.031525520514936872 0 0.028968758969920967 0.031765422341575825 0 0.028448684286110696 0.032508202317110477 0 0.028968758969920967 0.031765422341575825 0 0.028448684286110696 0.032508202317110477 0 0.028880831301435528 0.032446086595933288 0 0.028448684286110696 0.032508202317110477 0 0.028880831301435528 0.032446086595933288 0 0.028281729884650372 0.033440479363711348 0 0.029086972016210279 0.03366753824384465 0 0.028880831301435528 0.032446086595933288 0 0.028281729884650372 0.033440479363711348 0 0.029086972016210279 0.03366753824384465 0 0.028281729884650372 0.033440479363711348 0 0.027682802852696677 0.034355497704024747 0 0.028281729884650372 0.033440479363711348 0 0.027634563008751306 0.03385643214008123 0 0.027682802852696677 0.034355497704024747 0 0.028304666724233752 0.032748855394258314 0 0.028036845753647545 0.034061662299253954 0 0.028448684286110696 0.032508202317110477 0 0.028281729884650372 0.033440479363711348 0 0.027634563008751306 0.03385643214008123 0 0.028448684286110696 0.032508202317110477 0 0.028489326741834475 0.034391171009626367 0 0.027721753043332874 0.033757792042234551 0 0.028036845753647545 0.034061662299253954 0 0.027278219362641281 0.034999642077909683 0 0.028489326741834475 0.034391171009626367 0 0.028521257295599338 0.035000076404099474 0 0.027721753043332874 0.033757792042234551 0 0.028489326741834475 0.034391171009626367 0 0.027281868862972816 0.034999119379830912 0 0.028521257295599338 0.035000076404099474 0 0.029086972016210279 0.03366753824384465 0 0.026369668520743073 0.034999799357740648 0 0.027682802852696677 0.034355497704024747 0 0.027634563008751306 0.03385643214008123 0 0.027274708030062402 0.03499929589947999 0 0.027682802852696677 0.034355497704024747 0 0.027274708030062402 0.03499929589947999 0 0.026369668520743073 0.034999799357740648 0 0.027682802852696677 0.034355497704024747 0 0.02853186178073891 0.034998279285402341 0 0.031807840106715668 0.034377072999614303 0 0.032309702724483226 0.034997701297313562 0 0.028525297166674488 0.034999213279369723 0 0.029578432509360753 0.033832957167742005 0 0.02853186178073891 0.034998279285402341 0 0.031445680311175991 0.034291380709111551 0 0.031807840106715668 0.034377072999614303 0 0.031445680311175991 0.034291380709111551 0 0.031807840106715668 0.034377072999614303 0 0.032343461153032854 0.033522714980134094 0 0.031445680311175991 0.034291380709111551 0 0.032343461153032854 0.033522714980134094 0 0.033413792572430046 0.032335968457622329 0 0.028448684286110696 0.032508202317110477 0 0.027721753043332874 0.033757792042234551 0 0.028161484752815508 0.031586779133722223 0 0.029578432509360753 0.033832957167742005 0 0.030744330555933987 0.031973468866888767 0 0.028771523503116285 0.031525520514936872 0 0.028448684286110696 0.032508202317110477 0 0.028161484752815508 0.031586779133722223 0 0.02920453551779029 0.030726404778840567 0 0.028771523503116285 0.031525520514936872 0 0.028161484752815508 0.031586779133722223 0 0.032343461153032854 0.033522714980134094 0 0.033413792572430046 0.032335968457622329 0 0.033092965136612064 0.031473891017267254 0 0.032343461153032854 0.033522714980134094 0 0.033092965136612064 0.031473891017267254 0 0.032693461085120681 0.03273507916393302 0 0.033092965136612064 0.031473891017267254 0 0.032693461085120681 0.03273507916393302 0 0.033412749853541847 0.030779398103130642 0 0.031807840106715668 0.034377072999614303 0 0.032693461085120681 0.03273507916393302 0 0.033353127410068815 0.033802569138966843 0 0.032693461085120681 0.03273507916393302 0 0.033895835301774438 0.030686203665263295 0 0.033412749853541847 0.030779398103130642 0 0.032944415572442404 0.032595016396021997 0 0.033709466344043461 0.031954551910124897 0 0.032693461085120681 0.03273507916393302 0 0.033353127410068815 0.033802569138966843 0 0.033620969528204293 0.033152072735317659 0 0.031807840106715668 0.034377072999614303 0 0.032343461153032854 0.033522714980134094 0 0.032693461085120681 0.03273507916393302 0 0.031807840106715668 0.034377072999614303 0 0.032309702724483226 0.034997701297313562 0 0.033353127410068815 0.033802569138966843 0 0.032309702724483226 0.034997701297313562 0 0.034998208756445069 0.034997563021651509 0 0.033353127410068815 0.033802569138966843 0 0.034998208756445069 0.034997563021651509 0 0.033353127410068815 0.033802569138966843 0 0.034997243271746276 0.0313761412640104 0 0.033353127410068815 0.033802569138966843 0 0.033620969528204293 0.033152072735317659 0 0.034997243271746276 0.0313761412640104 0 0.033895835301774438 0.030686203665263295 0 0.03453537442595845 0.03048983063785491 0 0.033412749853541847 0.030779398103130642 0 0.033895835301774438 0.030686203665263295 0 0.034998802207049741 0.031366131853871625 0 0.03453537442595845 0.03048983063785491 0 0.033709466344043461 0.031954551910124897 0 0.034999203370689812 0.031369483340653009 0 0.034998790001051577 0.029391123059627051 0 0.034282997367302025 0.029581348108233135 0 0.03453537442595845 0.03048983063785491 0 0.034998802207049741 0.031366131853871625 0 0.034998790001051577 0.029391123059627051 0 0.03453537442595845 0.03048983063785491 0 0.034998790001051577 0.029391123059627051 0 0.034282997367302025 0.029581348108233135 0 0.034770702986966627 0.028673565658739995 0 0.034282997367302025 0.029581348108233135 0 0.03453537442595845 0.03048983063785491 0 0.033412749853541847 0.030779398103130642 0 0.034282997367302025 0.029581348108233135 0 0.033412749853541847 0.030779398103130642 0 0.033363183691744347 0.029835528363256109 0 0.033092965136612064 0.031473891017267254 0 0.033412749853541847 0.030779398103130642 0 0.033363183691744347 0.029835528363256109 0 0.033523195306384923 0.030224880791813787 0 0.033092965136612064 0.031473891017267254 0 0.033363183691744347 0.029835528363256109 0 0.033523195306384923 0.030224880791813787 0 0.033363183691744347 0.029835528363256109 0 0.032983369454428646 0.029549688828629427 0 0.034282997367302025 0.029581348108233135 0 0.033363183691744347 0.029835528363256109 0 0.033819157530239848 0.029204299758288903 0 0.034282997367302025 0.029581348108233135 0 0.033819157530239848 0.029204299758288903 0 0.034479522400831852 0.028573337687045969 0 0.033819157530239848 0.029204299758288903 0 0.034153873375093784 0.0287538524114135 0 0.034479522400831852 0.028573337687045969 0 0.033363183691744347 0.029835528363256109 0 0.033819157530239848 0.029204299758288903 0 0.032983369454428646 0.029549688828629427 0 0.031963837282008099 0.029754507384569306 0 0.032983369454428646 0.029549688828629427 0 0.032924727313602284 0.029783991333536611 0 0.033819157530239848 0.029204299758288903 0 0.032983369454428646 0.029549688828629427 0 0.032924727313602284 0.029783991333536611 0 0.031614887744881109 0.030044918674097604 0 0.032247833459702051 0.030178442174638265 0 0.032924727313602284 0.029783991333536611 0 0.032247833459702051 0.030178442174638265 0 0.031888348310655477 0.03030554608538738 0 0.032924727313602284 0.029783991333536611 0 0.032879247485345292 0.02904870436704806 0 0.032918296926150788 0.029446158597202791 0 0.032924727313602284 0.029783991333536611 0 0.034153873375093784 0.0287538524114135 0 0.034187075138889605 0.028529936069451405 0 0.034765866983253409 0.027650074194985254 0 0.032924727313602284 0.029783991333536611 0 0.034187075138889605 0.028529936069451405 0 0.033819157530239848 0.029204299758288903 0 0.032924727313602284 0.029783991333536611 0 0.034153873375093784 0.0287538524114135 0 0.034153873375093784 0.0287538524114135 0 0.034591006693896101 0.027953036149374871 0 0.034479522400831852 0.028573337687045969 0 0.034153873375093784 0.0287538524114135 0 0.034187075138889605 0.028529936069451405 0 0.034591006693896101 0.027953036149374871 0 0.034591006693896101 0.027953036149374871 0 0.034842103928975243 0.027384336572377189 0 0.034479522400831852 0.028573337687045969 0 0.034998956875618249 0.025435625859399784 0 0.034842103928975243 0.027384336572377189 0 0.034998903615098095 0.027409974747463983 0 0.034842103928975243 0.027384336572377189 0 0.034770702986966627 0.028673565658739995 0 0.034998903615098095 0.027409974747463983 0 0.034998790001051577 0.029391123059627051 0 0.034770702986966627 0.028673565658739995 0 0.034998903615098095 0.027409974747463983 0 0.034282997367302025 0.029581348108233135 0 0.034770702986966627 0.028673565658739995 0 0.034479522400831852 0.028573337687045969 0 0.034842103928975243 0.027384336572377189 0 0.034770702986966627 0.028673565658739995 0 0.034479522400831852 0.028573337687045969 0 -0.0012103377795399358 0.029524629586345691 0 -0.001152240897116127 0.024180624744977182 0 -0.0011453674754373583 0.029423635718698927 0 -0.0011895406831359701 0.029441246280834412 0 -0.0010600262648766381 0.02935862058185414 0 -0.0011453674754373583 0.029423635718698927 0 -0.0011895406831359701 0.029441246280834412 0 -0.0011920332796980259 0.029423139265448022 0 -0.0011453674754373583 0.029423635718698927 0 -0.0011141959163071004 0.029457068678872558 0 -0.0010600262648766381 0.02935862058185414 0 -0.0011453674754373583 0.029423635718698927 0 -0.0011920332796980259 0.029423139265448022 0 -0.0011141959163071004 0.029457068678872558 0 -0.0010600262648766381 0.02935862058185414 0 -0.00098559517419048097 0.029465185917540933 0 -0.0010575501151636154 0.029475420106151187 0 -0.001152240897116127 0.024180624744977182 0 -0.0010123883008512475 0.02582723956520323 0 -0.0011141959163071004 0.029457068678872558 0 -0.0010600262648766381 0.02935862058185414 0 -0.0010575501151636154 0.029475420106151187 0 -0.0010600262648766381 0.02935862058185414 0 -0.00098559517419048097 0.029465185917540933 0 -0.00083560455432003648 0.029461241311215847 0 -0.00099842599287563744 0.015554770026865533 0 -0.00091260372283353153 0.015892655605833615 0 -0.0012731335492828153 0.016017397713077877 0 -0.00099842599287563744 0.015554770026865533 0 -0.00091260372283353153 0.015892655605833615 0 -0.0005811557229573398 0.015859781810644295 0 -0.0014468813694958737 0.029394673160711243 0 -0.0018749252883476927 0.029249278761001887 0 -0.0013775139239939273 0.029672154531390115 0 -0.001152240897116127 0.024180624744977182 0 -0.0011899082468609322 0.022334210205341789 0 -0.0013775139239939273 0.029672154531390115 0 -0.0010627965616032363 0.029635964498393525 0 -0.0010488260969818879 0.029963946897942788 0 -0.0013775139239939273 0.029672154531390115 0 -0.0011028714972821996 0.029591786873936307 0 -0.0010627965616032363 0.029635964498393525 0 -0.0014468813694958737 0.029394673160711243 0 -0.0013775139239939273 0.029672154531390115 0 -0.0011028714972821996 0.029591786873936307 0 -0.0012103377795399358 0.029524629586345691 0 -0.0011620411444929807 0.029536257986316559 0 -0.00058270986760068253 0.030501044099486705 0 -0.00093390068260631445 0.030115441164078577 0 -6.1309521940061557e-05 0.031383608861026133 0 -0.0005883589487602921 0.031288203883108975 0 -0.0009009763423161141 0.030107124912152151 0 -6.1309521940061557e-05 0.031383608861026133 0 -0.0005883589487602921 0.031288203883108975 0 -0.00027212645434665587 0.031634342458591196 0 -0.0005883589487602921 0.031288203883108975 0 -0.00043547944315907027 0.031901861084503887 0 -0.00077690703908533509 0.031686201644347059 0 -0.0005883589487602921 0.031288203883108975 0 -0.00043547944315907027 0.031901861084503887 0 -0.00027212645434665587 0.031634342458591196 0 -6.1309521940061557e-05 0.031383608861026133 0 -0.00027212645434665587 0.031634342458591196 0 -3.9237519947694089e-05 0.031941225457431763 0 -0.00043547944315907027 0.031901861084503887 0 -0.00027212645434665587 0.031634342458591196 0 -3.9237519947694089e-05 0.031941225457431763 0 -0.00043547944315907027 0.031901861084503887 0 -3.9237519947694089e-05 0.031941225457431763 0 -0.00016498118057910101 0.032419642978683175 0 -0.00043547944315907027 0.031901861084503887 0 -0.00055443999872080278 0.032349785461440198 0 -0.00093028162793016352 0.032093594303825787 0 -0.00043547944315907027 0.031901861084503887 0 -0.00016498118057910101 0.032419642978683175 0 -0.00055443999872080278 0.032349785461440198 0 -0.0011920332796980259 0.029423139265448022 0 -0.0011028714972821996 0.029591786873936307 0 -0.0010627965616032363 0.029635964498393525 0 -0.00042164847897439281 0.030760461664348589 0 -0.00058270986760068253 0.030501044099486705 0 0.00051415398078864534 0.032316768235231316 0 -6.1309521940061557e-05 0.031383608861026133 0 -3.9237519947694089e-05 0.031941225457431763 0 -0.0011895406831359701 0.029441246280834412 0 -0.0011920332796980259 0.029423139265448022 0 -0.0011028714972821996 0.029591786873936307 0 0.00051415398078864534 0.032316768235231316 0 -3.9237519947694089e-05 0.031941225457431763 0 0.00015629931044070796 0.032412353802184435 0 -3.9237519947694089e-05 0.031941225457431763 0 -0.00016498118057910101 0.032419642978683175 0 0.00015629931044070796 0.032412353802184435 0 0.00051415398078864534 0.032316768235231316 0 0.00015629931044070796 0.032412353802184435 0 0.00034604046747479009 0.03267972710484706 0 0.00015629931044070796 0.032412353802184435 0 0.00034604046747479009 0.03267972710484706 0 6.4475085681518164e-05 0.032879571571423113 0 0.00034604046747479009 0.03267972710484706 0 6.4475085681518164e-05 0.032879571571423113 0 0.00038582484504511911 0.033165289239826576 0 6.4475085681518164e-05 0.032879571571423113 0 -0.00040858240137753424 0.03292030226824063 0 -8.26412174177789e-05 0.033783568903394443 0 -0.00016498118057910101 0.032419642978683175 0 0.00015629931044070796 0.032412353802184435 0 6.4475085681518164e-05 0.032879571571423113 0 -0.00055443999872080278 0.032349785461440198 0 -0.00040858240137753424 0.03292030226824063 0 -0.00090788521538773487 0.032625548880229546 0 -0.00016498118057910101 0.032419642978683175 0 -0.00055443999872080278 0.032349785461440198 0 -0.00040858240137753424 0.03292030226824063 0 -0.00016498118057910101 0.032419642978683175 0 6.4475085681518164e-05 0.032879571571423113 0 -0.00040858240137753424 0.03292030226824063 0 -0.00040858240137753424 0.03292030226824063 0 -0.00090788521538773487 0.032625548880229546 0 -0.00086186331443383524 0.033352482478697161 0 -8.26412174177789e-05 0.033783568903394443 0 -0.00086186331443383524 0.033352482478697161 0 -0.00088306454986353798 0.034140175525690195 0 -0.00040858240137753424 0.03292030226824063 0 -8.26412174177789e-05 0.033783568903394443 0 -0.00086186331443383524 0.033352482478697161 0 0.00038582484504511911 0.033165289239826576 0 -8.26412174177789e-05 0.033783568903394443 0 0.0005882189233609727 0.033597884308537981 0 6.4475085681518164e-05 0.032879571571423113 0 0.00038582484504511911 0.033165289239826576 0 -8.26412174177789e-05 0.033783568903394443 0 -8.26412174177789e-05 0.033783568903394443 0 0.0005882189233609727 0.033597884308537981 0 0.00063629260805178557 0.034224822127314605 0 0.0005882189233609727 0.033597884308537981 0 0.00087573026497218918 0.033839599104240878 0 0.00063629260805178557 0.034224822127314605 0 0.0005882189233609727 0.033597884308537981 0 0.00069482154219280344 0.033196534339885966 0 0.00096935343399372936 0.033405137165418625 0 0.0005882189233609727 0.033597884308537981 0 0.00096935343399372936 0.033405137165418625 0 0.00087573026497218918 0.033839599104240878 0 -0.00042164847897439281 0.030760461664348589 0 0.0002148520398792073 0.031988439098553097 0 0.00051415398078864534 0.032316768235231316 0 0.0010027687835230631 0.033069293883283814 0 0.0010968203279872191 0.033122302360876821 0 0.00051415398078864534 0.032316768235231316 0 0.00059066285637754379 0.032862081005860445 0 0.0010027687835230631 0.033069293883283814 0 0.00038582484504511911 0.033165289239826576 0 0.00069482154219280344 0.033196534339885966 0 0.00059066285637754379 0.032862081005860445 0 0.00038582484504511911 0.033165289239826576 0 0.0005882189233609727 0.033597884308537981 0 0.00069482154219280344 0.033196534339885966 0 -0.0011920332796980259 0.029423139265448022 0 -0.0011141959163071004 0.029457068678872558 0 -0.0010564121964372257 0.029544646654301433 0 0.00069482154219280344 0.033196534339885966 0 0.00059066285637754379 0.032862081005860445 0 0.0010027687835230631 0.033069293883283814 0 0.00069482154219280344 0.033196534339885966 0 0.0010027687835230631 0.033069293883283814 0 0.00096935343399372936 0.033405137165418625 0 0.00034604046747479009 0.03267972710484706 0 0.00038582484504511911 0.033165289239826576 0 0.00059066285637754379 0.032862081005860445 0 0.00051415398078864534 0.032316768235231316 0 0.00034604046747479009 0.03267972710484706 0 0.00059066285637754379 0.032862081005860445 0 -0.00094738523266546147 0.029514848349170505 0 -0.0010564121964372257 0.029544646654301433 0 -0.00083446901292977965 0.029587721426879304 0 0.0002148520398792073 0.031988439098553097 0 0.00057895115102236103 0.031671413395171766 0 0.0010609013084877628 0.033240090703390381 0 0.0012816652926943277 0.03343307816157326 0 0.0016171020371403035 0.033453872676675753 0 -0.0010126167417837011 0.029499343377873237 0 -0.00094738523266546147 0.029514848349170505 0 -0.0010564121964372257 0.029544646654301433 0 -0.0010126167417837011 0.029499343377873237 0 -0.00094738523266546147 0.029514848349170505 0 -0.00098559517419048097 0.029465185917540933 0 -0.0010126167417837011 0.029499343377873237 0 -0.00098559517419048097 0.029465185917540933 0 -0.0010575501151636154 0.029475420106151187 0 -0.0011141959163071004 0.029457068678872558 0 -0.0010575501151636154 0.029475420106151187 0 -0.0010564121964372257 0.029544646654301433 0 -0.0010126167417837011 0.029499343377873237 0 -0.0010575501151636154 0.029475420106151187 0 -0.0010564121964372257 0.029544646654301433 0 0.0010027687835230631 0.033069293883283814 0 0.0010898010630724048 0.03313034094460536 0 0.00096935343399372936 0.033405137165418625 0 0.00049704914773872539 0.032130148892391637 0 0.0002148520398792073 0.031988439098553097 0 0.0010898010630724048 0.03313034094460536 0 0.00096935343399372936 0.033405137165418625 0 0.0011303164871774088 0.033367156791283666 0 0.0010898010630724048 0.03313034094460536 0 0.0011303164871774088 0.033367156791283666 0 0.0012816652926943277 0.03343307816157326 0 0.0002148520398792073 0.031988439098553097 0 0.0013957032833361331 0.033180567989556133 0 0.0011303164871774088 0.033367156791283666 0 0.0012816652926943277 0.03343307816157326 0 0.0012010238241066422 0.033717420744901333 0 0.0012816652926943277 0.03343307816157326 0 0.0012010238241066422 0.033717420744901333 0 0.001464734896460372 0.033607558276188811 0 0.00096935343399372936 0.033405137165418625 0 0.0012010238241066422 0.033717420744901333 0 0.00087573026497218918 0.033839599104240878 0 0.00096935343399372936 0.033405137165418625 0 0.0011303164871774088 0.033367156791283666 0 0.0012010238241066422 0.033717420744901333 0 0.0012010238241066422 0.033717420744901333 0 0.00087573026497218918 0.033839599104240878 0 0.0010405863004340694 0.034190537590085279 0 0.0012010238241066422 0.033717420744901333 0 0.0013190206149723059 0.03410356319185566 0 0.0010405863004340694 0.034190537590085279 0 0.0012010238241066422 0.033717420744901333 0 0.0013190206149723059 0.03410356319185566 0 0.0014829964108130115 0.033881998489483096 0 0.0013190206149723059 0.03410356319185566 0 0.0014864256544120135 0.034100185496799759 0 0.0014829964108130115 0.033881998489483096 0 0.0014864256544120135 0.034100185496799759 0 0.0014829964108130115 0.033881998489483096 0 0.0016720368582303477 0.034083422777058281 0 0.0014829964108130115 0.033881998489483096 0 0.001464734896460372 0.033607558276188811 0 0.0018143835354804108 0.033803260305907162 0 0.0012010238241066422 0.033717420744901333 0 0.0014829964108130115 0.033881998489483096 0 0.001464734896460372 0.033607558276188811 0 0.001464734896460372 0.033607558276188811 0 0.0018143835354804108 0.033803260305907162 0 0.0016171020371403035 0.033453872676675753 0 0.0014829964108130115 0.033881998489483096 0 0.0018143835354804108 0.033803260305907162 0 0.0016720368582303477 0.034083422777058281 0 0.0018143835354804108 0.033803260305907162 0 0.0016720368582303477 0.034083422777058281 0 0.0019855003050487786 0.034159473812957739 0 0.0018143835354804108 0.033803260305907162 0 0.0022425672744713137 0.033622702596652232 0 0.0016171020371403035 0.033453872676675753 0 0.0019855003050487786 0.034159473812957739 0 0.0022425672744713137 0.033622702596652232 0 0.0024046148024106 0.034216292837869262 0 0.0018143835354804108 0.033803260305907162 0 0.0019855003050487786 0.034159473812957739 0 0.0022425672744713137 0.033622702596652232 0 -0.0014655592507758005 0.022292582223737197 0 -0.00093485723988603376 0.022365244926089187 0 -0.0011681910688557823 0.022594142130856455 0 4.179336754561271e-05 0.028070230274931319 0 0.00057895115102236103 0.031671413395171766 0 4.179336754561271e-05 0.028070230274931319 0 -0.0010123883008512475 0.02582723956520323 0 -0.0014671384808422757 0.021948092179155814 0 -0.0014655592507758005 0.022292582223737197 0 -0.00093485723988603376 0.022365244926089187 0 -0.00056949616654694785 0.02962061175031163 0 -0.00083560455432003648 0.029461241311215847 0 -0.00083446901292977965 0.029587721426879304 0 -0.00094738523266546147 0.029514848349170505 0 -0.00083560455432003648 0.029461241311215847 0 -0.00083446901292977965 0.029587721426879304 0 -0.00094738523266546147 0.029514848349170505 0 -0.00098559517419048097 0.029465185917540933 0 -0.00083560455432003648 0.029461241311215847 0 0.0012816652926943277 0.03343307816157326 0 0.001464734896460372 0.033607558276188811 0 0.0016171020371403035 0.033453872676675753 0 -0.0024244391241575415 0.021920349147495147 0 -0.0020518938460645157 0.02177998141815176 0 -0.0026698553324565519 0.021627099765655022 0 -0.0012639959467729384 0.024489982956023466 0 -0.0041536668544264197 0.021568194594837036 0 -0.00060800852221360856 0.026464449229667598 0 -0.0021266022961174465 0.025359090344545407 0 -0.002593482954283488 0.0267807210158705 0 -0.00084257897927799124 0.027178525589347181 0 -0.00060800852221360856 0.026464449229667598 0 -0.002593482954283488 0.0267807210158705 0 0.0022425672744713137 0.033622702596652232 0 0.0028308745156641643 0.034065748606206529 0 0.0024046148024106 0.034216292837869262 0 4.179336754561271e-05 0.028070230274931319 0 -0.0012639959467729384 0.024489982956023466 0 4.179336754561271e-05 0.028070230274931319 0 0.00216701897296755 0.031100483985674932 0 -0.0014671384808422757 0.021948092179155814 0 -0.0020518938460645157 0.02177998141815176 0 -0.0018039626583553757 0.022119863180377626 0 0.00089096570604725828 0.027561558710480688 0 -0.00084257897927799124 0.027178525589347181 0 -0.00060800852221360856 0.026464449229667598 0 -0.0014655592507758005 0.022292582223737197 0 -0.0018039626583553757 0.022119863180377626 0 -0.0019870293874059567 0.022442740287050351 0 -0.0014671384808422757 0.021948092179155814 0 -0.0014655592507758005 0.022292582223737197 0 -0.0018039626583553757 0.022119863180377626 0 -0.0018039626583553757 0.022119863180377626 0 -0.0021394153664373427 0.022117290308656286 0 -0.0019870293874059567 0.022442740287050351 0 -0.0020518938460645157 0.02177998141815176 0 -0.0018039626583553757 0.022119863180377626 0 -0.0021394153664373427 0.022117290308656286 0 -0.0017969871714050901 0.022341791411369161 0 -0.003964468778923068 0.020255909826828698 0 -0.0024244391241575415 0.021920349147495147 0 -0.0021394153664373427 0.022117290308656286 0 -0.0028430715367348345 0.022158614820001237 0 -0.0021394153664373427 0.022117290308656286 0 -0.0019870293874059567 0.022442740287050351 0 -0.0028962660728808188 0.02223531118036344 0 -0.0018668023480727164 0.019015318780958537 0 -0.0034915603591499393 0.018333784644643605 0 -0.0024244391241575415 0.021920349147495147 0 -0.0020518938460645157 0.02177998141815176 0 -0.0021394153664373427 0.022117290308656286 0 -0.0021018673991097564 0.015292973782977908 0 -0.0022861278089889451 0.01571483108437902 0 -0.0026239789368793019 0.015195722991394808 0 -0.0021018673991097564 0.015292973782977908 0 -0.0022861278089889451 0.01571483108437902 0 -0.0017872420932454947 0.01586270081184914 0 -0.0019623324685499586 0.0092665277627419895 0 -0.0019951097773805724 0.0095406330300181232 0 -0.001554047641207421 0.01541244844423874 0 -0.0012731335492828153 0.016017397713077877 0 -0.0017872420932454947 0.01586270081184914 0 -0.00099842599287563744 0.015554770026865533 0 -0.001554047641207421 0.01541244844423874 0 -0.0012731335492828153 0.016017397713077877 0 -0.001152240897116127 0.024180624744977182 0 -0.0013896250743627569 0.018336010958925782 0 -0.00043168035822493218 0.022753500529358671 0 -0.00093485723988603376 0.022365244926089187 0 -0.0011681910688557823 0.022594142130856455 0 -0.0018668023480727164 0.019015318780958537 0 -0.0013896250743627569 0.018336010958925782 0 -0.0014655592507758005 0.022292582223737197 0 -0.0019870293874059567 0.022442740287050351 0 -0.0011681910688557823 0.022594142130856455 0 -0.0021018673991097564 0.015292973782977908 0 -0.001554047641207421 0.01541244844423874 0 -0.0017872420932454947 0.01586270081184914 0 -0.0014640355498621277 0.0032513512267297357 0 -0.0018375534391620852 0.0034217804480614084 0 -0.0014664658629632669 0.0036375187538556899 0 -0.0013630456722409992 0.0096244525234579076 0 -0.0019951097773805724 0.0095406330300181232 0 -0.0014640355498621277 0.0032513512267297357 0 -0.0020953852485790757 0.0031672138293286395 0 -0.0018375534391620852 0.0034217804480614084 0 -0.0020953852485790757 0.0031672138293286395 0 -0.0018375534391620852 0.0034217804480614084 0 -0.0021222615674684085 0.0033673277325518146 0 -0.0018375534391620852 0.0034217804480614084 0 -0.0019202821158578155 0.0037387580431499454 0 -0.0021222615674684085 0.0033673277325518146 0 -0.0019202821158578155 0.0037387580431499454 0 -0.0014664658629632669 0.0036375187538556899 0 -0.0010605402706509071 0.0041377563277085836 0 -0.0023114198639327599 0.0022499709475309201 0 -0.0015389044177067273 0.0022329247861886531 0 -0.0018375534391620852 0.0034217804480614084 0 -0.0019202821158578155 0.0037387580431499454 0 -0.0014664658629632669 0.0036375187538556899 0 -0.0023343890619499852 0.0032518328324547766 0 -0.0022918046436504508 0.0031600641762615537 0 -0.0021845227162418587 0.0032061307471261485 0 -0.0022918046436504508 0.0031600641762615537 0 -0.0023481324347445543 0.0032959535572983684 0 -0.0022187470335811709 0.0030411127005687136 0 -0.0023343890619499852 0.0032518328324547766 0 -0.0022918046436504508 0.0031600641762615537 0 -0.0022725101800998627 0.0032397698176810964 0 -0.0022918046436504508 0.0031600641762615537 0 -0.0022725101800998627 0.0032397698176810964 0 -0.0023481324347445543 0.0032959535572983684 0 -0.0022725101800998627 0.0032397698176810964 0 -0.0021222615674684085 0.0033673277325518146 0 -0.0023481324347445543 0.0032959535572983684 0 -0.0020953852485790757 0.0031672138293286395 0 -0.0022725101800998627 0.0032397698176810964 0 -0.0021222615674684085 0.0033673277325518146 0 -0.0023343890619499852 0.0032518328324547766 0 -0.0020953852485790757 0.0031672138293286395 0 -0.0022725101800998627 0.0032397698176810964 0 -0.0027879294561925804 0.00074812572065723266 0 -0.0029068531437643555 0.0011354034144430061 0 -0.0029564680333146508 0.0014395158112997404 0 -0.0023114198639327599 0.0022499709475309201 0 -0.0025710174015726398 0.0023947320796805414 0 -0.0019202821158578155 0.0037387580431499454 0 -0.0021222615674684085 0.0033673277325518146 0 -0.0023481324347445543 0.0032959535572983684 0 -0.0029068531437643555 0.0011354034144430061 0 -0.0029564680333146508 0.0014395158112997404 0 -0.0028752255114069362 0.0012099832428408277 0 -0.0029564680333146508 0.0014395158112997404 0 -0.0027426774449849636 0.0015823820876970898 0 -0.0020754786864991032 0.0027351286159100676 0 -0.0029564680333146508 0.0014395158112997404 0 -0.0027426774449849636 0.0015823820876970898 0 -0.0028752255114069362 0.0012099832428408277 0 -0.0027426774449849636 0.0015823820876970898 0 -0.0027427594720042408 0.0014655916305474105 0 -0.0024495740628722395 0.0019160954762893095 0 -0.0027426774449849636 0.0015823820876970898 0 -0.0027427594720042408 0.0014655916305474105 0 -0.0028752255114069362 0.0012099832428408277 0 -0.0027427594720042408 0.0014655916305474105 0 -0.0028752255114069362 0.0012099832428408277 0 -0.0032167829307136789 -0.00012051520682941015 0 -0.003946572043714687 -0.00057205261387445244 0 -0.0035121618633337866 -0.00015916524230682568 0 -0.0034841765450109841 -0.00022382925340214794 0 -0.004033358065030467 -0.00012713605054563584 0 -0.0039204046406226406 -0.00027243621808588944 0 -0.00423333087350365 -0.00033775057308118125 0 -0.004033358065030467 -0.00012713605054563584 0 -0.0039204046406226406 -0.00027243621808588944 0 -0.0037889620636249242 -8.3597389239885569e-05 0 -0.0039204046406226406 -0.00027243621808588944 0 -0.003946572043714687 -0.00057205261387445244 0 -0.00423333087350365 -0.00033775057308118125 0 -0.0039204046406226406 -0.00027243621808588944 0 -0.003946572043714687 -0.00057205261387445244 0 -0.0036944821182255546 -0.00022210180235144938 0 -0.003946572043714687 -0.00057205261387445244 0 -0.0036944821182255546 -0.00022210180235144938 0 -0.0035121618633337866 -0.00015916524230682568 0 -0.0036944821182255546 -0.00022210180235144938 0 -0.0035491796594725746 -2.1116210222381745e-05 0 -0.0037889620636249242 -8.3597389239885569e-05 0 -0.0039204046406226406 -0.00027243621808588944 0 -0.0036944821182255546 -0.00022210180235144938 0 -0.0037889620636249242 -8.3597389239885569e-05 0 -0.003946572043714687 -0.00057205261387445244 0 -0.0034841765450109841 -0.00022382925340214794 0 -0.0032167829307136789 -0.00012051520682941015 0 -0.0029068531437643555 0.0011354034144430061 0 -0.0028752255114069362 0.0012099832428408277 0 -0.0028905211670646504 0.00095828966187633583 0 -0.0028039781983109219 0.0010315646999790021 0 -0.0030349213456987499 0.00043009155942548723 0 -0.0028752255114069362 0.0012099832428408277 0 -0.0032167829307136789 -0.00012051520682941015 0 -0.0032741100799844169 -0.00027519021700902606 0 -0.0032616390347031013 0.00019810525582870028 0 -0.0033856493982585296 1.8524446669406683e-05 0 -0.0035121618633337866 -0.00015916524230682568 0 -0.0034841765450109841 -0.00022382925340214794 0 -0.0032968608114626475 -0.00012023611496630285 0 -0.0035121618633337866 -0.00015916524230682568 0 -0.0033397664256165755 -3.056943475828698e-05 0 -0.0035491796594725746 -2.1116210222381745e-05 0 -0.0036944821182255546 -0.00022210180235144938 0 -0.0035121618633337866 -0.00015916524230682568 0 -0.0035491796594725746 -2.1116210222381745e-05 0 -0.0035121618633337866 -0.00015916524230682568 0 -0.0032968608114626475 -0.00012023611496630285 0 -0.0033397664256165755 -3.056943475828698e-05 0 -0.0034841765450109841 -0.00022382925340214794 0 -0.0032167829307136789 -0.00012051520682941015 0 -0.0032968608114626475 -0.00012023611496630285 0 -0.0032167829307136789 -0.00012051520682941015 0 -0.0032968608114626475 -0.00012023611496630285 0 -0.0032345509055076611 -0.00015501748119017342 0 -0.0032968608114626475 -0.00012023611496630285 0 -0.0033397664256165755 -3.056943475828698e-05 0 -0.0032023233446429244 -7.691214144194103e-05 0 -0.0033397664256165755 -3.056943475828698e-05 0 -0.0033706153456212824 0.00021073352817333954 0 -0.0031349895029863348 6.8539822867315765e-05 0 -0.0036556173583351184 0.0003843377852073347 0 -0.0033706153456212824 0.00021073352817333954 0 -0.0036442249055269461 0.00013814633846696416 0 -0.0033397664256165755 -3.056943475828698e-05 0 -0.0033706153456212824 0.00021073352817333954 0 -0.0035491796594725746 -2.1116210222381745e-05 0 -0.0033706153456212824 0.00021073352817333954 0 -0.0035491796594725746 -2.1116210222381745e-05 0 -0.0036442249055269461 0.00013814633846696416 0 -0.0035491796594725746 -2.1116210222381745e-05 0 -0.0037889620636249242 -8.3597389239885569e-05 0 -0.0036442249055269461 0.00013814633846696416 0 -0.0037889620636249242 -8.3597389239885569e-05 0 -0.0036442249055269461 0.00013814633846696416 0 -0.0039011814574816915 0.00012331645868600652 0 -0.0036556173583351184 0.0003843377852073347 0 -0.0036442249055269461 0.00013814633846696416 0 -0.0039011814574816915 0.00012331645868600652 0 -0.0039011814574816915 0.00012331645868600652 0 -0.0041889337227814152 7.0018119245095751e-05 0 -0.0041139040360827321 0.00036162514670092454 0 -0.0036556173583351184 0.0003843377852073347 0 -0.0039011814574816915 0.00012331645868600652 0 -0.0041139040360827321 0.00036162514670092454 0 -0.004033358065030467 -0.00012713605054563584 0 -0.0039011814574816915 0.00012331645868600652 0 -0.0041889337227814152 7.0018119245095751e-05 0 -0.004033358065030467 -0.00012713605054563584 0 -0.0037889620636249242 -8.3597389239885569e-05 0 -0.0039011814574816915 0.00012331645868600652 0 -0.0027879294561925804 0.00074812572065723266 0 -0.0024334802403153922 0.0006903343277729182 0 -0.0020642007181940697 0.00030996275856771829 0 -0.0027879294561925804 0.00074812572065723266 0 -0.0029068531437643555 0.0011354034144430061 0 -0.0028905211670646504 0.00095828966187633583 0 -0.0027879294561925804 0.00074812572065723266 0 -0.0024334802403153922 0.0006903343277729182 0 -0.0028905211670646504 0.00095828966187633583 0 -0.0025169656646102222 0.00019597921623471472 0 -0.0030349213456987499 0.00043009155942548723 0 -0.0025430721697027848 -0.0002805908961717162 0 -0.0032741100799844169 -0.00027519021700902606 0 -0.0030190771401252914 -7.2916661869426702e-05 0 -0.0032167829307136789 -0.00012051520682941015 0 -0.0032741100799844169 -0.00027519021700902606 0 -0.0032345509055076611 -0.00015501748119017342 0 -0.0032741100799844169 -0.00027519021700902606 0 -0.0032345509055076611 -0.00015501748119017342 0 -0.0030190771401252914 -7.2916661869426702e-05 0 -0.0032345509055076611 -0.00015501748119017342 0 -0.0032023233446429244 -7.691214144194103e-05 0 -0.0030190771401252914 -7.2916661869426702e-05 0 -0.0032968608114626475 -0.00012023611496630285 0 -0.0032345509055076611 -0.00015501748119017342 0 -0.0032023233446429244 -7.691214144194103e-05 0 -0.0030190771401252914 -7.2916661869426702e-05 0 -0.0029577938648135266 0.00010696103207327132 0 -0.0031349895029863348 6.8539822867315765e-05 0 -0.0030190771401252914 -7.2916661869426702e-05 0 -0.0029577938648135266 0.00010696103207327132 0 -0.0027188968311541782 0.00013615538838807707 0 -0.0033397664256165755 -3.056943475828698e-05 0 -0.0032023233446429244 -7.691214144194103e-05 0 -0.0031349895029863348 6.8539822867315765e-05 0 -0.0032023233446429244 -7.691214144194103e-05 0 -0.0030190771401252914 -7.2916661869426702e-05 0 -0.0031349895029863348 6.8539822867315765e-05 0 -0.0030038804253719113 0.00032867940439436182 0 -0.0033706153456212824 0.00021073352817333954 0 -0.0031349895029863348 6.8539822867315765e-05 0 -0.0030038804253719113 0.00032867940439436182 0 -0.0029577938648135266 0.00010696103207327132 0 -0.0027188968311541782 0.00013615538838807707 0 -0.0030038804253719113 0.00032867940439436182 0 -0.0029577938648135266 0.00010696103207327132 0 -0.0031349895029863348 6.8539822867315765e-05 0 -0.0025430721697027848 -0.0002805908961717162 0 -0.0027188968311541782 0.00013615538838807707 0 -0.0024499740995734581 0.00016989172415284642 0 -0.0026609230296955992 0.00043732607991691139 0 -0.0030038804253719113 0.00032867940439436182 0 -0.0027188968311541782 0.00013615538838807707 0 -0.0025430721697027848 -0.0002805908961717162 0 -0.0024499740995734581 0.00016989172415284642 0 -0.002238874335762656 8.9925072022276828e-06 0 -0.0026609230296955992 0.00043732607991691139 0 -0.0027188968311541782 0.00013615538838807707 0 -0.0024499740995734581 0.00016989172415284642 0 -0.0025430721697027848 -0.0002805908961717162 0 -0.0030190771401252914 -7.2916661869426702e-05 0 -0.0027188968311541782 0.00013615538838807707 0 -0.0023044452056552376 0.00038063811443493953 0 -0.0019702881784276352 0.00023870724528241922 0 -0.002238874335762656 8.9925072022276828e-06 0 -0.0023044452056552376 0.00038063811443493953 0 -0.0024499740995734581 0.00016989172415284642 0 -0.002238874335762656 8.9925072022276828e-06 0 -0.0019702881784276352 0.00023870724528241922 0 -0.002238874335762656 8.9925072022276828e-06 0 -0.0018356575833048041 -0.00016439387774290945 0 -0.0018362977704890265 0.00011981611873998653 0 -0.0012237615948152629 0.0001098898458019161 0 -0.0019702881784276352 0.00023870724528241922 0 -0.0015530484830114683 0.0003016483246905486 0 -0.0018356575833048041 -0.00016439387774290945 0 -0.0015530484830114683 0.0003016483246905486 0 -0.0018356575833048041 -0.00016439387774290945 0 -0.0011398052560154721 9.280329890815757e-05 0 -0.0015389044177067273 0.0022329247861886531 0 -0.00050955636786627096 0.0021536455976314162 0 -0.0010605402706509071 0.0041377563277085836 0 -0.0005270441478707874 0.0039335795651516603 0 5.9604977940836384e-05 0.0044808471348004534 0 -0.001812237346927727 0.0004019927941067079 0 -0.0020642007181940697 0.00030996275856771829 0 -0.0012287635124493422 -9.0713554748650347e-05 0 -0.0025169656646102222 0.00019597921623471472 0 -0.0018362977704890265 0.00011981611873998653 0 -0.0024334802403153922 0.0006903343277729182 0 -0.001812237346927727 0.0004019927941067079 0 -0.0020642007181940697 0.00030996275856771829 0 -0.0025430721697027848 -0.0002805908961717162 0 -0.002238874335762656 8.9925072022276828e-06 0 -0.0018356575833048041 -0.00016439387774290945 0 -0.0014664658629632669 0.0036375187538556899 0 -0.0010605402706509071 0.0041377563277085836 0 -0.0010345167322246079 0.0036701771236107962 0 -0.0010605402706509071 0.0041377563277085836 0 -0.0010345167322246079 0.0036701771236107962 0 -0.0005270441478707874 0.0039335795651516603 0 -0.0005270441478707874 0.0039335795651516603 0 -0.00058761278894177297 0.0034449405296575948 0 2.4822745172692466e-05 0.0039838423678834724 0 -0.0010345167322246079 0.0036701771236107962 0 -0.0005270441478707874 0.0039335795651516603 0 -0.00058761278894177297 0.0034449405296575948 0 -0.00091260372283353153 0.015892655605833615 0 -0.0005811557229573398 0.015859781810644295 0 -0.0007616401198753121 0.016167801262707986 0 -0.0005811557229573398 0.015859781810644295 0 -0.0007616401198753121 0.016167801262707986 0 -0.00045302935659189368 0.016108025805580219 0 -0.0014640355498621277 0.0032513512267297357 0 -0.0010345167322246079 0.0036701771236107962 0 -0.00058761278894177297 0.0034449405296575948 0 -0.0013630456722409992 0.0096244525234579076 0 -0.00062375041492492348 0.0098977803002479083 0 -0.00091260372283353153 0.015892655605833615 0 -0.0012731335492828153 0.016017397713077877 0 -0.0007616401198753121 0.016167801262707986 0 -0.0014640355498621277 0.0032513512267297357 0 -0.0014664658629632669 0.0036375187538556899 0 -0.0010345167322246079 0.0036701771236107962 0 -0.0010627965616032363 0.029635964498393525 0 -0.0010488260969818879 0.029963946897942788 0 -0.0009009763423161141 0.030107124912152151 0 -0.0011899082468609322 0.022334210205341789 0 -0.00043706111347181211 0.024110815919623829 0 -0.0007616401198753121 0.016167801262707986 0 -0.00045302935659189368 0.016108025805580219 0 -0.00024382813634976373 0.016316262659782296 0 -0.0005811557229573398 0.015859781810644295 0 -0.0001522974360214197 0.016157374673878219 0 -0.00045302935659189368 0.016108025805580219 0 -0.0001522974360214197 0.016157374673878219 0 -0.00045302935659189368 0.016108025805580219 0 -0.00024382813634976373 0.016316262659782296 0 0.00042826083611107303 0.0037097215805076498 0 2.4822745172692466e-05 0.0039838423678834724 0 0.00067617957169857721 0.0042211884844822875 0 -0.00062375041492492348 0.0098977803002479083 0 -6.5278236961367948e-05 0.0093030956556391514 0 -0.00058761278894177297 0.0034449405296575948 0 0.00042826083611107303 0.0037097215805076498 0 2.4822745172692466e-05 0.0039838423678834724 0 -0.0005270441478707874 0.0039335795651516603 0 2.4822745172692466e-05 0.0039838423678834724 0 5.9604977940836384e-05 0.0044808471348004534 0 -0.00043706111347181211 0.024110815919623829 0 0.00094662840546019822 0.016076203481678323 0 0.00042826083611107303 0.0037097215805076498 0 0.00067617957169857721 0.0042211884844822875 0 0.0014897158026547991 0.0040022483954771492 0 -0.0001522974360214197 0.016157374673878219 0 -0.00024382813634976373 0.016316262659782296 0 0.00028471344200503454 0.016442834066643326 0 -6.5278236961367948e-05 0.0093030956556391514 0 0.00094662840546019822 0.016076203481678323 0 0.00067617957169857721 0.0042211884844822875 0 5.9604977940836384e-05 0.0044808471348004534 0 0.0012816053575032663 0.0047408545258660686 0 -0.0012287635124493422 -9.0713554748650347e-05 0 -0.00078736300922459712 0.00016549013737139398 0 -0.00032389225175361285 -0.0001770564202947289 0 -0.00050955636786627096 0.0021536455976314162 0 0.00021948873584665864 0.0026760269112391594 0 2.4822745172692466e-05 0.0039838423678834724 0 0.00067617957169857721 0.0042211884844822875 0 5.9604977940836384e-05 0.0044808471348004534 0 -0.001812237346927727 0.0004019927941067079 0 -0.0012287635124493422 -9.0713554748650347e-05 0 -0.0011398052560154721 9.280329890815757e-05 0 -0.0012287635124493422 -9.0713554748650347e-05 0 -0.0011398052560154721 9.280329890815757e-05 0 -0.00078736300922459712 0.00016549013737139398 0 -0.0011364710987604705 0.00041129218301845174 0 -0.0011398052560154721 9.280329890815757e-05 0 -0.00078736300922459712 0.00016549013737139398 0 -0.0011364710987604705 0.00041129218301845174 0 -0.0015530484830114683 0.0003016483246905486 0 -0.0011398052560154721 9.280329890815757e-05 0 -0.00071281649944638249 0.00057718747470257104 0 -0.00078736300922459712 0.00016549013737139398 0 -8.6244293692711582e-06 0.00032132132525444269 0 -0.00078736300922459712 0.00016549013737139398 0 -8.6244293692711582e-06 0.00032132132525444269 0 -0.00032389225175361285 -0.0001770564202947289 0 0.00067617957169857721 0.0042211884844822875 0 0.0012816053575032663 0.0047408545258660686 0 0.0014897158026547991 0.0040022483954771492 0 0.0012816053575032663 0.0047408545258660686 0 0.0022444446221228571 0.0045039509120441776 0 0.0014897158026547991 0.0040022483954771492 0 0.00021948873584665864 0.0026760269112391594 0 0.0030017429524136969 -0.00039782100946179596 0 0.003014295814642712 0.013417671668170626 0 0.0030461209484903447 0.013413089571271578 0 0.0029286749623749571 0.013446292140492729 0 0.0012816053575032663 0.0047408545258660686 0 0.0022444446221228571 0.0045039509120441776 0 0.0024875112201697891 0.0049119992691749048 0 0.0025425506173951768 0.0088759065135936982 0 0.00094662840546019822 0.016076203481678323 0 0.0054935461924500361 -0.011002182183365818 0 0.0052793980225998571 -0.01115008081218055 0 0.005598664441067689 -0.011156765579923421 0 0.0029127459223298215 -0.0059901454415337797 0 0.0030017429524136969 -0.00039782100946179596 0 -8.6244293692711582e-06 0.00032132132525444269 0 -0.00032389225175361285 -0.0001770564202947289 0 0.00079484019990082712 -5.3784463078358983e-05 0 0.0056640317616142646 -0.011022193081076903 0 0.0054935461924500361 -0.011002182183365818 0 0.005598664441067689 -0.011156765579923421 0 0.0056640317616142646 -0.011022193081076903 0 0.0057497273740547469 -0.011100509112968509 0 0.005598664441067689 -0.011156765579923421 0 0.004672380512330882 0.0023154757391766188 0 0.0030017429524136969 -0.00039782100946179596 0 0.0020768254608293335 0.00099050050003500999 0 0.0030017429524136969 -0.00039782100946179596 0 0.0030007600403230681 0.0049604809709563975 0 0.0026607919024193424 0.0048174724517709017 0 0.0024988023048455811 0.0048902881641775808 0 0.0057830123686616938 -0.00070520699257093982 0 0.0068170708485215193 0.00013211607296170866 0 0.0055581954698271747 -0.00012937035146409306 0 0.0030812008344259516 0.013370158799249101 0 0.0031229878174969788 0.013352927185101648 0 0.003115546944535883 0.013397318389362322 0 0.004672380512330882 0.0023154757391766188 0 0.0041677843278738998 0.0068332620963423331 0 0.0055714279012262537 -0.0065035374242166629 0 0.004672380512330882 0.0023154757391766188 0 0.0030812008344259516 0.013370158799249101 0 0.0030461209484903447 0.013413089571271578 0 0.003115546944535883 0.013397318389362322 0 0.0014825431435512022 0.031263569847764669 0 0.0022211674235471045 0.023948502556663809 0 0.0015947428160622249 0.02246295731910496 0 0.0022211674235471045 0.023948502556663809 0 -4.7804633221820382e-05 0.030430884713799428 0 0.00061711137599577753 0.030299967411932412 0 0.0014557554214582864 0.03073357528855318 0 0.003014295814642712 0.013417671668170626 0 0.0030812008344259516 0.013370158799249101 0 0.0030461209484903447 0.013413089571271578 0 0.0022444446221228571 0.0045039509120441776 0 0.0030007600403230681 0.0049604809709563975 0 0.0026607919024193424 0.0048174724517709017 0 0.0025425506173951768 0.0088759065135936982 0 0.004672380512330882 0.0023154757391766188 0 0.0022444446221228571 0.0045039509120441776 0 0.0026607919024193424 0.0048174724517709017 0 0.0024875112201697891 0.0049119992691749048 0 -4.7804633221820382e-05 0.030430884713799428 0 -1.9816554620417522e-05 0.029990925731016863 0 -0.00047907236056401526 0.029976327595058753 0 -4.7804633221820382e-05 0.030430884713799428 0 -1.9816554620417522e-05 0.029990925731016863 0 0.00061711137599577753 0.030299967411932412 0 0.00029569345908684658 0.029657983057352681 0 -1.9816554620417522e-05 0.029990925731016863 0 -0.00015440939752100558 0.029624100975546037 0 0.00029569345908684658 0.029657983057352681 0 -1.9816554620417522e-05 0.029990925731016863 0 0.00061711137599577753 0.030299967411932412 0 -1.9816554620417522e-05 0.029990925731016863 0 -0.00015440939752100558 0.029624100975546037 0 -0.00047907236056401526 0.029976327595058753 0 0.00029569345908684658 0.029657983057352681 0 0.0013571777296067253 0.030009384653299529 0 0.0015977217393582824 0.029280558392951166 0 0.00029569345908684658 0.029657983057352681 0 0.0013571777296067253 0.030009384653299529 0 0.00061711137599577753 0.030299967411932412 0 0.0013571777296067253 0.030009384653299529 0 0.00061711137599577753 0.030299967411932412 0 0.0017405789754573844 0.030955788532360643 0 0.00029569345908684658 0.029657983057352681 0 0.00091421402608192622 0.028760120791996538 0 0.0015977217393582824 0.029280558392951166 0 0.00029569345908684658 0.029657983057352681 0 0.00091421402608192622 0.028760120791996538 0 0.00023838416156644901 0.028336709015437528 0 0.00091421402608192622 0.028760120791996538 0 0.0014603231342764894 0.028635377854474647 0 0.0013321605099549151 0.028110038652595353 0 0.00091421402608192622 0.028760120791996538 0 0.0014603231342764894 0.028635377854474647 0 0.0015977217393582824 0.029280558392951166 0 0.0002727100021845916 0.029019367532670589 0 -0.00020251168323606237 0.030317076771498433 0 0.00029569345908684658 0.029657983057352681 0 -0.00015440939752100558 0.029624100975546037 0 0.00020891615750130401 0.02909194036237275 0 -0.00097798859332026418 0.029857106237593179 0 -0.00020251168323606237 0.030317076771498433 0 -0.00015440939752100558 0.029624100975546037 0 -0.00038665638197304052 0.02931937227532384 0 0.00020891615750130401 0.02909194036237275 0 -0.00015440939752100558 0.029624100975546037 0 -0.00058862069769547506 0.029746809260327287 0 -0.00047907236056401526 0.029976327595058753 0 -0.00015440939752100558 0.029624100975546037 0 -0.00038665638197304052 0.02931937227532384 0 -0.00058862069769547506 0.029746809260327287 0 -0.00058862069769547506 0.029746809260327287 0 -0.0010424583794477417 0.029895491950056897 0 -0.00085517186614300449 0.029920934590141043 0 -0.0014256009705104959 0.0302826275350895 0 -0.0011514399349737909 0.030338963329774201 0 -0.0010424583794477417 0.029895491950056897 0 -0.00038665638197304052 0.02931937227532384 0 -0.00058862069769547506 0.029746809260327287 0 -0.0010424583794477417 0.029895491950056897 0 -0.0014256009705104959 0.0302826275350895 0 -0.0015526888263558667 0.030315946444051979 0 -0.0010424583794477417 0.029895491950056897 0 -0.00097798859332026418 0.029857106237593179 0 -0.00097672070734272317 0.029855127446909963 0 -0.0010488260969818879 0.029963946897942788 0 -0.0009009763423161141 0.030107124912152151 0 -0.0009834926869613592 0.029957145599823466 0 -0.0011514399349737909 0.030338963329774201 0 -0.0009009763423161141 0.030107124912152151 0 -0.0010424583794477417 0.029895491950056897 0 -0.0009834926869613592 0.029957145599823466 0 -0.0010424583794477417 0.029895491950056897 0 -0.00085517186614300449 0.029920934590141043 0 -0.0009009763423161141 0.030107124912152151 0 -0.0009834926869613592 0.029957145599823466 0 -0.0010424583794477417 0.029895491950056897 0 -0.0010488260969818879 0.029963946897942788 0 -0.0009834926869613592 0.029957145599823466 0 -0.001031945897707227 0.030046570658565024 0 -0.0009834926869613592 0.029957145599823466 0 -0.001031945897707227 0.030046570658565024 0 -0.00085517186614300449 0.029920934590141043 0 -4.7804633221820382e-05 0.030430884713799428 0 -0.001031945897707227 0.030046570658565024 0 -0.00047907236056401526 0.029976327595058753 0 -0.001031945897707227 0.030046570658565024 0 -0.00047907236056401526 0.029976327595058753 0 -0.00085517186614300449 0.029920934590141043 0 0.0015947428160622249 0.02246295731910496 0 0.00094662840546019822 0.016076203481678323 0 -0.00058862069769547506 0.029746809260327287 0 -0.00047907236056401526 0.029976327595058753 0 -0.00085517186614300449 0.029920934590141043 0 0.0056516925483204817 0.031570022372204957 0 0.0041954789292613284 0.031298280199611929 0 0.0051917887221716967 0.030132687314994716 0 0.0041954789292613284 0.031298280199611929 0 0.0042002050458178376 0.030187843516285975 0 0.0051917887221716967 0.030132687314994716 0 0.0083454998857537942 0.018295364337057342 0 0.0080212910567114184 0.017892426856410716 0 0.0074039532484501255 0.018135425856420948 0 0.0093199753473789462 0.022337196305708681 0 0.0054337524368345234 0.02445180598944674 0 0.0087989210472221666 0.017736634277479336 0 0.0080212910567114184 0.017892426856410716 0 0.0074677599623913559 0.017440426161183978 0 0.0093199753473789462 0.022337196305708681 0 0.0097005926385966678 0.019268822322096535 0 0.0087989210472221666 0.017736634277479336 0 0.0083981072975895694 0.01801535841314679 0 0.0080212910567114184 0.017892426856410716 0 0.0083454998857537942 0.018295364337057342 0 0.0083981072975895694 0.01801535841314679 0 0.0080212910567114184 0.017892426856410716 0 0.0083454998857537942 0.018295364337057342 0 0.0088055138423166531 0.018026480604654463 0 0.0083981072975895694 0.01801535841314679 0 0.0087150086048334279 0.0091401799542589375 0 0.0055548119825511938 0.0058080342094211134 0 0.0074677599623913559 0.017440426161183978 0 0.0074039532484501255 0.018135425856420948 0 0.0062728608507715685 0.017511156551411739 0 0.0080212910567114184 0.017892426856410716 0 0.0074677599623913559 0.017440426161183978 0 0.0074039532484501255 0.018135425856420948 0 0.0041954789292613284 0.031298280199611929 0 0.0032581504213910341 0.030256547038698636 0 0.0042002050458178376 0.030187843516285975 0 0.0074677599623913559 0.017440426161183978 0 0.0061463018837725021 0.017187967611268597 0 0.0062728608507715685 0.017511156551411739 0 0.0054337524368345234 0.02445180598944674 0 0.0044353093542683145 0.025205960091160631 0 0.0041954789292613284 0.031298280199611929 0 0.00269595732603871 0.03100654164021481 0 0.0032581504213910341 0.030256547038698636 0 0.00269595732603871 0.03100654164021481 0 0.0022623114600781188 0.030047411697750305 0 0.0032581504213910341 0.030256547038698636 0 0.0044353093542683145 0.025205960091160631 0 0.0045911184082619511 0.01613739181497445 0 0.0087150086048334279 0.0091401799542589375 0 0.0045911184082619511 0.01613739181497445 0 0.0065889541895753738 0.010916364048979041 0 0.0061151537749961809 0.010865642984302931 0 0.0060166099203293162 0.010637305512715941 0 0.0055548119825511938 0.0058080342094211134 0 0.0045911184082619511 0.01613739181497445 0 0.004964085245072059 -0.00071614426963541593 0 0.0041845914462477372 -0.00035916710355214117 0 0.0055581954698271747 -0.00012937035146409306 0 0.0031357590487941585 0.013307351142113521 0 0.0031293736609003353 0.013352448691513917 0 0.0031229878174969788 0.013352927185101648 0 0.0055548119825511938 0.0058080342094211134 0 0.0041677843278738998 0.0068332620963423331 0 0.0031293736609003353 0.013352448691513917 0 0.0031229878174969788 0.013352927185101648 0 0.003115546944535883 0.013397318389362322 0 0.004964085245072059 -0.00071614426963541593 0 0.0057830123686616938 -0.00070520699257093982 0 0.0055581954698271747 -0.00012937035146409306 0 0.0026321190737381372 0.031137120091761748 0 0.0017405789754573844 0.030955788532360643 0 0.0022623114600781188 0.030047411697750305 0 0.0044353093542683145 0.025205960091160631 0 0.0027635293789720588 0.031810689093941399 0 0.0044353093542683145 0.025205960091160631 0 0.0022211674235471045 0.023948502556663809 0 0.0045911184082619511 0.01613739181497445 0 0.0022211674235471045 0.023948502556663809 0 0.003835522338686352 0.021549068136117799 0 0.0038064848731636314 0.021420124096999709 0 0.0040320534635898773 0.02163870170826972 0 0.0022623114600781188 0.030047411697750305 0 0.0015977217393582824 0.029280558392951166 0 0.002724154535783153 0.029384473893511887 0 0.0013571777296067253 0.030009384653299529 0 0.0017405789754573844 0.030955788532360643 0 0.0022623114600781188 0.030047411697750305 0 0.0013571777296067253 0.030009384653299529 0 0.0022623114600781188 0.030047411697750305 0 0.0015977217393582824 0.029280558392951166 0 0.0015977217393582824 0.029280558392951166 0 0.0024653810932499837 0.028634020081899608 0 0.002724154535783153 0.029384473893511887 0 0.0014603231342764894 0.028635377854474647 0 0.0015977217393582824 0.029280558392951166 0 0.0024653810932499837 0.028634020081899608 0 0.0014603231342764894 0.028635377854474647 0 0.0024653810932499837 0.028634020081899608 0 0.0019120634553148543 0.028210015757883285 0 0.0024653810932499837 0.028634020081899608 0 0.002724154535783153 0.029384473893511887 0 0.0032769225285342097 0.028744965378414464 0 0.002724154535783153 0.029384473893511887 0 0.0032769225285342097 0.028744965378414464 0 0.0036064419983667497 0.029462764195051262 0 0.002724154535783153 0.029384473893511887 0 0.0032581504213910341 0.030256547038698636 0 0.0036064419983667497 0.029462764195051262 0 0.0022623114600781188 0.030047411697750305 0 0.002724154535783153 0.029384473893511887 0 0.0032581504213910341 0.030256547038698636 0 0.0042002050458178376 0.030187843516285975 0 0.0036064419983667497 0.029462764195051262 0 0.0046217306260203182 0.028699800586621783 0 0.0032581504213910341 0.030256547038698636 0 0.0042002050458178376 0.030187843516285975 0 0.0036064419983667497 0.029462764195051262 0 0.0032769225285342097 0.028744965378414464 0 0.0046217306260203182 0.028699800586621783 0 0.0037350124085366574 0.028100815220352796 0 0.0032769225285342097 0.028744965378414464 0 0.0036064419983667497 0.029462764195051262 0 0.0046217306260203182 0.028699800586621783 0 0.013166334066966965 0.028845036969649154 0 0.01305998794355199 0.028748121775421669 0 0.013055613220492292 0.028412406235424351 0 0.012968034990915501 0.028635539019268314 0 0.01305998794355199 0.028748121775421669 0 0.013004966068061808 0.028936187685670342 0 0.0090394342008383761 0.029170766031590811 0 0.012663243849571626 0.029814952988248287 0 0.013156972591525064 0.028848791270451691 0 0.01305998794355199 0.028748121775421669 0 0.013004966068061808 0.028936187685670342 0 0.0042002050458178376 0.030187843516285975 0 0.0046217306260203182 0.028699800586621783 0 0.0051917887221716967 0.030132687314994716 0 0.0090394342008383761 0.029170766031590811 0 0.009022876613651077 0.030086947119451989 0 0.012968034990915501 0.028635539019268314 0 0.01305998794355199 0.028748121775421669 0 0.013055613220492292 0.028412406235424351 0 0.015401958432340601 0.035047008621825602 0 0.015150962681479752 0.035056934811101059 0 0.015191503811219776 0.034622665494908458 0 0.015584190659049334 0.034887737336591472 0 0.015401958432340601 0.035047008621825602 0 0.015191503811219776 0.034622665494908458 0 0.013977652226947811 0.032380596615908898 0 0.014027965105156068 0.03436502781309804 0 0.012437396151453149 0.033069183697060273 0 0.01208102681407797 0.032953386983163607 0 0.012128464108101906 0.032731608680846826 0 0.015401958432340601 0.035047008621825602 0 0.01541930587899277 0.035354897697478176 0 0.015150962681479752 0.035056934811101059 0 0.013977652226947811 0.032380596615908898 0 0.010128635763313912 0.031380123932310384 0 0.013156972591525064 0.028848791270451691 0 0.013004966068061808 0.028936187685670342 0 0.013203901994208896 0.029034361652200566 0 0.0069447836898491704 0.031801936150623232 0 0.006927862652490676 0.03180307430361979 0 0.0069326746819316073 0.031816772684895772 0 0.010128635763313912 0.031380123932310384 0 0.0072007452112840395 0.031092937135447009 0 0.010128635763313912 0.031380123932310384 0 0.0094667753169041958 0.03208511468227554 0 0.0090394342008383761 0.029170766031590811 0 0.0049485450195459737 0.029678232403924001 0 0.0090394342008383761 0.029170766031590811 0 0.010128635763313912 0.031380123932310384 0 0.0069375836923561427 0.031736542382428359 0 0.0069291369855985713 0.03178256201583763 0 0.0069289228050814361 0.031789702856182628 0 0.0069291369855985713 0.03178256201583763 0 0.0069289228050814361 0.031789702856182628 0 0.006927862652490676 0.03180307430361979 0 0.006927862652490676 0.03180307430361979 0 0.0069326746819316073 0.031816772684895772 0 0.006917223804288399 0.031820342354774628 0 0.014027965105156068 0.03436502781309804 0 0.011272467512715583 0.033092711952651128 0 0.011959046146214302 0.03267728144454763 0 0.012128464108101906 0.032731608680846826 0 0.011828437874972744 0.032417739276194152 0 0.01208102681407797 0.032953386983163607 0 0.011959046146214302 0.03267728144454763 0 0.012128464108101906 0.032731608680846826 0 0.0069326746819316073 0.031816772684895772 0 0.0068720299612874238 0.031802471893497559 0 0.0069118911298305481 0.031767724780688365 0 0.0069326746819316073 0.031816772684895772 0 0.006917223804288399 0.031820342354774628 0 0.0068720299612874238 0.031802471893497559 0 0.0094667753169041958 0.03208511468227554 0 0.011272467512715583 0.033092711952651128 0 0.0068720299612874238 0.031802471893497559 0 0.0068257949997528678 0.031866245041089307 0 0.0067469224333282047 0.031827359217521299 0 0.0071736065226062663 0.031439239824433703 0 0.0048908765358062342 0.030827427491989901 0 0.006917223804288399 0.031820342354774628 0 0.0068720299612874238 0.031802471893497559 0 0.0068257949997528678 0.031866245041089307 0 0.0049485450195459737 0.029678232403924001 0 0.0048908765358062342 0.030827427491989901 0 0.0032769225285342097 0.028744965378414464 0 0.0037350124085366574 0.028100815220352796 0 0.0028287069595704754 0.02748905735523283 0 0.006927862652490676 0.03180307430361979 0 0.006917223804288399 0.031820342354774628 0 0.0069116689079062694 0.031805140545282586 0 0.0069289228050814361 0.031789702856182628 0 0.006927862652490676 0.03180307430361979 0 0.0069116689079062694 0.031805140545282586 0 0.0024653810932499837 0.028634020081899608 0 0.0032769225285342097 0.028744965378414464 0 0.0028287069595704754 0.02748905735523283 0 0.0048908765358062342 0.030827427491989901 0 0.00087211425801627383 0.03053240608026541 0 0.0024653810932499837 0.028634020081899608 0 0.0028287069595704754 0.02748905735523283 0 0.0019120634553148543 0.028210015757883285 0 0.0028287069595704754 0.02748905735523283 0 0.0019120634553148543 0.028210015757883285 0 0.0014347147210523928 0.027945734889918947 0 0.0014603231342764894 0.028635377854474647 0 0.0019120634553148543 0.028210015757883285 0 0.0013321605099549151 0.028110038652595353 0 0.0019120634553148543 0.028210015757883285 0 0.0013321605099549151 0.028110038652595353 0 0.0014347147210523928 0.027945734889918947 0 0.0033907310568117265 0.03112666844124341 0 0.00244784780632714 0.03049895737665682 0 0.0017364968345173523 0.031694111588102342 0 0.0018447594127446779 0.032318275345519974 0 0.00087211425801627383 0.03053240608026541 0 0.0048908765358062342 0.030827427491989901 0 0.0018447594127446779 0.032318275345519974 0 0.0018447594127446779 0.032318275345519974 0 0.0077014253867821085 0.033170974057331354 0 0.00026420417126226135 0.032603214744236449 0 0.00042219405217435872 0.03214269145122145 0 0.0010048357135260773 0.032257655708550784 0 0.00042560331761360012 0.033184144698424546 0 0.00026420417126226135 0.032603214744236449 0 0.0010048357135260773 0.032257655708550784 0 0.00042560331761360012 0.033184144698424546 0 0.00026420417126226135 0.032603214744236449 0 -0.0003383091017482908 0.032626212646988659 0 0.00026420417126226135 0.032603214744236449 0 0.00042219405217435872 0.03214269145122145 0 7.0939468556745747e-06 0.032107210768719023 0 0.0002075999813258082 0.031797725890801432 0 0.00042219405217435872 0.03214269145122145 0 7.0939468556745747e-06 0.032107210768719023 0 0.0002075999813258082 0.031797725890801432 0 0.00061854321701505029 0.031812164177849891 0 0.00042219405217435872 0.03214269145122145 0 0.00061854321701505029 0.031812164177849891 0 0.00042219405217435872 0.03214269145122145 0 0.0010048357135260773 0.032257655708550784 0 0.0043824301494643763 0.032410279950868807 0 0.0077014253867821085 0.033170974057331354 0 0.0089533908859313928 0.034391696153792589 0 0.0093701203175145503 0.034884781779047851 0 0.0093753883608676016 0.03442708309026285 0 0.01458580197022514 0.036434058523722772 0 0.015243459547684151 0.036365626928486633 0 0.013991991532107752 0.036545228881533755 0 0.013338218771840103 0.036100434372578302 0 0.013621817878605244 0.035611035220635093 0 0.01458580197022514 0.036434058523722772 0 0.012553637227705621 0.034726277252336679 0 0.015243459547684151 0.036365626928486633 0 0.012553637227705621 0.034726277252336679 0 0.0093701203175145503 0.034884781779047851 0 0.0093753883608676016 0.03442708309026285 0 0.0094851979792787266 0.034700139143315198 0 0.0077014253867821085 0.033170974057331354 0 0.012553637227705621 0.034726277252336679 0 0.0068720299612874238 0.031802471893497559 0 0.0067469224333282047 0.031827359217521299 0 0.0068659455032311694 0.031716584993777067 0 0.0068720299612874238 0.031802471893497559 0 0.0068659455032311694 0.031716584993777067 0 0.0069118911298305481 0.031767724780688365 0 0.0077014253867821085 0.033170974057331354 0 0.011272467512715583 0.033092711952651128 0 0.012553637227705621 0.034726277252336679 0 0.011272467512715583 0.033092711952651128 0 0.011299156429644968 0.033620162881909027 0 0.011177808404466279 0.033833201542359581 0 0.010892387238532709 0.03309436188136021 0 0.014739582932075839 0.034429296559090612 0 0.014866849307382825 0.034728897346425723 0 0.015191503811219776 0.034622665494908458 0 0.015150962681479752 0.035056934811101059 0 0.014866849307382825 0.034728897346425723 0 0.015191503811219776 0.034622665494908458 0 0.014782422991326663 0.034361844600456895 0 0.014739582932075839 0.034429296559090612 0 0.015191503811219776 0.034622665494908458 0 0.017285799945460333 0.03767993111034431 0 0.017741577465399502 0.037981064870184524 0 0.017585892961727675 0.037572276216349766 0 0.015243459547684151 0.036365626928486633 0 0.016426256987097522 0.036211178293583106 0 0.017966509982858706 0.037646909409710334 0 0.017741577465399502 0.037981064870184524 0 0.017585892961727675 0.037572276216349766 0 0.018377744723364717 0.037894709156947898 0 0.017966509982858706 0.037646909409710334 0 0.017741577465399502 0.037981064870184524 0 0.018427985884407583 0.038388702507908719 0 0.018377744723364717 0.037894709156947898 0 0.017741577465399502 0.037981064870184524 0 0.0178602018823729 0.036945252602764767 0 0.016426256987097522 0.036211178293583106 0 -0.0011206295562988932 0.031210737418181294 0 -0.0012223327779684993 0.030773094022534614 0 -0.0010903234238663641 0.031267432597945698 0 -0.0014144564003385422 0.032149137020988774 0 -0.0019324455644591973 0.031340527623259194 0 -0.0020753547086796958 0.032409687219423826 0 -0.0015659233940373098 0.031110121146534584 0 -0.00068059128261700633 0.031747307935514057 0 -0.0014144564003385422 0.032149137020988774 0 -0.0011646704449637219 0.031461260820300971 0 -0.0019324455644591973 0.031340527623259194 0 -0.0011206295562988932 0.031210737418181294 0 -0.0012223327779684993 0.030773094022534614 0 -0.0013376409607651313 0.0309615240392647 0 -0.0014144564003385422 0.032149137020988774 0 -0.00093028162793016352 0.032093594303825787 0 -0.00090788521538773487 0.032625548880229546 0 -0.0014144564003385422 0.032149137020988774 0 -0.00093028162793016352 0.032093594303825787 0 -0.0011646704449637219 0.031461260820300971 0 -0.00055443999872080278 0.032349785461440198 0 -0.00093028162793016352 0.032093594303825787 0 -0.00090788521538773487 0.032625548880229546 0 -0.00043547944315907027 0.031901861084503887 0 -0.00093028162793016352 0.032093594303825787 0 -0.00077690703908533509 0.031686201644347059 0 -0.00077690703908533509 0.031686201644347059 0 -0.0011646704449637219 0.031461260820300971 0 -0.00082477740572504434 0.031337040628018467 0 -0.00093028162793016352 0.032093594303825787 0 -0.00077690703908533509 0.031686201644347059 0 -0.0011646704449637219 0.031461260820300971 0 -0.0011646704449637219 0.031461260820300971 0 -0.00082477740572504434 0.031337040628018467 0 -0.00099215640398599148 0.030843924943357925 0 -0.0011646704449637219 0.031461260820300971 0 -0.00099215640398599148 0.030843924943357925 0 -0.0013566262214700449 0.03081873725157282 0 -0.0005883589487602921 0.031288203883108975 0 -0.00082477740572504434 0.031337040628018467 0 -0.00099215640398599148 0.030843924943357925 0 -0.0005883589487602921 0.031288203883108975 0 -0.00077690703908533509 0.031686201644347059 0 -0.00082477740572504434 0.031337040628018467 0 -0.0005883589487602921 0.031288203883108975 0 -0.0009009763423161141 0.030107124912152151 0 -0.00099215640398599148 0.030843924943357925 0 -0.0011514399349737909 0.030338963329774201 0 -0.00099215640398599148 0.030843924943357925 0 -0.0013566262214700449 0.03081873725157282 0 -0.0011514399349737909 0.030338963329774201 0 -0.0009009763423161141 0.030107124912152151 0 -0.00099215640398599148 0.030843924943357925 0 -0.0014256009705104959 0.0302826275350895 0 -0.0011514399349737909 0.030338963329774201 0 -0.0013566262214700449 0.03081873725157282 0 -0.0014256009705104959 0.0302826275350895 0 -0.0012223327779684993 0.030773094022534614 0 -0.0015018282417904581 0.030567268701131821 0 -0.0014256009705104959 0.0302826275350895 0 -0.0013566262214700449 0.03081873725157282 0 -0.0019324455644591973 0.031340527623259194 0 -0.0014595726399721427 0.030406489922854846 0 -0.0015659233940373098 0.031110121146534584 0 -0.0011646704449637219 0.031461260820300971 0 -0.0013566262214700449 0.03081873725157282 0 -0.0019324455644591973 0.031340527623259194 0 -0.0012223327779684993 0.030773094022534614 0 -0.0015018282417904581 0.030567268701131821 0 -0.0013376409607651313 0.0309615240392647 0 -0.0014256009705104959 0.0302826275350895 0 -0.0015526888263558667 0.030315946444051979 0 -0.0015018282417904581 0.030567268701131821 0 -0.00020251168323606237 0.030317076771498433 0 -0.001019856634821695 0.032122564984855294 0 -0.00034884421986581361 0.032833141469116832 0 -0.00032317760285509247 0.032795494381634926 0 -0.00038661622885850132 0.03276347281445597 0 -0.0015018282417904581 0.030567268701131821 0 -0.0017012132950227966 0.030464518252786243 0 -0.0015767434055241533 0.030994380297501449 0 -0.0015526888263558667 0.030315946444051979 0 -0.0015018282417904581 0.030567268701131821 0 -0.0017012132950227966 0.030464518252786243 0 0.00023838416156644901 0.028336709015437528 0 0.0013321605099549151 0.028110038652595353 0 0.0014356033109738577 0.027938513207753046 0 -0.00020251168323606237 0.030317076771498433 0 0.00087211425801627383 0.03053240608026541 0 -0.00034884421986581361 0.032833141469116832 0 -0.00032317760285509247 0.032795494381634926 0 -0.00025636421748662742 0.032822855638991129 0 0.0011484211550006887 0.029929649489803343 0 0.00087211425801627383 0.03053240608026541 0 0.00091421402608192622 0.028760120791996538 0 0.00023838416156644901 0.028336709015437528 0 0.0013321605099549151 0.028110038652595353 0 -0.00032317760285509247 0.032795494381634926 0 -0.00025636421748662742 0.032822855638991129 0 -0.00029674798594708503 0.032756148212385691 0 -0.00017423275259649548 0.032731446680540038 0 -0.00029674798594708503 0.032756148212385691 0 -0.0003383091017482908 0.032626212646988659 0 0.0018447594127446779 0.032318275345519974 0 -0.00083124407381106064 0.032643139095267906 0 -0.00029674798594708503 0.032756148212385691 0 -0.00038661622885850132 0.03276347281445597 0 -0.0003383091017482908 0.032626212646988659 0 -0.00017423275259649548 0.032731446680540038 0 -0.00025636421748662742 0.032822855638991129 0 -0.00029674798594708503 0.032756148212385691 0 -0.00032317760285509247 0.032795494381634926 0 -0.00029674798594708503 0.032756148212385691 0 -0.00038661622885850132 0.03276347281445597 0 -0.0015018282417904581 0.030567268701131821 0 -0.0013376409607651313 0.0309615240392647 0 -0.0015767434055241533 0.030994380297501449 0 -0.0013376409607651313 0.0309615240392647 0 -0.0015767434055241533 0.030994380297501449 0 -0.0012614051602705468 0.031239358668752222 0 -0.0011206295562988932 0.031210737418181294 0 -0.0013376409607651313 0.0309615240392647 0 -0.0012614051602705468 0.031239358668752222 0 -0.00038661622885850132 0.03276347281445597 0 -0.00055017072199437 0.032466708596711268 0 -0.0003383091017482908 0.032626212646988659 0 -0.0012614051602705468 0.031239358668752222 0 -0.0012407988581924622 0.031545131019418915 0 -0.0011682021130625612 0.031415787939777097 0 -0.0012614051602705468 0.031239358668752222 0 -0.0011682021130625612 0.031415787939777097 0 -0.0010952856982983565 0.031272584305126375 0 -0.0015767434055241533 0.030994380297501449 0 -0.0012614051602705468 0.031239358668752222 0 -0.0012407988581924622 0.031545131019418915 0 -0.001019856634821695 0.032122564984855294 0 -0.00088582428594844635 0.031890072742321002 0 -0.0012407988581924622 0.031545131019418915 0 -0.0011682021130625612 0.031415787939777097 0 -0.0010036263906419557 0.031662500222895081 0 0.00026420417126226135 0.032603214744236449 0 -0.0003383091017482908 0.032626212646988659 0 -0.00022019565878018743 0.032365318938844721 0 -0.00055017072199437 0.032466708596711268 0 -0.0003383091017482908 0.032626212646988659 0 -0.00022019565878018743 0.032365318938844721 0 0.00026420417126226135 0.032603214744236449 0 -0.00022019565878018743 0.032365318938844721 0 7.0939468556745747e-06 0.032107210768719023 0 -0.00055017072199437 0.032466708596711268 0 -0.00022019565878018743 0.032365318938844721 0 -0.00034870316516669224 0.032044377537579785 0 -0.00022019565878018743 0.032365318938844721 0 7.0939468556745747e-06 0.032107210768719023 0 -0.00034870316516669224 0.032044377537579785 0 7.0939468556745747e-06 0.032107210768719023 0 -0.00034870316516669224 0.032044377537579785 0 -0.00024822008367555591 0.031599636680735448 0 0.0002075999813258082 0.031797725890801432 0 7.0939468556745747e-06 0.032107210768719023 0 -0.00024822008367555591 0.031599636680735448 0 -0.00088582428594844635 0.031890072742321002 0 -0.00079771911043857323 0.031654335921588263 0 -0.0012407988581924622 0.031545131019418915 0 -0.0010036263906419557 0.031662500222895081 0 -0.00075851134438243025 0.031633752725217755 0 -0.00055017072199437 0.032466708596711268 0 -0.00034870316516669224 0.032044377537579785 0 -0.00075851134438243025 0.031633752725217755 0 0.0011378689578208339 0.032743709750011604 0 0.00079597973386504918 0.03251766031071044 0 0.00086905403780155081 0.031565122816137929 0 0.0011378689578208339 0.032743709750011604 0 0.00079597973386504918 0.03251766031071044 0 0.00071325207440134483 0.033486245444587628 0 -0.0011682021130625612 0.031415787939777097 0 -0.0010036263906419557 0.031662500222895081 0 -0.0010952856982983565 0.031272584305126375 0 -0.00027237981391100636 0.033262670573523653 0 -0.00068059128261700633 0.031747307935514057 0 -0.0017692201018781703 0.033651418779759905 0 -0.0020753547086796958 0.032409687219423826 0 -0.0013599961461555562 0.032803840877840051 0 -6.4172733895109135e-05 0.032043178042690898 0 -0.00068059128261700633 0.031747307935514057 0 -0.0014144564003385422 0.032149137020988774 0 -0.0020753547086796958 0.032409687219423826 0 -0.0013599961461555562 0.032803840877840051 0 -0.0011206295562988932 0.031210737418181294 0 -0.0012614051602705468 0.031239358668752222 0 -0.0010952856982983565 0.031272584305126375 0 -0.00070976973578025352 0.031662342200325773 0 -0.00068059128261700633 0.031747307935514057 0 -0.0014144564003385422 0.032149137020988774 0 -0.00090788521538773487 0.032625548880229546 0 -0.0013599961461555562 0.032803840877840051 0 -0.00090788521538773487 0.032625548880229546 0 -0.0013599961461555562 0.032803840877840051 0 -0.00086186331443383524 0.033352482478697161 0 -0.0017692201018781703 0.033651418779759905 0 -0.0013599961461555562 0.032803840877840051 0 -0.00086186331443383524 0.033352482478697161 0 -0.0017692201018781703 0.033651418779759905 0 -0.00086186331443383524 0.033352482478697161 0 -0.00088306454986353798 0.034140175525690195 0 -0.0017692201018781703 0.033651418779759905 0 -0.00088306454986353798 0.034140175525690195 0 -0.0015216837502084492 0.034675562725681529 0 -0.00088306454986353798 0.034140175525690195 0 -0.00096513886619840406 0.03467422979974831 0 -0.0015216837502084492 0.034675562725681529 0 -0.00096513886619840406 0.03467422979974831 0 -0.0015216837502084492 0.034675562725681529 0 -0.00103603842273447 0.035218660433554004 0 0.00091196457912478461 0.034096163703607386 0 0.0014077314903894859 0.033947175338712388 0 0.00071012497041275354 0.034542677066500965 0 0.00091196457912478461 0.034096163703607386 0 0.0010436151893342251 0.033567203625851846 0 0.00071325207440134483 0.033486245444587628 0 0.00091196457912478461 0.034096163703607386 0 0.0014077314903894859 0.033947175338712388 0 0.0010436151893342251 0.033567203625851846 0 0.0011378689578208339 0.032743709750011604 0 0.0014077314903894859 0.033947175338712388 0 0.0010436151893342251 0.033567203625851846 0 -0.00027237981391100636 0.033262670573523653 0 -0.00032452489047691651 0.034247899272617975 0 0.0011378689578208339 0.032743709750011604 0 0.0010436151893342251 0.033567203625851846 0 0.00071325207440134483 0.033486245444587628 0 -0.0010036263906419557 0.031662500222895081 0 -0.00075851134438243025 0.031633752725217755 0 -0.00091238098781085521 0.031434555224703759 0 -6.4172733895109135e-05 0.032043178042690898 0 -0.00025591853522841177 0.032280129047724551 0 -0.00075851134438243025 0.031633752725217755 0 -0.0006220166502534704 0.031341121129573428 0 -0.00024822008367555591 0.031599636680735448 0 -0.00075851134438243025 0.031633752725217755 0 -0.0006220166502534704 0.031341121129573428 0 -0.00091238098781085521 0.031434555224703759 0 -0.0006220166502534704 0.031341121129573428 0 -0.00024822008367555591 0.031599636680735448 0 -0.00036827842992847188 0.031082388980633303 0 -0.00024822008367555591 0.031599636680735448 0 -0.00036827842992847188 0.031082388980633303 0 0.00022659715026379949 0.031380117076484269 0 0.0002075999813258082 0.031797725890801432 0 -0.00024822008367555591 0.031599636680735448 0 0.00022659715026379949 0.031380117076484269 0 -0.00034870316516669224 0.032044377537579785 0 -0.00075851134438243025 0.031633752725217755 0 -0.00024822008367555591 0.031599636680735448 0 0.015891060866935966 0.036957173360281391 0 0.016120165533421764 0.03705594530086833 0 0.016160725959747102 0.036981032963641025 0 0.01210920855139971 0.036379586159197029 0 0.0082774306992004464 0.034547492380255472 0 0.0070081746168468946 0.034803168679619315 0 0.0069544891847879266 0.034968482027294592 0 0.0073919627816052928 0.035212275687212358 0 0.0025696563218673488 0.032540703091479384 0 0.0082774306992004464 0.034547492380255472 0 -0.0006220166502534704 0.031341121129573428 0 -0.00036827842992847188 0.031082388980633303 0 -0.00080815366839801981 0.030836608182639044 0 -0.00025591853522841177 0.032280129047724551 0 0.0028938174611071528 0.033879245062702165 0 0.00091196457912478461 0.034096163703607386 0 0.00071325207440134483 0.033486245444587628 0 0.00063269635418692998 0.03446055502623363 0 -0.0006220166502534704 0.031341121129573428 0 -0.00091238098781085521 0.031434555224703759 0 -0.00080815366839801981 0.030836608182639044 0 0.0070081746168468946 0.034803168679619315 0 0.0069544891847879266 0.034968482027294592 0 0.0065345875167620963 0.034711650745536657 0 0.0025696563218673488 0.032540703091479384 0 0.0028938174611071528 0.033879245062702165 0 0.00091196457912478461 0.034096163703607386 0 0.00072499970673415811 0.034521807502575448 0 0.00063269635418692998 0.03446055502623363 0 0.0017742549695332437 0.034767180422358414 0 0.0036128692232276628 0.034737302267699707 0 0.0064800441113592976 0.03467684143629117 0 0.0065535412861741351 0.034594365485504076 0 0.0065268751288810713 0.034710203155094571 0 0.0064800441113592976 0.03467684143629117 0 0.0065535412861741351 0.034594365485504076 0 0.0066495424056278842 0.034376295590067836 0 0.01210920855139971 0.036379586159197029 0 0.0095102343550596182 0.035718128472468462 0 0.0070081746168468946 0.034803168679619315 0 0.0065535412861741351 0.034594365485504076 0 0.0066495424056278842 0.034376295590067836 0 0.0070081746168468946 0.034803168679619315 0 0.0065535412861741351 0.034594365485504076 0 0.0065345875167620963 0.034711650745536657 0 0.0036128692232276628 0.034737302267699707 0 0.0028938174611071528 0.033879245062702165 0 0.0035500182481413489 0.03412379767343595 0 0.0028938174611071528 0.033879245062702165 0 0.0036128692232276628 0.034737302267699707 0 0.0095102343550596182 0.035718128472468462 0 0.015891060866935966 0.036957173360281391 0 0.015528199286126358 0.036594788408957094 0 0.016016096572379485 0.036464164723025716 0 0.015891060866935966 0.036957173360281391 0 0.016016096572379485 0.036464164723025716 0 0.016300504155558133 0.036844103858285265 0 0.015528199286126358 0.036594788408957094 0 0.016016096572379485 0.036464164723025716 0 0.015845341098672038 0.035944413368356576 0 0.016016096572379485 0.036464164723025716 0 0.016349201419496272 0.036141573472709076 0 0.015845341098672038 0.035944413368356576 0 0.010674133403662205 0.037218654994468213 0 0.0095743022189906327 0.035843390839455487 0 0.011533279867551208 0.035481668936313479 0 0.0095102343550596182 0.035718128472468462 0 0.013801868128521053 0.036464677080438906 0 0.0056862572184896102 0.035832917282883889 0 0.0059956202138869569 0.035853293671456302 0 0.0059090519602144967 0.036118850924067379 0 0.0059956202138869569 0.035853293671456302 0 0.0060514898284067999 0.03609132225503401 0 0.0059090519602144967 0.036118850924067379 0 0.0095102343550596182 0.035718128472468462 0 0.0083762355001034093 0.036701652774182837 0 -0.0013030170757864412 0.035776360617277361 0 -0.00078448308038140898 0.035752226347954184 0 -0.00044836175252334229 0.036386022237463005 0 0.0048684933795409566 0.036623229556291562 0 0.0037847294822926382 0.035751568103229457 0 0.0051321599961298755 0.036665450948992713 0 0.0048684933795409566 0.036623229556291562 0 0.0037847294822926382 0.035751568103229457 0 0.0040489792169180134 0.037132500872348512 0 0.0024102493994699321 0.035543876295621654 0 0.0032490184104181372 0.03718169829922173 0 0.0024102493994699321 0.035543876295621654 0 0.0061619895015229314 0.036895421454979066 0 0.0048684933795409566 0.036623229556291562 0 0.0045403291602101837 0.037040499159050132 0 0.0040489792169180134 0.037132500872348512 0 0.0053681219066670331 0.037193773633424299 0 0.0058071977736490711 0.037298334463221477 0 0.0048684933795409566 0.036623229556291562 0 0.004546167231624868 0.037040086901851427 0 0.0050549348358631032 0.036944073428427468 0 0.0058071977736490711 0.037298334463221477 0 0.0055432324820270766 0.037742273415335557 0 -0.0015216837502084492 0.034675562725681529 0 -0.0013030170757864412 0.035776360617277361 0 -0.00103603842273447 0.035218660433554004 0 -0.0013030170757864412 0.035776360617277361 0 -0.00078448308038140898 0.035752226347954184 0 -0.00103603842273447 0.035218660433554004 0 -0.00078448308038140898 0.035752226347954184 0 -0.00103603842273447 0.035218660433554004 0 -0.00028978500474744542 0.035775227864942395 0 -0.0011781609804871506 0.035105807986597112 0 0.00046800594095745373 0.035882168826162568 0 -0.00032452489047691651 0.034247899272617975 0 0.0024102493994699321 0.035543876295621654 0 0.0036128692232276628 0.034737302267699707 0 0.0024102493994699321 0.035543876295621654 0 0.0057448273134290484 0.035675622906232551 0 0.0056862572184896102 0.035832917282883889 0 0.0059956202138869569 0.035853293671456302 0 0.0014077314903894859 0.033947175338712388 0 0.00071012497041275354 0.034542677066500965 0 0.0016563033883618935 0.035190354920327217 0 0.017932558286064808 0.03726912141025919 0 0.017449666408576418 0.037334771153112643 0 0.017511719718416467 0.036909505055016667 0 0.018118617091567837 0.037498222456749206 0 0.017569243246206373 0.036933888850659229 0 0.018330228542110614 0.037311117818821384 0 0.018318181732852466 0.03777287351603776 0 0.017511719718416467 0.036909505055016667 0 0.017932558286064808 0.03726912141025919 0 0.017585892961727675 0.037572276216349766 0 0.017449666408576418 0.037334771153112643 0 0.017966509982858706 0.037646909409710334 0 0.017932558286064808 0.03726912141025919 0 0.017585892961727675 0.037572276216349766 0 0.016983510211646902 0.038087436162255121 0 0.017449666408576418 0.037334771153112643 0 0.01696240620596149 0.037572777468093704 0 0.017285799945460333 0.03767993111034431 0 0.017585892961727675 0.037572276216349766 0 0.017449666408576418 0.037334771153112643 0 0.015243459547684151 0.036365626928486633 0 0.017793694346343245 0.037743620558161536 0 0.017449666408576418 0.037334771153112643 0 0.016979345816831123 0.037121917682828881 0 0.01696240620596149 0.037572777468093704 0 0.017449666408576418 0.037334771153112643 0 0.016979345816831123 0.037121917682828881 0 0.017511719718416467 0.036909505055016667 0 0.016979345816831123 0.037121917682828881 0 0.016598360323233786 0.037393981257412244 0 0.016300504155558133 0.036844103858285265 0 0.016979345816831123 0.037121917682828881 0 0.01696240620596149 0.037572777468093704 0 0.016598360323233786 0.037393981257412244 0 0.01458580197022514 0.036434058523722772 0 0.016567086053970732 0.037484746756638501 0 0.016825032990782373 0.037971230179285963 0 0.01696240620596149 0.037572777468093704 0 0.016598360323233786 0.037393981257412244 0 0.016825032990782373 0.037971230179285963 0 0.016983510211646902 0.038087436162255121 0 0.01696240620596149 0.037572777468093704 0 0.016131612392627902 0.037024590574111602 0 0.016120165533421764 0.03705594530086833 0 0.016169528730130146 0.037035528710090054 0 0.01458580197022514 0.036434058523722772 0 0.0082774306992004464 0.034547492380255472 0 0.0089533908859313928 0.034391696153792589 0 0.0093753883608676016 0.03442708309026285 0 0.0085307493337677641 0.033897963940069512 0 0.0043824301494643763 0.032410279950868807 0 0.0082774306992004464 0.034547492380255472 0 0.0002075999813258082 0.031797725890801432 0 0.00061854321701505029 0.031812164177849891 0 0.00022659715026379949 0.031380117076484269 0 0.015891060866935966 0.036957173360281391 0 0.016160725959747102 0.036981032963641025 0 0.016300504155558133 0.036844103858285265 0 0.016169528730130146 0.037035528710090054 0 0.016160725959747102 0.036981032963641025 0 0.016300504155558133 0.036844103858285265 0 0.016567086053970732 0.037484746756638501 0 0.016239229428556615 0.03675054222219349 0 0.016120165533421764 0.03705594530086833 0 0.016169528730130146 0.037035528710090054 0 0.016160725959747102 0.036981032963641025 0 0.016016096572379485 0.036464164723025716 0 0.016300504155558133 0.036844103858285265 0 0.016512111329774121 0.036431113401862794 0 0.016016096572379485 0.036464164723025716 0 0.016512111329774121 0.036431113401862794 0 0.016349201419496272 0.036141573472709076 0 0.016570252272784077 0.03618779034837525 0 0.016512111329774121 0.036431113401862794 0 0.016349201419496272 0.036141573472709076 0 0.016512111329774121 0.036431113401862794 0 0.016834024249676279 0.036428521928404275 0 0.016946616736765105 0.036723255278424835 0 0.016512111329774121 0.036431113401862794 0 0.016796937736853423 0.036207568526219994 0 0.016834024249676279 0.036428521928404275 0 0.016570252272784077 0.03618779034837525 0 0.016512111329774121 0.036431113401862794 0 0.016796937736853423 0.036207568526219994 0 0.016796937736853423 0.036207568526219994 0 0.017047391062725435 0.036337013167566899 0 0.017001539254234473 0.036117208075152958 0 0.016796937736853423 0.036207568526219994 0 0.016834024249676279 0.036428521928404275 0 0.017047391062725435 0.036337013167566899 0 0.016834024249676279 0.036428521928404275 0 0.016946616736765105 0.036723255278424835 0 0.017047391062725435 0.036337013167566899 0 0.016300504155558133 0.036844103858285265 0 0.016512111329774121 0.036431113401862794 0 0.016946616736765105 0.036723255278424835 0 0.016979345816831123 0.037121917682828881 0 0.016300504155558133 0.036844103858285265 0 0.016946616736765105 0.036723255278424835 0 0.016979345816831123 0.037121917682828881 0 0.016946616736765105 0.036723255278424835 0 0.017511719718416467 0.036909505055016667 0 0.016946616736765105 0.036723255278424835 0 0.017511719718416467 0.036909505055016667 0 0.017393350174085786 0.036451707830493334 0 0.016946616736765105 0.036723255278424835 0 0.017047391062725435 0.036337013167566899 0 0.017393350174085786 0.036451707830493334 0 0.017047391062725435 0.036337013167566899 0 0.017216555793554276 0.036100553865704127 0 0.017001539254234473 0.036117208075152958 0 0.017047391062725435 0.036337013167566899 0 0.017393350174085786 0.036451707830493334 0 0.017216555793554276 0.036100553865704127 0 0.017393350174085786 0.036451707830493334 0 0.017757670544662849 0.036617089184757798 0 0.017772230305681019 0.036330486323014645 0 0.017393350174085786 0.036451707830493334 0 0.017484108177775463 0.036134428026750189 0 0.017216555793554276 0.036100553865704127 0 0.017393350174085786 0.036451707830493334 0 0.017772230305681019 0.036330486323014645 0 0.017484108177775463 0.036134428026750189 0 0.018180127145640785 0.036323957872282875 0 0.017772230305681019 0.036330486323014645 0 0.017947550869266006 0.036043274554418872 0 0.017772230305681019 0.036330486323014645 0 0.017947550869266006 0.036043274554418872 0 0.017484108177775463 0.036134428026750189 0 0.018141147358817701 0.036628787087295687 0 0.018180127145640785 0.036323957872282875 0 0.017772230305681019 0.036330486323014645 0 0.018141147358817701 0.036628787087295687 0 0.017757670544662849 0.036617089184757798 0 0.017772230305681019 0.036330486323014645 0 0.018330228542110614 0.037311117818821384 0 0.017511719718416467 0.036909505055016667 0 0.018061699859407372 0.036907452228086703 0 0.018141147358817701 0.036628787087295687 0 0.017757670544662849 0.036617089184757798 0 0.018061699859407372 0.036907452228086703 0 0.017511719718416467 0.036909505055016667 0 0.017393350174085786 0.036451707830493334 0 0.017757670544662849 0.036617089184757798 0 0.017511719718416467 0.036909505055016667 0 0.017757670544662849 0.036617089184757798 0 0.018061699859407372 0.036907452228086703 0 0.016805801818618221 0.036235701893600689 0 0.016830577594025068 0.036171713226722663 0 0.016942966923200131 0.036012503513563381 0 0.01687245153630338 0.036143632529235768 0 0.01679644470422367 0.036191108042261277 0 0.016726777600196675 0.036137417856120908 0 0.017265491388430108 0.035761567526240663 0 0.017158238860856049 0.035933911754963972 0 0.016726777600196675 0.036137417856120908 0 0.016749042562253749 0.036214467978555896 0 0.016501282096056998 0.036203130306832934 0 0.01679644470422367 0.036191108042261277 0 0.016726777600196675 0.036137417856120908 0 0.016749042562253749 0.036214467978555896 0 0.01679644470422367 0.036191108042261277 0 0.016749042562253749 0.036214467978555896 0 0.016830577594025068 0.036171713226722663 0 0.016749042562253749 0.036214467978555896 0 0.016830577594025068 0.036171713226722663 0 0.016848223584530714 0.03623443668635036 0 0.016830577594025068 0.036171713226722663 0 0.016942966923200131 0.036012503513563381 0 0.016848223584530714 0.03623443668635036 0 0.016805801818618221 0.036235701893600689 0 0.01679644470422367 0.036191108042261277 0 0.016830577594025068 0.036171713226722663 0 0.018143627069140154 0.035278430942003995 0 0.017947550869266006 0.036043274554418872 0 0.0175265692035051 0.03591895383918009 0 0.018143627069140154 0.035278430942003995 0 0.016942966923200131 0.036012503513563381 0 0.0175265692035051 0.03591895383918009 0 0.017947550869266006 0.036043274554418872 0 0.0175265692035051 0.03591895383918009 0 0.017484108177775463 0.036134428026750189 0 0.017484108177775463 0.036134428026750189 0 0.017233010947260721 0.036000640943002711 0 0.017216555793554276 0.036100553865704127 0 0.0175265692035051 0.03591895383918009 0 0.017484108177775463 0.036134428026750189 0 0.017233010947260721 0.036000640943002711 0 0.016942966923200131 0.036012503513563381 0 0.0175265692035051 0.03591895383918009 0 0.017233010947260721 0.036000640943002711 0 0.01703985074207973 0.035987716561257627 0 0.017216555793554276 0.036100553865704127 0 0.017056148630241831 0.035973346918545569 0 0.016942966923200131 0.036012503513563381 0 0.017233010947260721 0.036000640943002711 0 0.01703985074207973 0.035987716561257627 0 0.01703985074207973 0.035987716561257627 0 0.017056148630241831 0.035973346918545569 0 0.016848223584530714 0.03623443668635036 0 0.017233010947260721 0.036000640943002711 0 0.01703985074207973 0.035987716561257627 0 0.017216555793554276 0.036100553865704127 0 0.017001539254234473 0.036117208075152958 0 0.017056148630241831 0.035973346918545569 0 0.016876439424285353 0.036017105759674137 0 0.017216555793554276 0.036100553865704127 0 0.017001539254234473 0.036117208075152958 0 0.017056148630241831 0.035973346918545569 0 0.017056148630241831 0.035973346918545569 0 0.017010107552675933 0.035937526355411184 0 0.016876439424285353 0.036017105759674137 0 0.016727091847954605 0.036295885814398965 0 0.016311155373167841 0.036407979042692377 0 0.017056148630241831 0.035973346918545569 0 0.016848223584530714 0.03623443668635036 0 0.017010107552675933 0.035937526355411184 0 0.016848223584530714 0.03623443668635036 0 0.015925807944725909 0.036383034703186455 0 0.015719408232208961 0.036929461326208293 0 0.016942966923200131 0.036012503513563381 0 0.01703985074207973 0.035987716561257627 0 0.016848223584530714 0.03623443668635036 0 0.016848223584530714 0.03623443668635036 0 0.016501282096056998 0.036203130306832934 0 0.015925807944725909 0.036383034703186455 0 0.016749042562253749 0.036214467978555896 0 0.016848223584530714 0.03623443668635036 0 0.016501282096056998 0.036203130306832934 0 0.015925807944725909 0.036383034703186455 0 0.015325277777113983 0.036167521656154493 0 0.015954147457657327 0.03608167555263149 0 0.016501282096056998 0.036203130306832934 0 0.015925807944725909 0.036383034703186455 0 0.015954147457657327 0.03608167555263149 0 0.015227347521823063 0.036615032614260197 0 0.014845974418695942 0.037100804902581198 0 0.014631966643408968 0.036250728716963242 0 0.015925807944725909 0.036383034703186455 0 0.015227347521823063 0.036615032614260197 0 0.015325277777113983 0.036167521656154493 0 0.015227347521823063 0.036615032614260197 0 0.014631966643408968 0.036250728716963242 0 0.015325277777113983 0.036167521656154493 0 0.015227347521823063 0.036615032614260197 0 0.015719408232208961 0.036929461326208293 0 0.014845974418695942 0.037100804902581198 0 0.015925807944725909 0.036383034703186455 0 0.015227347521823063 0.036615032614260197 0 0.015719408232208961 0.036929461326208293 0 0.017010107552675933 0.035937526355411184 0 0.016876439424285353 0.036017105759674137 0 0.016612568933178928 0.03586916962904025 0 0.016796937736853423 0.036207568526219994 0 0.017001539254234473 0.036117208075152958 0 0.016876439424285353 0.036017105759674137 0 0.016570252272784077 0.03618779034837525 0 0.016796937736853423 0.036207568526219994 0 0.016620595186590096 0.035973919341473731 0 0.016796937736853423 0.036207568526219994 0 0.016876439424285353 0.036017105759674137 0 0.016620595186590096 0.035973919341473731 0 0.016876439424285353 0.036017105759674137 0 0.016620595186590096 0.035973919341473731 0 0.016612568933178928 0.03586916962904025 0 0.016311155373167841 0.036407979042692377 0 0.015799359789764159 0.036374469412044495 0 0.015959721564537496 0.036174968004401606 0 0.015799359789764159 0.036374469412044495 0 0.01657871127805206 0.035827746269023519 0 0.016349201419496272 0.036141573472709076 0 0.015845341098672038 0.035944413368356576 0 0.014586605946791054 0.036634479457432569 0 0.014374402623901768 0.036498979306341356 0 0.014071433237409179 0.036729111646840153 0 0.015799359789764159 0.036374469412044495 0 0.013801868128521053 0.036464677080438906 0 0.016620595186590096 0.035973919341473731 0 0.01657871127805206 0.035827746269023519 0 0.016349201419496272 0.036141573472709076 0 0.016570252272784077 0.03618779034837525 0 0.016620595186590096 0.035973919341473731 0 0.016349201419496272 0.036141573472709076 0 0.015799359789764159 0.036374469412044495 0 0.014564490938349788 0.036330323418530493 0 0.014586605946791054 0.036634479457432569 0 0.014374402623901768 0.036498979306341356 0 0.01451092228010605 0.036297848765040129 0 0.014374402623901768 0.036498979306341356 0 0.01451092228010605 0.036297848765040129 0 0.014257010382052635 0.036346300312425972 0 0.01451092228010605 0.036297848765040129 0 0.014437855560468879 0.035960527089187962 0 0.014257010382052635 0.036346300312425972 0 0.014564490938349788 0.036330323418530493 0 0.01404806602075865 0.035748182095382906 0 0.014631966643408968 0.036250728716963242 0 0.014312444686629787 0.035568609897768375 0 0.01487231111037726 0.035850915914756892 0 0.01404806602075865 0.035748182095382906 0 0.013521146558603234 0.036909030068658401 0 0.013525510703038037 0.034999960277479425 0 0.013621186914334359 0.035855868384083799 0 0.01301923113967419 0.035543537793721817 0 0.013525837947466616 0.035000327571704307 0 0.01404806602075865 0.035748182095382906 0 0.013525706743283811 0.034999997598395456 0 0.014175706833805519 0.034999999072117233 0 0.013721593804475603 0.035946208319891468 0 0.014175758103470307 0.035000207834158338 0 0.01404806602075865 0.035748182095382906 0 0.014177156813927835 0.034999822086675479 0 0.014312444686629787 0.035568609897768375 0 0.014787767892514528 0.035524374115973666 0 0.014177156813927835 0.034999822086675479 0 0.015460276004708841 0.03539543208684242 0 0.015980359218167674 0.034999630520855557 0 0.014312444686629787 0.035568609897768375 0 0.014787767892514528 0.035524374115973666 0 0.01487231111037726 0.035850915914756892 0 0.014177156813927835 0.034999822086675479 0 0.014787767892514528 0.035524374115973666 0 0.015460276004708841 0.03539543208684242 0 0.014787767892514528 0.035524374115973666 0 0.015371253665296198 0.035774656760062321 0 0.015460276004708841 0.03539543208684242 0 0.015371253665296198 0.035774656760062321 0 0.01487231111037726 0.035850915914756892 0 0.015325277777113983 0.036167521656154493 0 0.014787767892514528 0.035524374115973666 0 0.015371253665296198 0.035774656760062321 0 0.01487231111037726 0.035850915914756892 0 0.014631966643408968 0.036250728716963242 0 0.01487231111037726 0.035850915914756892 0 0.015325277777113983 0.036167521656154493 0 0.015371253665296198 0.035774656760062321 0 0.015325277777113983 0.036167521656154493 0 0.015954147457657327 0.03608167555263149 0 0.016501282096056998 0.036203130306832934 0 0.015954147457657327 0.03608167555263149 0 0.016425602534114098 0.036047072932726534 0 0.015954147457657327 0.03608167555263149 0 0.016425602534114098 0.036047072932726534 0 0.016066268360417874 0.035766785262294133 0 0.016425602534114098 0.036047072932726534 0 0.016066268360417874 0.035766785262294133 0 0.016739853441383585 0.035930964094672828 0 0.015371253665296198 0.035774656760062321 0 0.015954147457657327 0.03608167555263149 0 0.016066268360417874 0.035766785262294133 0 0.015371253665296198 0.035774656760062321 0 0.016066268360417874 0.035766785262294133 0 0.015460276004708841 0.03539543208684242 0 0.016066268360417874 0.035766785262294133 0 0.015460276004708841 0.03539543208684242 0 0.016201950246868484 0.035280973106511716 0 0.015460276004708841 0.03539543208684242 0 0.015980359218167674 0.034999630520855557 0 0.016201950246868484 0.035280973106511716 0 0.016066268360417874 0.035766785262294133 0 0.016201950246868484 0.035280973106511716 0 0.016739853441383585 0.035930964094672828 0 0.017991631185960782 0.035407413896319552 0 0.016336963327462827 0.035273701959694308 0 0.01778537256014328 0.035000016265814823 0 0.015980359218167674 0.034999630520855557 0 0.016201950246868484 0.035280973106511716 0 0.017989491226413672 0.035142556543759723 0 0.016201950246868484 0.035280973106511716 0 0.017200020962213014 0.035565536860968555 0 0.016201950246868484 0.035280973106511716 0 0.017200020962213014 0.035565536860968555 0 0.016739853441383585 0.035930964094672828 0 0.01778537256014328 0.035000016265814823 0 0.01801798265497067 0.035648787536640039 0 0.016201950246868484 0.035280973106511716 0 0.017237868097183438 0.036454117136057992 0 0.016841026117305619 0.036015087032276037 0 0.017973822726999239 0.036035795878779954 0 0.017200020962213014 0.035565536860968555 0 0.016739853441383585 0.035930964094672828 0 0.01687245153630338 0.036143632529235768 0 0.016726777600196675 0.036137417856120908 0 0.016739853441383585 0.035930964094672828 0 0.016726777600196675 0.036137417856120908 0 0.016501282096056998 0.036203130306832934 0 0.016425602534114098 0.036047072932726534 0 0.016726777600196675 0.036137417856120908 0 0.016425602534114098 0.036047072932726534 0 0.016739853441383585 0.035930964094672828 0 0.0097737181381088445 0.038419256225427419 0 0.011076308981186726 0.036808824936568424 0 0.010055384615365285 0.036993005189279345 0 0.01021608686878854 0.037936039356588985 0 0.011268386018377624 0.037642086391472297 0 0.011326483437647129 0.036576068357297091 0 0.008902474531579975 0.037701009486488135 0 0.011391742620874794 0.03672297057100421 0 0.0095079840591618496 0.037467905799928335 0 0.0091480566992379695 0.037487930227722718 0 0.0094435574488684493 0.036845762562139422 0 0.0095079840591618496 0.037467905799928335 0 0.0097737181381088445 0.038419256225427419 0 0.010055384615365285 0.036993005189279345 0 0.0095079840591618496 0.037467905799928335 0 0.0091190608999631197 0.037591041946780847 0 0.0091480566992379695 0.037487930227722718 0 0.0085200771858873654 0.037631656766755582 0 0.0085398061576736697 0.037611425755989115 0 0.0072183556826109418 0.03732126127703142 0 0.0072807243355958355 0.037501708621510366 0 0.0074550429360725973 0.037622513106605721 0 0.0095079840591618496 0.037467905799928335 0 0.0091190608999631197 0.037591041946780847 0 0.0097737181381088445 0.038419256225427419 0 0.0085200771858873654 0.037631656766755582 0 0.008902474531579975 0.037701009486488135 0 0.0072183556826109418 0.03732126127703142 0 0.0072807243355958355 0.037501708621510366 0 0.0070115244113506756 0.037976039831898678 0 0.0072807243355958355 0.037501708621510366 0 0.0073211153595155393 0.037777159864386858 0 0.0070115244113506756 0.037976039831898678 0 0.0072807243355958355 0.037501708621510366 0 0.0074550429360725973 0.037622513106605721 0 0.0073315858353712833 0.037774940976614053 0 0.0072171775361043189 0.037636116765754603 0 0.0069979719815068493 0.037452361427430192 0 0.0085200771858873654 0.037631656766755582 0 0.0055432324820270766 0.037742273415335557 0 0.008902474531579975 0.037701009486488135 0 0.0069979719815068493 0.037452361427430192 0 0.007181354359468318 0.037945190030960932 0 0.0073211153595155393 0.037777159864386858 0 0.0070115244113506756 0.037976039831898678 0 0.0058071977736490711 0.037298334463221477 0 0.0061619895015229314 0.036895421454979066 0 0.0058071977736490711 0.037298334463221477 0 0.0069979719815068493 0.037452361427430192 0 0.0076741571448755864 0.037068341716249086 0 0.0076900892598043245 0.037166026601764761 0 0.0079009565915159237 0.037125997161664016 0 0.0069979719815068493 0.037452361427430192 0 0.0061619895015229314 0.036895421454979066 0 0.0062842371376729067 0.037362340040138449 0 0.0065095737781529174 0.03708250876047664 0 0.006550139318669046 0.037312550344767464 0 0.0061619895015229314 0.036895421454979066 0 0.0083762355001034093 0.036701652774182837 0 0.01021608686878854 0.037936039356588985 0 0.010658708589581173 0.038493726396286905 0 0.011268386018377624 0.037642086391472297 0 0.008902474531579975 0.037701009486488135 0 0.0083762355001034093 0.036701652774182837 0 0.0077662740252847258 0.036958577909438725 0 0.0076741571448755864 0.037068341716249086 0 0.0079009565915159237 0.037125997161664016 0 0.010658708589581173 0.038493726396286905 0 0.012427485959491124 0.038171995358687483 0 0.011268386018377624 0.037642086391472297 0 0.0083762355001034093 0.036701652774182837 0 0.013801868128521053 0.036464677080438906 0 0.014374402623901768 0.036498979306341356 0 0.014071433237409179 0.036729111646840153 0 0.014257010382052635 0.036346300312425972 0 0.013801868128521053 0.036464677080438906 0 0.013521146558603234 0.036909030068658401 0 0.012427485959491124 0.038171995358687483 0 0.012998346362722561 0.037025317189340483 0 0.012110017239410411 0.037313193774174164 0 0.011268386018377624 0.037642086391472297 0 0.012110017239410411 0.037313193774174164 0 0.011326483437647129 0.036576068357297091 0 0.012427485959491124 0.038171995358687483 0 0.011268386018377624 0.037642086391472297 0 0.012110017239410411 0.037313193774174164 0 0.011326483437647129 0.036576068357297091 0 0.012570333668346794 0.036257592433339897 0 0.012394091904937453 0.035177065633297713 0 0.012110017239410411 0.037313193774174164 0 0.011326483437647129 0.036576068357297091 0 0.012570333668346794 0.036257592433339897 0 0.012998346362722561 0.037025317189340483 0 0.012110017239410411 0.037313193774174164 0 0.012570333668346794 0.036257592433339897 0 0.013621186914334359 0.035855868384083799 0 0.012998346362722561 0.037025317189340483 0 0.012570333668346794 0.036257592433339897 0 0.013525510703038037 0.034999960277479425 0 0.012394091904937453 0.035177065633297713 0 0.011906550412316006 0.034999987763595336 0 0.013525510703038037 0.034999960277479425 0 0.012394091904937453 0.035177065633297713 0 0.01301923113967419 0.035543537793721817 0 0.012570333668346794 0.036257592433339897 0 0.012394091904937453 0.035177065633297713 0 0.01301923113967419 0.035543537793721817 0 0.013621186914334359 0.035855868384083799 0 0.012570333668346794 0.036257592433339897 0 0.01301923113967419 0.035543537793721817 0 0.011076308981186726 0.036808824936568424 0 0.012394091904937453 0.035177065633297713 0 0.011200103236460597 0.03563201361277174 0 0.011200103236460597 0.03563201361277174 0 0.011906550412316006 0.034999987763595336 0 0.010287166850851638 0.034999997872592857 0 0.012394091904937453 0.035177065633297713 0 0.011200103236460597 0.03563201361277174 0 0.011906550412316006 0.034999987763595336 0 0.011391742620874794 0.03672297057100421 0 0.012285328667767039 0.035239139192253882 0 0.011200103236460597 0.03563201361277174 0 0.010287166850851638 0.034999997872592857 0 0.01044119773576886 0.036100674682504628 0 0.010287166850851638 0.034999997872592857 0 0.01044119773576886 0.036100674682504628 0 0.0095889800360029285 0.036066803990099004 0 0.011076308981186726 0.036808824936568424 0 0.011200103236460597 0.03563201361277174 0 0.01044119773576886 0.036100674682504628 0 0.01044119773576886 0.036100674682504628 0 0.010055384615365285 0.036993005189279345 0 0.0095889800360029285 0.036066803990099004 0 0.011076308981186726 0.036808824936568424 0 0.01044119773576886 0.036100674682504628 0 0.010055384615365285 0.036993005189279345 0 0.0091190446761754678 0.037592124762859974 0 0.0091480566992379695 0.037487930227722718 0 0.0080882148712854967 0.036300178752612829 0 0.0091480566992379695 0.037487930227722718 0 0.0094435574488684493 0.036845762562139422 0 0.00893445182119911 0.036357188550096883 0 0.0095079840591618496 0.037467905799928335 0 0.010055384615365285 0.036993005189279345 0 0.0094435574488684493 0.036845762562139422 0 0.010055384615365285 0.036993005189279345 0 0.0094435574488684493 0.036845762562139422 0 0.0095889800360029285 0.036066803990099004 0 0.0094435574488684493 0.036845762562139422 0 0.00893445182119911 0.036357188550096883 0 0.0095889800360029285 0.036066803990099004 0 0.010287166850851638 0.034999997872592857 0 0.0095889800360029285 0.036066803990099004 0 0.0086679685560832904 0.034999996991563198 0 0.00893445182119911 0.036357188550096883 0 0.0095889800360029285 0.036066803990099004 0 0.0086679685560832904 0.034999996991563198 0 0.0086679685560832904 0.034999996991563198 0 0.0070487175941095275 0.034999997711573444 0 0.0080882148712854967 0.036300178752612829 0 0.00893445182119911 0.036357188550096883 0 0.0086679685560832904 0.034999996991563198 0 0.0080882148712854967 0.036300178752612829 0 0.0070488433496358671 0.035000218922786992 0 0.0080673387938162856 0.036285883939849189 0 0.0070484275899222251 0.035000019800169341 0 0.0079282126503132204 0.036259510821095776 0 0.0065256836330090757 0.035785733938938948 0 0.0068554930391981333 0.036680474503517295 0 0.0079282126503132204 0.036259510821095776 0 0.0077125373276129431 0.037232048230545371 0 0.0068554930391981333 0.036680474503517295 0 0.0079282126503132204 0.036259510821095776 0 0.0065256836330090757 0.035785733938938948 0 0.0085200771858873654 0.037631656766755582 0 0.0080673387938162856 0.036285883939849189 0 0.0091480566992379695 0.037487930227722718 0 0.00893445182119911 0.036357188550096883 0 0.0080882148712854967 0.036300178752612829 0 0.0088701510293807875 0.037501359151566965 0 0.0079282126503132204 0.036259510821095776 0 0.0077125373276129431 0.037232048230545371 0 0.0054346533820568282 0.035863930352882933 0 0.0054741804858195039 0.034999980981962046 0 0.00389945631952728 0.035000006353047855 0 0.0053820767577822688 0.035849098093755784 0 0.0038997350589761019 0.035000145087806044 0 0.0052896397217859718 0.035815404163194418 0 0.0042701432967794956 0.036059705718569084 0 0.0038988092181545426 0.034999739256028305 0 0.0070484275899222251 0.035000019800169341 0 0.0065256836330090757 0.035785733938938948 0 0.0054741804858195039 0.034999980981962046 0 0.0054346533820568282 0.035863930352882933 0 0.0065256836330090757 0.035785733938938948 0 0.0054741804858195039 0.034999980981962046 0 0.0067645071446495609 0.036632813945620984 0 0.0053820767577822688 0.035849098093755784 0 0.0068554930391981333 0.036680474503517295 0 0.0056613046446884864 0.036737389242159302 0 0.0062435203939326406 0.037321677180319507 0 0.0068554930391981333 0.036680474503517295 0 0.0052896397217859718 0.035815404163194418 0 0.0056613046446884864 0.036737389242159302 0 0.0068554930391981333 0.036680474503517295 0 0.0054346533820568282 0.035863930352882933 0 0.0065256836330090757 0.035785733938938948 0 0.0048742907999716053 0.036536180234530695 0 0.0045540737674947514 0.037289479016018305 0 0.0042701432967794956 0.036059705718569084 0 0.0052896397217859718 0.035815404163194418 0 0.0056613046446884864 0.036737389242159302 0 0.0048742907999716053 0.036536180234530695 0 0.0056613046446884864 0.036737389242159302 0 0.0048742907999716053 0.036536180234530695 0 0.0050329544263334001 0.037319392074115665 0 0.0048742907999716053 0.036536180234530695 0 0.0045540737674947514 0.037289479016018305 0 0.0050329544263334001 0.037319392074115665 0 0.0052896397217859718 0.035815404163194418 0 0.0048742907999716053 0.036536180234530695 0 0.0042701432967794956 0.036059705718569084 0 0.0035997894024700945 0.036979332343013503 0 0.0037435925788934102 0.037346628342373726 0 0.0040726036602098184 0.037533006490345563 0 0.0040020871836880132 0.037066227109258838 0 0.0049711636173406255 0.037881449623758029 0 0.0045540737674947514 0.037289479016018305 0 0.0050329544263334001 0.037319392074115665 0 0.0054928565311859762 0.03799388208890167 0 0.0035606138569120702 0.037245773340538101 0 0.0035997894024700945 0.036979332343013503 0 0.0037435925788934102 0.037346628342373726 0 0.0035606138569120702 0.037245773340538101 0 0.0037435925788934102 0.037346628342373726 0 0.0033928201288792614 0.037446738154422655 0 0.0056613046446884864 0.036737389242159302 0 0.0050329544263334001 0.037319392074115665 0 0.0062435203939326406 0.037321677180319507 0 0.0049569465170176763 0.03728015769649639 0 0.0065953812280338617 0.038310336183365427 0 0.0050329544263334001 0.037319392074115665 0 0.0062435203939326406 0.037321677180319507 0 0.0066249590102940093 0.038328498302990184 0 0.0050329544263334001 0.037319392074115665 0 0.0054928565311859762 0.03799388208890167 0 0.0059106156196369044 0.037966011661239335 0 0.002388899084102157 0.037309427399605875 0 0.0018956848794215372 0.037176047398659123 0 0.0039567526651860165 0.037655273859666195 0 0.0040726036602098184 0.037533006490345563 0 0.0042622539653452357 0.037796372202956077 0 0.00074715007409959704 0.036948556478790778 0 0.00053584078344172436 0.03663771326809704 0 0.00080776303004588123 0.036686298377526426 0 0.0037435925788934102 0.037346628342373726 0 0.0040726036602098184 0.037533006490345563 0 0.0039052436922185413 0.037497129074508334 0 0.0039567526651860165 0.037655273859666195 0 0.0040726036602098184 0.037533006490345563 0 0.0039052436922185413 0.037497129074508334 0 0.0037435925788934102 0.037346628342373726 0 0.0039052436922185413 0.037497129074508334 0 0.0033928201288792614 0.037446738154422655 0 0.00074715007409959704 0.036948556478790778 0 0.0012862204918242814 0.036919894951301331 0 0.0015598858277620577 0.037262253585926532 0 0.0039567526651860165 0.037655273859666195 0 0.0039052436922185413 0.037497129074508334 0 0.0033928201288792614 0.037446738154422655 0 0.002388899084102157 0.037309427399605875 0 0.0024388639212211522 0.037310681413171114 0 0.00074715007409959704 0.036948556478790778 0 0.0010680665611898801 0.036761978956340653 0 0.0012862204918242814 0.036919894951301331 0 0.00074715007409959704 0.036948556478790778 0 0.0010680665611898801 0.036761978956340653 0 0.00080776303004588123 0.036686298377526426 0 0.0010680665611898801 0.036761978956340653 0 0.0012862204918242814 0.036919894951301331 0 0.001332157163954621 0.036704460911771826 0 0.0088701510293807875 0.037501359151566965 0 0.0077125373276129431 0.037232048230545371 0 0.0078058181568431365 0.038172172537481723 0 0.0077125373276129431 0.037232048230545371 0 0.0070877421371857395 0.037539151958279449 0 0.0078058181568431365 0.038172172537481723 0 0.0070877421371857395 0.037539151958279449 0 0.0066249590102940093 0.038328498302990184 0 0.0078058181568431365 0.038172172537481723 0 0.0068554930391981333 0.036680474503517295 0 0.0077125373276129431 0.037232048230545371 0 0.0070877421371857395 0.037539151958279449 0 0.0068554930391981333 0.036680474503517295 0 0.0062435203939326406 0.037321677180319507 0 0.0070877421371857395 0.037539151958279449 0 0.0062435203939326406 0.037321677180319507 0 0.0070877421371857395 0.037539151958279449 0 0.0066249590102940093 0.038328498302990184 0 0.0040726036602098184 0.037533006490345563 0 0.004329777728746269 0.037784517016627113 0 0.0042622539653452357 0.037796372202956077 0 0.0049711636173406255 0.037881449623758029 0 0.0042882492080878595 0.037706761300921716 0 0.0065953812280338617 0.038310336183365427 0 0.0057164785382688805 0.038256548722678793 0 0.0059106156196369044 0.037966011661239335 0 0.0066065872565691866 0.038459267344057746 0 0.0061736618783241656 0.038542205995418279 0 0.0054928565311859762 0.03799388208890167 0 0.0059106156196369044 0.037966011661239335 0 0.0061736618783241656 0.038542205995418279 0 0.0088701510293807875 0.037501359151566965 0 0.0078058181568431365 0.038172172537481723 0 0.0083709268819013808 0.039202024513621904 0 0.0078058181568431365 0.038172172537481723 0 0.0083709268819013808 0.039202024513621904 0 0.008054468973904938 0.039261770758191226 0 0.0066249590102940093 0.038328498302990184 0 0.0078058181568431365 0.038172172537481723 0 0.008054468973904938 0.039261770758191226 0 0.0029672953482375989 0.037611564282613433 0 0.0026317042427215463 0.037384180429279698 0 0.0029029717233063942 0.036363424765605196 0 0.0048684933795409566 0.036623229556291562 0 0.0050549348358631032 0.036944073428427468 0 0.0051321599961298755 0.036665450948992713 0 0.0055432324820270766 0.037742273415335557 0 0.0032490184104181372 0.03718169829922173 0 0.0055432324820270766 0.037742273415335557 0 0.0057164785382688805 0.038256548722678793 0 0.004628565145210187 0.038201009106479292 0 0.0046001261555054969 0.038208614268070755 0 0.0046207629307553899 0.038222358883050485 0 0.0057164785382688805 0.038256548722678793 0 0.0032490184104181372 0.03718169829922173 0 0.0057164785382688805 0.038256548722678793 0 0.0042882492080878595 0.037706761300921716 0 0.0029672953482375989 0.037611564282613433 0 0.0032371099298635657 0.036645493381719081 0 0.0041228235460324895 0.037398161755405605 0 0.0011868396594394634 0.036342417174140787 0 0.0042882492080878595 0.037706761300921716 0 -0.00068301433886517866 0.036206848821507556 0 -0.00084798406047062306 0.036068219129515591 0 -0.00028173160633801817 0.036163145248345352 0 0.0011868396594394634 0.036342417174140787 0 0.00046800594095745373 0.035882168826162568 0 0.0032490184104181372 0.03718169829922173 0 0.00046800594095745373 0.035882168826162568 0 -0.00078448308038140898 0.035752226347954184 0 -0.00044836175252334229 0.036386022237463005 0 -0.00028978500474744542 0.035775227864942395 0 0.0029672953482375989 0.037611564282613433 0 0.0032371099298635657 0.036645493381719081 0 0.0029029717233063942 0.036363424765605196 0 0.00046800594095745373 0.035882168826162568 0 -0.00054940660256782561 0.034866794206436971 0 -0.00084798406047062306 0.036068219129515591 0 -0.00017295375202790528 0.035738910924274898 0 -0.00056559810731053616 0.034996017415707938 0 -0.00103603842273447 0.035218660433554004 0 -0.00050786137382953327 0.035661473124793917 0 -0.00027498755631495241 0.034692665409848465 0 -0.00084798406047062306 0.036068219129515591 0 -0.00017295375202790528 0.035738910924274898 0 -0.00028173160633801817 0.036163145248345352 0 -0.00017295375202790528 0.035738910924274898 0 0.0002269436598284535 0.035814316005102355 0 0.00026795644518217364 0.035316829000719197 0 -0.00017295375202790528 0.035738910924274898 0 8.6769964404162305e-05 0.036127961207963542 0 0.0002269436598284535 0.035814316005102355 0 -0.00017295375202790528 0.035738910924274898 0 8.6769964404162305e-05 0.036127961207963542 0 -0.00028173160633801817 0.036163145248345352 0 8.6769964404162305e-05 0.036127961207963542 0 -3.7278572111030185e-06 0.036326157974026246 0 0.00022334307174310821 0.03647898072530871 0 8.6769964404162305e-05 0.036127961207963542 0 -3.7278572111030185e-06 0.036326157974026246 0 -0.00028173160633801817 0.036163145248345352 0 -3.7278572111030185e-06 0.036326157974026246 0 -0.00028173160633801817 0.036163145248345352 0 -4.6598684728689035e-05 0.036533124261533448 0 -0.00068301433886517866 0.036206848821507556 0 -0.00028173160633801817 0.036163145248345352 0 -4.6598684728689035e-05 0.036533124261533448 0 0.0011868396594394634 0.036342417174140787 0 0.0018956848794215372 0.037176047398659123 0 0.0015092473497464916 0.036462859937776274 0 0.0026649554147872402 0.037457254719875176 0 0.0032104674614046981 0.037357236896735271 0 0.0042882492080878595 0.037706761300921716 0 0.0018956848794215372 0.037176047398659123 0 -3.7278572111030185e-06 0.036326157974026246 0 -4.6598684728689035e-05 0.036533124261533448 0 0.00022334307174310821 0.03647898072530871 0 0.0018956848794215372 0.037176047398659123 0 0.00052196335285794216 0.037075361106500192 0 0.00074715007409959704 0.036948556478790778 0 -2.9043506525396177e-05 0.036527081213844702 0 0.00053584078344172436 0.03663771326809704 0 -2.9043506525396177e-05 0.036527081213844702 0 0.00022334307174310821 0.03647898072530871 0 0.00053584078344172436 0.03663771326809704 0 0.00022334307174310821 0.03647898072530871 0 0.00053584078344172436 0.03663771326809704 0 0.00047801679284610474 0.036399210886827849 0 0.00053584078344172436 0.03663771326809704 0 0.00074729303931037972 0.036444780330267573 0 0.00080776303004588123 0.036686298377526426 0 0.00053584078344172436 0.03663771326809704 0 0.00074729303931037972 0.036444780330267573 0 0.00047801679284610474 0.036399210886827849 0 0.00074729303931037972 0.036444780330267573 0 0.00069921344995875706 0.036124832210173985 0 0.00047801679284610474 0.036399210886827849 0 0.00069921344995875706 0.036124832210173985 0 0.00040572757751082458 0.036138376242239173 0 0.00047801679284610474 0.036399210886827849 0 8.6769964404162305e-05 0.036127961207963542 0 0.00022334307174310821 0.03647898072530871 0 0.00040572757751082458 0.036138376242239173 0 0.00022334307174310821 0.03647898072530871 0 0.00040572757751082458 0.036138376242239173 0 0.00047801679284610474 0.036399210886827849 0 0.001332157163954621 0.036704460911771826 0 0.0010313478722799494 0.036459939249731274 0 0.0012741315279404823 0.036388846189859769 0 0.0010680665611898801 0.036761978956340653 0 0.001332157163954621 0.036704460911771826 0 0.0010313478722799494 0.036459939249731274 0 0.00074729303931037972 0.036444780330267573 0 0.0010313478722799494 0.036459939249731274 0 0.00080776303004588123 0.036686298377526426 0 0.0010680665611898801 0.036761978956340653 0 0.0010313478722799494 0.036459939249731274 0 0.00080776303004588123 0.036686298377526426 0 0.00069921344995875706 0.036124832210173985 0 0.00089950569886551742 0.036284327189126768 0 0.00098139022179062813 0.036080558764217577 0 0.00074729303931037972 0.036444780330267573 0 0.0010313478722799494 0.036459939249731274 0 0.00089950569886551742 0.036284327189126768 0 0.00074729303931037972 0.036444780330267573 0 0.00069921344995875706 0.036124832210173985 0 0.00089950569886551742 0.036284327189126768 0 0.00089950569886551742 0.036284327189126768 0 0.0010886795724254622 0.036267002642804316 0 0.00098139022179062813 0.036080558764217577 0 0.0010313478722799494 0.036459939249731274 0 0.00089950569886551742 0.036284327189126768 0 0.0010886795724254622 0.036267002642804316 0 0.0010313478722799494 0.036459939249731274 0 0.0010886795724254622 0.036267002642804316 0 0.0012741315279404823 0.036388846189859769 0 0.0010886795724254622 0.036267002642804316 0 0.0012741315279404823 0.036388846189859769 0 0.0012066238539911105 0.036076689089165045 0 0.0012066238539911105 0.036076689089165045 0 0.0010583159070053194 0.035857793773376126 0 0.0012690543461687386 0.035801581658619755 0 0.0012066238539911105 0.036076689089165045 0 0.0010583159070053194 0.035857793773376126 0 0.00098139022179062813 0.036080558764217577 0 0.0010886795724254622 0.036267002642804316 0 0.0012066238539911105 0.036076689089165045 0 0.00098139022179062813 0.036080558764217577 0 0.0010583159070053194 0.035857793773376126 0 0.00098139022179062813 0.036080558764217577 0 0.00086623440320094476 0.035740801003293278 0 0.00069921344995875706 0.036124832210173985 0 0.00098139022179062813 0.036080558764217577 0 0.00086623440320094476 0.035740801003293278 0 0.00086623440320094476 0.035740801003293278 0 0.00071525895410069849 0.035357463645138469 0 0.00097989853163840766 0.035421581248437847 0 0.00086623440320094476 0.035740801003293278 0 0.0011296278547262681 0.035627379610554066 0 0.00097989853163840766 0.035421581248437847 0 0.0010583159070053194 0.035857793773376126 0 0.00086623440320094476 0.035740801003293278 0 0.0011296278547262681 0.035627379610554066 0 0.0010583159070053194 0.035857793773376126 0 0.0011296278547262681 0.035627379610554066 0 0.0012690543461687386 0.035801581658619755 0 0.0011296278547262681 0.035627379610554066 0 0.0012690543461687386 0.035801581658619755 0 0.0013009156541798504 0.035533556047424142 0 0.00040572757751082458 0.036138376242239173 0 0.0002269436598284535 0.035814316005102355 0 0.00053453029749645593 0.035736886712233192 0 8.6769964404162305e-05 0.036127961207963542 0 0.00040572757751082458 0.036138376242239173 0 0.0002269436598284535 0.035814316005102355 0 0.00069921344995875706 0.036124832210173985 0 0.00086623440320094476 0.035740801003293278 0 0.00053453029749645593 0.035736886712233192 0 0.00069921344995875706 0.036124832210173985 0 0.00040572757751082458 0.036138376242239173 0 0.00053453029749645593 0.035736886712233192 0 0.00086623440320094476 0.035740801003293278 0 0.00053453029749645593 0.035736886712233192 0 0.00071525895410069849 0.035357463645138469 0 0.00053453029749645593 0.035736886712233192 0 0.00026795644518217364 0.035316829000719197 0 0.00071525895410069849 0.035357463645138469 0 0.0002269436598284535 0.035814316005102355 0 0.00053453029749645593 0.035736886712233192 0 0.00026795644518217364 0.035316829000719197 0 0.00026795644518217364 0.035316829000719197 0 0.00071525895410069849 0.035357463645138469 0 0.0006618990220614529 0.034850744594416977 0 0.00071525895410069849 0.035357463645138469 0 0.0006618990220614529 0.034850744594416977 0 0.00096054485213196853 0.035066780180128806 0 0.00026795644518217364 0.035316829000719197 0 0.0006618990220614529 0.034850744594416977 0 0.00020047975203370041 0.034630547438892816 0 0.0012184878850304273 0.035287920520048678 0 0.00097989853163840766 0.035421581248437847 0 0.00096054485213196853 0.035066780180128806 0 0.0011296278547262681 0.035627379610554066 0 0.0012184878850304273 0.035287920520048678 0 0.00097989853163840766 0.035421581248437847 0 0.0011296278547262681 0.035627379610554066 0 0.0012184878850304273 0.035287920520048678 0 0.0013009156541798504 0.035533556047424142 0 0.00071525895410069849 0.035357463645138469 0 0.00097989853163840766 0.035421581248437847 0 0.00096054485213196853 0.035066780180128806 0 0.0006618990220614529 0.034850744594416977 0 0.00096054485213196853 0.035066780180128806 0 0.000973116613492324 0.034624163652253785 0 0.0012184878850304273 0.035287920520048678 0 0.00096054485213196853 0.035066780180128806 0 0.0012457410521174151 0.034876066842834424 0 0.00096054485213196853 0.035066780180128806 0 0.0012457410521174151 0.034876066842834424 0 0.000973116613492324 0.034624163652253785 0 0.0012184878850304273 0.035287920520048678 0 0.0012457410521174151 0.034876066842834424 0 0.0013987998933956854 0.035141759204829981 0 0.0012457410521174151 0.034876066842834424 0 0.0012527720582110561 0.034465677238801846 0 0.0014312107678042657 0.034633128746351334 0 0.0012457410521174151 0.034876066842834424 0 0.0012527720582110561 0.034465677238801846 0 0.000973116613492324 0.034624163652253785 0 0.000973116613492324 0.034624163652253785 0 0.0010405863004340694 0.034190537590085279 0 0.00063629260805178557 0.034224822127314605 0 0.00087573026497218918 0.033839599104240878 0 0.0010405863004340694 0.034190537590085279 0 0.00063629260805178557 0.034224822127314605 0 0.0012527720582110561 0.034465677238801846 0 0.000973116613492324 0.034624163652253785 0 0.0010405863004340694 0.034190537590085279 0 0.0013190206149723059 0.03410356319185566 0 0.0012527720582110561 0.034465677238801846 0 0.0010405863004340694 0.034190537590085279 0 0.0006618990220614529 0.034850744594416977 0 0.00063629260805178557 0.034224822127314605 0 0.00020047975203370041 0.034630547438892816 0 0.0006618990220614529 0.034850744594416977 0 0.000973116613492324 0.034624163652253785 0 0.00063629260805178557 0.034224822127314605 0 -7.8277021734185438e-05 0.033837011604791904 0 -0.00054940660256782561 0.034866794206436971 0 -8.26412174177789e-05 0.033783568903394443 0 0.00020047975203370041 0.034630547438892816 0 -0.00056559810731053616 0.034996017415707938 0 -8.26412174177789e-05 0.033783568903394443 0 0.00063629260805178557 0.034224822127314605 0 0.00020047975203370041 0.034630547438892816 0 -8.26412174177789e-05 0.033783568903394443 0 -0.00088306454986353798 0.034140175525690195 0 -0.00027498755631495241 0.034692665409848465 0 -0.00096513886619840406 0.03467422979974831 0 -0.00103603842273447 0.035218660433554004 0 -0.00027498755631495241 0.034692665409848465 0 -0.00088306454986353798 0.034140175525690195 0 -0.00096513886619840406 0.03467422979974831 0 -0.00027498755631495241 0.034692665409848465 0 -0.00017295375202790528 0.035738910924274898 0 0.00026795644518217364 0.035316829000719197 0 -0.00056559810731053616 0.034996017415707938 0 0.00026795644518217364 0.035316829000719197 0 0.00020047975203370041 0.034630547438892816 0 -0.00056559810731053616 0.034996017415707938 0 0.0028176902594089126 0.035138620377799239 0 0.0024574454071167309 0.035123871000651931 0 0.002799246926785388 0.034645093139472123 0 0.0028176902594089126 0.035138620377799239 0 0.0031486307351156983 0.034951706614870084 0 0.002799246926785388 0.034645093139472123 0 0.0024574454071167309 0.035123871000651931 0 0.0022661046079096936 0.035522384437699485 0 0.002637629777640356 0.03550048552428043 0 0.0028176902594089126 0.035138620377799239 0 0.0024574454071167309 0.035123871000651931 0 0.002637629777640356 0.03550048552428043 0 0.0028176902594089126 0.035138620377799239 0 0.002637629777640356 0.03550048552428043 0 0.0030520193367676979 0.035554065257432481 0 0.0028176902594089126 0.035138620377799239 0 0.0030520193367676979 0.035554065257432481 0 0.0031486307351156983 0.034951706614870084 0 0.0030520193367676979 0.035554065257432481 0 0.0031486307351156983 0.034951706614870084 0 0.0031838257276475199 0.035953121908828885 0 0.0031486307351156983 0.034951706614870084 0 0.0034959162277897081 0.034498102947351547 0 0.0031838257276475199 0.035953121908828885 0 -0.003814099865300426 0.029809615170133363 0 -0.0036408464947051741 0.029371869120021096 0 -0.003878486608064623 0.029489354394387185 0 -0.0029188325260269517 0.027236687921048514 0 -0.00050437258618284977 0.035126793888488592 0 0.00216701897296755 0.031100483985674932 0 -0.0029188325260269517 0.027236687921048514 0 0.0031486307351156983 0.034951706614870084 0 0.0034959162277897081 0.034498102947351547 0 0.002799246926785388 0.034645093139472123 0 0.0028308745156641643 0.034065748606206529 0 0.0034959162277897081 0.034498102947351547 0 0.002799246926785388 0.034645093139472123 0 0.0024574454071167309 0.035123871000651931 0 0.002799246926785388 0.034645093139472123 0 0.0021843980166112182 0.034625721771320082 0 0.0028308745156641643 0.034065748606206529 0 0.002799246926785388 0.034645093139472123 0 0.0024046148024106 0.034216292837869262 0 0.002799246926785388 0.034645093139472123 0 0.0024046148024106 0.034216292837869262 0 0.0021843980166112182 0.034625721771320082 0 0.0019855003050487786 0.034159473812957739 0 0.0024046148024106 0.034216292837869262 0 0.0021843980166112182 0.034625721771320082 0 0.0019855003050487786 0.034159473812957739 0 0.0018964546258082773 0.034511327454454774 0 0.0017368787428159386 0.034346326162589869 0 0.0019855003050487786 0.034159473812957739 0 0.0018964546258082773 0.034511327454454774 0 0.0021843980166112182 0.034625721771320082 0 0.0018964546258082773 0.034511327454454774 0 0.0021843980166112182 0.034625721771320082 0 0.0017891263035876351 0.034906028048561404 0 0.0013190206149723059 0.03410356319185566 0 0.0012527720582110561 0.034465677238801846 0 0.0014901337408354267 0.034349471843093969 0 0.0013190206149723059 0.03410356319185566 0 0.0014864256544120135 0.034100185496799759 0 0.0014901337408354267 0.034349471843093969 0 0.0014864256544120135 0.034100185496799759 0 0.0016720368582303477 0.034083422777058281 0 0.0014901337408354267 0.034349471843093969 0 0.0016720368582303477 0.034083422777058281 0 0.0019855003050487786 0.034159473812957739 0 0.0017368787428159386 0.034346326162589869 0 0.0014901337408354267 0.034349471843093969 0 0.0017368787428159386 0.034346326162589869 0 0.0016440495803192656 0.034633025235167425 0 0.0016720368582303477 0.034083422777058281 0 0.0014901337408354267 0.034349471843093969 0 0.0017368787428159386 0.034346326162589869 0 0.0018964546258082773 0.034511327454454774 0 0.0017368787428159386 0.034346326162589869 0 0.0016440495803192656 0.034633025235167425 0 0.0018964546258082773 0.034511327454454774 0 0.0016440495803192656 0.034633025235167425 0 0.0017891263035876351 0.034906028048561404 0 0.0016440495803192656 0.034633025235167425 0 0.0015097193583744888 0.034906280899313719 0 0.0017891263035876351 0.034906028048561404 0 0.0012457410521174151 0.034876066842834424 0 0.0014312107678042657 0.034633128746351334 0 0.0015097193583744888 0.034906280899313719 0 0.0014901337408354267 0.034349471843093969 0 0.0016440495803192656 0.034633025235167425 0 0.0014312107678042657 0.034633128746351334 0 0.0016440495803192656 0.034633025235167425 0 0.0014312107678042657 0.034633128746351334 0 0.0015097193583744888 0.034906280899313719 0 0.0012527720582110561 0.034465677238801846 0 0.0014901337408354267 0.034349471843093969 0 0.0014312107678042657 0.034633128746351334 0 0.0012457410521174151 0.034876066842834424 0 0.0013987998933956854 0.035141759204829981 0 0.0015097193583744888 0.034906280899313719 0 0.0013987998933956854 0.035141759204829981 0 0.0015097193583744888 0.034906280899313719 0 0.0015925821307736945 0.035185901969962081 0 0.0017891263035876351 0.034906028048561404 0 0.0015925821307736945 0.035185901969962081 0 0.0017842316086988802 0.035270671560237755 0 0.0015097193583744888 0.034906280899313719 0 0.0017891263035876351 0.034906028048561404 0 0.0015925821307736945 0.035185901969962081 0 0.0015925821307736945 0.035185901969962081 0 0.0016415107422093989 0.035488289483147528 0 0.0017842316086988802 0.035270671560237755 0 0.0015925821307736945 0.035185901969962081 0 0.0016415107422093989 0.035488289483147528 0 0.0014380218240579523 0.03539851537755067 0 0.0013987998933956854 0.035141759204829981 0 0.0015925821307736945 0.035185901969962081 0 0.0014380218240579523 0.03539851537755067 0 0.0016415107422093989 0.035488289483147528 0 0.0014380218240579523 0.03539851537755067 0 0.0014634011972796987 0.03567628550720519 0 0.0012184878850304273 0.035287920520048678 0 0.0014380218240579523 0.03539851537755067 0 0.0013009156541798504 0.035533556047424142 0 0.0012184878850304273 0.035287920520048678 0 0.0013987998933956854 0.035141759204829981 0 0.0014380218240579523 0.03539851537755067 0 0.0024574454071167309 0.035123871000651931 0 0.0021843980166112182 0.034625721771320082 0 0.0020712084671106008 0.035169986242435995 0 0.0021843980166112182 0.034625721771320082 0 0.0017891263035876351 0.034906028048561404 0 0.0020712084671106008 0.035169986242435995 0 0.0017891263035876351 0.034906028048561404 0 0.0020712084671106008 0.035169986242435995 0 0.0017842316086988802 0.035270671560237755 0 0.0016415107422093989 0.035488289483147528 0 0.0019198086160080786 0.035564401940701061 0 0.0017842316086988802 0.035270671560237755 0 0.0020712084671106008 0.035169986242435995 0 0.0019198086160080786 0.035564401940701061 0 0.0017842316086988802 0.035270671560237755 0 0.0024574454071167309 0.035123871000651931 0 0.0022661046079096936 0.035522384437699485 0 0.0020712084671106008 0.035169986242435995 0 0.0022661046079096936 0.035522384437699485 0 0.0020712084671106008 0.035169986242435995 0 0.0019198086160080786 0.035564401940701061 0 0.0019198086160080786 0.035564401940701061 0 0.0021260867012868603 0.035921482995521295 0 0.0018823170633202287 0.035945879743004103 0 0.0022661046079096936 0.035522384437699485 0 0.0019198086160080786 0.035564401940701061 0 0.0021260867012868603 0.035921482995521295 0 0.0019198086160080786 0.035564401940701061 0 0.0018823170633202287 0.035945879743004103 0 0.0016762814196770197 0.035815277604838942 0 0.0019889933676496834 0.0362849470469956 0 0.0017208579089621054 0.036128888170841748 0 0.0017759147774058907 0.036477599400918791 0 0.0018823170633202287 0.035945879743004103 0 0.0019889933676496834 0.0362849470469956 0 0.0017208579089621054 0.036128888170841748 0 0.0018823170633202287 0.035945879743004103 0 0.0016762814196770197 0.035815277604838942 0 0.0017208579089621054 0.036128888170841748 0 0.0021260867012868603 0.035921482995521295 0 0.0018823170633202287 0.035945879743004103 0 0.0019889933676496834 0.0362849470469956 0 0.0021260867012868603 0.035921482995521295 0 0.0019889933676496834 0.0362849470469956 0 0.0022646326146597041 0.036255280866672943 0 0.0012690543461687386 0.035801581658619755 0 0.0014634011972796987 0.03567628550720519 0 0.0014400594517325217 0.035975572273684704 0 0.0014380218240579523 0.03539851537755067 0 0.0013009156541798504 0.035533556047424142 0 0.0014634011972796987 0.03567628550720519 0 0.0012690543461687386 0.035801581658619755 0 0.0013009156541798504 0.035533556047424142 0 0.0014634011972796987 0.03567628550720519 0 0.0014634011972796987 0.03567628550720519 0 0.0016762814196770197 0.035815277604838942 0 0.0014400594517325217 0.035975572273684704 0 0.0016415107422093989 0.035488289483147528 0 0.0019198086160080786 0.035564401940701061 0 0.0016762814196770197 0.035815277604838942 0 0.0016415107422093989 0.035488289483147528 0 0.0014634011972796987 0.03567628550720519 0 0.0016762814196770197 0.035815277604838942 0 0.0016762814196770197 0.035815277604838942 0 0.0017208579089621054 0.036128888170841748 0 0.0014400594517325217 0.035975572273684704 0 0.0017208579089621054 0.036128888170841748 0 0.0014400594517325217 0.035975572273684704 0 0.0015802478946100082 0.036283812938283741 0 0.0014400594517325217 0.035975572273684704 0 0.0014141125613876405 0.036261515707867772 0 0.0015802478946100082 0.036283812938283741 0 0.0012066238539911105 0.036076689089165045 0 0.0014400594517325217 0.035975572273684704 0 0.0014141125613876405 0.036261515707867772 0 0.0012066238539911105 0.036076689089165045 0 0.0012690543461687386 0.035801581658619755 0 0.0014400594517325217 0.035975572273684704 0 0.0012741315279404823 0.036388846189859769 0 0.0014141125613876405 0.036261515707867772 0 0.0015648150135747407 0.036567462499173108 0 0.0012741315279404823 0.036388846189859769 0 0.0012066238539911105 0.036076689089165045 0 0.0014141125613876405 0.036261515707867772 0 0.0014141125613876405 0.036261515707867772 0 0.0015802478946100082 0.036283812938283741 0 0.0015648150135747407 0.036567462499173108 0 0.0015802478946100082 0.036283812938283741 0 0.0015648150135747407 0.036567462499173108 0 0.0017759147774058907 0.036477599400918791 0 0.0017208579089621054 0.036128888170841748 0 0.0015802478946100082 0.036283812938283741 0 0.0017759147774058907 0.036477599400918791 0 0.0015648150135747407 0.036567462499173108 0 0.0017759147774058907 0.036477599400918791 0 0.0018695451221266148 0.036892797040368339 0 0.0015648150135747407 0.036567462499173108 0 0.0018695451221266148 0.036892797040368339 0 0.0016561327568662416 0.036941639058614702 0 0.001332157163954621 0.036704460911771826 0 0.0015648150135747407 0.036567462499173108 0 0.0016561327568662416 0.036941639058614702 0 0.001332157163954621 0.036704460911771826 0 0.0012741315279404823 0.036388846189859769 0 0.0015648150135747407 0.036567462499173108 0 0.0019889933676496834 0.0362849470469956 0 0.0019407921673528343 0.036668360471425736 0 0.0021060847336399464 0.036656814867762053 0 0.0019407921673528343 0.036668360471425736 0 0.0020018586072561512 0.037043579727308158 0 0.0021060847336399464 0.036656814867762053 0 0.0019889933676496834 0.0362849470469956 0 0.0019407921673528343 0.036668360471425736 0 0.0017759147774058907 0.036477599400918791 0 0.0019407921673528343 0.036668360471425736 0 0.0017759147774058907 0.036477599400918791 0 0.0018695451221266148 0.036892797040368339 0 0.0019407921673528343 0.036668360471425736 0 0.0018695451221266148 0.036892797040368339 0 0.0020018586072561512 0.037043579727308158 0 0.0020970737240793816 0.036969181214854388 0 0.0020018586072561512 0.037043579727308158 0 0.0019262157431966082 0.037537679741114514 0 0.0020970737240793816 0.036969181214854388 0 0.0020018586072561512 0.037043579727308158 0 0.0021060847336399464 0.036656814867762053 0 0.0023789339042620057 0.036602186866774994 0 0.0031838257276475199 0.035953121908828885 0 0.0019262157431966082 0.037537679741114514 0 0.0020970737240793816 0.036969181214854388 0 0.0023789339042620057 0.036602186866774994 0 0.0019262157431966082 0.037537679741114514 0 0.0023789339042620057 0.036602186866774994 0 0.0021060847336399464 0.036656814867762053 0 0.0022646326146597041 0.036255280866672943 0 0.0020970737240793816 0.036969181214854388 0 0.0023789339042620057 0.036602186866774994 0 0.0021060847336399464 0.036656814867762053 0 0.0019889933676496834 0.0362849470469956 0 0.0021060847336399464 0.036656814867762053 0 0.0022646326146597041 0.036255280866672943 0 0.0022646326146597041 0.036255280866672943 0 0.0025408630909304055 0.036112588239496611 0 0.0024431453931168666 0.035856393023330095 0 0.0023789339042620057 0.036602186866774994 0 0.0027735415680007962 0.036046734755763948 0 0.0031838257276475199 0.035953121908828885 0 0.0023789339042620057 0.036602186866774994 0 0.0022646326146597041 0.036255280866672943 0 0.0025408630909304055 0.036112588239496611 0 0.0023789339042620057 0.036602186866774994 0 0.0027735415680007962 0.036046734755763948 0 0.0025408630909304055 0.036112588239496611 0 0.0025408630909304055 0.036112588239496611 0 0.0027918620887739509 0.035805433824254038 0 0.0024431453931168666 0.035856393023330095 0 0.002637629777640356 0.03550048552428043 0 0.0030520193367676979 0.035554065257432481 0 0.0027918620887739509 0.035805433824254038 0 0.0027735415680007962 0.036046734755763948 0 0.0027918620887739509 0.035805433824254038 0 0.0029579667698947558 0.035860223535602753 0 0.0027735415680007962 0.036046734755763948 0 0.0025408630909304055 0.036112588239496611 0 0.0027918620887739509 0.035805433824254038 0 0.002637629777640356 0.03550048552428043 0 0.0027918620887739509 0.035805433824254038 0 0.0024431453931168666 0.035856393023330095 0 0.0022661046079096936 0.035522384437699485 0 0.0021260867012868603 0.035921482995521295 0 0.0024431453931168666 0.035856393023330095 0 0.0021260867012868603 0.035921482995521295 0 0.0022646326146597041 0.036255280866672943 0 0.0024431453931168666 0.035856393023330095 0 0.0022661046079096936 0.035522384437699485 0 0.002637629777640356 0.03550048552428043 0 0.0024431453931168666 0.035856393023330095 0 0.0030520193367676979 0.035554065257432481 0 0.0029907381276413612 0.035775196644552927 0 0.0031838257276475199 0.035953121908828885 0 0.0030520193367676979 0.035554065257432481 0 0.0027918620887739509 0.035805433824254038 0 0.0029907381276413612 0.035775196644552927 0 0.0027735415680007962 0.036046734755763948 0 0.0029579667698947558 0.035860223535602753 0 0.0031838257276475199 0.035953121908828885 0 0.0027918620887739509 0.035805433824254038 0 0.0029907381276413612 0.035775196644552927 0 0.0029579667698947558 0.035860223535602753 0 0.0029907381276413612 0.035775196644552927 0 0.0029579667698947558 0.035860223535602753 0 0.0031838257276475199 0.035953121908828885 0 0.0011388551594149849 0.039961911096889104 0 0.00034368973767528289 0.039439886186628817 0 0.00088127595495444337 0.038830143127325974 0 -0.00050437258618284977 0.035126793888488592 0 0.0025871112250995961 0.03856661668647092 0 0.00088127595495444337 0.038830143127325974 0 0.00073458583389612365 0.038136682357277338 0 3.759769851624288e-05 0.03900842779491364 0 0.00034368973767528289 0.039439886186628817 0 0.00088127595495444337 0.038830143127325974 0 3.759769851624288e-05 0.03900842779491364 0 0.0011388551594149849 0.039961911096889104 0 0.00088127595495444337 0.038830143127325974 0 0.0019262157431966082 0.037537679741114514 0 0.00088127595495444337 0.038830143127325974 0 0.00073458583389612365 0.038136682357277338 0 0.0019262157431966082 0.037537679741114514 0 0.00073458583389612365 0.038136682357277338 0 0.0009862208588230731 0.03743964853761101 0 -1.7512133555418969e-06 0.037587308611317309 0 0.00073458583389612365 0.038136682357277338 0 0.0009862208588230731 0.03743964853761101 0 0.0019262157431966082 0.037537679741114514 0 0.0009862208588230731 0.03743964853761101 0 0.0019262157431966082 0.037537679741114514 0 0.0016144441177887523 0.037127022903852232 0 0.0019262157431966082 0.037537679741114514 0 0.0016144441177887523 0.037127022903852232 0 0.0019959946826404017 0.037249621097688139 0 0.0020018586072561512 0.037043579727308158 0 0.0019262157431966082 0.037537679741114514 0 0.0019959946826404017 0.037249621097688139 0 0.0016144441177887523 0.037127022903852232 0 0.00047048694092564073 0.036765734539910444 0 0.0016495271651028871 0.036406922994342478 0 0.0016144441177887523 0.037127022903852232 0 0.0019959946826404017 0.037249621097688139 0 0.0022850452010494053 0.037051641774073912 0 0.0016144441177887523 0.037127022903852232 0 0.0022850452010494053 0.037051641774073912 0 0.0016495271651028871 0.036406922994342478 0 0.0009862208588230731 0.03743964853761101 0 0.0016144441177887523 0.037127022903852232 0 0.00047048694092564073 0.036765734539910444 0 0.0009862208588230731 0.03743964853761101 0 0.00047048694092564073 0.036765734539910444 0 -1.7512133555418969e-06 0.037587308611317309 0 0.0012862204918242814 0.036919894951301331 0 0.0016561327568662416 0.036941639058614702 0 0.0015598858277620577 0.037262253585926532 0 0.0012862204918242814 0.036919894951301331 0 0.001332157163954621 0.036704460911771826 0 0.0016561327568662416 0.036941639058614702 0 0.0018695451221266148 0.036892797040368339 0 0.0016561327568662416 0.036941639058614702 0 0.0019470298975492442 0.037122255214743341 0 0.0016561327568662416 0.036941639058614702 0 0.0019470298975492442 0.037122255214743341 0 0.0015598858277620577 0.037262253585926532 0 0.0018695451221266148 0.036892797040368339 0 0.0019470298975492442 0.037122255214743341 0 0.0019959946826404017 0.037249621097688139 0 0.0018695451221266148 0.036892797040368339 0 0.0020018586072561512 0.037043579727308158 0 0.0019959946826404017 0.037249621097688139 0 0.0019470298975492442 0.037122255214743341 0 0.0019959946826404017 0.037249621097688139 0 0.0022850452010494053 0.037051641774073912 0 0.0022549905180831147 0.037084234071083667 0 0.0024388639212211522 0.037310681413171114 0 0.0022850452010494053 0.037051641774073912 0 0.0030603350922647596 0.036984193847047001 0 0.0033928201288792614 0.037446738154422655 0 0.0019470298975492442 0.037122255214743341 0 0.0022850452010494053 0.037051641774073912 0 0.0015598858277620577 0.037262253585926532 0 0.0035606138569120702 0.037245773340538101 0 0.0035997894024700945 0.036979332343013503 0 0.0030603350922647596 0.036984193847047001 0 0.0035606138569120702 0.037245773340538101 0 0.0030603350922647596 0.036984193847047001 0 0.0033928201288792614 0.037446738154422655 0 0.0035997894024700945 0.036979332343013503 0 0.0030603350922647596 0.036984193847047001 0 0.0029825724863998594 0.036099912535070361 0 0.0045540737674947514 0.037289479016018305 0 0.0042701432967794956 0.036059705718569084 0 0.0029825724863998594 0.036099912535070361 0 0.0040020871836880132 0.037066227109258838 0 0.0030465233079245749 0.03617455726331964 0 0.0022850452010494053 0.037051641774073912 0 0.0029825724863998594 0.036099912535070361 0 0.0016495271651028871 0.036406922994342478 0 0.0022850452010494053 0.037051641774073912 0 0.0030603350922647596 0.036984193847047001 0 0.0029825724863998594 0.036099912535070361 0 0.0029825724863998594 0.036099912535070361 0 0.0038988092181545426 0.034999739256028305 0 0.0019716080946448077 0.035000034098395985 0 0.0029825724863998594 0.036099912535070361 0 0.0016495271651028871 0.036406922994342478 0 0.0019716080946448077 0.035000034098395985 0 0.0042701432967794956 0.036059705718569084 0 0.0029825724863998594 0.036099912535070361 0 0.0038988092181545426 0.034999739256028305 0 0.00047048694092564073 0.036765734539910444 0 0.0016495271651028871 0.036406922994342478 0 0.00068317091232017436 0.035873144395123853 0 0.00047048694092564073 0.036765734539910444 0 0.00068317091232017436 0.035873144395123853 0 -0.00066546973865070302 0.036010599479812569 0 0.0016495271651028871 0.036406922994342478 0 0.0019716080946448077 0.035000034098395985 0 0.00068317091232017436 0.035873144395123853 0 0.0019716080946448077 0.035000034098395985 0 0.00068317091232017436 0.035873144395123853 0 4.4078011612755849e-05 0.034999807349413735 0 4.4078011612755849e-05 0.034999807349413735 0 -0.00066546973865070302 0.036010599479812569 0 -0.0018836642066499482 0.034999806855954371 0 0.00068317091232017436 0.035873144395123853 0 4.4078011612755849e-05 0.034999807349413735 0 -0.00066546973865070302 0.036010599479812569 0 0.00047048694092564073 0.036765734539910444 0 -0.00066546973865070302 0.036010599479812569 0 -0.00089645705485670742 0.037041664438736188 0 -0.00066546973865070302 0.036010599479812569 0 -0.0020056264040947207 0.036418644450905951 0 -0.00089645705485670742 0.037041664438736188 0 -0.00066546973865070302 0.036010599479812569 0 -0.0020056264040947207 0.036418644450905951 0 -0.0018836642066499482 0.034999806855954371 0 -0.0020056264040947207 0.036418644450905951 0 -0.0018836642066499482 0.034999806855954371 0 -0.0032187082992462005 0.036021008826196077 0 -0.0018836642066499482 0.034999806855954371 0 -0.0038114793740298149 0.034999879240970123 0 -0.0032187082992462005 0.036021008826196077 0 -0.0038114793740298149 0.034999879240970123 0 -0.0042852484634245697 0.035887692999569808 0 -0.0032187082992462005 0.036021008826196077 0 -0.0032187082992462005 0.036021008826196077 0 -0.0041256058786901363 0.036526715619125724 0 -0.0031483097073094369 0.037083946950987212 0 -0.0042852484634245697 0.035887692999569808 0 -0.0032187082992462005 0.036021008826196077 0 -0.0041256058786901363 0.036526715619125724 0 -0.0020056264040947207 0.036418644450905951 0 -0.0032187082992462005 0.036021008826196077 0 -0.0031483097073094369 0.037083946950987212 0 -0.0020055720867981656 0.037507529450781125 0 -0.0031483097073094369 0.037083946950987212 0 -0.0029900736299601611 0.038395892653878903 0 -0.0020056264040947207 0.036418644450905951 0 -0.0020055720867981656 0.037507529450781125 0 -0.0031483097073094369 0.037083946950987212 0 -0.0031483097073094369 0.037083946950987212 0 -0.0036593617323674374 0.037569389554423044 0 -0.0029900736299601611 0.038395892653878903 0 -0.0041256058786901363 0.036526715619125724 0 -0.0040629277611353761 0.037173632237951462 0 -0.0031483097073094369 0.037083946950987212 0 -0.0040629277611353761 0.037173632237951462 0 -0.0031483097073094369 0.037083946950987212 0 -0.0036593617323674374 0.037569389554423044 0 -0.0040629277611353761 0.037173632237951462 0 -0.0036593617323674374 0.037569389554423044 0 -0.0042187943056114846 0.037738391411187122 0 -0.0029900736299601611 0.038395892653878903 0 -0.0042187943056114846 0.037738391411187122 0 -0.0047988432691792281 0.038139316768356649 0 -0.0039692171413661147 0.036998124834055679 0 -0.0056762025182146049 0.03736316182647377 0 -0.0062874664675839605 0.036562687205662525 0 -0.0036593617323674374 0.037569389554423044 0 -0.0029900736299601611 0.038395892653878903 0 -0.0042187943056114846 0.037738391411187122 0 -0.0039692171413661147 0.036998124834055679 0 -0.0056762025182146049 0.03736316182647377 0 -0.0044980567390510463 0.037850406570554294 0 -0.0034210284241897328 0.037710880035104054 0 -0.0058476122997805895 0.037208118397363238 0 -0.0020055720867981656 0.037507529450781125 0 -0.0029900736299601611 0.038395892653878903 0 -0.0010701089050939531 0.038444672331533744 0 -0.0039692171413661147 0.036998124834055679 0 -0.0016016863469732572 0.037487643191940416 0 -0.003498369542200602 0.038329700015714736 0 -0.0034210284241897328 0.037710880035104054 0 -0.0013563427615350125 0.037949799821484616 0 0.00073458583389612365 0.038136682357277338 0 -0.0010701089050939531 0.038444672331533744 0 -1.7512133555418969e-06 0.037587308611317309 0 0.00057415042387085936 0.038147503075271559 0 -0.0013563427615350125 0.037949799821484616 0 -0.0010701089050939531 0.038444672331533744 0 -1.7512133555418969e-06 0.037587308611317309 0 -0.00089645705485670742 0.037041664438736188 0 0.00047048694092564073 0.036765734539910444 0 -1.7512133555418969e-06 0.037587308611317309 0 -0.00089645705485670742 0.037041664438736188 0 -0.0020055720867981656 0.037507529450781125 0 -0.0010701089050939531 0.038444672331533744 0 -0.00089645705485670742 0.037041664438736188 0 -0.0020056264040947207 0.036418644450905951 0 -0.0020055720867981656 0.037507529450781125 0 -0.00089645705485670742 0.037041664438736188 0 -0.0084219518225786914 0.036014730583401849 0 -0.0079671320848232596 0.037061059878213232 0 -0.0088353843247619916 0.036752616181882497 0 -0.0084219518225786914 0.036014730583401849 0 -0.007033697113884841 0.035970805484597149 0 -0.0079671320848232596 0.037061059878213232 0 -0.0084219518225786914 0.036014730583401849 0 -0.007667569994554633 0.034999988658371603 0 -0.009087311359871425 0.03499994733876876 0 -0.0076672600021828498 0.035000017225197251 0 -0.0068404372450982451 0.036076309315763798 0 -0.0061688104035210025 0.035726978728173063 0 -0.0084219518225786914 0.036014730583401849 0 -0.007667569994554633 0.034999988658371603 0 -0.007033697113884841 0.035970805484597149 0 -0.0076670231164890461 0.035000253570670915 0 -0.0069395259723883454 0.036020983871729209 0 -0.007033697113884841 0.035970805484597149 0 -0.0062855175168956088 0.036952772496629767 0 -0.0079671320848232596 0.037061059878213232 0 -0.0060223211808753266 0.037005637367051251 0 -0.0052421385901394793 0.035566457447495509 0 -0.0059981120275832368 0.037200995593523932 0 -0.0061688104035210025 0.035726978728173063 0 -0.0052519978836546993 0.035482901883098293 0 -0.0057449101074042068 0.036883804330234964 0 -0.0052519978836546993 0.035482901883098293 0 -0.0050006619694281142 0.036331277558330974 0 -0.0068404372450982451 0.036076309315763798 0 -0.0059981120275832368 0.037200995593523932 0 -0.0061688104035210025 0.035726978728173063 0 -0.0069395259723883454 0.036020983871729209 0 -0.0060223211808753266 0.037005637367051251 0 -0.0076672600021828498 0.035000017225197251 0 -0.0061688104035210025 0.035726978728173063 0 -0.005739242276275573 0.034999930970339294 0 -0.0061688104035210025 0.035726978728173063 0 -0.005739242276275573 0.034999930970339294 0 -0.0052519978836546993 0.035482901883098293 0 -0.0038114793740298149 0.034999879240970123 0 -0.005739242276275573 0.034999930970339294 0 -0.0052519978836546993 0.035482901883098293 0 -0.0042852484634245697 0.035887692999569808 0 -0.0052519978836546993 0.035482901883098293 0 -0.0050006619694281142 0.036331277558330974 0 -0.0038114793740298149 0.034999879240970123 0 -0.0042852484634245697 0.035887692999569808 0 -0.0052519978836546993 0.035482901883098293 0 -0.0042852484634245697 0.035887692999569808 0 -0.0041256058786901363 0.036526715619125724 0 -0.0050006619694281142 0.036331277558330974 0 -0.0057449101074042068 0.036883804330234964 0 -0.0050006619694281142 0.036331277558330974 0 -0.0047519675494324528 0.036803704444565037 0 -0.0041256058786901363 0.036526715619125724 0 -0.0050006619694281142 0.036331277558330974 0 -0.0047519675494324528 0.036803704444565037 0 -0.0041256058786901363 0.036526715619125724 0 -0.0040629277611353761 0.037173632237951462 0 -0.0047519675494324528 0.036803704444565037 0 -0.0057449101074042068 0.036883804330234964 0 -0.0047519675494324528 0.036803704444565037 0 -0.0047445752033180915 0.037279350628933422 0 -0.0057449101074042068 0.036883804330234964 0 -0.0048514456879900523 0.037571764655376948 0 -0.0047988432691792281 0.038139316768356649 0 -0.0057449101074042068 0.036883804330234964 0 -0.0047445752033180915 0.037279350628933422 0 -0.0048514456879900523 0.037571764655376948 0 -0.0040629277611353761 0.037173632237951462 0 -0.0047519675494324528 0.036803704444565037 0 -0.0047445752033180915 0.037279350628933422 0 -0.0048514456879900523 0.037571764655376948 0 -0.0042187943056114846 0.037738391411187122 0 -0.0047988432691792281 0.038139316768356649 0 -0.0047445752033180915 0.037279350628933422 0 -0.0048514456879900523 0.037571764655376948 0 -0.0042187943056114846 0.037738391411187122 0 -0.0040629277611353761 0.037173632237951462 0 -0.0047445752033180915 0.037279350628933422 0 -0.0042187943056114846 0.037738391411187122 0 -0.0060888712433903531 0.037079492528819306 0 -0.0056762025182146049 0.03736316182647377 0 -0.0062930151235486851 0.036541634250221583 0 -0.0059030166060573116 0.037086480712499453 0 -0.0058476122997805895 0.037208118397363238 0 -0.0060888712433903531 0.037079492528819306 0 -0.0060062662580342733 0.037568014550151498 0 -0.0056762025182146049 0.03736316182647377 0 -0.0060888712433903531 0.037079492528819306 0 -0.0060062662580342733 0.037568014550151498 0 -0.006165731673133024 0.037722213382692049 0 -0.0060888712433903531 0.037079492528819306 0 -0.0070140636171937519 0.037099028576347462 0 -0.006165731673133024 0.037722213382692049 0 -0.0068494501181715888 0.035479611115936768 0 -0.0065446674744808432 0.033889981915908279 0 -0.0062914697424720136 0.037087575854068563 0 -0.0062820753169089529 0.037092300186484746 0 -0.0062862681376133723 0.037081707332135859 0 -0.0060888712433903531 0.037079492528819306 0 -0.0062930151235486851 0.036541634250221583 0 -0.0070140636171937519 0.037099028576347462 0 -0.0058476122997805895 0.037208118397363238 0 -0.0068494501181715888 0.035479611115936768 0 -0.0058476122997805895 0.037208118397363238 0 -0.0063859044177350692 0.037080523061388669 0 -0.0078133335832260321 0.035569858127947038 0 -0.0068073368356719099 0.036308947514396617 0 -0.0067517146724872593 0.035126141155250624 0 -0.0068494501181715888 0.035479611115936768 0 -0.0068020328322343461 0.037729343970327615 0 -0.0062820753169089529 0.037092300186484746 0 -0.0062862681376133723 0.037081707332135859 0 -0.0062787245856204153 0.037094897384180779 0 -0.0060223211808753266 0.037005637367051251 0 -0.0058476122997805895 0.037208118397363238 0 -0.0062801800092986216 0.037097778786417741 0 -0.0062811344353269054 0.037092112475469056 0 -0.0062820753169089529 0.037092300186484746 0 -0.0060223211808753266 0.037005637367051251 0 -0.0068020328322343461 0.037729343970327615 0 -0.0062801800092986216 0.037097778786417741 0 -0.0062820753169089529 0.037092300186484746 0 -0.0062787245856204153 0.037094897384180779 0 -0.0069498650778418228 0.037829971030544911 0 -0.0080687119577559033 0.038251041698936832 0 -0.0079671320848232596 0.037061059878213232 0 -0.0068020328322343461 0.037729343970327615 0 -0.0078903507274639458 0.037155899857565095 0 -0.0062855175168956088 0.036952772496629767 0 -0.0067265262995942843 0.037973128101919072 0 -0.0079671320848232596 0.037061059878213232 0 -0.0069498650778418228 0.037829971030544911 0 -0.0080687119577559033 0.038251041698936832 0 -0.0076359006624341051 0.039369063613829636 0 -0.0068073368356719099 0.036308947514396617 0 -0.0060830363579935697 0.034389420267313363 0 -0.0067517146724872593 0.035126141155250624 0 -0.0068020328322343461 0.037729343970327615 0 -0.0072454811018357792 0.03390936855019764 0 -0.0080687119577559033 0.038251041698936832 0 -0.0092794744868177001 0.037646709866994178 0 -0.00891586105581171 0.038419136805963677 0 -0.0080687119577559033 0.038251041698936832 0 -0.0082619090842458963 0.038926599894117501 0 -0.00891586105581171 0.038419136805963677 0 -0.0079671320848232596 0.037061059878213232 0 -0.0092794744868177001 0.037646709866994178 0 -0.0088353843247619916 0.036752616181882497 0 -0.0080687119577559033 0.038251041698936832 0 -0.0079671320848232596 0.037061059878213232 0 -0.0092794744868177001 0.037646709866994178 0 -0.0083456892714616985 0.024624072735505591 0 -0.0074059518278459238 0.024645119543832025 0 -0.0051813472269433558 0.021179868929679158 0 -0.0064297190832353921 0.027228546873676526 0 -0.0046595411153690152 0.020210305336010318 0 -0.0064297190832353921 0.027228546873676526 0 -0.0072918304757445245 0.029246969751618404 0 -0.0083659262016086075 0.031254873719605412 0 -0.0086081834670886717 0.030977610240728155 0 -0.0090627154945274076 0.031287882638550944 0 -0.0068810655719812866 0.030431550610390479 0 -0.0058937812304045859 0.030452900661299052 0 -0.007198964138497882 0.03135152208942054 0 -0.0072918304757445245 0.029246969751618404 0 -0.0080851721567592183 0.033062872192538006 0 -0.0083659262016086075 0.031254873719605412 0 -0.0086081834670886717 0.030977610240728155 0 -0.0078359451486140191 0.030977158416659101 0 -0.0072918304757445245 0.029246969751618404 0 -0.0082397512293088705 0.030555605037578086 0 -0.0080687119577559033 0.038251041698936832 0 -0.0082619090842458963 0.038926599894117501 0 -0.0076359006624341051 0.039369063613829636 0 -0.0080851721567592183 0.033062872192538006 0 -0.0082458893393520562 0.035688641685939701 0 -0.0083659262016086075 0.031254873719605412 0 -0.0090627154945274076 0.031287882638550944 0 -0.0079496230886010339 0.031772702766091426 0 -0.0082619090842458963 0.038926599894117501 0 -0.007964124861945367 0.039544449288972099 0 -0.0090136745398716536 0.039161557130537678 0 -0.0082619090842458963 0.038926599894117501 0 -0.0090136745398716536 0.039161557130537678 0 -0.00891586105581171 0.038419136805963677 0 -0.0082619090842458963 0.038926599894117501 0 -0.007964124861945367 0.039544449288972099 0 -0.0076359006624341051 0.039369063613829636 0 -0.0068073368356719099 0.036308947514396617 0 -0.0059442185795400646 0.034236682032824602 0 -0.0060830363579935697 0.034389420267313363 0 -0.0080851721567592183 0.033062872192538006 0 -0.0072454811018357792 0.03390936855019764 0 -0.0072454811018357792 0.03390936855019764 0 -0.0061816227624503731 0.031636280084481348 0 -0.0072454811018357792 0.03390936855019764 0 -0.0063913297227293428 0.033372832513387976 0 -0.0063913297227293428 0.033372832513387976 0 -0.0068454613068144095 0.034988083439025507 0 -0.0058294174677738916 0.031288247913941324 0 -0.0059468025863262707 0.031420703862140624 0 -0.0067558887802182188 0.030716600487070915 0 -0.0053569017535780167 0.030753142977187477 0 -0.0056787290076155683 0.030912643894527823 0 -0.0067558887802182188 0.030716600487070915 0 -0.0058294174677738916 0.031288247913941324 0 -0.0056787290076155683 0.030912643894527823 0 -0.0067558887802182188 0.030716600487070915 0 -0.0064994811313486729 0.025345685128385372 0 -0.0059248686151317873 0.01904857170389597 0 -0.0063052422437936025 0.022798204331238001 0 -0.0087841224202198954 0.022742171022192545 0 -0.0068834677233178664 0.020782150491752846 0 -0.0064297190832353921 0.027228546873676526 0 -0.0064994811313486729 0.025345685128385372 0 -0.0064297190832353921 0.027228546873676526 0 -0.0072454811018357792 0.03390936855019764 0 -0.0068810655719812866 0.030431550610390479 0 -0.007198964138497882 0.03135152208942054 0 -0.0082321505741109018 0.031924317891952339 0 -0.0053569017535780167 0.030753142977187477 0 -0.0058389201776996745 0.031289254307880682 0 -0.0056787290076155683 0.030912643894527823 0 -0.0074283569068194655 0.032457468562381117 0 -0.0067558887802182188 0.030716600487070915 0 -0.0080153378757394471 0.032022016091589237 0 -0.0078133335832260321 0.035569858127947038 0 -0.0060766496290785704 0.034386152631172298 0 -0.0067517146724872593 0.035126141155250624 0 -0.0074283569068194655 0.032457468562381117 0 -0.0059468025863262707 0.031420703862140624 0 -0.0067558887802182188 0.030716600487070915 0 -0.0064994811313486729 0.025345685128385372 0 -0.0065446674744808432 0.033889981915908279 0 -0.0068494501181715888 0.035479611115936768 0 -0.0063913297227293428 0.033372832513387976 0 -0.0053912895122016297 0.029021298002566066 0 -0.0058348104374960647 0.029526876466983019 0 -0.0059370336305617959 0.029036187065171467 0 -0.0058348104374960647 0.029526876466983019 0 -0.0059370336305617959 0.029036187065171467 0 -0.0061452719966469532 0.029275511237078732 0 -0.0060062662580342733 0.037568014550151498 0 -0.006164806516535894 0.037721108667921173 0 -0.0048383516188531626 0.038713346051451117 0 -0.0067604205649099882 0.034349993235038623 0 -0.0065446674744808432 0.033889981915908279 0 -0.0064994811313486729 0.025345685128385372 0 -0.0065860168327848403 0.023455146624801658 0 -0.0059814507611054973 0.019284240826699696 0 -0.0069261613706129857 0.01915927104007634 0 -0.0065243491790694576 0.018684232871224716 0 -0.0065243491790694576 0.018684232871224716 0 -0.0067383902664728016 0.018054504656572368 0 -0.0074564751515849318 0.018418587871492788 0 -0.0069261613706129857 0.01915927104007634 0 -0.0065243491790694576 0.018684232871224716 0 -0.0074564751515849318 0.018418587871492788 0 -0.0067383902664728016 0.018054504656572368 0 -0.0072172991439388347 0.01783163799945793 0 -0.0068057429061937885 0.01745553170615707 0 -0.0067383902664728016 0.018054504656572368 0 -0.0062689627107484873 0.017609104195261068 0 -0.0068057429061937885 0.01745553170615707 0 -0.0067383902664728016 0.018054504656572368 0 -0.0062689627107484873 0.017609104195261068 0 -0.0059858416115290925 0.018200141159994954 0 -0.0062689627107484873 0.017609104195261068 0 -0.0059858416115290925 0.018200141159994954 0 -0.0054896445274625087 0.017497284372923638 0 -0.0065243491790694576 0.018684232871224716 0 -0.0067383902664728016 0.018054504656572368 0 -0.0059858416115290925 0.018200141159994954 0 -0.0059814507611054973 0.019284240826699696 0 -0.0065243491790694576 0.018684232871224716 0 -0.0059858416115290925 0.018200141159994954 0 -0.0059814507611054973 0.019284240826699696 0 -0.0059858416115290925 0.018200141159994954 0 -0.005189521680782112 0.018584295112508996 0 -0.0059858416115290925 0.018200141159994954 0 -0.005189521680782112 0.018584295112508996 0 -0.0054896445274625087 0.017497284372923638 0 -0.0059248686151317873 0.01904857170389597 0 -0.0046258009298557456 0.018378174397825298 0 -0.005189521680782112 0.018584295112508996 0 -0.0054896445274625087 0.017497284372923638 0 -0.0042334621252181027 0.01776954323255019 0 -0.0054896445274625087 0.017497284372923638 0 -0.0042334621252181027 0.01776954323255019 0 -0.0046656177042959084 0.016873632071937452 0 -0.0068834677233178664 0.020782150491752846 0 -0.0049773910442604619 0.018823394594557095 0 -0.0042383337983592055 0.020495593691533514 0 -0.0063052422437936025 0.022798204331238001 0 -0.0068834677233178664 0.020782150491752846 0 -0.0042383337983592055 0.020495593691533514 0 -0.0024556993588472496 0.03512809870479975 0 -0.0055492146628100146 0.029074419722681887 0 -0.0055492146628100146 0.029074419722681887 0 -0.0072706461534246744 0.022680046428329992 0 -0.0041093194780697628 0.029312693853466885 0 -0.0046299651853088774 0.02927903077033692 0 -0.0042026719163334491 0.029559193822897133 0 -0.0011392181209665044 0.039844062790176021 0 -0.0021635043082988427 0.03880580337965471 0 -0.0035031541201948763 0.039704613066544242 0 -0.0036408464947051741 0.029371869120021096 0 -0.0041093194780697628 0.029312693853466885 0 -0.003878486608064623 0.029489354394387185 0 0.00034368973767528289 0.039439886186628817 0 -0.0011392181209665044 0.039844062790176021 0 3.759769851624288e-05 0.03900842779491364 0 0.0011388551594149849 0.039961911096889104 0 0.00034368973767528289 0.039439886186628817 0 -0.0011392181209665044 0.039844062790176021 0 -0.00050437258618284977 0.035126793888488592 0 -0.0024556993588472496 0.03512809870479975 0 0.00073458583389612365 0.038136682357277338 0 -0.0016016863469732572 0.037487643191940416 0 -0.00088888819146095072 0.038646617433653982 0 -0.0011392181209665044 0.039844062790176021 0 -0.00088888819146095072 0.038646617433653982 0 3.759769851624288e-05 0.03900842779491364 0 0.00073458583389612365 0.038136682357277338 0 -0.00088888819146095072 0.038646617433653982 0 3.759769851624288e-05 0.03900842779491364 0 -0.0016016863469732572 0.037487643191940416 0 -0.00088888819146095072 0.038646617433653982 0 -0.0021635043082988427 0.03880580337965471 0 -0.0016016863469732572 0.037487643191940416 0 -0.0021635043082988427 0.03880580337965471 0 -0.003498369542200602 0.038329700015714736 0 -0.0011392181209665044 0.039844062790176021 0 -0.00088888819146095072 0.038646617433653982 0 -0.0021635043082988427 0.03880580337965471 0 -0.0039692171413661147 0.036998124834055679 0 -0.003498369542200602 0.038329700015714736 0 -0.0044980567390510463 0.037850406570554294 0 -0.003498369542200602 0.038329700015714736 0 -0.0048383516188531626 0.038713346051451117 0 -0.0035031541201948763 0.039704613066544242 0 -0.0021635043082988427 0.03880580337965471 0 -0.003498369542200602 0.038329700015714736 0 -0.0035031541201948763 0.039704613066544242 0 -0.0056762025182146049 0.03736316182647377 0 -0.0044980567390510463 0.037850406570554294 0 -0.0048383516188531626 0.038713346051451117 0 -0.0060062662580342733 0.037568014550151498 0 -0.0056762025182146049 0.03736316182647377 0 -0.0048383516188531626 0.038713346051451117 0 -0.0065446674744808432 0.033889981915908279 0 -0.0049785532422693003 0.034440985156271205 0 -0.003498369542200602 0.038329700015714736 0 -0.0044980567390510463 0.037850406570554294 0 -0.0048383516188531626 0.038713346051451117 0 -0.0059370336305617959 0.029036187065171467 0 -0.0061452719966469532 0.029275511237078732 0 -0.0064433535013337755 0.029043300169431061 0 -0.0069261613706129857 0.01915927104007634 0 -0.0076948493014777335 0.019071925279798955 0 -0.0074564751515849318 0.018418587871492788 0 -0.0065860168327848403 0.023455146624801658 0 -0.0055492146628100146 0.029074419722681887 0 -0.0049785532422693003 0.034440985156271205 0 -0.0055492146628100146 0.029074419722681887 0 -0.0076948493014777335 0.019071925279798955 0 -0.0074564751515849318 0.018418587871492788 0 -0.0082329759675001547 0.018557248101773529 0 -0.0074564751515849318 0.018418587871492788 0 -0.008075113400521956 0.018139463593115242 0 -0.0082329759675001547 0.018557248101773529 0 -0.0067383902664728016 0.018054504656572368 0 -0.0074564751515849318 0.018418587871492788 0 -0.0072172991439388347 0.01783163799945793 0 -0.0074564751515849318 0.018418587871492788 0 -0.0072172991439388347 0.01783163799945793 0 -0.0077289129150293233 0.017823446628347107 0 -0.0074564751515849318 0.018418587871492788 0 -0.0077289129150293233 0.017823446628347107 0 -0.008075113400521956 0.018139463593115242 0 -0.008075113400521956 0.018139463593115242 0 -0.0082329759675001547 0.018557248101773529 0 -0.0083236920015721198 0.01815641031199593 0 -0.0077289129150293233 0.017823446628347107 0 -0.008075113400521956 0.018139463593115242 0 -0.0082791052404008556 0.017965316009586833 0 -0.008075113400521956 0.018139463593115242 0 -0.0083236920015721198 0.01815641031199593 0 -0.0082791052404008556 0.017965316009586833 0 -0.003814099865300426 0.029809615170133363 0 -0.0042026719163334491 0.029559193822897133 0 -0.003878486608064623 0.029489354394387185 0 -0.0041093194780697628 0.029312693853466885 0 -0.0042026719163334491 0.029559193822897133 0 -0.003878486608064623 0.029489354394387185 0 -0.0029188325260269517 0.027236687921048514 0 -0.0072706461534246744 0.022680046428329992 0 -0.0085404371824922744 0.018243478678506724 0 -0.0082329759675001547 0.018557248101773529 0 -0.0083236920015721198 0.01815641031199593 0 -0.0029188325260269517 0.027236687921048514 0 -0.0041536668544264197 0.021568194594837036 0 -0.0085404371824922744 0.018243478678506724 0 -0.0083236920015721198 0.01815641031199593 0 -0.0084503253645984155 0.017968881508805566 0 -0.0058497411079641171 0.019444099846657056 0 -0.0058154984746605354 0.019510974193445774 0 -0.0058525842122885991 0.01956432490171137 0 -0.0024244391241575415 0.021920349147495147 0 -0.0026698553324565519 0.021627099765655022 0 -0.0028430715367348345 0.022158614820001237 0 -0.0057631537510732496 0.019469381509314435 0 -0.0058154984746605354 0.019510974193445774 0 -0.0057967985100574795 0.019565247077214343 0 -0.0041536668544264197 0.021568194594837036 0 -0.003964468778923068 0.020255909826828698 0 -0.0083236920015721198 0.01815641031199593 0 -0.0084503253645984155 0.017968881508805566 0 -0.0082791052404008556 0.017965316009586833 0 -0.0041536668544264197 0.021568194594837036 0 -0.0080460570391541007 0.018145246031596167 0 -0.0057631537510732496 0.019469381509314435 0 -0.0058497411079641171 0.019444099846657056 0 -0.0058154984746605354 0.019510974193445774 0 -0.007959404934170921 0.017730178905918492 0 -0.0080460570391541007 0.018145246031596167 0 -0.0087356712405216481 0.017582458511959494 0 -0.0084803302186210548 0.017222863453065909 0 -0.0086630885492396392 0.016837674057636538 0 -0.0077289129150293233 0.017823446628347107 0 -0.0087356712405216481 0.017582458511959494 0 -0.0080475714998835962 0.017282865592486717 0 -0.0080460570391541007 0.018145246031596167 0 -0.006708239853089052 0.018206200160375767 0 -0.0087356712405216481 0.017582458511959494 0 -0.0084803302186210548 0.017222863453065909 0 -0.0080475714998835962 0.017282865592486717 0 -0.0084803302186210548 0.017222863453065909 0 -0.0083352241809850451 0.016815331954347802 0 -0.0080475714998835962 0.017282865592486717 0 -0.0084803302186210548 0.017222863453065909 0 -0.0086630885492396392 0.016837674057636538 0 -0.0083352241809850451 0.016815331954347802 0 -0.0091240209481302827 0.015953499398130865 0 -0.0088199515987473828 0.016011069838575635 0 -0.0089004090036761893 0.015580940112761498 0 -0.0066936012920028884 0.017411896391040012 0 -0.0085476442667884716 0.01677700351588049 0 -0.0065115684512507752 0.01717842246524769 0 -0.006547136070508424 0.017642639383022282 0 -0.0084285829544084503 0.017291258029091643 0 -0.006708239853089052 0.018206200160375767 0 -0.0085476442667884716 0.01677700351588049 0 -0.006708239853089052 0.018206200160375767 0 -0.0066936012920028884 0.017411896391040012 0 -0.0021394153664373427 0.022117290308656286 0 -0.0028545335175720874 0.022106979093351162 0 -0.0028962660728808188 0.02223531118036344 0 -0.0058154984746605354 0.019510974193445774 0 -0.0058525842122885991 0.01956432490171137 0 -0.0057967985100574795 0.019565247077214343 0 -0.006708239853089052 0.018206200160375767 0 -0.003964468778923068 0.020255909826828698 0 -0.0059421814340363038 0.018336950974410227 0 -0.0039139768120545933 0.0182192411341019 0 -0.0042238951468180205 0.019185033320314196 0 -0.003964468778923068 0.020255909826828698 0 -0.0034915603591499393 0.018333784644643605 0 -0.0066936012920028884 0.017411896391040012 0 -0.0034915603591499393 0.018333784644643605 0 -0.0059421814340363038 0.018336950974410227 0 -0.0059820315590453079 0.018857062798502529 0 -0.0042238951468180205 0.019185033320314196 0 -0.0065349688861427255 0.017479914548394974 0 -0.0048653062728575037 0.012194696898099678 0 -0.0044819561297456643 0.012290080003041425 0 -0.0048929546912694346 0.017783943336842432 0 -0.0065349688861427255 0.017479914548394974 0 -0.0044819561297456643 0.012290080003041425 0 -0.0022861278089889451 0.01571483108437902 0 -0.0026239789368793019 0.015195722991394808 0 -0.0027618641078649545 0.015584286879507572 0 -0.0034915603591499393 0.018333784644643605 0 -0.0042096647991217619 0.011741149294664101 0 -0.0091240209481302827 0.015953499398130865 0 -0.0089004090036761893 0.015580940112761498 0 -0.00905973586632851 0.01506840987464352 0 -0.0066936012920028884 0.017411896391040012 0 -0.0074007689501347151 0.012190050571257185 0 -0.0088199515987473828 0.016011069838575635 0 -0.0089004090036761893 0.015580940112761498 0 -0.0085304598367335633 0.015601114818277379 0 -0.0089004090036761893 0.015580940112761498 0 -0.00905973586632851 0.01506840987464352 0 -0.0085304598367335633 0.015601114818277379 0 -0.0127572484003827 0.012509288245720344 0 -0.011242077859575209 0.011794687548017919 0 -0.012081307476529727 0.011504624172683438 0 -0.0042096647991217619 0.011741149294664101 0 -0.0074007689501347151 0.012190050571257185 0 -0.0042096647991217619 0.011741149294664101 0 -0.0050476869902230589 0.0073466325972137304 0 -0.0069886260039574728 0.012710709672908863 0 -0.0057326453416009244 0.013022552706118214 0 -0.0053032631010331635 0.0074320622243587153 0 -0.0074007689501347151 0.012190050571257185 0 -0.0050476869902230589 0.0073466325972137304 0 -0.0127572484003827 0.012509288245720344 0 -0.012721359765220441 0.011923257436073639 0 -0.012081307476529727 0.011504624172683438 0 -0.0019623324685499586 0.0092665277627419895 0 -0.0042096647991217619 0.011741149294664101 0 -0.0023343890619499852 0.0032518328324547766 0 -0.002051028207990965 0.0034909664952964387 0 -0.0021845227162418587 0.0032061307471261485 0 -0.002051028207990965 0.0034909664952964387 0 -0.0019904476817255933 0.0033739833024219405 0 -0.0021845227162418587 0.0032061307471261485 0 -0.0095681473780757555 0.012796067095099383 0 -0.010299851219085382 0.012204821431532072 0 -0.010758472058521448 0.013106973547911413 0 -0.0095681473780757555 0.012796067095099383 0 -0.010299851219085382 0.012204821431532072 0 -0.0094005549553807227 0.012085219100611158 0 -0.010299851219085382 0.012204821431532072 0 -0.0094005549553807227 0.012085219100611158 0 -0.01030738335537071 0.011251493807099824 0 -0.010299851219085382 0.012204821431532072 0 -0.011242077859575209 0.011794687548017919 0 -0.01030738335537071 0.011251493807099824 0 -0.010299851219085382 0.012204821431532072 0 -0.011242077859575209 0.011794687548017919 0 -0.010758472058521448 0.013106973547911413 0 -0.0127572484003827 0.012509288245720344 0 -0.011242077859575209 0.011794687548017919 0 -0.010758472058521448 0.013106973547911413 0 -0.00905973586632851 0.01506840987464352 0 -0.008123072775939889 0.015309676800939124 0 -0.0085304598367335633 0.015601114818277379 0 -0.0074007689501347151 0.012190050571257185 0 -0.010163979282809939 0.014345259120344823 0 -0.0085304598367335633 0.015601114818277379 0 -0.0081294673705280332 0.015654577892714554 0 -0.0080984480474378534 0.015995406230526584 0 -0.008123072775939889 0.015309676800939124 0 -0.0085304598367335633 0.015601114818277379 0 -0.0081294673705280332 0.015654577892714554 0 -0.010163979282809939 0.014345259120344823 0 -0.0077010142890932467 0.014690324856444585 0 -0.008123072775939889 0.015309676800939124 0 -0.0077416582965946102 0.015710576503687942 0 -0.006999302361526921 0.015551433599511326 0 -0.008123072775939889 0.015309676800939124 0 -0.0081294673705280332 0.015654577892714554 0 -0.0077416582965946102 0.015710576503687942 0 -0.0095681473780757555 0.012796067095099383 0 -0.010758472058521448 0.013106973547911413 0 -0.0087388748503201118 0.013819206236668694 0 -0.0081952188668307745 0.016021825314720829 0 -0.0073266535424392903 0.01601934087089384 0 -0.0079221755663049682 0.016611491853677312 0 -0.0070429279496369143 0.016745512430658128 0 -0.0082018987197108161 0.016105909082941388 0 -0.0081929875351081753 0.016324826760298158 0 -0.007277868328253877 0.01601924561138009 0 -0.0077416582965946102 0.015710576503687942 0 -0.0080984480474378534 0.015995406230526584 0 -0.007277868328253877 0.01601924561138009 0 -0.0081929875351081753 0.016324826760298158 0 -0.007277868328253877 0.01601924561138009 0 -0.0072626570744201528 0.016515135997270933 0 -0.0081294673705280332 0.015654577892714554 0 -0.0077416582965946102 0.015710576503687942 0 -0.0080984480474378534 0.015995406230526584 0 -0.0085476442667884716 0.01677700351588049 0 -0.0081952188668307745 0.016021825314720829 0 -0.0090319400094278132 0.016173458624273291 0 -0.0082018987197108161 0.016105909082941388 0 -0.0081929875351081753 0.016324826760298158 0 -0.0085476442667884716 0.01677700351588049 0 -0.0079221755663049682 0.016611491853677312 0 -0.0083352241809850451 0.016815331954347802 0 -0.0075829388644668922 0.01694686058828947 0 -0.0080475714998835962 0.017282865592486717 0 -0.0088199515987473828 0.016011069838575635 0 -0.0085304598367335633 0.015601114818277379 0 -0.0080984480474378534 0.015995406230526584 0 -0.0075829388644668922 0.01694686058828947 0 -0.0080475714998835962 0.017282865592486717 0 -0.0076611569787579034 0.017354295202215816 0 -0.0077289129150293233 0.017823446628347107 0 -0.0076611569787579034 0.017354295202215816 0 -0.0073113046209488022 0.01739167327918251 0 -0.0077289129150293233 0.017823446628347107 0 -0.0080475714998835962 0.017282865592486717 0 -0.0076611569787579034 0.017354295202215816 0 -0.0072172991439388347 0.01783163799945793 0 -0.0077289129150293233 0.017823446628347107 0 -0.0073113046209488022 0.01739167327918251 0 -0.0075829388644668922 0.01694686058828947 0 -0.0073113046209488022 0.01739167327918251 0 -0.0069069268183259008 0.016977942177700836 0 -0.0075829388644668922 0.01694686058828947 0 -0.0076611569787579034 0.017354295202215816 0 -0.0073113046209488022 0.01739167327918251 0 -0.0072172991439388347 0.01783163799945793 0 -0.0073113046209488022 0.01739167327918251 0 -0.0068057429061937885 0.01745553170615707 0 -0.0062607531190802014 0.016824678240629758 0 -0.0070429279496369143 0.016745512430658128 0 -0.0068057429061937885 0.01745553170615707 0 -0.0062031180293499301 0.016808014291412897 0 -0.0069069268183259008 0.016977942177700836 0 -0.0073113046209488022 0.01739167327918251 0 -0.0068057429061937885 0.01745553170615707 0 -0.0069069268183259008 0.016977942177700836 0 -0.0062689627107484873 0.017609104195261068 0 -0.0068057429061937885 0.01745553170615707 0 -0.0062031180293499301 0.016808014291412897 0 -0.0062689627107484873 0.017609104195261068 0 -0.0054896445274625087 0.017497284372923638 0 -0.0062031180293499301 0.016808014291412897 0 -0.0065973807260777638 0.016115476638241144 0 -0.0056414184941549726 0.015797267380233661 0 -0.006999302361526921 0.015551433599511326 0 -0.0062031180293499301 0.016808014291412897 0 -0.0065973807260777638 0.016115476638241144 0 -0.0056414184941549726 0.015797267380233661 0 -0.0062031180293499301 0.016808014291412897 0 -0.0065973807260777638 0.016115476638241144 0 -0.0072626570744201528 0.016515135997270933 0 -0.0065973807260777638 0.016115476638241144 0 -0.007277868328253877 0.01601924561138009 0 -0.006999302361526921 0.015551433599511326 0 -0.0065973807260777638 0.016115476638241144 0 -0.007277868328253877 0.01601924561138009 0 -0.0072626570744201528 0.016515135997270933 0 -0.0046656177042959084 0.016873632071937452 0 -0.0052862959844325007 0.016555888621827664 0 -0.0042619638109848571 0.015695061988080031 0 -0.0054896445274625087 0.017497284372923638 0 -0.0062031180293499301 0.016808014291412897 0 -0.0052862959844325007 0.016555888621827664 0 -0.0054896445274625087 0.017497284372923638 0 -0.0046656177042959084 0.016873632071937452 0 -0.0052862959844325007 0.016555888621827664 0 -0.0062031180293499301 0.016808014291412897 0 -0.0052862959844325007 0.016555888621827664 0 -0.0056414184941549726 0.015797267380233661 0 -0.0052862959844325007 0.016555888621827664 0 -0.0056414184941549726 0.015797267380233661 0 -0.0042619638109848571 0.015695061988080031 0 -0.0066395588135953988 0.014660163819949794 0 -0.0042619638109848571 0.015695061988080031 0 -0.004670101238501847 0.014277297453885146 0 -0.0061215729115431314 0.015228344731548604 0 -0.0043045439763737215 0.015685671957125044 0 -0.004670101238501847 0.014277297453885146 0 -0.0053900824789720808 0.013186417766105744 0 -0.0035879733193349092 0.013424179725723883 0 -0.0066395588135953988 0.014660163819949794 0 -0.004670101238501847 0.014277297453885146 0 -0.0053900824789720808 0.013186417766105744 0 -0.0066395588135953988 0.014660163819949794 0 -0.0066478793190219033 0.013196264854146766 0 -0.0053900824789720808 0.013186417766105744 0 -0.0066395588135953988 0.014660163819949794 0 -0.0066478793190219033 0.013196264854146766 0 -0.0076095410871772837 0.013404917396282908 0 -0.0066478793190219033 0.013196264854146766 0 -0.0053900824789720808 0.013186417766105744 0 -0.0063454751750803865 0.01167514063686466 0 -0.0066478793190219033 0.013196264854146766 0 -0.007518530545464335 0.012456910945234415 0 -0.0063454751750803865 0.01167514063686466 0 -0.0053900824789720808 0.013186417766105744 0 -0.0047599968037745728 0.011775239811146306 0 -0.0063454751750803865 0.01167514063686466 0 -0.0053900824789720808 0.013186417766105744 0 -0.0047599968037745728 0.011775239811146306 0 -0.0035879733193349092 0.013424179725723883 0 -0.0077416582965946102 0.015710576503687942 0 -0.007277868328253877 0.01601924561138009 0 -0.006999302361526921 0.015551433599511326 0 -0.0087388748503201118 0.013819206236668694 0 -0.0076095410871772837 0.013404917396282908 0 -0.0085195876298000527 0.012774767521044599 0 -0.0095681473780757555 0.012796067095099383 0 -0.0087388748503201118 0.013819206236668694 0 -0.0085195876298000527 0.012774767521044599 0 -0.0061215729115431314 0.015228344731548604 0 -0.0077010142890932467 0.014690324856444585 0 -0.0066395588135953988 0.014660163819949794 0 -0.0087388748503201118 0.013819206236668694 0 -0.0076095410871772837 0.013404917396282908 0 -0.0076095410871772837 0.013404917396282908 0 -0.007518530545464335 0.012456910945234415 0 -0.0085195876298000527 0.012774767521044599 0 -0.0066478793190219033 0.013196264854146766 0 -0.0076095410871772837 0.013404917396282908 0 -0.007518530545464335 0.012456910945234415 0 -0.007518530545464335 0.012456910945234415 0 -0.0074047188954832885 0.011468330902885206 0 -0.0063454751750803865 0.01167514063686466 0 -0.007518530545464335 0.012456910945234415 0 -0.0084528420334758162 0.01177132032930076 0 -0.0074047188954832885 0.011468330902885206 0 -0.007518530545464335 0.012456910945234415 0 -0.0084528420334758162 0.01177132032930076 0 -0.0085195876298000527 0.012774767521044599 0 -0.0084528420334758162 0.01177132032930076 0 -0.0085195876298000527 0.012774767521044599 0 -0.0094005549553807227 0.012085219100611158 0 -0.0095681473780757555 0.012796067095099383 0 -0.0085195876298000527 0.012774767521044599 0 -0.0094005549553807227 0.012085219100611158 0 -0.0084528420334758162 0.01177132032930076 0 -0.0094005549553807227 0.012085219100611158 0 -0.009325821186308118 0.010866383793307845 0 -0.009325821186308118 0.010866383793307845 0 -0.0084908686947672927 0.01069515761216432 0 -0.0090102871045622084 0.0098204740411531842 0 -0.0084528420334758162 0.01177132032930076 0 -0.009325821186308118 0.010866383793307845 0 -0.0084908686947672927 0.01069515761216432 0 -0.0084528420334758162 0.01177132032930076 0 -0.0084908686947672927 0.01069515761216432 0 -0.0074047188954832885 0.011468330902885206 0 -0.0074047188954832885 0.011468330902885206 0 -0.0072450886276550766 0.010521456342189687 0 -0.0063454751750803865 0.01167514063686466 0 -0.0084908686947672927 0.01069515761216432 0 -0.0074047188954832885 0.011468330902885206 0 -0.0072450886276550766 0.010521456342189687 0 -0.0083517829466009056 0.01067019979537329 0 -0.0072676808918912105 0.010437679800727061 0 -0.0073110889278573095 0.010385040200033892 0 -0.0081367927117206446 0.0093533062672960243 0 -0.0069445205892757836 0.0090662292867016141 0 -0.0084908686947672927 0.01069515761216432 0 -0.0073110889278573095 0.010385040200033892 0 -0.0081367927117206446 0.0093533062672960243 0 -0.0081367927117206446 0.0093533062672960243 0 -0.0090102871045622084 0.0098204740411531842 0 -0.0089725084101856065 0.0086045381456321453 0 -0.0084908686947672927 0.01069515761216432 0 -0.0081367927117206446 0.0093533062672960243 0 -0.0090102871045622084 0.0098204740411531842 0 -0.0090102871045622084 0.0098204740411531842 0 -0.0089725084101856065 0.0086045381456321453 0 -0.010118477753780615 0.0096417400885127277 0 -0.0045588879278845619 0.010696457606449647 0 -0.00507430224657693 0.011719739177089355 0 -0.0065107768523259002 0.0099396112259714162 0 -0.0048713338332856924 0.011809117445050924 0 -0.0063504893404007588 0.0098966867268802886 0 -0.0045588879278845619 0.010696457606449647 0 -0.00507430224657693 0.011719739177089355 0 -0.0039327157150317992 0.011899961983092421 0 -0.0047599968037745728 0.011775239811146306 0 -0.0063454751750803865 0.01167514063686466 0 -0.0059457372161456756 0.010256749003334618 0 -0.0072450886276550766 0.010521456342189687 0 -0.0063454751750803865 0.01167514063686466 0 -0.0059457372161456756 0.010256749003334618 0 -0.0073110889278573095 0.010385040200033892 0 -0.0069445205892757836 0.0090662292867016141 0 -0.0060934905852488832 0.010118786522952368 0 -0.0072676808918912105 0.010437679800727061 0 -0.0063504893404007588 0.0098966867268802886 0 -0.0072341688676997289 0.0087571380739557472 0 -0.0063504893404007588 0.0098966867268802886 0 -0.0074129662389828066 0.0085637558328471412 0 -0.0068679702230276148 0.0086401763031638233 0 -0.0069425487421307846 0.0091174897191356758 0 -0.0045588879278845619 0.010696457606449647 0 -0.0065107768523259002 0.0099396112259714162 0 -0.0046702103330667323 0.0095502455022379359 0 -0.0069425487421307846 0.0091174897191356758 0 -0.0063236358785091857 0.0088074952874508516 0 -0.0061970316491064487 0.0089461754482954899 0 -0.0063236358785091857 0.0088074952874508516 0 -0.0068057189244726925 0.0080653941365862389 0 -0.0060437150549044428 0.0089142589673415918 0 -0.0063504893404007588 0.0098966867268802886 0 -0.0061295241943644142 0.0085300162759468553 0 -0.0068679702230276148 0.0086401763031638233 0 -0.0069425487421307846 0.0091174897191356758 0 -0.0063236358785091857 0.0088074952874508516 0 -0.0063236358785091857 0.0088074952874508516 0 -0.0062011491551624588 0.0089462380714629662 0 -0.0060437150549044428 0.0089142589673415918 0 -0.0061242754451530743 0.0086229165775635382 0 -0.0061295241943644142 0.0085300162759468553 0 -0.0072314036285062644 0.0074292165666271868 0 -0.0077723850734723633 0.0077172059398681265 0 -0.0068679702230276148 0.0086401763031638233 0 -0.0063236358785091857 0.0088074952874508516 0 -0.0068057189244726925 0.0080653941365862389 0 -0.0080597460003472843 0.0066830474004229814 0 -0.0078745773211329525 0.0067078242157956377 0 -0.0080076841567315402 0.0067631189027428651 0 -0.0080597460003472843 0.0066830474004229814 0 -0.0078745773211329525 0.0067078242157956377 0 -0.0081025457426988062 0.0065661700157661762 0 -0.0074129662389828066 0.0085637558328471412 0 -0.0068057189244726925 0.0080653941365862389 0 -0.0079047485635330445 0.0079938749956224627 0 -0.0074129662389828066 0.0085637558328471412 0 -0.0068679702230276148 0.0086401763031638233 0 -0.0068057189244726925 0.0080653941365862389 0 -0.0078745773211329525 0.0067078242157956377 0 -0.0078365490180819838 0.006864788264433549 0 -0.0077898878087059066 0.0070314119685043735 0 -0.0072314036285062644 0.0074292165666271868 0 -0.0078076475482370625 0.0070099423117658396 0 -0.0068057189244726925 0.0080653941365862389 0 -0.0079047485635330445 0.0079938749956224627 0 -0.0077898878087059066 0.0070314119685043735 0 -0.0078745773211329525 0.0067078242157956377 0 -0.0078365490180819838 0.006864788264433549 0 -0.0080076841567315402 0.0067631189027428651 0 -0.0078365490180819838 0.006864788264433549 0 -0.0080076841567315402 0.0067631189027428651 0 -0.0081022834697667689 0.0068738320117592957 0 -0.0089725084101856065 0.0086045381456321453 0 -0.0079047485635330445 0.0079938749956224627 0 -0.0085148501267678194 0.0071170704326739128 0 -0.0081367927117206446 0.0093533062672960243 0 -0.0089725084101856065 0.0086045381456321453 0 -0.0079047485635330445 0.0079938749956224627 0 -0.0081367927117206446 0.0093533062672960243 0 -0.0069445205892757836 0.0090662292867016141 0 -0.0079047485635330445 0.0079938749956224627 0 -0.0072341688676997289 0.0087571380739557472 0 -0.0077923668901795614 0.008105539739189007 0 -0.0079047485635330445 0.0079938749956224627 0 -0.0077898878087059066 0.0070314119685043735 0 -0.0085148501267678194 0.0071170704326739128 0 -0.0078740969584604383 0.003852388814814903 0 -0.0087332595541707858 0.0044805599459210206 0 -0.0089725084101856065 0.0086045381456321453 0 -0.0085148501267678194 0.0071170704326739128 0 -0.010079544908101607 0.0079110481967522607 0 -0.0067258847980127701 0.00049659716484784587 0 -0.0064604621772229812 0.00074317127050125924 0 -0.0068128652451722701 0.00085678770258389972 0 -0.0072566900820484155 0.00065557194169017926 0 -0.0067258847980127701 0.00049659716484784587 0 -0.0068128652451722701 0.00085678770258389972 0 -0.0089725084101856065 0.0086045381456321453 0 -0.010079544908101607 0.0079110481967522607 0 -0.010118477753780615 0.0096417400885127277 0 -0.0087332595541707858 0.0044805599459210206 0 -0.0076164882403123007 0.0028661994491432489 0 -0.010079544908101607 0.0079110481967522607 0 -0.011553617575733493 0.0087548476212908864 0 -0.010118477753780615 0.0096417400885127277 0 -0.0067258847980127701 0.00049659716484784587 0 -0.0063768166842920289 0.00034679626946986988 0 -0.0064604621772229812 0.00074317127050125924 0 -0.0052394109310192217 -0.00055710043372658822 0 -0.0055706889294545843 0.00022046736981208231 0 -0.005010254292103819 -3.4975206287221811e-05 0 -0.0076164882403123007 0.0028661994491432489 0 -0.0056969051273154337 -0.00019548569291034834 0 -0.0055706889294545843 0.00022046736981208231 0 -0.005010254292103819 -3.4975206287221811e-05 0 -0.004984341061257916 0.00036536920092658471 0 -0.005010254292103819 -3.4975206287221811e-05 0 -0.0045494563420509599 0.00012336612139598744 0 -0.004984341061257916 0.00036536920092658471 0 -0.005010254292103819 -3.4975206287221811e-05 0 -0.0045494563420509599 0.00012336612139598744 0 -0.0046659403591242854 -0.00015029878417564696 0 -0.0045494563420509599 0.00012336612139598744 0 -0.0041889337227814152 7.0018119245095751e-05 0 -0.0041139040360827321 0.00036162514670092454 0 -0.0045494563420509599 0.00012336612139598744 0 -0.0046659403591242854 -0.00015029878417564696 0 -0.0043661010792572369 -0.00013107003695254828 0 -0.004033358065030467 -0.00012713605054563584 0 -0.0041889337227814152 7.0018119245095751e-05 0 -0.0043661010792572369 -0.00013107003695254828 0 -0.0045494563420509599 0.00012336612139598744 0 -0.0041889337227814152 7.0018119245095751e-05 0 -0.0043661010792572369 -0.00013107003695254828 0 -0.003946572043714687 -0.00057205261387445244 0 -0.0044894802304625914 -0.00047719859243972691 0 -0.0048608673106038695 -0.00076531786307419713 0 -0.004033358065030467 -0.00012713605054563584 0 -0.0043661010792572369 -0.00013107003695254828 0 -0.00423333087350365 -0.00033775057308118125 0 -0.0043661010792572369 -0.00013107003695254828 0 -0.00423333087350365 -0.00033775057308118125 0 -0.0045343933459841808 -0.00033210995219353645 0 -0.0046659403591242854 -0.00015029878417564696 0 -0.0043661010792572369 -0.00013107003695254828 0 -0.0045343933459841808 -0.00033210995219353645 0 -0.00423333087350365 -0.00033775057308118125 0 -0.0045343933459841808 -0.00033210995219353645 0 -0.0044894802304625914 -0.00047719859243972691 0 -0.0045343933459841808 -0.00033210995219353645 0 -0.0044894802304625914 -0.00047719859243972691 0 -0.0048736906782043477 -0.00037681627526055033 0 -0.003946572043714687 -0.00057205261387445244 0 -0.00423333087350365 -0.00033775057308118125 0 -0.0044894802304625914 -0.00047719859243972691 0 -0.0052394109310192217 -0.00055710043372658822 0 -0.005010254292103819 -3.4975206287221811e-05 0 -0.0048736906782043477 -0.00037681627526055033 0 -0.0046659403591242854 -0.00015029878417564696 0 -0.0045343933459841808 -0.00033210995219353645 0 -0.0048736906782043477 -0.00037681627526055033 0 -0.005010254292103819 -3.4975206287221811e-05 0 -0.0046659403591242854 -0.00015029878417564696 0 -0.0048736906782043477 -0.00037681627526055033 0 -0.0044894802304625914 -0.00047719859243972691 0 -0.0048736906782043477 -0.00037681627526055033 0 -0.0048608673106038695 -0.00076531786307419713 0 -0.0076164882403123007 0.0028661994491432489 0 -0.0040803583592085007 0.0023997566133561604 0 -0.0052394109310192217 -0.00055710043372658822 0 -0.0048736906782043477 -0.00037681627526055033 0 -0.0048608673106038695 -0.00076531786307419713 0 -0.0011960253322251533 0.0021020112288560773 0 -0.0016940898343909291 0.0023272896481327751 0 -0.0016027578310289306 0.0036510001419618118 0 -0.0077169314309587815 0.0043093359658699683 0 -0.0073186249715327572 0.0030775108656363706 0 -0.0059124751719331157 0.0033074700966662638 0 -0.0011960253322251533 0.0021020112288560773 0 -0.0018604943958658404 0.0020743077051889763 0 -0.0016940898343909291 0.0023272896481327751 0 -0.011929798392752877 0.0092813182789029999 0 -0.012341860389927021 0.010604179238862014 0 -0.011331301404938184 0.010657410999434078 0 -0.0085053449434225777 0.0062471699041456771 0 -0.0040803583592085007 0.0023997566133561604 0 -0.0085053449434225777 0.0062471699041456771 0 -0.0070288939329684807 0.0072657986298743284 0 -0.0076164882403123007 0.0028661994491432489 0 -0.0085053449434225777 0.0062471699041456771 0 -0.0018604943958658404 0.0020743077051889763 0 -0.0019423789917112036 0.0023569024521242331 0 -0.0021017050958734478 0.0022549849503007572 0 -0.0018604943958658404 0.0020743077051889763 0 -0.0019423789917112036 0.0023569024521242331 0 -0.0016940898343909291 0.0023272896481327751 0 -0.0016940898343909291 0.0023272896481327751 0 -0.0018831186153521534 0.0026763625937134498 0 -0.0016027578310289306 0.0036510001419618118 0 -0.0019423789917112036 0.0023569024521242331 0 -0.0016940898343909291 0.0023272896481327751 0 -0.0018831186153521534 0.0026763625937134498 0 -0.0018831186153521534 0.0026763625937134498 0 -0.0020754786864991032 0.0027351286159100676 0 -0.0020883007330891215 0.002953540401604149 0 -0.0020052570338467252 0.0025070383169610746 0 -0.0020754786864991032 0.0027351286159100676 0 -0.0021017050958734478 0.0022549849503007572 0 -0.0019423789917112036 0.0023569024521242331 0 -0.0020052570338467252 0.0025070383169610746 0 -0.0021017050958734478 0.0022549849503007572 0 -0.0018831186153521534 0.0026763625937134498 0 -0.0020052570338467252 0.0025070383169610746 0 -0.0020754786864991032 0.0027351286159100676 0 -0.0019423789917112036 0.0023569024521242331 0 -0.0018831186153521534 0.0026763625937134498 0 -0.0020052570338467252 0.0025070383169610746 0 -0.0032616390347031013 0.00019810525582870028 0 -0.0040803583592085007 0.0023997566133561604 0 -0.0027426774449849636 0.0015823820876970898 0 -0.0020754786864991032 0.0027351286159100676 0 -0.0024495740628722395 0.0019160954762893095 0 -0.0025710174015726398 0.0023947320796805414 0 -0.0020276603484317801 0.0027023205429179378 0 -0.0023481324347445543 0.0032959535572983684 0 -0.0020754786864991032 0.0027351286159100676 0 -0.0022187470335811709 0.0030411127005687136 0 -0.0027427594720042408 0.0014655916305474105 0 -0.0018604943958658404 0.0020743077051889763 0 -0.0022179087617873552 0.0020294175020317104 0 -0.0027427594720042408 0.0014655916305474105 0 -0.0024495740628722395 0.0019160954762893095 0 -0.0022179087617873552 0.0020294175020317104 0 -0.0018604943958658404 0.0020743077051889763 0 -0.0022179087617873552 0.0020294175020317104 0 -0.0021017050958734478 0.0022549849503007572 0 -0.0020754786864991032 0.0027351286159100676 0 -0.0024495740628722395 0.0019160954762893095 0 -0.0022179087617873552 0.0020294175020317104 0 -0.0020754786864991032 0.0027351286159100676 0 -0.0022179087617873552 0.0020294175020317104 0 -0.0021017050958734478 0.0022549849503007572 0 -0.0019904476817255933 0.0033739833024219405 0 -0.0020883007330891215 0.002953540401604149 0 -0.0021845227162418587 0.0032061307471261485 0 -0.0022187470335811709 0.0030411127005687136 0 -0.0020883007330891215 0.002953540401604149 0 -0.0021845227162418587 0.0032061307471261485 0 -0.0020754786864991032 0.0027351286159100676 0 -0.0022187470335811709 0.0030411127005687136 0 -0.0020883007330891215 0.002953540401604149 0 -0.0022918046436504508 0.0031600641762615537 0 -0.0022187470335811709 0.0030411127005687136 0 -0.0021845227162418587 0.0032061307471261485 0 -0.0019904476817255933 0.0033739833024219405 0 -0.0018831186153521534 0.0026763625937134498 0 -0.0020883007330891215 0.002953540401604149 0 -0.0022643571411310654 0.0054021408377217884 0 -0.0018831186153521534 0.0026763625937134498 0 -0.0016027578310289306 0.0036510001419618118 0 -0.012721359765220441 0.011923257436073639 0 -0.012341860389927021 0.010604179238862014 0 -0.012081307476529727 0.011504624172683438 0 -0.0050476869902230589 0.0073466325972137304 0 -0.0070288939329684807 0.0072657986298743284 0 -0.0050476869902230589 0.0073466325972137304 0 -0.0012181812123569424 0.0014956995990451343 0 -0.012341860389927021 0.010604179238862014 0 -0.012081307476529727 0.011504624172683438 0 -0.011331301404938184 0.010657410999434078 0 -0.011242077859575209 0.011794687548017919 0 -0.012081307476529727 0.011504624172683438 0 -0.011331301404938184 0.010657410999434078 0 -0.011242077859575209 0.011794687548017919 0 -0.011331301404938184 0.010657410999434078 0 -0.01030738335537071 0.011251493807099824 0 -0.011331301404938184 0.010657410999434078 0 -0.01030738335537071 0.011251493807099824 0 -0.010118477753780615 0.0096417400885127277 0 -0.009325821186308118 0.010866383793307845 0 -0.01030738335537071 0.011251493807099824 0 -0.010118477753780615 0.0096417400885127277 0 -0.0094005549553807227 0.012085219100611158 0 -0.009325821186308118 0.010866383793307845 0 -0.01030738335537071 0.011251493807099824 0 -0.009325821186308118 0.010866383793307845 0 -0.0090102871045622084 0.0098204740411531842 0 -0.010118477753780615 0.0096417400885127277 0 -0.0085053449434225777 0.0062471699041456771 0 -0.011440210602954547 0.010070319589900957 0 -0.011929798392752877 0.0092813182789029999 0 -0.011331301404938184 0.010657410999434078 0 -0.010118477753780615 0.0096417400885127277 0 -0.011553617575733493 0.0087548476212908864 0 -0.011712455301726519 0.0092731501483748775 0 -0.010118477753780615 0.0096417400885127277 0 -0.023063534425305763 0.0059431574182809387 0 -0.024805145598952548 0.0062084134527660116 0 -0.021789501136920447 0.0047194820766941082 0 -0.019028510828719387 0.0028352961858339209 0 -0.021789501136920447 0.0047194820766941082 0 -0.019778241330302 0.0042955927582285069 0 -0.022426107298560979 0.0042575425285504322 0 -0.02161117451974362 0.0047183858800346279 0 -0.023966686430141399 0.0068313059140082304 0 -0.023063534425305763 0.0059431574182809387 0 -0.024805145598952548 0.0062084134527660116 0 -0.023966686430141399 0.0068313059140082304 0 -0.023063534425305763 0.0059431574182809387 0 -0.02319237283990026 0.0069199749607756853 0 -0.022502362198920225 0.0064061433096911655 0 -0.023063534425305763 0.0059431574182809387 0 -0.022120023165635817 0.0056372419920267553 0 -0.022502362198920225 0.0064061433096911655 0 -0.02319237283990026 0.0069199749607756853 0 -0.02257872045928775 0.0069697469080706219 0 -0.022502362198920225 0.0064061433096911655 0 -0.023063534425305763 0.0059431574182809387 0 -0.02319237283990026 0.0069199749607756853 0 -0.022502362198920225 0.0064061433096911655 0 -0.02257872045928775 0.0069697469080706219 0 -0.022038948312709184 0.0068134717186997037 0 -0.023063534425305763 0.0059431574182809387 0 -0.022120023165635817 0.0056372419920267553 0 -0.021789501136920447 0.0047194820766941082 0 -0.017917726496608236 0.0035642961116852585 0 -0.019028510828719387 0.0028352961858339209 0 -0.019778241330302 0.0042955927582285069 0 -0.016958623585811506 0.0024166840284715811 0 -0.018916026075929904 0.0032143279278901548 0 -0.023966686430141399 0.0068313059140082304 0 -0.024805145598952548 0.0062084134527660116 0 -0.024628945421800705 0.0074793943323949895 0 -0.023966686430141399 0.0068313059140082304 0 -0.024628945421800705 0.0074793943323949895 0 -0.023856490651795279 0.0078160943747148243 0 -0.024805145598952548 0.0062084134527660116 0 -0.024628945421800705 0.0074793943323949895 0 -0.025853356248030181 0.0077807947727470935 0 -0.024628945421800705 0.0074793943323949895 0 -0.025853356248030181 0.0077807947727470935 0 -0.02466335090866132 0.0087711263863263708 0 -0.024628945421800705 0.0074793943323949895 0 -0.02466335090866132 0.0087711263863263708 0 -0.023856490651795279 0.0078160943747148243 0 -0.023856490651795279 0.0078160943747148243 0 -0.022948712322236633 0.0083476929364948872 0 -0.023267172720395 0.009384823943481304 0 -0.023856490651795279 0.0078160943747148243 0 -0.022852928326089535 0.0075908618334281355 0 -0.022948712322236633 0.0083476929364948872 0 -0.02466335090866132 0.0087711263863263708 0 -0.023856490651795279 0.0078160943747148243 0 -0.023267172720395 0.009384823943481304 0 -0.023966686430141399 0.0068313059140082304 0 -0.023856490651795279 0.0078160943747148243 0 -0.02319237283990026 0.0069199749607756853 0 -0.023856490651795279 0.0078160943747148243 0 -0.02319237283990026 0.0069199749607756853 0 -0.022852928326089535 0.0075908618334281355 0 -0.02257872045928775 0.0069697469080706219 0 -0.022338059202516195 0.0074109392501478348 0 -0.022038948312709184 0.0068134717186997037 0 -0.02319237283990026 0.0069199749607756853 0 -0.02257872045928775 0.0069697469080706219 0 -0.022852928326089535 0.0075908618334281355 0 -0.02257872045928775 0.0069697469080706219 0 -0.022852928326089535 0.0075908618334281355 0 -0.022338059202516195 0.0074109392501478348 0 -0.022852928326089535 0.0075908618334281355 0 -0.022338059202516195 0.0074109392501478348 0 -0.022230446251836265 0.0080941317833611165 0 -0.022852928326089535 0.0075908618334281355 0 -0.022948712322236633 0.0083476929364948872 0 -0.022230446251836265 0.0080941317833611165 0 -0.022948712322236633 0.0083476929364948872 0 -0.022230446251836265 0.0080941317833611165 0 -0.022545384517768625 0.0088041695087789917 0 -0.022230446251836265 0.0080941317833611165 0 -0.022545384517768625 0.0088041695087789917 0 -0.02195949130078146 0.0088329488634345758 0 -0.022230446251836265 0.0080941317833611165 0 -0.02164073591903052 0.0084056956442861881 0 -0.02195949130078146 0.0088329488634345758 0 -0.022230446251836265 0.0080941317833611165 0 -0.021656952285624524 0.007924464612680801 0 -0.021844598311015023 0.0074321096538781054 0 -0.022230446251836265 0.0080941317833611165 0 -0.021656952285624524 0.007924464612680801 0 -0.02164073591903052 0.0084056956442861881 0 -0.02164073591903052 0.0084056956442861881 0 -0.021105788837871536 0.008287659315502148 0 -0.021481852834509169 0.0088188773936678753 0 -0.021656952285624524 0.007924464612680801 0 -0.02164073591903052 0.0084056956442861881 0 -0.021105788837871536 0.008287659315502148 0 -0.021105788837871536 0.008287659315502148 0 -0.020691880771182683 0.0076184768672902465 0 -0.019996879134992436 0.0087421324364615957 0 -0.021656952285624524 0.007924464612680801 0 -0.021105788837871536 0.008287659315502148 0 -0.021290887920004831 0.0074875108766312547 0 -0.021105788837871536 0.008287659315502148 0 -0.021290887920004831 0.0074875108766312547 0 -0.020691880771182683 0.0076184768672902465 0 -0.021290887920004831 0.0074875108766312547 0 -0.020691880771182683 0.0076184768672902465 0 -0.020941211796484803 0.0067601629414372382 0 -0.020691880771182683 0.0076184768672902465 0 -0.020414358203908203 0.0069517691685336853 0 -0.020941211796484803 0.0067601629414372382 0 -0.021290887920004831 0.0074875108766312547 0 -0.021531397109610467 0.0069288383132264141 0 -0.020941211796484803 0.0067601629414372382 0 -0.021531397109610467 0.0069288383132264141 0 -0.021844598311015023 0.0074321096538781054 0 -0.022038948312709184 0.0068134717186997037 0 -0.022338059202516195 0.0074109392501478348 0 -0.021844598311015023 0.0074321096538781054 0 -0.022038948312709184 0.0068134717186997037 0 -0.022338059202516195 0.0074109392501478348 0 -0.022230446251836265 0.0080941317833611165 0 -0.021844598311015023 0.0074321096538781054 0 -0.021290887920004831 0.0074875108766312547 0 -0.021531397109610467 0.0069288383132264141 0 -0.021844598311015023 0.0074321096538781054 0 -0.021656952285624524 0.007924464612680801 0 -0.021290887920004831 0.0074875108766312547 0 -0.021844598311015023 0.0074321096538781054 0 -0.019806428665280772 0.0072381164179500706 0 -0.019996879134992436 0.0087421324364615957 0 -0.018316872833365395 0.006897273817117004 0 -0.020092889686444571 0.0092376163145391019 0 -0.020170231227338572 0.0084286076058312561 0 -0.020691880771182683 0.0076184768672902465 0 -0.019806428665280772 0.0072381164179500706 0 -0.019996879134992436 0.0087421324364615957 0 -0.020691880771182683 0.0076184768672902465 0 -0.020414358203908203 0.0069517691685336853 0 -0.019806428665280772 0.0072381164179500706 0 -0.020414358203908203 0.0069517691685336853 0 -0.019806428665280772 0.0072381164179500706 0 -0.020226390499606936 0.0062008596041751339 0 -0.019806428665280772 0.0072381164179500706 0 -0.020226390499606936 0.0062008596041751339 0 -0.019229928897838762 0.0062658113076903207 0 -0.020414358203908203 0.0069517691685336853 0 -0.020226390499606936 0.0062008596041751339 0 -0.020941211796484803 0.0067601629414372382 0 -0.020226390499606936 0.0062008596041751339 0 -0.020988234439751455 0.0059766014464904442 0 -0.020812918920977808 0.0051040641444687488 0 -0.020226390499606936 0.0062008596041751339 0 -0.020812918920977808 0.0051040641444687488 0 -0.019486290069112275 0.0051501542221244643 0 -0.020226390499606936 0.0062008596041751339 0 -0.019486290069112275 0.0051501542221244643 0 -0.019229928897838762 0.0062658113076903207 0 -0.021474144767505594 0.0062709669785639141 0 -0.02193983449609177 0.006119575490394524 0 -0.021500561450889147 0.0055863353493638647 0 -0.022502362198920225 0.0064061433096911655 0 -0.02193983449609177 0.006119575490394524 0 -0.022120023165635817 0.0056372419920267553 0 -0.022502362198920225 0.0064061433096911655 0 -0.02193983449609177 0.006119575490394524 0 -0.022038948312709184 0.0068134717186997037 0 -0.021474144767505594 0.0062709669785639141 0 -0.02193983449609177 0.006119575490394524 0 -0.022038948312709184 0.0068134717186997037 0 -0.021531397109610467 0.0069288383132264141 0 -0.021474144767505594 0.0062709669785639141 0 -0.022038948312709184 0.0068134717186997037 0 -0.021531397109610467 0.0069288383132264141 0 -0.021474144767505594 0.0062709669785639141 0 -0.020941211796484803 0.0067601629414372382 0 -0.020226390499606936 0.0062008596041751339 0 -0.020941211796484803 0.0067601629414372382 0 -0.020988234439751455 0.0059766014464904442 0 -0.021474144767505594 0.0062709669785639141 0 -0.020941211796484803 0.0067601629414372382 0 -0.020988234439751455 0.0059766014464904442 0 -0.021474144767505594 0.0062709669785639141 0 -0.020988234439751455 0.0059766014464904442 0 -0.021500561450889147 0.0055863353493638647 0 -0.021500561450889147 0.0055863353493638647 0 -0.021789501136920447 0.0047194820766941082 0 -0.020812918920977808 0.0051040641444687488 0 -0.020988234439751455 0.0059766014464904442 0 -0.021500561450889147 0.0055863353493638647 0 -0.020812918920977808 0.0051040641444687488 0 -0.021500561450889147 0.0055863353493638647 0 -0.022120023165635817 0.0056372419920267553 0 -0.021789501136920447 0.0047194820766941082 0 -0.02193983449609177 0.006119575490394524 0 -0.021500561450889147 0.0055863353493638647 0 -0.022120023165635817 0.0056372419920267553 0 -0.021789501136920447 0.0047194820766941082 0 -0.020812918920977808 0.0051040641444687488 0 -0.020497730871773284 0.0036723462141669489 0 -0.0209637908357636 0.0039676373905997431 0 -0.020466000943665505 0.0034389196701980112 0 -0.021789501136920447 0.0047194820766941082 0 -0.020497730871773284 0.0036723462141669489 0 -0.021645649986987685 0.0047949897067789977 0 -0.020497730871773284 0.0036723462141669489 0 -0.021090235289147156 0.0030641382655893622 0 -0.021473840343189173 0.0037983056962012842 0 -0.020812918920977808 0.0051040641444687488 0 -0.019486290069112275 0.0051501542221244643 0 -0.020497730871773284 0.0036723462141669489 0 -0.019486290069112275 0.0051501542221244643 0 -0.020497730871773284 0.0036723462141669489 0 -0.019290343394972521 0.003809343331585838 0 -0.020497730871773284 0.0036723462141669489 0 -0.020062704108276489 0.0027530245537168868 0 -0.020757460577380399 0.0024066246665562238 0 -0.020497730871773284 0.0036723462141669489 0 -0.020062704108276489 0.0027530245537168868 0 -0.019290343394972521 0.003809343331585838 0 -0.021090235289147156 0.0030641382655893622 0 -0.021473840343189173 0.0037983056962012842 0 -0.021447653257949815 0.0024244095985976404 0 -0.020497730871773284 0.0036723462141669489 0 -0.021090235289147156 0.0030641382655893622 0 -0.020757460577380399 0.0024066246665562238 0 -0.021090235289147156 0.0030641382655893622 0 -0.021447653257949815 0.0024244095985976404 0 -0.020757460577380399 0.0024066246665562238 0 -0.015892030968040181 0.0017188762803199936 0 -0.017346161450561465 0.0004850511382784717 0 -0.017775740278692522 0.0020914502473983209 0 -0.017953297399562428 0.0019902332472965145 0 -0.017808606047535955 0.0017485716573276532 0 -0.020466000943665505 0.0034389196701980112 0 -0.017346161450561465 0.0004850511382784717 0 -0.017775740278692522 0.0020914502473983209 0 -0.017930226831622393 0.0021459073120685085 0 -0.017953297399562428 0.0019902332472965145 0 -0.021789501136920447 0.0047194820766941082 0 -0.021645649986987685 0.0047949897067789977 0 -0.019778241330302 0.0042955927582285069 0 -0.020466000943665505 0.0034389196701980112 0 -0.018916026075929904 0.0032143279278901548 0 -0.018067984589924282 0.002206944927276602 0 -0.017930226831622393 0.0021459073120685085 0 -0.017953297399562428 0.0019902332472965145 0 -0.016958623585811506 0.0024166840284715811 0 -0.015892030968040181 0.0017188762803199936 0 -0.014292849188481081 0.001491759920207453 0 -0.015072829359830101 0.0013865032210483685 0 -0.014936264197982586 0.0017682775154050365 0 -0.014892093577117186 0.0022600088965182602 0 -0.014292849188481081 0.001491759920207453 0 -0.014936264197982586 0.0017682775154050365 0 -0.014292849188481081 0.001491759920207453 0 -0.015072829359830101 0.0013865032210483685 0 -0.014640178068665004 0.00079210296942787666 0 -0.014292849188481081 0.001491759920207453 0 -0.014640178068665004 0.00079210296942787666 0 -0.013720539363671696 0.00063244008802731445 0 -0.015072829359830101 0.0013865032210483685 0 -0.015252505866714425 0.00062650690043911724 0 -0.014640178068665004 0.00079210296942787666 0 -0.015072829359830101 0.0013865032210483685 0 -0.015798199475992637 0.0015685280080949898 0 -0.015252505866714425 0.00062650690043911724 0 -0.015798199475992637 0.0015685280080949898 0 -0.015865955883588002 0.00056230922344868738 0 -0.015252505866714425 0.00062650690043911724 0 -0.015072829359830101 0.0013865032210483685 0 -0.015798199475992637 0.0015685280080949898 0 -0.015396303544902155 0.0019687313712104474 0 -0.015798199475992637 0.0015685280080949898 0 -0.015693483044357939 0.0021857536855075794 0 -0.015810541783608276 0.0022383071990434949 0 -0.015798199475992637 0.0015685280080949898 0 -0.015693483044357939 0.0021857536855075794 0 -0.015396303544902155 0.0019687313712104474 0 -0.014892093577117186 0.0022600088965182602 0 -0.015396303544902155 0.0019687313712104474 0 -0.014936264197982586 0.0017682775154050365 0 -0.015072829359830101 0.0013865032210483685 0 -0.015396303544902155 0.0019687313712104474 0 -0.014936264197982586 0.0017682775154050365 0 -0.012099359959389178 0.0042174895783957198 0 -0.012677541348476675 0.0039273683136642071 0 -0.0082374404177203916 0.0067089137609803676 0 -0.008118222349706633 0.0067316052508546425 0 -0.0081022834697667689 0.0068738320117592957 0 -0.0080076841567315402 0.0067631189027428651 0 -0.008118222349706633 0.0067316052508546425 0 -0.0081022834697667689 0.0068738320117592957 0 -0.016277731366200952 0.00096919980859695438 0 -0.016349192788365913 0.0015790561563073964 0 -0.016770066816811525 0.00087112003174701839 0 -0.015798199475992637 0.0015685280080949898 0 -0.016277731366200952 0.00096919980859695438 0 -0.015865955883588002 0.00056230922344868738 0 -0.015798199475992637 0.0015685280080949898 0 -0.016277731366200952 0.00096919980859695438 0 -0.016349192788365913 0.0015790561563073964 0 -0.012099359959389178 0.0042174895783957198 0 -0.013279137999334461 0.0045930801707230904 0 -0.016349192788365913 0.0015790561563073964 0 -0.015807091698984234 0.0023583205959122589 0 -0.015810541783608276 0.0022383071990434949 0 -0.015798199475992637 0.0015685280080949898 0 -0.016349192788365913 0.0015790561563073964 0 -0.015810541783608276 0.0022383071990434949 0 -0.0082374404177203916 0.0067089137609803676 0 -0.0081723474268269487 0.0066655550506534737 0 -0.0082552489184465946 0.0066928559710729869 0 -0.0082374404177203916 0.0067089137609803676 0 -0.0082552489184465946 0.0066928559710729869 0 -0.0082091699575150643 0.0066807359852531761 0 -0.0080597460003472843 0.0066830474004229814 0 -0.0081723474268269487 0.0066655550506534737 0 -0.0081025457426988062 0.0065661700157661762 0 -0.0082374404177203916 0.0067089137609803676 0 -0.0081723474268269487 0.0066655550506534737 0 -0.008118222349706633 0.0067316052508546425 0 -0.0080597460003472843 0.0066830474004229814 0 -0.0080076841567315402 0.0067631189027428651 0 -0.008118222349706633 0.0067316052508546425 0 -0.0080597460003472843 0.0066830474004229814 0 -0.0081723474268269487 0.0066655550506534737 0 -0.008118222349706633 0.0067316052508546425 0 -0.0089275521000306175 0.0068471223085734131 0 -0.0085435560097885666 0.0070143934016166139 0 -0.0084875087386369983 0.006902705499600612 0 -0.0089275521000306175 0.0068471223085734131 0 -0.0085435560097885666 0.0070143934016166139 0 -0.0084301159085030837 0.0071802135160703457 0 -0.0077723850734723633 0.0077172059398681265 0 -0.0085251069500472468 0.0064926577812724606 0 -0.0081723474268269487 0.0066655550506534737 0 -0.0081025457426988062 0.0065661700157661762 0 -0.0082552489184465946 0.0066928559710729869 0 -0.0077984056548945409 0.0078180681376361898 0 -0.0078874972564122892 0.0078357134531962542 0 -0.0080823857604400001 0.0075459027403071274 0 -0.0061295241943644142 0.0085300162759468553 0 -0.0077723850734723633 0.0077172059398681265 0 -0.0089275521000306175 0.0068471223085734131 0 -0.0084875087386369983 0.006902705499600612 0 -0.0082552489184465946 0.0066928559710729869 0 -0.0084875087386369983 0.006902705499600612 0 -0.0082552489184465946 0.0066928559710729869 0 -0.008326690585555286 0.0069026135957152134 0 -0.0085435560097885666 0.0070143934016166139 0 -0.0084875087386369983 0.006902705499600612 0 -0.0083995438964419387 0.0070492413711378057 0 -0.0084875087386369983 0.006902705499600612 0 -0.008326690585555286 0.0069026135957152134 0 -0.0083995438964419387 0.0070492413711378057 0 -0.0082552489184465946 0.0066928559710729869 0 -0.008326690585555286 0.0069026135957152134 0 -0.0082091699575150643 0.0066807359852531761 0 -0.008326690585555286 0.0069026135957152134 0 -0.0083011803635949094 0.0070892984483928541 0 -0.0082091699575150643 0.0066807359852531761 0 -0.008326690585555286 0.0069026135957152134 0 -0.0083011803635949094 0.0070892984483928541 0 -0.0083995438964419387 0.0070492413711378057 0 -0.0083011803635949094 0.0070892984483928541 0 -0.0082091699575150643 0.0066807359852531761 0 -0.0081639282755376387 0.0074081230585914962 0 -0.0083011803635949094 0.0070892984483928541 0 -0.0083087862747586085 0.0072738201360631567 0 -0.0084301159085030837 0.0071802135160703457 0 -0.0083011803635949094 0.0070892984483928541 0 -0.0083087862747586085 0.0072738201360631567 0 -0.0081639282755376387 0.0074081230585914962 0 -0.0083087862747586085 0.0072738201360631567 0 -0.0083528986671225144 0.0074092124541971088 0 -0.0081639282755376387 0.0074081230585914962 0 -0.0058565175104995648 0.0091258840993365588 0 -0.0056727652959291473 0.011377685700906271 0 -0.0083087862747586085 0.0072738201360631567 0 -0.0083528986671225144 0.0074092124541971088 0 -0.0084301159085030837 0.0071802135160703457 0 -0.0083528986671225144 0.0074092124541971088 0 -0.0080823857604400001 0.0075459027403071274 0 -0.0083632731374988917 0.0073775500032928929 0 -0.0083011803635949094 0.0070892984483928541 0 -0.0084301159085030837 0.0071802135160703457 0 -0.0083995438964419387 0.0070492413711378057 0 -0.0085435560097885666 0.0070143934016166139 0 -0.0084301159085030837 0.0071802135160703457 0 -0.0083995438964419387 0.0070492413711378057 0 -0.0078874972564122892 0.0078357134531962542 0 -0.0083528986671225144 0.0074092124541971088 0 -0.0080823857604400001 0.0075459027403071274 0 -0.0077723850734723633 0.0077172059398681265 0 -0.0086108415599762678 0.0072153513112762904 0 -0.0089275521000306175 0.0068471223085734131 0 -0.0083528986671225144 0.0074092124541971088 0 -0.0084301159085030837 0.0071802135160703457 0 -0.0045588879278845619 0.010696457606449647 0 -0.003445087721180573 0.01091936552648529 0 -0.0039327157150317992 0.011899961983092421 0 -0.0045588879278845619 0.010696457606449647 0 -0.0046702103330667323 0.0095502455022379359 0 -0.003445087721180573 0.01091936552648529 0 -0.0061295241943644142 0.0085300162759468553 0 -0.0058565175104995648 0.0091258840993365588 0 -0.017917726496608236 0.0035642961116852585 0 -0.019028510828719387 0.0028352961858339209 0 -0.016930261504337202 0.0025931672411438427 0 -0.014892093577117186 0.0022600088965182602 0 -0.015396303544902155 0.0019687313712104474 0 -0.015948820208255519 0.0022753978262072018 0 -0.019028510828719387 0.0028352961858339209 0 -0.016930261504337202 0.0025931672411438427 0 -0.016235454167293582 0.0018891534996659759 0 -0.017917726496608236 0.0035642961116852585 0 -0.016930261504337202 0.0025931672411438427 0 -0.015948820208255519 0.0022753978262072018 0 -0.016958623585811506 0.0024166840284715811 0 -0.015798667367756425 0.0024400105740209725 0 -0.013279137999334461 0.0045930801707230904 0 -0.018943152597965796 0.0077021657622312481 0 -0.015680467675358779 0.0024318552206752725 0 -0.015948820208255519 0.0022753978262072018 0 -0.016235454167293582 0.0018891534996659759 0 -0.015693483044357939 0.0021857536855075794 0 -0.015396303544902155 0.0019687313712104474 0 -0.015948820208255519 0.0022753978262072018 0 -0.015693483044357939 0.0021857536855075794 0 -0.015680467675358779 0.0024318552206752725 0 -0.015948820208255519 0.0022753978262072018 0 -0.015693483044357939 0.0021857536855075794 0 -0.015680467675358779 0.0024318552206752725 0 -0.015810541783608276 0.0022383071990434949 0 -0.013279137999334461 0.0045930801707230904 0 -0.013479929479231037 0.0039761883656169216 0 -0.017486460490210673 0.013198861667506182 0 -0.016842559580884139 0.012835249075307732 0 -0.016948936289406288 0.013645639775717422 0 -0.013279137999334461 0.0045930801707230904 0 -0.012608341287005099 0.010234589057047128 0 -0.01512978014829898 0.0063453984523244578 0 -0.015063981183395542 0.0082012387685096583 0 -0.014127802140926573 0.0076907753247718608 0 -0.012608341287005099 0.010234589057047128 0 -0.018943152597965796 0.0077021657622312481 0 -0.022426107298560979 0.0042575425285504322 0 -0.018943152597965796 0.0077021657622312481 0 -0.025853356248030181 0.0077807947727470935 0 -0.027669045853654772 0.0078030032961277761 0 -0.026102323474119234 0.0099997853991485551 0 -0.024805145598952548 0.0062084134527660116 0 -0.025853356248030181 0.0077807947727470935 0 -0.027669045853654772 0.0078030032961277761 0 -0.016930261504337202 0.0025931672411438427 0 -0.015948820208255519 0.0022753978262072018 0 -0.016235454167293582 0.0018891534996659759 0 -0.016842559580884139 0.012835249075307732 0 -0.016217004180609784 0.013737809950661366 0 -0.016948936289406288 0.013645639775717422 0 -0.018943152597965796 0.0077021657622312481 0 -0.021420045570613888 0.012097636653805227 0 -0.016217004180609784 0.013737809950661366 0 -0.016948936289406288 0.013645639775717422 0 -0.016661558565427389 0.014278222400435263 0 -0.017486460490210673 0.013198861667506182 0 -0.016948936289406288 0.013645639775717422 0 -0.017441551521583741 0.014124810809171665 0 -0.012608341287005099 0.010234589057047128 0 -0.011416322340202624 0.014535665306793169 0 -0.016948936289406288 0.013645639775717422 0 -0.017441551521583741 0.014124810809171665 0 -0.016661558565427389 0.014278222400435263 0 -0.017441551521583741 0.014124810809171665 0 -0.016661558565427389 0.014278222400435263 0 -0.01662914141153865 0.015020006170056095 0 -0.011416322340202624 0.014535665306793169 0 -0.016858586202656331 0.015401404118611262 0 -0.016217004180609784 0.013737809950661366 0 -0.016661558565427389 0.014278222400435263 0 -0.015638145991353592 0.01464583059572303 0 -0.016661558565427389 0.014278222400435263 0 -0.01662914141153865 0.015020006170056095 0 -0.015638145991353592 0.01464583059572303 0 -0.003445087721180573 0.01091936552648529 0 -0.0039327157150317992 0.011899961983092421 0 -0.0029990296109797723 0.012681219308265046 0 -0.0048713338332856924 0.011809117445050924 0 -0.0037106758101611436 0.013265616091154533 0 -0.00507430224657693 0.011719739177089355 0 -0.0039327157150317992 0.011899961983092421 0 -0.0035879733193349092 0.013424179725723883 0 -0.0039327157150317992 0.011899961983092421 0 -0.0029990296109797723 0.012681219308265046 0 -0.0035879733193349092 0.013424179725723883 0 -0.0029990296109797723 0.012681219308265046 0 -0.0025316278974481543 0.013756706836668683 0 -0.0035879733193349092 0.013424179725723883 0 -0.0099985417859252326 0.011702708158867543 0 -0.0099645964561966092 0.012598024287716622 0 -0.010496612130740868 0.011976822172873589 0 -0.003445087721180573 0.01091936552648529 0 -0.0029990296109797723 0.012681219308265046 0 -0.0022527201780397337 0.012274498107859794 0 -0.0029990296109797723 0.012681219308265046 0 -0.0024052253175112386 0.013043403184024254 0 -0.0025316278974481543 0.013756706836668683 0 -0.0029990296109797723 0.012681219308265046 0 -0.0024052253175112386 0.013043403184024254 0 -0.0023479029189532124 0.012343123241521562 0 -0.0033807488021716276 0.011476311518794873 0 -0.0056727652959291473 0.011377685700906271 0 -0.012608341287005099 0.010234589057047128 0 -0.0056727652959291473 0.011377685700906271 0 -0.0083528986671225144 0.0074092124541971088 0 -0.0081639282755376387 0.0074081230585914962 0 -0.0083632731374988917 0.0073775500032928929 0 -0.011416322340202624 0.014535665306793169 0 -0.0056727652959291473 0.011377685700906271 0 -0.0012880470483300865 0.013545750498627046 0 -0.0024052253175112386 0.013043403184024254 0 -0.0023479029189532124 0.012343123241521562 0 -0.0012880470483300865 0.013545750498627046 0 -0.0025316278974481543 0.013756706836668683 0 -0.0025964950343528763 0.01503997996830525 0 -0.0012880470483300865 0.013545750498627046 0 -0.0024052253175112386 0.013043403184024254 0 -0.0025316278974481543 0.013756706836668683 0 -0.0025316278974481543 0.013756706836668683 0 -0.0034620996641153475 0.014420333277757312 0 -0.0025964950343528763 0.01503997996830525 0 -0.0025316278974481543 0.013756706836668683 0 -0.0035879733193349092 0.013424179725723883 0 -0.0034620996641153475 0.014420333277757312 0 -0.0042619638109848571 0.015695061988080031 0 -0.004670101238501847 0.014277297453885146 0 -0.0034620996641153475 0.014420333277757312 0 -0.004670101238501847 0.014277297453885146 0 -0.0035879733193349092 0.013424179725723883 0 -0.0034620996641153475 0.014420333277757312 0 -0.0042619638109848571 0.015695061988080031 0 -0.0034620996641153475 0.014420333277757312 0 -0.0025964950343528763 0.01503997996830525 0 -0.0042619638109848571 0.015695061988080031 0 -0.0025964950343528763 0.01503997996830525 0 -0.0030003257211847455 0.016797032072665134 0 -0.0025964950343528763 0.01503997996830525 0 -0.0030003257211847455 0.016797032072665134 0 -0.0011092533837511063 0.01622568857608633 0 -0.0012880470483300865 0.013545750498627046 0 -0.0025964950343528763 0.01503997996830525 0 -0.0011092533837511063 0.01622568857608633 0 -0.0030003257211847455 0.016797032072665134 0 -0.0011092533837511063 0.01622568857608633 0 -0.0021946437881832808 0.018216446933211831 0 -0.0046656177042959084 0.016873632071937452 0 -0.0042619638109848571 0.015695061988080031 0 -0.0030003257211847455 0.016797032072665134 0 -0.0049773910442604619 0.018823394594557095 0 -0.0030003257211847455 0.016797032072665134 0 -0.0021946437881832808 0.018216446933211831 0 -0.0042334621252181027 0.01776954323255019 0 -0.0046656177042959084 0.016873632071937452 0 -0.0030003257211847455 0.016797032072665134 0 -0.0046258009298557456 0.018378174397825298 0 -0.0030752285169164742 0.016840130205878986 0 -0.016858586202656331 0.015401404118611262 0 -0.015560794998290182 0.015886280716297631 0 -0.01662914141153865 0.015020006170056095 0 -0.015787442547569922 0.015759355636839698 0 -0.015915361401683148 0.015189322500027684 0 -0.011416322340202624 0.014535665306793169 0 -0.0074824229212528586 0.016050622034382886 0 -0.01555204496356658 0.016121967927855141 0 -0.015328487231248399 0.015993778322961314 0 -0.015574990686436073 0.015898538950159399 0 -0.015250139666290023 0.016362805023561581 0 -0.01555204496356658 0.016121967927855141 0 -0.015328487231248399 0.015993778322961314 0 -0.015328487231248399 0.015993778322961314 0 -0.015441677901610908 0.015888383390048791 0 -0.015574990686436073 0.015898538950159399 0 -0.015328487231248399 0.015993778322961314 0 -0.015441677901610908 0.015888383390048791 0 -0.015377523958451508 0.015712384102496122 0 -0.0074824229212528586 0.016050622034382886 0 -0.010288743385770037 0.018604387202057999 0 -0.0011092533837511063 0.01622568857608633 0 -0.0021946437881832808 0.018216446933211831 0 -0.00076223405065992762 0.019755685314361924 0 -0.015441677901610908 0.015888383390048791 0 -0.015549989185029433 0.015850519585142279 0 -0.015486934449942551 0.015820338848180383 0 -0.01555204496356658 0.016121967927855141 0 -0.015574990686436073 0.015898538950159399 0 -0.015787442547569922 0.015759355636839698 0 -0.015574990686436073 0.015898538950159399 0 -0.015660144783713394 0.015813606597117787 0 -0.015787442547569922 0.015759355636839698 0 -0.015549989185029433 0.015850519585142279 0 -0.015574990686436073 0.015898538950159399 0 -0.015660144783713394 0.015813606597117787 0 -0.015441677901610908 0.015888383390048791 0 -0.015549989185029433 0.015850519585142279 0 -0.015574990686436073 0.015898538950159399 0 -0.015787442547569922 0.015759355636839698 0 -0.015326979028296108 0.015406605669124482 0 -0.015915361401683148 0.015189322500027684 0 -0.015787442547569922 0.015759355636839698 0 -0.015326979028296108 0.015406605669124482 0 -0.015544302771917077 0.015902970397495799 0 -0.015326979028296108 0.015406605669124482 0 -0.015148750927658364 0.015772901536568313 0 -0.015544302771917077 0.015902970397495799 0 -0.022696438219024739 0.014339982865030305 0 -0.022554827231317402 0.011735657906273393 0 -0.021733540561776763 0.013217972554681464 0 -0.018946378986325531 0.014922544850376463 0 -0.020020276959583659 0.013444272037471847 0 -0.022696438219024739 0.014339982865030305 0 -0.024399978117182128 0.012350124044921756 0 -0.022554827231317402 0.011735657906273393 0 -0.015326979028296108 0.015406605669124482 0 -0.015915361401683148 0.015189322500027684 0 -0.015638145991353592 0.01464583059572303 0 -0.01662914141153865 0.015020006170056095 0 -0.015915361401683148 0.015189322500027684 0 -0.015638145991353592 0.01464583059572303 0 -0.021420045570613888 0.012097636653805227 0 -0.020020276959583659 0.013444272037471847 0 -0.026102323474119234 0.0099997853991485551 0 -0.024399978117182128 0.012350124044921756 0 -0.023940039549361376 0.010445258902974267 0 -0.024399978117182128 0.012350124044921756 0 -0.022554827231317402 0.011735657906273393 0 -0.023940039549361376 0.010445258902974267 0 -0.023940039549361376 0.010445258902974267 0 -0.022438885884068373 0.010052345393932632 0 -0.023267172720395 0.009384823943481304 0 -0.022554827231317402 0.011735657906273393 0 -0.023940039549361376 0.010445258902974267 0 -0.022438885884068373 0.010052345393932632 0 -0.022948712322236633 0.0083476929364948872 0 -0.022545384517768625 0.0088041695087789917 0 -0.023267172720395 0.009384823943481304 0 -0.022545384517768625 0.0088041695087789917 0 -0.023267172720395 0.009384823943481304 0 -0.02219708852679337 0.0092883884975618058 0 -0.022438885884068373 0.010052345393932632 0 -0.023267172720395 0.009384823943481304 0 -0.02219708852679337 0.0092883884975618058 0 -0.02466335090866132 0.0087711263863263708 0 -0.023940039549361376 0.010445258902974267 0 -0.023267172720395 0.009384823943481304 0 -0.02466335090866132 0.0087711263863263708 0 -0.026102323474119234 0.0099997853991485551 0 -0.023940039549361376 0.010445258902974267 0 -0.025853356248030181 0.0077807947727470935 0 -0.02466335090866132 0.0087711263863263708 0 -0.026102323474119234 0.0099997853991485551 0 -0.020753157022392749 0.011397483493183957 0 -0.020013207157833033 0.011312217530116072 0 -0.020391102273480666 0.011981332570258473 0 -0.020753157022392749 0.011397483493183957 0 -0.020013207157833033 0.011312217530116072 0 -0.020424020352032033 0.01041872803404576 0 -0.020753157022392749 0.011397483493183957 0 -0.020424020352032033 0.01041872803404576 0 -0.021448633781461886 0.011235696104319969 0 -0.020013207157833033 0.011312217530116072 0 -0.020424020352032033 0.01041872803404576 0 -0.019103622556321118 0.01097363298206859 0 -0.020092889686444571 0.0092376163145391019 0 -0.021030979537674729 0.0098371433324720425 0 -0.021105788837871536 0.008287659315502148 0 -0.019996879134992436 0.0087421324364615957 0 -0.021027683622850887 0.0089990534650554888 0 -0.020092889686444571 0.0092376163145391019 0 -0.021348948917703774 0.010749958787490218 0 -0.019996879134992436 0.0087421324364615957 0 -0.021027683622850887 0.0089990534650554888 0 -0.021274757492286259 0.010077549342843439 0 -0.021105788837871536 0.008287659315502148 0 -0.021027683622850887 0.0089990534650554888 0 -0.021481852834509169 0.0088188773936678753 0 -0.021027683622850887 0.0089990534650554888 0 -0.021706309193886535 0.0093999621760433878 0 -0.021274757492286259 0.010077549342843439 0 -0.02195949130078146 0.0088329488634345758 0 -0.021706309193886535 0.0093999621760433878 0 -0.02219708852679337 0.0092883884975618058 0 -0.022545384517768625 0.0088041695087789917 0 -0.02195949130078146 0.0088329488634345758 0 -0.02219708852679337 0.0092883884975618058 0 -0.021027683622850887 0.0089990534650554888 0 -0.021481852834509169 0.0088188773936678753 0 -0.021706309193886535 0.0093999621760433878 0 -0.02195949130078146 0.0088329488634345758 0 -0.021481852834509169 0.0088188773936678753 0 -0.021706309193886535 0.0093999621760433878 0 -0.02164073591903052 0.0084056956442861881 0 -0.02195949130078146 0.0088329488634345758 0 -0.021481852834509169 0.0088188773936678753 0 -0.022438885884068373 0.010052345393932632 0 -0.021706309193886535 0.0093999621760433878 0 -0.02219708852679337 0.0092883884975618058 0 -0.022438885884068373 0.010052345393932632 0 -0.021706309193886535 0.0093999621760433878 0 -0.021274757492286259 0.010077549342843439 0 -0.022554827231317402 0.011735657906273393 0 -0.021274757492286259 0.010077549342843439 0 -0.021081484107176376 0.010169593976590873 0 -0.022554827231317402 0.011735657906273393 0 -0.022438885884068373 0.010052345393932632 0 -0.021274757492286259 0.010077549342843439 0 -0.020753157022392749 0.011397483493183957 0 -0.021448633781461886 0.011235696104319969 0 -0.021246386721318171 0.011740890834288111 0 -0.019585188491798387 0.0089919492662592429 0 -0.021274757492286259 0.010077549342843439 0 -0.021081484107176376 0.010169593976590873 0 -0.020753157022392749 0.011397483493183957 0 -0.021246386721318171 0.011740890834288111 0 -0.021002065492835131 0.012063965958733229 0 -0.021448633781461886 0.011235696104319969 0 -0.021246386721318171 0.011740890834288111 0 -0.021575305543867471 0.012171094020971806 0 -0.021246386721318171 0.011740890834288111 0 -0.021002065492835131 0.012063965958733229 0 -0.021575305543867471 0.012171094020971806 0 -0.022554827231317402 0.011735657906273393 0 -0.021448633781461886 0.011235696104319969 0 -0.021575305543867471 0.012171094020971806 0 -0.022410357121562221 0.011614486342650134 0 -0.021348948917703774 0.010749958787490218 0 -0.022554827231317402 0.011735657906273393 0 -0.021575305543867471 0.012171094020971806 0 -0.021733540561776763 0.013217972554681464 0 -0.021002065492835131 0.012063965958733229 0 -0.021575305543867471 0.012171094020971806 0 -0.021043616425475465 0.012935922572295994 0 -0.021575305543867471 0.012171094020971806 0 -0.021043616425475465 0.012935922572295994 0 -0.021733540561776763 0.013217972554681464 0 -0.021002065492835131 0.012063965958733229 0 -0.021043616425475465 0.012935922572295994 0 -0.020345972647861889 0.012689902617649447 0 -0.020013207157833033 0.011312217530116072 0 -0.019630768733438348 0.012814629791360017 0 -0.019103622556321118 0.01097363298206859 0 -0.021043616425475465 0.012935922572295994 0 -0.020345972647861889 0.012689902617649447 0 -0.02049519384275876 0.013382939726163529 0 -0.021002065492835131 0.012063965958733229 0 -0.020345972647861889 0.012689902617649447 0 -0.020391102273480666 0.011981332570258473 0 -0.020753157022392749 0.011397483493183957 0 -0.021002065492835131 0.012063965958733229 0 -0.020391102273480666 0.011981332570258473 0 -0.020013207157833033 0.011312217530116072 0 -0.020391102273480666 0.011981332570258473 0 -0.019630768733438348 0.012814629791360017 0 -0.020345972647861889 0.012689902617649447 0 -0.020391102273480666 0.011981332570258473 0 -0.019630768733438348 0.012814629791360017 0 -0.020345972647861889 0.012689902617649447 0 -0.019630768733438348 0.012814629791360017 0 -0.019810465099825925 0.013798026673029947 0 -0.021043616425475465 0.012935922572295994 0 -0.02049519384275876 0.013382939726163529 0 -0.020892384978116987 0.014034762406627153 0 -0.019810465099825925 0.013798026673029947 0 -0.02049519384275876 0.013382939726163529 0 -0.020892384978116987 0.014034762406627153 0 -0.020345972647861889 0.012689902617649447 0 -0.019810465099825925 0.013798026673029947 0 -0.02049519384275876 0.013382939726163529 0 -0.019810465099825925 0.013798026673029947 0 -0.020892384978116987 0.014034762406627153 0 -0.020141044139615469 0.014915925178636387 0 -0.022696438219024739 0.014339982865030305 0 -0.021733540561776763 0.013217972554681464 0 -0.020892384978116987 0.014034762406627153 0 -0.021043616425475465 0.012935922572295994 0 -0.021733540561776763 0.013217972554681464 0 -0.020892384978116987 0.014034762406627153 0 -0.022696438219024739 0.014339982865030305 0 -0.020892384978116987 0.014034762406627153 0 -0.020959277455501257 0.015316851787912431 0 -0.022696438219024739 0.014339982865030305 0 -0.020959277455501257 0.015316851787912431 0 -0.021202034009175169 0.015803456656136163 0 -0.018946378986325531 0.014922544850376463 0 -0.018615584778763683 0.015412182448646203 0 -0.019810465099825925 0.013798026673029947 0 -0.020141044139615469 0.014915925178636387 0 -0.019605791003372543 0.014673288945549522 0 -0.020892384978116987 0.014034762406627153 0 -0.020959277455501257 0.015316851787912431 0 -0.020141044139615469 0.014915925178636387 0 -0.020959277455501257 0.015316851787912431 0 -0.020141044139615469 0.014915925178636387 0 -0.020269836055261867 0.015858004475605043 0 -0.020141044139615469 0.014915925178636387 0 -0.020269836055261867 0.015858004475605043 0 -0.019371223405428691 0.015429137015041651 0 -0.020141044139615469 0.014915925178636387 0 -0.019371223405428691 0.015429137015041651 0 -0.019605791003372543 0.014673288945549522 0 -0.020269836055261867 0.015858004475605043 0 -0.019876334804762922 0.016749359951360381 0 -0.019371223405428691 0.015429137015041651 0 -0.020959277455501257 0.015316851787912431 0 -0.020269836055261867 0.015858004475605043 0 -0.020792503126928753 0.016038285269194767 0 -0.020269836055261867 0.015858004475605043 0 -0.020819339374084984 0.016570790754324684 0 -0.020792503126928753 0.016038285269194767 0 -0.020269836055261867 0.015858004475605043 0 -0.019876334804762922 0.016749359951360381 0 -0.020819339374084984 0.016570790754324684 0 -0.0167052179079154 0.024936305121965117 0 -0.015271861395107637 0.025845287293516799 0 -0.019876334804762922 0.016749359951360381 0 -0.02088982277650649 0.017415369604998905 0 -0.019259082151957756 0.018168661564208467 0 -0.019876334804762922 0.016749359951360381 0 -0.02088982277650649 0.017415369604998905 0 -0.020819339374084984 0.016570790754324684 0 -0.012362511217432308 0.032608219569998202 0 -0.012926332383967312 0.032238006258473534 0 -0.012696745308579012 0.032980706482438206 0 -0.0167052179079154 0.024936305121965117 0 -0.017468666789999848 0.024915729869255471 0 -0.02088982277650649 0.017415369604998905 0 -0.021477997901308752 0.016459329529744129 0 -0.021865131113713944 0.016813172460524353 0 -0.02088982277650649 0.017415369604998905 0 -0.021477997901308752 0.016459329529744129 0 -0.020819339374084984 0.016570790754324684 0 -0.021477997901308752 0.016459329529744129 0 -0.020819339374084984 0.016570790754324684 0 -0.021092985069970052 0.016145674571975993 0 -0.020819339374084984 0.016570790754324684 0 -0.020792503126928753 0.016038285269194767 0 -0.021092985069970052 0.016145674571975993 0 -0.020959277455501257 0.015316851787912431 0 -0.020792503126928753 0.016038285269194767 0 -0.021202034009175169 0.015803456656136163 0 -0.020792503126928753 0.016038285269194767 0 -0.021092985069970052 0.016145674571975993 0 -0.021202034009175169 0.015803456656136163 0 -0.021477997901308752 0.016459329529744129 0 -0.021092985069970052 0.016145674571975993 0 -0.021202034009175169 0.015803456656136163 0 -0.021477997901308752 0.016459329529744129 0 -0.021202034009175169 0.015803456656136163 0 -0.021906294330371209 0.016387986592985126 0 -0.018615584778763683 0.015412182448646203 0 -0.018920888236477258 0.015981859732069541 0 -0.021477997901308752 0.016459329529744129 0 -0.021906294330371209 0.016387986592985126 0 -0.021865131113713944 0.016813172460524353 0 -0.018920888236477258 0.015981859732069541 0 -0.016649534969080879 0.019772776029234339 0 -0.021906294330371209 0.016387986592985126 0 -0.022303952084098324 0.016611866418002982 0 -0.021865131113713944 0.016813172460524353 0 -0.015787442547569922 0.015759355636839698 0 -0.015544302771917077 0.015902970397495799 0 -0.015700612120778085 0.01584241474128785 0 -0.015660144783713394 0.015813606597117787 0 -0.015787442547569922 0.015759355636839698 0 -0.015700612120778085 0.01584241474128785 0 -0.013635504384942957 0.031878912109567052 0 -0.013254788355964272 0.032662970242310366 0 -0.013847978798657134 0.032702158861138593 0 -0.013635504384942957 0.031878912109567052 0 -0.012926332383967312 0.032238006258473534 0 -0.013254788355964272 0.032662970242310366 0 -0.016649534969080879 0.019772776029234339 0 -0.017468666789999848 0.024915729869255471 0 -0.012926332383967312 0.032238006258473534 0 -0.012696745308579012 0.032980706482438206 0 -0.013254788355964272 0.032662970242310366 0 -0.012696745308579012 0.032980706482438206 0 -0.013254788355964272 0.032662970242310366 0 -0.01316250614074572 0.033323190690282722 0 -0.013254788355964272 0.032662970242310366 0 -0.01316250614074572 0.033323190690282722 0 -0.013847978798657134 0.032702158861138593 0 -0.01316250614074572 0.033323190690282722 0 -0.013896909528506293 0.033561860411795819 0 -0.013214725184062363 0.033933631706415709 0 -0.01316250614074572 0.033323190690282722 0 -0.012639712757257603 0.033448497409866072 0 -0.012757051445927195 0.033999206746479389 0 -0.012696745308579012 0.032980706482438206 0 -0.01316250614074572 0.033323190690282722 0 -0.012639712757257603 0.033448497409866072 0 -0.01316250614074572 0.033323190690282722 0 -0.012757051445927195 0.033999206746479389 0 -0.013214725184062363 0.033933631706415709 0 -0.012696745308579012 0.032980706482438206 0 -0.012639712757257603 0.033448497409866072 0 -0.012264356799278809 0.033327298927332147 0 -0.012639712757257603 0.033448497409866072 0 -0.012264356799278809 0.033327298927332147 0 -0.01233069799373562 0.034083858775318845 0 -0.012264356799278809 0.033327298927332147 0 -0.012162427002784424 0.033138859272948545 0 -0.012159880845796854 0.033059668246560592 0 -0.012368612206278688 0.033259443508909872 0 -0.011564079434547347 0.033558886934966115 0 -0.012362511217432308 0.032608219569998202 0 -0.012159880845796854 0.033059668246560592 0 -0.012126448915222901 0.032888671064525837 0 -0.012362511217432308 0.032608219569998202 0 -0.012264356799278809 0.033327298927332147 0 -0.012159880845796854 0.033059668246560592 0 -0.012362511217432308 0.032608219569998202 0 -0.012696745308579012 0.032980706482438206 0 -0.012264356799278809 0.033327298927332147 0 -0.0051813472269433558 0.021179868929679158 0 -0.0045890996652673014 0.022677088100613557 0 -0.0025642641927974262 0.021176088677920906 0 -0.0046595411153690152 0.020210305336010318 0 -0.0023992141676994825 0.018568065798792707 0 -0.0049773910442604619 0.018823394594557095 0 -0.0042383337983592055 0.020495593691533514 0 -0.0021946437881832808 0.018216446933211831 0 -0.0021946437881832808 0.018216446933211831 0 -0.0025642641927974262 0.021176088677920906 0 -0.00076223405065992762 0.019755685314361924 0 -0.0051813472269433558 0.021179868929679158 0 -0.0021946437881832808 0.018216446933211831 0 -0.0025642641927974262 0.021176088677920906 0 -0.01017748920502937 0.026622065269267817 0 -0.010588786533795322 0.026431051999672741 0 -0.0086506385940542455 0.025039338002829953 0 -0.006339430523876634 0.023491373142542352 0 -0.010288743385770037 0.018604387202057999 0 -0.012506300656092897 0.027749929588786006 0 -0.010588786533795322 0.026431051999672741 0 -0.011008801748365689 0.0279189113260375 0 -0.01017748920502937 0.026622065269267817 0 -0.010588786533795322 0.026431051999672741 0 -0.011008801748365689 0.0279189113260375 0 -0.0073411572105013439 0.026988727094575112 0 -0.006339430523876634 0.023491373142542352 0 -0.01017748920502937 0.026622065269267817 0 -0.008622225820055316 0.026174874392183436 0 -0.0097022970433702001 0.028025139213988064 0 -0.01017748920502937 0.026622065269267817 0 -0.0097022970433702001 0.028025139213988064 0 -0.011008801748365689 0.0279189113260375 0 -0.01017748920502937 0.026622065269267817 0 -0.0086039323218016061 0.026114148978474489 0 -0.0086506385940542455 0.025039338002829953 0 -0.0093180930686965844 0.026018702364070397 0 -0.012811319901407251 0.026297175381701433 0 -0.012811319901407251 0.026297175381701433 0 -0.010288743385770037 0.018604387202057999 0 -0.015441677901610908 0.015888383390048791 0 -0.015377523958451508 0.015712384102496122 0 -0.015486934449942551 0.015820338848180383 0 -0.015377523958451508 0.015712384102496122 0 -0.015486934449942551 0.015820338848180383 0 -0.015561006217766946 0.01581323074364965 0 -0.015871006316051098 0.016098184359358253 0 -0.015561006217766946 0.01581323074364965 0 -0.015590369162908959 0.015875335630474725 0 -0.015871669926266648 0.01633214729012079 0 -0.015871006316051098 0.016098184359358253 0 -0.015590369162908959 0.015875335630474725 0 -0.010288743385770037 0.018604387202057999 0 -0.015921226026688468 0.016771230456757154 0 -0.016649534969080879 0.019772776029234339 0 -0.015554540938856257 0.0158789704122713 0 -0.015076569824971046 0.016085351895727889 0 -0.015871669926266648 0.01633214729012079 0 -0.015590369162908959 0.015875335630474725 0 -0.015700612120778085 0.01584241474128785 0 -0.015561006217766946 0.01581323074364965 0 -0.015590369162908959 0.015875335630474725 0 -0.015549989185029433 0.015850519585142279 0 -0.015660144783713394 0.015813606597117787 0 -0.015561006217766946 0.01581323074364965 0 -0.015549989185029433 0.015850519585142279 0 -0.015486934449942551 0.015820338848180383 0 -0.015561006217766946 0.01581323074364965 0 -0.015660144783713394 0.015813606597117787 0 -0.015700612120778085 0.01584241474128785 0 -0.015561006217766946 0.01581323074364965 0 -0.016649534969080879 0.019772776029234339 0 -0.012811319901407251 0.026297175381701433 0 -0.013635504384942957 0.031878912109567052 0 -0.014594060994859845 0.032120694238334212 0 -0.013847978798657134 0.032702158861138593 0 -0.013847978798657134 0.032702158861138593 0 -0.013896909528506293 0.033561860411795819 0 -0.014557251349015914 0.03308896862972343 0 -0.01316250614074572 0.033323190690282722 0 -0.013847978798657134 0.032702158861138593 0 -0.013896909528506293 0.033561860411795819 0 -0.013896909528506293 0.033561860411795819 0 -0.014557251349015914 0.03308896862972343 0 -0.014518209530567486 0.034089014879734765 0 -0.008468840067543738 0.029835440599791808 0 -0.01078953574919856 0.032427774096648626 0 -0.0083427734383367085 0.033474085352258598 0 -0.011357434842206676 0.031998423627578196 0 -0.011656341696354624 0.034062165879917464 0 -0.008622225820055316 0.026174874392183436 0 -0.008468840067543738 0.029835440599791808 0 -0.0097022970433702001 0.028025139213988064 0 -0.014594060994859845 0.032120694238334212 0 -0.013847978798657134 0.032702158861138593 0 -0.014557251349015914 0.03308896862972343 0 -0.012811319901407251 0.026297175381701433 0 -0.011357434842206676 0.031998423627578196 0 -0.0097022970433702001 0.028025139213988064 0 -0.011008801748365689 0.0279189113260375 0 -0.010237765736156926 0.029575365422953061 0 -0.011008801748365689 0.0279189113260375 0 -0.011653760013718688 0.030089656484058338 0 -0.010237765736156926 0.029575365422953061 0 -0.008468840067543738 0.029835440599791808 0 -0.0097022970433702001 0.028025139213988064 0 -0.010237765736156926 0.029575365422953061 0 -0.0094614698617120716 0.030495148920275779 0 -0.0093578427370423073 0.034704549044743446 0 -0.011653760013718688 0.030089656484058338 0 -0.010237765736156926 0.029575365422953061 0 -0.01078953574919856 0.032427774096648626 0 -0.008468840067543738 0.029835440599791808 0 -0.010237765736156926 0.029575365422953061 0 -0.01078953574919856 0.032427774096648626 0 -0.0082458893393520562 0.035688641685939701 0 -0.0093578427370423073 0.034704549044743446 0 -0.0090136745398716536 0.039161557130537678 0 -0.00891586105581171 0.038419136805963677 0 -0.010102941192710319 0.038755169257820056 0 -0.0071739644318791519 0.031245185481543071 0 -0.0079496230886010339 0.031772702766091426 0 -0.0068124691153784384 0.032282755555694868 0 -0.0071739644318791519 0.031245185481543071 0 -0.0079496230886010339 0.031772702766091426 0 -0.0078359451486140191 0.030977158416659101 0 -0.0083659262016086075 0.031254873719605412 0 -0.0079496230886010339 0.031772702766091426 0 -0.0078359451486140191 0.030977158416659101 0 -0.012506300656092897 0.027749929588786006 0 -0.011008801748365689 0.0279189113260375 0 -0.011653760013718688 0.030089656484058338 0 -0.0074059518278459238 0.024645119543832025 0 -0.0051813472269433558 0.021179868929679158 0 -0.0045890996652673014 0.022677088100613557 0 -0.0072918304757445245 0.029246969751618404 0 -0.0073411572105013439 0.026988727094575112 0 -0.0086361642566681416 0.030942807041040177 0 -0.007544400250684178 0.030201075615274232 0 -0.0078359451486140191 0.030977158416659101 0 -0.0073411572105013439 0.026988727094575112 0 -0.0094614698617120716 0.030495148920275779 0 -0.007544400250684178 0.030201075615274232 0 -0.0071739644318791519 0.031245185481543071 0 -0.0078359451486140191 0.030977158416659101 0 -0.0092794744868177001 0.037646709866994178 0 -0.00891586105581171 0.038419136805963677 0 -0.010102941192710319 0.038755169257820056 0 -0.0092794744868177001 0.037646709866994178 0 -0.010102941192710319 0.038755169257820056 0 -0.010744259908791238 0.037363978981100388 0 -0.0093578427370423073 0.034704549044743446 0 -0.011656341696354624 0.034062165879917464 0 -0.0093578427370423073 0.034704549044743446 0 -0.01090275498780943 0.036874869336151653 0 -0.011043153194026958 0.035226316670456066 0 -0.010994147393772908 0.035422438008158065 0 -0.010930642504933218 0.035280674664146 0 -0.0092794744868177001 0.037646709866994178 0 -0.010744259908791238 0.037363978981100388 0 -0.0096823525985589957 0.036254144499674096 0 -0.011919788696421421 0.035368663271814788 0 -0.011656341696354624 0.034062165879917464 0 -0.010994147393772908 0.035422438008158065 0 -0.010935736868335648 0.035448996297943111 0 -0.010930642504933218 0.035280674664146 0 -0.012888414433820751 0.034946649641710285 0 -0.012920008032601675 0.034941286113024134 0 -0.012967524534656136 0.034921763122588143 0 -0.011656341696354624 0.034062165879917464 0 -0.013670599591821623 0.034488199039481963 0 -0.013896909528506293 0.033561860411795819 0 -0.014518209530567486 0.034089014879734765 0 -0.013932050132576094 0.034356582555307345 0 -0.013896909528506293 0.033561860411795819 0 -0.013932050132576094 0.034356582555307345 0 -0.013214725184062363 0.033933631706415709 0 -0.012967524534656136 0.034921763122588143 0 -0.0129791355323867 0.034893580398965937 0 -0.013177994265803053 0.034692236583314516 0 -0.013670599591821623 0.034488199039481963 0 -0.013131070357155277 0.034731291989885754 0 -0.012888414433820751 0.034946649641710285 0 -0.012967524534656136 0.034921763122588143 0 -0.0129791355323867 0.034893580398965937 0 -0.012888414433820751 0.034946649641710285 0 -0.0129791355323867 0.034893580398965937 0 -0.01280567563745726 0.035035590694917164 0 -0.0129791355323867 0.034893580398965937 0 -0.01280567563745726 0.035035590694917164 0 -0.012975118370294582 0.035062156520520894 0 -0.01280567563745726 0.035035590694917164 0 -0.012647671787774629 0.035140830907122889 0 -0.012975118370294582 0.035062156520520894 0 -0.012647671787774629 0.035140830907122889 0 -0.012975118370294582 0.035062156520520894 0 -0.013225833890057508 0.034999932463721489 0 -0.012647671787774629 0.035140830907122889 0 -0.011930890115179107 0.034999517709300716 0 -0.013225833890057508 0.034999932463721489 0 -0.01280567563745726 0.035035590694917164 0 -0.012647671787774629 0.035140830907122889 0 -0.012596083863790103 0.03509930254275366 0 -0.012647671787774629 0.035140830907122889 0 -0.012596083863790103 0.03509930254275366 0 -0.011930890115179107 0.034999517709300716 0 -0.011927574574301363 0.034999957705311648 0 -0.011548857386782968 0.035481386237496068 0 -0.010507483869982131 0.034999972446788409 0 -0.011575666494355754 0.035435332090114048 0 -0.011559216724608613 0.035566090173551126 0 -0.011575666494355754 0.035435332090114048 0 -0.011927856519348006 0.034999934823717237 0 -0.011505565821507961 0.035890942984604719 0 -0.011927574574301363 0.034999957705311648 0 -0.011548857386782968 0.035481386237496068 0 -0.011548857386782968 0.035481386237496068 0 -0.010792418779959201 0.036005104756904771 0 -0.010507483869982131 0.034999972446788409 0 -0.011484899567583652 0.035867682387179266 0 -0.011548857386782968 0.035481386237496068 0 -0.010792418779959201 0.036005104756904771 0 -0.01090275498780943 0.036874869336151653 0 -0.011575666494355754 0.035435332090114048 0 -0.010744259908791238 0.037363978981100388 0 -0.011484899567583652 0.035867682387179266 0 -0.010792418779959201 0.036005104756904771 0 -0.012888414433820751 0.034946649641710285 0 -0.01280567563745726 0.035035590694917164 0 -0.012596083863790103 0.03509930254275366 0 -0.011919788696421421 0.035368663271814788 0 -0.011575666494355754 0.035435332090114048 0 -0.010994147393772908 0.035422438008158065 0 -0.010935736868335648 0.035448996297943111 0 -0.010947382131491946 0.035611318305484585 0 -0.010744259908791238 0.037363978981100388 0 -0.010792418779959201 0.036005104756904771 0 -0.0096823525985589957 0.036254144499674096 0 -0.010792418779959201 0.036005104756904771 0 -0.010507483869982131 0.034999972446788409 0 -0.0096823525985589957 0.036254144499674096 0 -0.010507483869982131 0.034999972446788409 0 -0.009087311359871425 0.03499994733876876 0 -0.0096823525985589957 0.036254144499674096 0 -0.0084219518225786914 0.036014730583401849 0 -0.009087311359871425 0.03499994733876876 0 -0.0096823525985589957 0.036254144499674096 0 -0.0084219518225786914 0.036014730583401849 0 -0.0096823525985589957 0.036254144499674096 0 -0.0088353843247619916 0.036752616181882497 0 -0.0092794744868177001 0.037646709866994178 0 -0.0096823525985589957 0.036254144499674096 0 -0.0088353843247619916 0.036752616181882497 0 -0.01233069799373562 0.034083858775318845 0 -0.012802733053025829 0.034651737057564726 0 -0.012411434158665975 0.034863675082940061 0 -0.011792828967920948 0.034407348318216666 0 -0.01233069799373562 0.034083858775318845 0 -0.012411434158665975 0.034863675082940061 0 -0.01441329346619428 0.036028896442977729 0 -0.014109978160546009 0.035706858400833597 0 -0.012264356799278809 0.033327298927332147 0 -0.01167980245919222 0.033675308547254201 0 -0.01233069799373562 0.034083858775318845 0 -0.01167980245919222 0.033675308547254201 0 -0.011792828967920948 0.034407348318216666 0 -0.01233069799373562 0.034083858775318845 0 -0.012639712757257603 0.033448497409866072 0 -0.01233069799373562 0.034083858775318845 0 -0.012757051445927195 0.033999206746479389 0 -0.012757051445927195 0.033999206746479389 0 -0.012975854497645855 0.034338313451459351 0 -0.012802733053025829 0.034651737057564726 0 -0.012757051445927195 0.033999206746479389 0 -0.012975854497645855 0.034338313451459351 0 -0.013214725184062363 0.033933631706415709 0 -0.01233069799373562 0.034083858775318845 0 -0.012757051445927195 0.033999206746479389 0 -0.012802733053025829 0.034651737057564726 0 -0.012975854497645855 0.034338313451459351 0 -0.013214725184062363 0.033933631706415709 0 -0.013177994265803053 0.034692236583314516 0 -0.013932050132576094 0.034356582555307345 0 -0.013214725184062363 0.033933631706415709 0 -0.013177994265803053 0.034692236583314516 0 -0.013177994265803053 0.034692236583314516 0 -0.012802733053025829 0.034651737057564726 0 -0.013002507870621341 0.03488783415467929 0 -0.012975854497645855 0.034338313451459351 0 -0.013177994265803053 0.034692236583314516 0 -0.012802733053025829 0.034651737057564726 0 -0.0129791355323867 0.034893580398965937 0 -0.013177994265803053 0.034692236583314516 0 -0.013002507870621341 0.03488783415467929 0 -0.013743511938591758 0.035487619038986416 0 -0.014109978160546009 0.035706858400833597 0 -0.012802733053025829 0.034651737057564726 0 -0.013002507870621341 0.03488783415467929 0 -0.012896721415389887 0.035098305299846949 0 -0.012802733053025829 0.034651737057564726 0 -0.012896721415389887 0.035098305299846949 0 -0.012411434158665975 0.034863675082940061 0 -0.013002507870621341 0.03488783415467929 0 -0.012975118370294582 0.035062156520520894 0 -0.012896721415389887 0.035098305299846949 0 -0.0129791355323867 0.034893580398965937 0 -0.013002507870621341 0.03488783415467929 0 -0.012975118370294582 0.035062156520520894 0 -0.01322854527600173 0.035000090897716475 0 -0.013743511938591758 0.035487619038986416 0 -0.012975118370294582 0.035062156520520894 0 -0.013225833890057508 0.034999932463721489 0 -0.012896721415389887 0.035098305299846949 0 -0.013228430613891546 0.035000044406948136 0 -0.01486119780027376 0.034999874385505003 0 -0.014607665205480583 0.035924865766150942 0 -0.01486119780027376 0.034999874385505003 0 -0.014607665205480583 0.035924865766150942 0 -0.01569438674719004 0.035709200649906438 0 -0.01486119780027376 0.034999874385505003 0 -0.01569438674719004 0.035709200649906438 0 -0.016492714415618479 0.035000094887891797 0 -0.01569438674719004 0.035709200649906438 0 -0.015886979081477386 0.036635228988395295 0 -0.017181008913047344 0.036003571927566598 0 -0.014607665205480583 0.035924865766150942 0 -0.01569438674719004 0.035709200649906438 0 -0.015886979081477386 0.036635228988395295 0 -0.01688182756841982 0.03723500524539862 0 -0.015886979081477386 0.036635228988395295 0 -0.017181008913047344 0.036003571927566598 0 -0.01569438674719004 0.035709200649906438 0 -0.016492714415618479 0.035000094887891797 0 -0.017181008913047344 0.036003571927566598 0 -0.016493547066681307 0.035000287506373427 0 -0.017335015240340829 0.035988891909212624 0 -0.016493352337079128 0.034999977532126775 0 -0.018124523046639713 0.035000014447804387 0 -0.0175778166891968 0.036118535318962086 0 -0.018124523046639713 0.035000014447804387 0 -0.019011166168307541 0.036020887210941821 0 -0.0175778166891968 0.036118535318962086 0 -0.018124523046639713 0.035000014447804387 0 -0.019011166168307541 0.036020887210941821 0 -0.019755597368641967 0.034999798554622194 0 -0.019011166168307541 0.036020887210941821 0 -0.018641892189403864 0.037212326365235547 0 -0.019885060444510733 0.03696636634233437 0 -0.017335015240340829 0.035988891909212624 0 -0.018344981280160187 0.03733607935259254 0 -0.01688182756841982 0.03723500524539862 0 -0.017181008913047344 0.036003571927566598 0 -0.017797011674001773 0.036785090627864128 0 -0.019011166168307541 0.036020887210941821 0 -0.0175778166891968 0.036118535318962086 0 -0.018641892189403864 0.037212326365235547 0 -0.01688182756841982 0.03723500524539862 0 -0.017797011674001773 0.036785090627864128 0 -0.017715063792312826 0.037786675670034069 0 -0.018641892189403864 0.037212326365235547 0 -0.019683304573013653 0.038311671329778668 0 -0.019885060444510733 0.03696636634233437 0 -0.018344981280160187 0.03733607935259254 0 -0.019247720379696586 0.035488991864611304 0 -0.017797011674001773 0.036785090627864128 0 -0.017715063792312826 0.037786675670034069 0 -0.018421964977564785 0.037471810047853812 0 -0.016712579034117596 0.032679730981773986 0 -0.017640160236544675 0.032861623784027266 0 -0.017607651793085297 0.033312336596504566 0 -0.014505367785286643 0.034281526144728028 0 -0.019247720379696586 0.035488991864611304 0 -0.016712579034117596 0.032679730981773986 0 -0.017640160236544675 0.032861623784027266 0 -0.017528192876472309 0.032329305336546106 0 -0.01167980245919222 0.033675308547254201 0 -0.011792828967920948 0.034407348318216666 0 -0.011183537562330446 0.033920430343032354 0 -0.01441329346619428 0.036028896442977729 0 -0.014505367785286643 0.034281526144728028 0 -0.011564079434547347 0.033558886934966115 0 -0.014505367785286643 0.034281526144728028 0 -0.020548360386790983 0.033649577810375177 0 -0.020657234400169047 0.03345060847155519 0 -0.02102673584608962 0.033669971294125238 0 -0.021181569157630257 0.029126582635608342 0 -0.021055072801159959 0.029137055827348265 0 -0.021098381290522508 0.029085876493656463 0 -0.019822605075134756 0.031178027030838173 0 -0.0220608680991436 0.031546330723546512 0 -0.020535960032590922 0.033733064655895525 0 -0.020548360386790983 0.033649577810375177 0 -0.02102673584608962 0.033669971294125238 0 -0.020367370942016953 0.033571278693278292 0 -0.020548360386790983 0.033649577810375177 0 -0.020657234400169047 0.03345060847155519 0 -0.019689392006816551 0.03108675399385398 0 -0.019528704960101562 0.030913517427445119 0 -0.019415479114606345 0.031120914058345085 0 -0.019822605075134756 0.031178027030838173 0 -0.019262218821345076 0.031506127833195077 0 -0.019822605075134756 0.031178027030838173 0 -0.019570761440468841 0.03194514798315392 0 -0.020535960032590922 0.033733064655895525 0 -0.020513367277207033 0.033708677807862991 0 -0.020548360386790983 0.033649577810375177 0 -0.019570761440468841 0.03194514798315392 0 -0.019562100665555558 0.032526034856319566 0 -0.017929407418477431 0.032748215592920626 0 -0.017640160236544675 0.032861623784027266 0 -0.017528192876472309 0.032329305336546106 0 -0.017929407418477431 0.032748215592920626 0 -0.017640160236544675 0.032861623784027266 0 -0.017883030707485405 0.03283255252940815 0 -0.018307181772298311 0.0318632440311633 0 -0.019262218821345076 0.031506127833195077 0 -0.019570761440468841 0.03194514798315392 0 -0.019262218821345076 0.031506127833195077 0 -0.019570761440468841 0.03194514798315392 0 -0.019247720379696586 0.035488991864611304 0 -0.02051097552670833 0.033713100479335116 0 -0.020367370942016953 0.033571278693278292 0 -0.020548360386790983 0.033649577810375177 0 -0.019247720379696586 0.035488991864611304 0 -0.020746302374817494 0.035639843780744467 0 -0.020802183355392866 0.037838107067816616 0 -0.020963866428801835 0.03670548632874529 0 -0.019885060444510733 0.03696636634233437 0 -0.019683304573013653 0.038311671329778668 0 -0.020802183355392866 0.037838107067816616 0 -0.019885060444510733 0.03696636634233437 0 -0.020802183355392866 0.037838107067816616 0 -0.020963866428801835 0.03670548632874529 0 -0.02193288537555671 0.037353724336481466 0 -0.020746302374817494 0.035639843780744467 0 -0.021980518773263489 0.035507375408056104 0 -0.020657234400169047 0.03345060847155519 0 -0.02093994823451549 0.033337801045325861 0 -0.02102673584608962 0.033669971294125238 0 -0.020963866428801835 0.03670548632874529 0 -0.021665705616074431 0.036180209699964314 0 -0.02193288537555671 0.037353724336481466 0 -0.021751344082711403 0.036438090894006521 0 -0.021980518773263489 0.035507375408056104 0 -0.020963866428801835 0.03670548632874529 0 -0.020499677576540275 0.035841642468351281 0 -0.021190621160484202 0.035643045657846539 0 -0.020963866428801835 0.03670548632874529 0 -0.021665705616074431 0.036180209699964314 0 -0.021190621160484202 0.035643045657846539 0 -0.020963866428801835 0.03670548632874529 0 -0.019885060444510733 0.03696636634233437 0 -0.020499677576540275 0.035841642468351281 0 -0.019011166168307541 0.036020887210941821 0 -0.019885060444510733 0.03696636634233437 0 -0.020499677576540275 0.035841642468351281 0 -0.019755597368641967 0.034999798554622194 0 -0.020499677576540275 0.035841642468351281 0 -0.021384650454072174 0.034911526234843143 0 -0.019011166168307541 0.036020887210941821 0 -0.019755597368641967 0.034999798554622194 0 -0.020499677576540275 0.035841642468351281 0 -0.021751344082711403 0.036438090894006521 0 -0.021394595878417282 0.034952929683370541 0 -0.021711490540577392 0.036157447734382286 0 -0.021384815230098608 0.034911608380626506 0 -0.022245998725786226 0.035425076716515812 0 -0.021665705616074431 0.036180209699964314 0 -0.021190621160484202 0.035643045657846539 0 -0.021384650454072174 0.034911526234843143 0 -0.020499677576540275 0.035841642468351281 0 -0.021190621160484202 0.035643045657846539 0 -0.021384650454072174 0.034911526234843143 0 -0.022245998725786226 0.035425076716515812 0 -0.023017810139724114 0.034999565721829842 0 -0.023450640840593954 0.036630728141938872 0 -0.023017864098397425 0.035000107478881409 0 -0.026021691873763821 0.035721681545777234 0 -0.027427630112665191 0.034999785017838403 0 -0.021384815230098608 0.034911608380626506 0 -0.022245998725786226 0.035425076716515812 0 -0.023017810139724114 0.034999565721829842 0 -0.023018164821851633 0.035001464686837312 0 -0.023626872196637141 0.035924566818627317 0 -0.023017864098397425 0.035000107478881409 0 -0.023673439952224148 0.036728690743245224 0 -0.024845510694340267 0.036226207319750077 0 -0.023017864098397425 0.035000107478881409 0 -0.023673439952224148 0.036728690743245224 0 -0.023521163344220962 0.036794338919232034 0 -0.023626872196637141 0.035924566818627317 0 -0.024009675925013099 0.034484888943321843 0 -0.02395586836165195 0.036075521970022451 0 -0.025659348213679583 0.035324775906555646 0 -0.024293036959094547 0.035282138386543926 0 -0.024437831885360212 0.035397485859352908 0 -0.024298278156433269 0.035446572411617271 0 -0.024293036959094547 0.035282138386543926 0 -0.02425506982848772 0.035298430416072869 0 -0.024298278156433269 0.035446572411617271 0 -0.02395586836165195 0.036075521970022451 0 -0.023626872196637141 0.035924566818627317 0 -0.023626872196637141 0.035924566818627317 0 -0.021980518773263489 0.035507375408056104 0 -0.021711490540577392 0.036157447734382286 0 -0.022245998725786226 0.035425076716515812 0 -0.023450640840593954 0.036630728141938872 0 -0.021711490540577392 0.036157447734382286 0 -0.023450640840593954 0.036630728141938872 0 -0.021988006395447252 0.03725957019464432 0 -0.023017864098397425 0.035000107478881409 0 -0.026021691873763821 0.035721681545777234 0 -0.024845510694340267 0.036226207319750077 0 -0.025927649685728846 0.035768642524530714 0 -0.024914594716964771 0.036229016093677117 0 -0.025034430915348294 0.036198295053855085 0 -0.025821667493925799 0.036569449073367906 0 -0.02455117725782641 0.036992572718465393 0 -0.024093621124008386 0.036604697359728176 0 -0.025034430915348294 0.036198295053855085 0 -0.02455117725782641 0.036992572718465393 0 -0.027383820246659425 0.035879899112295756 0 -0.025659348213679583 0.035324775906555646 0 -0.02395586836165195 0.036075521970022451 0 -0.024914594716964771 0.036229016093677117 0 -0.028776361010268654 0.035034633642335784 0 -0.028924061576773415 0.035538562849654745 0 -0.027883127281926958 0.035334287691477388 0 -0.028776361010268654 0.035034633642335784 0 -0.028924061576773415 0.035538562849654745 0 -0.029376957306869893 0.035360152121781174 0 -0.026021691873763821 0.035721681545777234 0 -0.025034430915348294 0.036198295053855085 0 -0.025821667493925799 0.036569449073367906 0 -0.028924061576773415 0.035538562849654745 0 -0.027883127281926958 0.035334287691477388 0 -0.028759646119622322 0.036039566662301598 0 -0.025541623321946857 0.033403721065860252 0 -0.026667077869095134 0.034329958376559444 0 -0.025401048077822834 0.034480775473985967 0 -0.025659348213679583 0.035324775906555646 0 -0.027977612820943191 0.034208012489634829 0 -0.024546938452083476 0.027505058798462 0 -0.02822148343466593 0.033142126815813633 0 -0.027977612820943191 0.034208012489634829 0 -0.024220406446843409 0.032350420637879358 0 -0.025035121156463329 0.032267451065294724 0 -0.027141345580321583 0.031145564277039257 0 -0.024795826901566179 0.031408921199220965 0 -0.024546938452083476 0.027505058798462 0 -0.024220406446843409 0.032350420637879358 0 -0.028116662790465576 0.027697225583847622 0 -0.028364908515213685 0.027648200067446324 0 -0.028313148654328085 0.027756906600535685 0 -0.025035121156463329 0.032267451065294724 0 -0.027565963410969563 0.031503529669561409 0 -0.027141345580321583 0.031145564277039257 0 -0.02822148343466593 0.033142126815813633 0 -0.027977612820943191 0.034208012489634829 0 -0.022896562495660591 0.034287907376269577 0 -0.023440667251726197 0.034040399046066851 0 -0.022955562633954787 0.034014518677730733 0 -0.021980518773263489 0.035507375408056104 0 -0.0220608680991436 0.031546330723546512 0 -0.023440667251726197 0.034040399046066851 0 -0.022955562633954787 0.034014518677730733 0 -0.023315134863988687 0.033500482059383017 0 -0.022896562495660591 0.034287907376269577 0 -0.022955562633954787 0.034014518677730733 0 -0.022835666510084 0.034062148412006873 0 -0.022955562633954787 0.034014518677730733 0 -0.022836165567453416 0.034058786835482455 0 -0.022709825044026306 0.033577842130463734 0 -0.024009675925013099 0.034484888943321843 0 -0.024220406446843409 0.032350420637879358 0 -0.025541623321946857 0.033403721065860252 0 -0.02514028362710832 0.033548782818526704 0 -0.025401048077822834 0.034480775473985967 0 -0.023437250571082167 0.034500556775396943 0 -0.024009675925013099 0.034484888943321843 0 -0.025659348213679583 0.035324775906555646 0 -0.024009675925013099 0.034484888943321843 0 -0.022955562633954787 0.034014518677730733 0 -0.022709825044026306 0.033577842130463734 0 -0.023315134863988687 0.033500482059383017 0 -0.023481689012314368 0.029177954811126904 0 -0.023139041969772869 0.029377932202924784 0 -0.022757082668367502 0.029264781716596695 0 -0.024220406446843409 0.032350420637879358 0 -0.0220608680991436 0.031546330723546512 0 -0.023555555889749911 0.02943403708308906 0 -0.023481689012314368 0.029177954811126904 0 -0.023139041969772869 0.029377932202924784 0 -0.023139041969772869 0.029377932202924784 0 -0.022757082668367502 0.029264781716596695 0 -0.022852303878031777 0.029644637342019112 0 -0.021795889073346862 0.023938592149129415 0 -0.021804255820581306 0.023918080574061546 0 -0.021836128575376604 0.023939963050749337 0 -0.021753382715110407 0.026613779613829904 0 -0.020885208347755233 0.025964970966898 0 -0.021055072801159959 0.029137055827348265 0 -0.021037524937792731 0.029052826601519699 0 -0.021098381290522508 0.029085876493656463 0 -0.021753382715110407 0.026613779613829904 0 -0.021573406788843463 0.023298243158660005 0 -0.021795889073346862 0.023938592149129415 0 -0.021804255820581306 0.023918080574061546 0 -0.021825186819374079 0.023918824748613711 0 -0.021868079829563476 0.024014859019849177 0 -0.02180986182667749 0.023992802578998596 0 -0.021825186819374079 0.023918824748613711 0 -0.0220608680991436 0.031546330723546512 0 -0.021753382715110407 0.026613779613829904 0 -0.023555555889749911 0.02943403708308906 0 -0.023139041969772869 0.029377932202924784 0 -0.022852303878031777 0.029644637342019112 0 -0.021782855889465727 0.024063392887970419 0 -0.021868079829563476 0.024014859019849177 0 -0.02180986182667749 0.023992802578998596 0 -0.024546938452083476 0.027505058798462 0 -0.021753382715110407 0.026613779613829904 0 -0.02180986182667749 0.023992802578998596 0 -0.021807206192366826 0.023926647996721014 0 -0.021825186819374079 0.023918824748613711 0 -0.02180986182667749 0.023992802578998596 0 -0.021807206192366826 0.023926647996721014 0 -0.021760210620403932 0.023927841067486171 0 -0.021807206192366826 0.023926647996721014 0 -0.021760210620403932 0.023927841067486171 0 -0.021811998063240398 0.023876489365388897 0 -0.021807206192366826 0.023926647996721014 0 -0.021824194252330953 0.023905896395179572 0 -0.021811998063240398 0.023876489365388897 0 -0.021807206192366826 0.023926647996721014 0 -0.021824194252330953 0.023905896395179572 0 -0.021825186819374079 0.023918824748613711 0 -0.021824194252330953 0.023905896395179572 0 -0.021796983828384166 0.023879428288445682 0 -0.021825186819374079 0.023918824748613711 0 -0.021824194252330953 0.023905896395179572 0 -0.021796983828384166 0.023879428288445682 0 -0.021819840716702312 0.0239102407175899 0 -0.021796983828384166 0.023879428288445682 0 -0.021804255820581306 0.023918080574061546 0 -0.021825186819374079 0.023918824748613711 0 -0.021796983828384166 0.023879428288445682 0 -0.021804255820581306 0.023918080574061546 0 -0.021836128575376604 0.023939963050749337 0 -0.028364908515213685 0.027648200067446324 0 -0.028313148654328085 0.027756906600535685 0 -0.028495633228735356 0.027727735564306352 0 -0.028313148654328085 0.027756906600535685 0 -0.02835582708893792 0.027849176399150282 0 -0.02843062134058822 0.027802963536770867 0 -0.028116662790465576 0.027697225583847622 0 -0.028313148654328085 0.027756906600535685 0 -0.028203680438100471 0.027878959901578394 0 -0.021782855889465727 0.024063392887970419 0 -0.02180986182667749 0.023992802578998596 0 -0.021760210620403932 0.023927841067486171 0 -0.024546938452083476 0.027505058798462 0 -0.024820122677313195 0.025619343571414221 0 -0.028313148654328085 0.027756906600535685 0 -0.028203680438100471 0.027878959901578394 0 -0.02835582708893792 0.027849176399150282 0 -0.028203680438100471 0.027878959901578394 0 -0.02835582708893792 0.027849176399150282 0 -0.028379364867896585 0.027954822538864367 0 -0.028203680438100471 0.027878959901578394 0 -0.028258904600478838 0.028020318548205633 0 -0.028379364867896585 0.027954822538864367 0 -0.026442595285627778 0.025532138797920337 0 -0.029518251193801366 0.026532496029436223 0 -0.024820122677313195 0.025619343571414221 0 -0.026442595285627778 0.025532138797920337 0 -0.021760210620403932 0.023927841067486171 0 -0.021760765273299468 0.023786205870245936 0 -0.021805367705278571 0.023790799390507399 0 -0.01945802704981767 0.019318514524013036 0 -0.024207371777958536 0.020409123522034296 0 -0.01852511813769913 0.01521989146059417 0 -0.018535105038979774 0.01537225928593028 0 -0.019562848366257355 0.015578301120108575 0 -0.021771045123727149 0.023766490228700254 0 -0.021805367705278571 0.023790799390507399 0 -0.021768178869517776 0.023677844642029908 0 -0.021771045123727149 0.023766490228700254 0 -0.021760765273299468 0.023786205870245936 0 -0.021805367705278571 0.023790799390507399 0 -0.025495949739342688 0.025703910445808081 0 -0.026442595285627778 0.025532138797920337 0 -0.030696663139925785 0.024901417190074122 0 -0.030472207166487766 0.024831662923234684 0 -0.030622387857287579 0.024632087475967439 0 -0.026442595285627778 0.025532138797920337 0 -0.024207371777958536 0.020409123522034296 0 -0.030696663139925785 0.024901417190074122 0 -0.030511342362999308 0.025163544260211494 0 -0.030472207166487766 0.024831662923234684 0 -0.021771045123727149 0.023766490228700254 0 -0.021764854062123001 0.023779950777187149 0 -0.021768178869517776 0.023677844642029908 0 -0.021824194252330953 0.023905896395179572 0 -0.021819840716702312 0.0239102407175899 0 -0.021811998063240398 0.023876489365388897 0 -0.018403374448344452 0.015598321909728562 0 -0.018413795964732568 0.015372304442085623 0 -0.018505149947879242 0.015398933844827848 0 -0.018403374448344452 0.015598321909728562 0 -0.01852511813769913 0.01521989146059417 0 -0.018413795964732568 0.015372304442085623 0 -0.021760210620403932 0.023927841067486171 0 -0.021811998063240398 0.023876489365388897 0 -0.021805367705278571 0.023790799390507399 0 -0.021819840716702312 0.0239102407175899 0 -0.021811998063240398 0.023876489365388897 0 -0.021805367705278571 0.023790799390507399 0 -0.020341270281613259 0.019336612025570396 0 -0.01945802704981767 0.019318514524013036 0 -0.01852511813769913 0.01521989146059417 0 -0.018413937757074124 0.015371634062107604 0 -0.018413795964732568 0.015372304442085623 0 -0.01852511813769913 0.01521989146059417 0 -0.018535105038979774 0.01537225928593028 0 -0.018413937757074124 0.015371634062107604 0 -0.018413795964732568 0.015372304442085623 0 -0.018444775102820572 0.015342015991116764 0 -0.018505149947879242 0.015398933844827848 0 -0.018413937757074124 0.015371634062107604 0 -0.018413795964732568 0.015372304442085623 0 -0.018406046561231924 0.015328891370612822 0 -0.018413795964732568 0.015372304442085623 0 -0.018444775102820572 0.015342015991116764 0 -0.018406046561231924 0.015328891370612822 0 -0.018444775102820572 0.015342015991116764 0 -0.018505149947879242 0.015398933844827848 0 -0.018475781820263541 0.015245914321506576 0 -0.018505149947879242 0.015398933844827848 0 -0.018659018128679133 0.015268292174942103 0 -0.018561793533838713 0.015191469578162619 0 -0.018505149947879242 0.015398933844827848 0 -0.01868002849346018 0.015466771488377364 0 -0.018659018128679133 0.015268292174942103 0 -0.018403374448344452 0.015598321909728562 0 -0.018505149947879242 0.015398933844827848 0 -0.018590757305758786 0.015612507523731192 0 -0.018505149947879242 0.015398933844827848 0 -0.018590757305758786 0.015612507523731192 0 -0.01868002849346018 0.015466771488377364 0 -0.018590757305758786 0.015612507523731192 0 -0.018792392228117731 0.015664483189256829 0 -0.01868002849346018 0.015466771488377364 0 -0.01868002849346018 0.015466771488377364 0 -0.018659018128679133 0.015268292174942103 0 -0.018909314361366059 0.015385136619543759 0 -0.018792392228117731 0.015664483189256829 0 -0.01868002849346018 0.015466771488377364 0 -0.018909314361366059 0.015385136619543759 0 -0.018909314361366059 0.015385136619543759 0 -0.019371223405428691 0.015429137015041651 0 -0.019034803369180626 0.015141468598772466 0 -0.019080191054799307 0.015920334489517574 0 -0.019256620899408335 0.015222433997706907 0 -0.019876334804762922 0.016749359951360381 0 -0.019371223405428691 0.015429137015041651 0 -0.018327294073618963 0.017078540451232641 0 -0.018909314361366059 0.015385136619543759 0 -0.019371223405428691 0.015429137015041651 0 -0.019109361671485175 0.015622258382688273 0 -0.019876334804762922 0.016749359951360381 0 -0.018327294073618963 0.017078540451232641 0 -0.019259082151957756 0.018168661564208467 0 -0.018327294073618963 0.017078540451232641 0 -0.017339531729889848 0.018860195605729144 0 -0.019259082151957756 0.018168661564208467 0 -0.018792392228117731 0.015664483189256829 0 -0.018909314361366059 0.015385136619543759 0 -0.019109361671485175 0.015622258382688273 0 -0.019256620899408335 0.015222433997706907 0 -0.01631635882923986 0.022969242637980208 0 -0.018792392228117731 0.015664483189256829 0 -0.019109361671485175 0.015622258382688273 0 -0.01892834074058504 0.015919220506349013 0 -0.012159880845796854 0.033059668246560592 0 -0.012126448915222901 0.032888671064525837 0 -0.01213618019223292 0.033035421425492727 0 -0.012133723026169023 0.032947711163870644 0 -0.012126448915222901 0.032888671064525837 0 -0.01213618019223292 0.033035421425492727 0 -0.01631635882923986 0.022969242637980208 0 -0.015271861395107637 0.025845287293516799 0 -0.012162427002784424 0.033138859272948545 0 -0.012159880845796854 0.033059668246560592 0 -0.01213618019223292 0.033035421425492727 0 -0.012162427002784424 0.033138859272948545 0 -0.012147000267035342 0.033090462870513947 0 -0.01213618019223292 0.033035421425492727 0 -0.012147000267035342 0.033090462870513947 0 -0.01213618019223292 0.033035421425492727 0 -0.012135254268283283 0.033007253884663967 0 -0.012133723026169023 0.032947711163870644 0 -0.01213618019223292 0.033035421425492727 0 -0.012135254268283283 0.033007253884663967 0 -0.014505367785286643 0.034281526144728028 0 -0.016619039761729189 0.030602846394179324 0 -0.01631635882923986 0.022969242637980208 0 -0.016619039761729189 0.030602846394179324 0 -0.019262218821345076 0.031506127833195077 0 -0.016619039761729189 0.030602846394179324 0 -0.017640160236544675 0.032861623784027266 0 -0.017878475430350368 0.032828690860991945 0 -0.017607651793085297 0.033312336596504566 0 -0.019390435951990796 0.028962589491560071 0 -0.019290476874814506 0.0284001097627129 0 -0.01852598990091759 0.027980053351573109 0 -0.017535612043567992 0.025001747554145828 0 -0.017322506579544726 0.025426388465289333 0 -0.017017180343913519 0.025176644126148534 0 -0.01952860281498188 0.028946000295540019 0 -0.019852970507460443 0.028330749601827916 0 -0.019290476874814506 0.0284001097627129 0 -0.016619039761729189 0.030602846394179324 0 -0.019096112198550202 0.023000299613023786 0 -0.019852970507460443 0.028330749601827916 0 -0.019290476874814506 0.0284001097627129 0 -0.019154918956302266 0.027781101843771975 0 -0.019390435951990796 0.028962589491560071 0 -0.01952860281498188 0.028946000295540019 0 -0.019290476874814506 0.0284001097627129 0 -0.019822605075134756 0.031178027030838173 0 -0.020885208347755233 0.025964970966898 0 -0.021037524937792731 0.029052826601519699 0 -0.021098381290522508 0.029085876493656463 0 -0.021117525223246406 0.029025939902515167 0 -0.021181569157630257 0.029126582635608342 0 -0.021098381290522508 0.029085876493656463 0 -0.021117525223246406 0.029025939902515167 0 -0.019290476874814506 0.0284001097627129 0 -0.01852598990091759 0.027980053351573109 0 -0.019154918956302266 0.027781101843771975 0 -0.020885208347755233 0.025964970966898 0 -0.019096112198550202 0.023000299613023786 0 -0.021796983828384166 0.023879428288445682 0 -0.021682381058529335 0.023788566337347297 0 -0.021579025583056369 0.023825278509501276 0 -0.018403374448344452 0.015598321909728562 0 -0.018590757305758786 0.015612507523731192 0 -0.01865639338357674 0.01598554461756662 0 -0.020341270281613259 0.019336612025570396 0 -0.019096112198550202 0.023000299613023786 0 -0.021796983828384166 0.023879428288445682 0 -0.021819840716702312 0.0239102407175899 0 -0.021579025583056369 0.023825278509501276 0 -0.02150113460193406 0.023752335423713924 0 -0.020885208347755233 0.025964970966898 0 -0.018590757305758786 0.015612507523731192 0 -0.018792392228117731 0.015664483189256829 0 -0.01865639338357674 0.01598554461756662 0 -0.01631635882923986 0.022969242637980208 0 -0.019096112198550202 0.023000299613023786 0 -0.018792392228117731 0.015664483189256829 0 -0.01892834074058504 0.015919220506349013 0 -0.01865639338357674 0.01598554461756662 0 -0.034996718250192925 0.034999094380295824 0 -0.03385781395538736 0.034443279732853473 0 -0.034997225311415407 0.028770144591428636 0 -0.03385781395538736 0.034443279732853473 0 -0.034721845774962318 0.031936239075022799 0 -0.034997225311415407 0.028770144591428636 0 -0.034996718250192925 0.034999094380295824 0 -0.03385781395538736 0.034443279732853473 0 -0.030711266886801231 0.034997220802026829 0 -0.03385781395538736 0.034443279732853473 0 -0.03355794347882389 0.034657315517318793 0 -0.031672198347750619 0.034800452111088662 0 -0.03385781395538736 0.034443279732853473 0 -0.030711266886801231 0.034997220802026829 0 -0.031672198347750619 0.034800452111088662 0 -0.03385781395538736 0.034443279732853473 0 -0.034721845774962318 0.031936239075022799 0 -0.03355794347882389 0.034657315517318793 0 -0.034721845774962318 0.031936239075022799 0 -0.03355794347882389 0.034657315517318793 0 -0.035728900807577672 0.031502282848576528 0 -0.037617584423501264 0.03236562427937207 0 -0.03355794347882389 0.034657315517318793 0 -0.035728900807577672 0.031502282848576528 0 -0.031217767573968071 0.037025519422861197 0 -0.03001498481123439 0.036499919287577259 0 -0.029763145954707863 0.037233720938425641 0 -0.031217767573968071 0.037025519422861197 0 -0.030483425549312333 0.035978308539835545 0 -0.03001498481123439 0.036499919287577259 0 -0.030483425549312333 0.035978308539835545 0 -0.03355794347882389 0.034657315517318793 0 -0.03095923524808674 0.034921064391141267 0 -0.030483425549312333 0.035978308539835545 0 -0.03095923524808674 0.034921064391141267 0 -0.030143641528348808 0.035496247655475342 0 -0.031217767573968071 0.037025519422861197 0 -0.030483425549312333 0.035978308539835545 0 -0.03355794347882389 0.034657315517318793 0 -0.034183803107217359 0.035192923755810318 0 -0.033841584542220748 0.034460750175930852 0 -0.030711266886801231 0.034997220802026829 0 -0.029416140450799631 0.035085971645020433 0 -0.027427630112665191 0.034999785017838403 0 -0.03355794347882389 0.034657315517318793 0 -0.031672198347750619 0.034800452111088662 0 -0.03095923524808674 0.034921064391141267 0 -0.030711266886801231 0.034997220802026829 0 -0.031672198347750619 0.034800452111088662 0 -0.029416140450799631 0.035085971645020433 0 -0.031672198347750619 0.034800452111088662 0 -0.029416140450799631 0.035085971645020433 0 -0.03095923524808674 0.034921064391141267 0 -0.029416140450799631 0.035085971645020433 0 -0.03095923524808674 0.034921064391141267 0 -0.029941706166029723 0.035001419842576029 0 -0.03095923524808674 0.034921064391141267 0 -0.029941706166029723 0.035001419842576029 0 -0.030143641528348808 0.035496247655475342 0 -0.029416140450799631 0.035085971645020433 0 -0.029941706166029723 0.035001419842576029 0 -0.029707544594058694 0.034878123400994686 0 -0.029941706166029723 0.035001419842576029 0 -0.029684242697139346 0.035161977462466631 0 -0.029719202382691563 0.03549102489100886 0 -0.029941706166029723 0.035001419842576029 0 -0.029684242697139346 0.035161977462466631 0 -0.029707544594058694 0.034878123400994686 0 -0.029347353485384343 0.035137271854695132 0 -0.02849141876922031 0.035477336421216782 0 -0.029416140450799631 0.035085971645020433 0 -0.027427630112665191 0.034999785017838403 0 -0.027334251094347069 0.036130558686461228 0 -0.026021691873763821 0.035721681545777234 0 -0.027427630112665191 0.034999785017838403 0 -0.027334251094347069 0.036130558686461228 0 -0.026021691873763821 0.035721681545777234 0 -0.025821667493925799 0.036569449073367906 0 -0.027334251094347069 0.036130558686461228 0 -0.028776361010268654 0.035034633642335784 0 -0.029707544594058694 0.034878123400994686 0 -0.029376957306869893 0.035360152121781174 0 -0.029684242697139346 0.035161977462466631 0 -0.029707544594058694 0.034878123400994686 0 -0.029376957306869893 0.035360152121781174 0 -0.027383820246659425 0.035879899112295756 0 -0.02849141876922031 0.035477336421216782 0 -0.028924061576773415 0.035538562849654745 0 -0.028759646119622322 0.036039566662301598 0 -0.029759207401601703 0.035927596350400354 0 -0.028924061576773415 0.035538562849654745 0 -0.029376957306869893 0.035360152121781174 0 -0.029759207401601703 0.035927596350400354 0 -0.029684242697139346 0.035161977462466631 0 -0.029376957306869893 0.035360152121781174 0 -0.029719202382691563 0.03549102489100886 0 -0.029376957306869893 0.035360152121781174 0 -0.029719202382691563 0.03549102489100886 0 -0.029759207401601703 0.035927596350400354 0 -0.029941706166029723 0.035001419842576029 0 -0.029719202382691563 0.03549102489100886 0 -0.030143641528348808 0.035496247655475342 0 -0.030483425549312333 0.035978308539835545 0 -0.030143641528348808 0.035496247655475342 0 -0.029817722614778858 0.035930281998853217 0 -0.030381467184545655 0.035942532801593555 0 -0.029593723152352924 0.035851554025625711 0 -0.029719202382691563 0.03549102489100886 0 -0.030143641528348808 0.035496247655475342 0 -0.029817722614778858 0.035930281998853217 0 -0.029719202382691563 0.03549102489100886 0 -0.029817722614778858 0.035930281998853217 0 -0.029759207401601703 0.035927596350400354 0 -0.029593723152352924 0.035851554025625711 0 -0.029397402471543318 0.035811224368408438 0 -0.029429165911206919 0.036182960113036185 0 -0.03001498481123439 0.036499919287577259 0 -0.029252491035710617 0.036916388201892067 0 -0.029545358926582523 0.036169576517582805 0 -0.029429165911206919 0.036182960113036185 0 -0.03001498481123439 0.036499919287577259 0 -0.030483425549312333 0.035978308539835545 0 -0.029545358926582523 0.036169576517582805 0 -0.03001498481123439 0.036499919287577259 0 -0.03001498481123439 0.036499919287577259 0 -0.029763145954707863 0.037233720938425641 0 -0.029252491035710617 0.036916388201892067 0 -0.029763145954707863 0.037233720938425641 0 -0.029252491035710617 0.036916388201892067 0 -0.028751191126448226 0.037467954466905248 0 -0.028311158847226868 0.034843626410908123 0 -0.028140214771039364 0.034697449898066307 0 -0.029161852457526092 0.034600396529518802 0 -0.027818287117216952 0.036661783591578095 0 -0.029252491035710617 0.036916388201892067 0 -0.028751191126448226 0.037467954466905248 0 -0.027977612820943191 0.034208012489634829 0 -0.029397402471543318 0.035811224368408438 0 -0.02822148343466593 0.033142126815813633 0 -0.029397402471543318 0.035811224368408438 0 -0.027818287117216952 0.036661783591578095 0 -0.029429165911206919 0.036182960113036185 0 -0.029252491035710617 0.036916388201892067 0 -0.02822148343466593 0.033142126815813633 0 -0.028193035256673618 0.032169424761865725 0 -0.028313148654328085 0.027756906600535685 0 -0.02843062134058822 0.027802963536770867 0 -0.028495633228735356 0.027727735564306352 0 -0.028552215188925888 0.02784330744367064 0 -0.02843062134058822 0.027802963536770867 0 -0.028495633228735356 0.027727735564306352 0 -0.029763145954707863 0.037233720938425641 0 -0.028751191126448226 0.037467954466905248 0 -0.029697824747716674 0.03825718505968434 0 -0.028193035256673618 0.032169424761865725 0 -0.034646878553650277 0.031287065467383746 0 -0.031217767573968071 0.037025519422861197 0 -0.029763145954707863 0.037233720938425641 0 -0.029697824747716674 0.03825718505968434 0 -0.028552215188925888 0.02784330744367064 0 -0.028495633228735356 0.027727735564306352 0 -0.028679344333146436 0.027832054303854822 0 -0.028552215188925888 0.02784330744367064 0 -0.028679344333146436 0.027832054303854822 0 -0.028568668283960215 0.027939996261852014 0 -0.034646878553650277 0.031287065467383746 0 -0.031811675046868278 0.027473837678270451 0 -0.040089905854541023 0.029927966637820165 0 -0.040656908341482965 0.029343321230837167 0 -0.039877518423837285 0.028620780727709207 0 -0.02835582708893792 0.027849176399150282 0 -0.028449797106896178 0.027867978563439602 0 -0.028379364867896585 0.027954822538864367 0 -0.028537079808695329 0.027880762581383972 0 -0.028449797106896178 0.027867978563439602 0 -0.028379364867896585 0.027954822538864367 0 -0.028552215188925888 0.02784330744367064 0 -0.02843062134058822 0.027802963536770867 0 -0.028449797106896178 0.027867978563439602 0 -0.028552215188925888 0.02784330744367064 0 -0.028537079808695329 0.027880762581383972 0 -0.028449797106896178 0.027867978563439602 0 -0.03062473722149715 0.027759908318962211 0 -0.031811675046868278 0.027473837678270451 0 -0.02835582708893792 0.027849176399150282 0 -0.02843062134058822 0.027802963536770867 0 -0.028449797106896178 0.027867978563439602 0 -0.031811675046868278 0.027473837678270451 0 -0.029518251193801366 0.026532496029436223 0 -0.031811675046868278 0.027473837678270451 0 -0.035745806954137094 0.026367192133868254 0 -0.030297047970954488 0.025443238632117612 0 -0.030281477645694405 0.025049764150883776 0 -0.030511342362999308 0.025163544260211494 0 -0.030281477645694405 0.025049764150883776 0 -0.030511342362999308 0.025163544260211494 0 -0.030472207166487766 0.024831662923234684 0 -0.030281477645694405 0.025049764150883776 0 -0.030472207166487766 0.024831662923234684 0 -0.030285812954565255 0.02468245952466239 0 -0.04068355287342635 0.027824133837686279 0 -0.039192459248067683 0.027003600192033458 0 -0.040675251078515523 0.02627930934372006 0 -0.035745806954137094 0.026367192133868254 0 -0.035607294729299972 0.025793391685642469 0 -0.04068355287342635 0.027824133837686279 0 -0.039877518423837285 0.028620780727709207 0 -0.039192459248067683 0.027003600192033458 0 -0.040656908341482965 0.029343321230837167 0 -0.04068355287342635 0.027824133837686279 0 -0.039877518423837285 0.028620780727709207 0 -0.039877518423837285 0.028620780727709207 0 -0.039192459248067683 0.027003600192033458 0 -0.038783159639667941 0.028841992592749378 0 -0.039192459248067683 0.027003600192033458 0 -0.037281978266351171 0.027760536574237375 0 -0.037723593065003239 0.026071742543517861 0 -0.039192459248067683 0.027003600192033458 0 -0.038783159639667941 0.028841992592749378 0 -0.037281978266351171 0.027760536574237375 0 -0.039205013900032504 0.02908020612989206 0 -0.036959302432594474 0.027714994459481172 0 -0.037869490261297281 0.029199182715489557 0 -0.036605321746189363 0.029442913684841376 0 -0.037281978266351171 0.027760536574237375 0 -0.037869490261297281 0.029199182715489557 0 -0.037736390812877219 0.030584197073539238 0 -0.036605321746189363 0.029442913684841376 0 -0.040089905854541023 0.029927966637820165 0 -0.039877518423837285 0.028620780727709207 0 -0.038783159639667941 0.028841992592749378 0 -0.034646878553650277 0.031287065467383746 0 -0.039205013900032504 0.02908020612989206 0 -0.039363743701347577 0.030524343271366015 0 -0.037869490261297281 0.029199182715489557 0 -0.037736390812877219 0.030584197073539238 0 -0.034183803107217359 0.035192923755810318 0 -0.034646878553650277 0.031287065467383746 0 -0.037617584423501264 0.03236562427937207 0 -0.039363743701347577 0.030524343271366015 0 -0.037736390812877219 0.030584197073539238 0 -0.037617584423501264 0.03236562427937207 0 -0.037736390812877219 0.030584197073539238 0 -0.035728900807577672 0.031502282848576528 0 -0.037736390812877219 0.030584197073539238 0 -0.035728900807577672 0.031502282848576528 0 -0.036605321746189363 0.029442913684841376 0 -0.036177880720725641 0.027352431837059283 0 -0.034997225311415407 0.028770144591428636 0 -0.034999402754290275 0.024260928775699273 0 -0.035728900807577672 0.031502282848576528 0 -0.03544966009582666 0.029912830906809146 0 -0.036605321746189363 0.029442913684841376 0 -0.034721845774962318 0.031936239075022799 0 -0.035728900807577672 0.031502282848576528 0 -0.03544966009582666 0.029912830906809146 0 -0.036605321746189363 0.029442913684841376 0 -0.037281978266351171 0.027760536574237375 0 -0.036177880720725641 0.027352431837059283 0 -0.03544966009582666 0.029912830906809146 0 -0.036605321746189363 0.029442913684841376 0 -0.036177880720725641 0.027352431837059283 0 -0.037281978266351171 0.027760536574237375 0 -0.036177880720725641 0.027352431837059283 0 -0.037723593065003239 0.026071742543517861 0 -0.03544966009582666 0.029912830906809146 0 -0.036177880720725641 0.027352431837059283 0 -0.034997225311415407 0.028770144591428636 0 -0.034721845774962318 0.031936239075022799 0 -0.03544966009582666 0.029912830906809146 0 -0.034997225311415407 0.028770144591428636 0 -0.03626256991565633 0.022773880507605593 0 -0.034999402754290275 0.024260928775699273 0 -0.03563316772935661 0.020827555317719855 0 -0.03626256991565633 0.022773880507605593 0 -0.034999402754290275 0.024260928775699273 0 -0.036878672304904388 0.02481547544228101 0 -0.03626256991565633 0.022773880507605593 0 -0.036759545441089919 0.022051073530422603 0 -0.036295810200622773 0.021610812890508715 0 -0.036177880720725641 0.027352431837059283 0 -0.034999402754290275 0.024260928775699273 0 -0.036878672304904388 0.02481547544228101 0 -0.036177880720725641 0.027352431837059283 0 -0.036878672304904388 0.02481547544228101 0 -0.037723593065003239 0.026071742543517861 0 -0.036878672304904388 0.02481547544228101 0 -0.038140725005752732 0.024427583904295343 0 -0.037723593065003239 0.026071742543517861 0 -0.036878672304904388 0.02481547544228101 0 -0.037739951575435464 0.023723424077900259 0 -0.037175158062396324 0.023136942679596359 0 -0.037739951575435464 0.023723424077900259 0 -0.037175158062396324 0.023136942679596359 0 -0.038228797981508279 0.023017195669361366 0 -0.036878672304904388 0.02481547544228101 0 -0.037739951575435464 0.023723424077900259 0 -0.038140725005752732 0.024427583904295343 0 -0.03626256991565633 0.022773880507605593 0 -0.036878672304904388 0.02481547544228101 0 -0.037175158062396324 0.023136942679596359 0 -0.03626256991565633 0.022773880507605593 0 -0.037175158062396324 0.023136942679596359 0 -0.036759545441089919 0.022051073530422603 0 -0.037175158062396324 0.023136942679596359 0 -0.037692975859283342 0.022036297698607474 0 -0.036759545441089919 0.022051073530422603 0 -0.037175158062396324 0.023136942679596359 0 -0.038228797981508279 0.023017195669361366 0 -0.037692975859283342 0.022036297698607474 0 -0.03788314925862863 0.022209198099168818 0 -0.037089134387672425 0.021306350072550648 0 -0.036580515516114263 0.020671838340859252 0 -0.036586146848168119 0.020678584487859464 0 -0.036638612576579604 0.020723417298496825 0 -0.038819494633255708 0.023151018416640863 0 -0.038228797981508279 0.023017195669361366 0 -0.037692975859283342 0.022036297698607474 0 -0.03788314925862863 0.022209198099168818 0 -0.038562349023827991 0.022833732845279689 0 -0.038824086880476553 0.023146054255249859 0 -0.038228797981508279 0.023017195669361366 0 -0.03837121495799755 0.02362189856297299 0 -0.036572709523401505 0.020666486537052258 0 -0.036586308081737628 0.020701683067974069 0 -0.036652889263511942 0.020637117068944145 0 -0.036580515516114263 0.020671838340859252 0 -0.036572709523401505 0.020666486537052258 0 -0.036586146848168119 0.020678584487859464 0 -0.036580515516114263 0.020671838340859252 0 -0.036572709523401505 0.020666486537052258 0 -0.036586308081737628 0.020701683067974069 0 -0.03788314925862863 0.022209198099168818 0 -0.035880082279138636 0.02114427191873787 0 -0.03788314925862863 0.022209198099168818 0 -0.038279999159072403 0.023085600341826436 0 -0.037715957959724378 0.022089576760756419 0 -0.037181171980797685 0.022012413469231426 0 -0.037276790580832289 0.02176700306650586 0 -0.038824086880476553 0.023146054255249859 0 -0.039603728780999568 0.023728988666886899 0 -0.038789322146899424 0.023996927358888861 0 -0.039603728780999568 0.023728988666886899 0 -0.038789322146899424 0.023996927358888861 0 -0.038954047635040706 0.025193318827058234 0 -0.035880082279138636 0.02114427191873787 0 -0.038279999159072403 0.023085600341826436 0 -0.038824086880476553 0.023146054255249859 0 -0.038789322146899424 0.023996927358888861 0 -0.03837121495799755 0.02362189856297299 0 -0.037739951575435464 0.023723424077900259 0 -0.038228797981508279 0.023017195669361366 0 -0.03837121495799755 0.02362189856297299 0 -0.037739951575435464 0.023723424077900259 0 -0.03837121495799755 0.02362189856297299 0 -0.038140725005752732 0.024427583904295343 0 -0.038789322146899424 0.023996927358888861 0 -0.03837121495799755 0.02362189856297299 0 -0.038140725005752732 0.024427583904295343 0 -0.038140725005752732 0.024427583904295343 0 -0.037723593065003239 0.026071742543517861 0 -0.038954047635040706 0.025193318827058234 0 -0.038789322146899424 0.023996927358888861 0 -0.038140725005752732 0.024427583904295343 0 -0.038954047635040706 0.025193318827058234 0 -0.039192459248067683 0.027003600192033458 0 -0.037723593065003239 0.026071742543517861 0 -0.038954047635040706 0.025193318827058234 0 -0.039192459248067683 0.027003600192033458 0 -0.038954047635040706 0.025193318827058234 0 -0.039818138754214909 0.02561828432092499 0 -0.038279999159072403 0.023085600341826436 0 -0.039169875271026666 0.02527220985658276 0 -0.039379056577102105 0.023933174072428481 0 -0.038954047635040706 0.025193318827058234 0 -0.039670416806559659 0.02488899432991247 0 -0.038954047635040706 0.025193318827058234 0 -0.039670416806559659 0.02488899432991247 0 -0.039818138754214909 0.02561828432092499 0 -0.039379056577102105 0.023933174072428481 0 -0.039670416806559659 0.02488899432991247 0 -0.040595493812033284 0.024818465449495179 0 -0.039670416806559659 0.02488899432991247 0 -0.040595493812033284 0.024818465449495179 0 -0.039818138754214909 0.02561828432092499 0 -0.040595493812033284 0.024818465449495179 0 -0.040675251078515523 0.02627930934372006 0 -0.039818138754214909 0.02561828432092499 0 -0.039192459248067683 0.027003600192033458 0 -0.040675251078515523 0.02627930934372006 0 -0.039818138754214909 0.02561828432092499 0 -0.033512418862304175 0.023110537499715162 0 -0.035607294729299972 0.025793391685642469 0 -0.030472207166487766 0.024831662923234684 0 -0.030285812954565255 0.02468245952466239 0 -0.030458612407512541 0.024489195456659934 0 -0.030301567578449963 0.024344122186345428 0 -0.030285812954565255 0.02468245952466239 0 -0.030458612407512541 0.024489195456659934 0 -0.033512418862304175 0.023110537499715162 0 -0.029339445866463493 0.02195146705019781 0 -0.029046922176822927 0.019996364839215183 0 -0.028031802140464128 0.019260826270670762 0 -0.028197767730163005 0.020397892133070125 0 -0.028031802140464128 0.019260826270670762 0 -0.028197767730163005 0.020397892133070125 0 -0.027412415041552084 0.019877820690101636 0 -0.029163698271708838 0.017341911909810034 0 -0.029199298548674309 0.017361806669844066 0 -0.029198866460706702 0.017346170103324787 0 -0.025501895468824705 0.018143131470721868 0 -0.031458407040015318 0.019972369526315058 0 -0.029046922176822927 0.019996364839215183 0 -0.028197767730163005 0.020397892133070125 0 -0.029082745413924842 0.021414435630048856 0 -0.028197767730163005 0.020397892133070125 0 -0.027801884892236162 0.02122324686301966 0 -0.029082745413924842 0.021414435630048856 0 -0.028197767730163005 0.020397892133070125 0 -0.027801884892236162 0.02122324686301966 0 -0.027412415041552084 0.019877820690101636 0 -0.033512418862304175 0.023110537499715162 0 -0.031458407040015318 0.019972369526315058 0 -0.035010729380977809 0.022494183530356836 0 -0.035149311542147468 0.022135921862432375 0 -0.034109831928794354 0.02236170021463357 0 -0.038279999159072403 0.023085600341826436 0 -0.033512418862304175 0.023110537499715162 0 -0.035880082279138636 0.02114427191873787 0 -0.031458407040015318 0.019972369526315058 0 -0.035149311542147468 0.022135921862432375 0 -0.034086078218395328 0.021367441608949423 0 -0.034109831928794354 0.02236170021463357 0 -0.033084333400637593 0.019800645135735487 0 -0.033311321404248681 0.019596312453892512 0 -0.03325040903366832 0.019299181038722715 0 -0.035880082279138636 0.02114427191873787 0 -0.035049525598049892 0.019935034929297636 0 -0.03345541768082292 0.019852297971672254 0 -0.033311321404248681 0.019596312453892512 0 -0.033448669792361781 0.019326203832458831 0 -0.031458407040015318 0.019972369526315058 0 -0.031184481396854983 0.017934027995289547 0 -0.033084333400637593 0.019800645135735487 0 -0.03345541768082292 0.019852297971672254 0 -0.033311321404248681 0.019596312453892512 0 -0.029199298548674309 0.017361806669844066 0 -0.029207109443226405 0.017325644171803857 0 -0.029203847668598938 0.017303213130476322 0 -0.02689224680470384 0.01612115062553961 0 -0.027798547409112161 0.015696002103597267 0 -0.029207109443226405 0.017325644171803857 0 -0.029213407383380036 0.017341894987895554 0 -0.029229143068722367 0.017296603421652106 0 -0.029163698271708838 0.017341911909810034 0 -0.029170913569485198 0.017350230256146321 0 -0.029198866460706702 0.017346170103324787 0 -0.025501895468824705 0.018143131470721868 0 -0.02689224680470384 0.01612115062553961 0 -0.02689224680470384 0.01612115062553961 0 -0.029130947398902794 0.016768358388056084 0 -0.029207109443226405 0.017325644171803857 0 -0.029213407383380036 0.017341894987895554 0 -0.029198866460706702 0.017346170103324787 0 -0.029199298548674309 0.017361806669844066 0 -0.029207109443226405 0.017325644171803857 0 -0.029198866460706702 0.017346170103324787 0 -0.027798547409112161 0.015696002103597267 0 -0.028628811863120315 0.015853377299151986 0 -0.029230269733691198 0.017268138779875111 0 -0.029229143068722367 0.017296603421652106 0 -0.029247324011278532 0.017231415268953026 0 -0.026408015987127376 0.014228204511803663 0 -0.026637444393265666 0.015013428199139827 0 -0.026047542451161032 0.014854463877505964 0 -0.029230269733691198 0.017268138779875111 0 -0.029203847668598938 0.017303213130476322 0 -0.029240020769479173 0.017242013069500531 0 -0.029230269733691198 0.017268138779875111 0 -0.029229143068722367 0.017296603421652106 0 -0.029203847668598938 0.017303213130476322 0 -0.029207109443226405 0.017325644171803857 0 -0.029229143068722367 0.017296603421652106 0 -0.029203847668598938 0.017303213130476322 0 -0.033448669792361781 0.019326203832458831 0 -0.03325040903366832 0.019299181038722715 0 -0.033432043720806291 0.018777602899861634 0 -0.033311321404248681 0.019596312453892512 0 -0.033448669792361781 0.019326203832458831 0 -0.03325040903366832 0.019299181038722715 0 -0.036652889263511942 0.020637117068944145 0 -0.036633469900979453 0.020453063579382081 0 -0.036546575485978984 0.020609644470767321 0 -0.031184481396854983 0.017934027995289547 0 -0.033007883966781795 0.018530703819877425 0 -0.035049525598049892 0.019935034929297636 0 -0.033007883966781795 0.018530703819877425 0 -0.036652889263511942 0.020637117068944145 0 -0.036633469900979453 0.020453063579382081 0 -0.036809239933504899 0.020267009755734325 0 -0.029203847668598938 0.017303213130476322 0 -0.029240471670082011 0.017206737124531038 0 -0.029240020769479173 0.017242013069500531 0 -0.036633469900979453 0.020453063579382081 0 -0.036629879151425425 0.020320321478907315 0 -0.036809239933504899 0.020267009755734325 0 -0.035881217635829729 0.020087204232736824 0 -0.035520562381164814 0.018203635220834822 0 -0.036629879151425425 0.020320321478907315 0 -0.036809239933504899 0.020267009755734325 0 -0.036659720824513915 0.020161232680826806 0 -0.036809239933504899 0.020267009755734325 0 -0.036804452230524823 0.020197698660945534 0 -0.036659720824513915 0.020161232680826806 0 -0.032973077919979901 0.01735569343193006 0 -0.030503083712156393 0.015527408354470864 0 -0.029240471670082011 0.017206737124531038 0 -0.029246884817662886 0.017191198039657418 0 -0.02925792402919768 0.017193664328001238 0 -0.033007883966781795 0.018530703819877425 0 -0.032973077919979901 0.01735569343193006 0 -0.030503083712156393 0.015527408354470864 0 -0.028628811863120315 0.015853377299151986 0 -0.029240471670082011 0.017206737124531038 0 -0.02925792402919768 0.017193664328001238 0 -0.029251215330609801 0.017230014691040272 0 -0.028968983376693531 0.014601527371353815 0 -0.029031102282342208 0.014845722870084911 0 -0.029160709258102071 0.014644981324899707 0 -0.030503083712156393 0.015527408354470864 0 -0.028296938175065303 0.013351114263726939 0 -0.028628811863120315 0.015853377299151986 0 -0.028296938175065303 0.013351114263726939 0 -0.029240471670082011 0.017206737124531038 0 -0.029251215330609801 0.017230014691040272 0 -0.029240020769479173 0.017242013069500531 0 -0.029230269733691198 0.017268138779875111 0 -0.029247324011278532 0.017231415268953026 0 -0.029240020769479173 0.017242013069500531 0 -0.028628811863120315 0.015853377299151986 0 -0.028589832654859895 0.016098926732710985 0 -0.026637444393265666 0.015013428199139827 0 -0.026409229802118368 0.015358490793158645 0 -0.026047542451161032 0.014854463877505964 0 -0.030716644638464546 0.013117351882381141 0 -0.030494698815054698 0.013061862661049282 0 -0.030196173616060532 0.01350096398007844 0 -0.028296938175065303 0.013351114263726939 0 -0.029484135026029406 0.010829184383068199 0 -0.030762753037424203 0.013270030268338728 0 -0.030889080239941531 0.01369052255011299 0 -0.030196173616060532 0.01350096398007844 0 -0.030716644638464546 0.013117351882381141 0 -0.030762753037424203 0.013270030268338728 0 -0.030196173616060532 0.01350096398007844 0 -0.032446922902630564 0.013462440545146255 0 -0.029484135026029406 0.010829184383068199 0 -0.030503083712156393 0.015527408354470864 0 -0.031946722787488613 0.015784810648678604 0 -0.031788499325621 0.011048383670955677 0 -0.032056678188659662 0.01092806688723043 0 -0.031600831793807134 0.010789500677584348 0 -0.031944060266977978 0.011087768722634164 0 -0.031788499325621 0.011048383670955677 0 -0.032056678188659662 0.01092806688723043 0 -0.031944060266977978 0.011087768722634164 0 -0.031788499325621 0.011048383670955677 0 -0.031787130701386709 0.011237737574556945 0 -0.031788499325621 0.011048383670955677 0 -0.031606903235355935 0.011141703778911525 0 -0.031787130701386709 0.011237737574556945 0 -0.035521547174297494 0.014918947974250385 0 -0.033446387648698374 0.012382826300923267 0 -0.031944060266977978 0.011087768722634164 0 -0.032066555051507233 0.010962650374505327 0 -0.032022362880134499 0.011260069960236626 0 -0.032066555051507233 0.010962650374505327 0 -0.032118102576326635 0.010949027353566253 0 -0.032022362880134499 0.011260069960236626 0 -0.034261405971767973 0.013748405760800405 0 -0.034192315196424322 0.013733587865276667 0 -0.034285673554921084 0.013639421648023595 0 -0.033672214122153266 0.01394001662458738 0 -0.033446387648698374 0.012382826300923267 0 -0.031944060266977978 0.011087768722634164 0 -0.032066555051507233 0.010962650374505327 0 -0.032056678188659662 0.01092806688723043 0 -0.032379853211821567 0.013185737741975685 0 -0.032446922902630564 0.013462440545146255 0 -0.032066555051507233 0.010962650374505327 0 -0.032059458054658811 0.01093683339601282 0 -0.032118102576326635 0.010949027353566253 0 -0.032446922902630564 0.013462440545146255 0 -0.033672214122153266 0.01394001662458738 0 -0.035425654481946109 0.016459306662575699 0 -0.035351971561720846 0.016518249167051906 0 -0.035333440873371043 0.016439712686066307 0 -0.033672214122153266 0.01394001662458738 0 -0.035521547174297494 0.014918947974250385 0 -0.035425654481946109 0.016459306662575699 0 -0.035393509761868926 0.016603286985560062 0 -0.035351971561720846 0.016518249167051906 0 -0.033262947783013926 0.014749118699500345 0 -0.033310484116670439 0.016377437350403454 0 -0.032680618395618963 0.016765177433929298 0 -0.033672214122153266 0.01394001662458738 0 -0.035520562381164814 0.018203635220834822 0 -0.033640484036749067 0.014846935755302378 0 -0.033262947783013926 0.014749118699500345 0 -0.033700770700852582 0.015997723204903128 0 -0.03409585857993877 0.016527083868239419 0 -0.033640484036749067 0.014846935755302378 0 -0.033700770700852582 0.015997723204903128 0 -0.033262947783013926 0.014749118699500345 0 -0.033700770700852582 0.015997723204903128 0 -0.033310484116670439 0.016377437350403454 0 -0.031946722787488613 0.015784810648678604 0 -0.032446922902630564 0.013462440545146255 0 -0.032973077919979901 0.01735569343193006 0 -0.035520562381164814 0.018203635220834822 0 -0.033731218730373068 0.017015728473292774 0 -0.033700770700852582 0.015997723204903128 0 -0.033310484116670439 0.016377437350403454 0 -0.033718491290159955 0.017011635058711647 0 -0.03409585857993877 0.016527083868239419 0 -0.033700770700852582 0.015997723204903128 0 -0.033731218730373068 0.017015728473292774 0 -0.033310484116670439 0.016377437350403454 0 -0.032680618395618963 0.016765177433929298 0 -0.032973077919979901 0.01735569343193006 0 -0.033310288947140262 0.016373363264258683 0 -0.03168035315103878 0.016761085667551412 0 -0.032020566218951621 0.016840725163404298 0 -0.031916343072322467 0.016453297426222799 0 -0.032973077919979901 0.01735569343193006 0 -0.031946722787488613 0.015784810648678604 0 -0.036679609756342109 0.020144552348195923 0 -0.036212101273019826 0.02001676689162997 0 -0.036448664647315436 0.020251124206717305 0 -0.035520562381164814 0.018203635220834822 0 -0.03596729536303888 0.01832373563986496 0 -0.035521547174297494 0.014918947974250385 0 -0.03596729536303888 0.01832373563986496 0 -0.035351971561720846 0.016518249167051906 0 -0.035333440873371043 0.016439712686066307 0 -0.035202267643460676 0.016565251029297359 0 -0.035393509761868926 0.016603286985560062 0 -0.035351971561720846 0.016518249167051906 0 -0.035202267643460676 0.016565251029297359 0 -0.036100997007517566 0.016488464662174854 0 -0.035988414575811575 0.016465750775222398 0 -0.035985841838866481 0.016597683766171385 0 -0.035521547174297494 0.014918947974250385 0 -0.035952930625397769 0.014909159456284262 0 -0.035549492669203271 0.013255880184867692 0 -0.035887135199160224 0.013348831392500114 0 -0.035813372347688562 0.013538208163764593 0 -0.035952930625397769 0.014909159456284262 0 -0.036222077647585407 0.015042301968917531 0 -0.035988414575811575 0.016465750775222398 0 -0.035985841838866481 0.016597683766171385 0 -0.03588062504909853 0.016576643007749064 0 -0.03596729536303888 0.01832373563986496 0 -0.035869241300480345 0.018233699976990408 0 -0.036233691752379615 0.019977886599539803 0 -0.035975640663384663 0.020189252158867844 0 -0.035922517110593237 0.019913355289135955 0 -0.03596729536303888 0.01832373563986496 0 -0.03576571433390769 0.020281196198379332 0 -0.036212101273019826 0.02001676689162997 0 -0.036241374776516955 0.020248575248845099 0 -0.035975640663384663 0.020189252158867844 0 -0.036131707665801704 0.02040622228709274 0 -0.036241374776516955 0.020248575248845099 0 -0.035975640663384663 0.020189252158867844 0 -0.036131707665801704 0.02040622228709274 0 -0.036241374776516955 0.020248575248845099 0 -0.036388145286491667 0.020369760274342612 0 -0.036212101273019826 0.02001676689162997 0 -0.036241374776516955 0.020248575248845099 0 -0.036448664647315436 0.020251124206717305 0 -0.036241374776516955 0.020248575248845099 0 -0.036448664647315436 0.020251124206717305 0 -0.036388145286491667 0.020369760274342612 0 -0.036131707665801704 0.02040622228709274 0 -0.036388145286491667 0.020369760274342612 0 -0.036546575485978984 0.020609644470767321 0 -0.036629879151425425 0.020320321478907315 0 -0.036448664647315436 0.020251124206717305 0 -0.036537791415419928 0.020413663219939884 0 -0.036629879151425425 0.020320321478907315 0 -0.036679609756342109 0.020144552348195923 0 -0.036448664647315436 0.020251124206717305 0 -0.036537791415419928 0.020413663219939884 0 -0.036388145286491667 0.020369760274342612 0 -0.036546575485978984 0.020609644470767321 0 -0.036633469900979453 0.020453063579382081 0 -0.036537791415419928 0.020413663219939884 0 -0.036546575485978984 0.020609644470767321 0 -0.036633469900979453 0.020453063579382081 0 -0.036629879151425425 0.020320321478907315 0 -0.036537791415419928 0.020413663219939884 0 -0.036448664647315436 0.020251124206717305 0 -0.036537791415419928 0.020413663219939884 0 -0.036388145286491667 0.020369760274342612 0 -0.036392399888340685 0.020567293773725702 0 -0.036533107616106723 0.020612796374061802 0 -0.036572709523401505 0.020666486537052258 0 -0.036652889263511942 0.020637117068944145 0 -0.036546575485978984 0.020609644470767321 0 -0.036572709523401505 0.020666486537052258 0 -0.036546575485978984 0.020609644470767321 0 -0.036586146848168119 0.020678584487859464 0 -0.036609001302628848 0.020730451150217929 0 -0.036546575485978984 0.020609644470767321 0 -0.036586146848168119 0.020678584487859464 0 -0.036586146848168119 0.020678584487859464 0 -0.036620524061851067 0.020716386396549644 0 -0.036638612576579604 0.020723417298496825 0 -0.036609001302628848 0.020730451150217929 0 -0.036586146848168119 0.020678584487859464 0 -0.036620524061851067 0.020716386396549644 0 -0.036609001302628848 0.020730451150217929 0 -0.036620524061851067 0.020716386396549644 0 -0.036641318452321471 0.020733798849788571 0 -0.034999402754290275 0.024260928775699273 0 -0.03499970657764323 0.018648688067865297 0 -0.03563316772935661 0.020827555317719855 0 -0.036638612576579604 0.020723417298496825 0 -0.036519106944672843 0.02083820511559805 0 -0.036641318452321471 0.020733798849788571 0 -0.036620524061851067 0.020716386396549644 0 -0.036638612576579604 0.020723417298496825 0 -0.036641318452321471 0.020733798849788571 0 -0.037089134387672425 0.021306350072550648 0 -0.036558261497132614 0.020881345742867079 0 -0.036759545441089919 0.022051073530422603 0 -0.036519106944672843 0.02083820511559805 0 -0.036295810200622773 0.021610812890508715 0 -0.037692975859283342 0.022036297698607474 0 -0.036759545441089919 0.022051073530422603 0 -0.036519106944672843 0.02083820511559805 0 -0.036519106944672843 0.02083820511559805 0 -0.03665091135899979 0.020728061469038842 0 -0.036641318452321471 0.020733798849788571 0 -0.036146025140970525 0.020478387156715135 0 -0.036354339872717439 0.019855585685292453 0 -0.036519106944672843 0.02083820511559805 0 -0.03665091135899979 0.020728061469038842 0 -0.036425042841981337 0.020460139302401287 0 -0.036131707665801704 0.02040622228709274 0 -0.035778333458426931 0.020222897634478244 0 -0.035975640663384663 0.020189252158867844 0 -0.036609001302628848 0.020730451150217929 0 -0.03665091135899979 0.020728061469038842 0 -0.036641318452321471 0.020733798849788571 0 -0.035778333458426931 0.020222897634478244 0 -0.035975640663384663 0.020189252158867844 0 -0.035747876839674071 0.02001630442304653 0 -0.036392399888340685 0.020567293773725702 0 -0.036146025140970525 0.020478387156715135 0 -0.035869241300480345 0.018233699976990408 0 -0.036099347970926676 0.018055476991452511 0 -0.035922517110593237 0.019913355289135955 0 -0.035638358634921805 0.019846434060435771 0 -0.035747876839674071 0.02001630442304653 0 -0.035975640663384663 0.020189252158867844 0 -0.035922517110593237 0.019913355289135955 0 -0.035747876839674071 0.02001630442304653 0 -0.037168362240979122 0.016348906118027071 0 -0.036340147581580197 0.017203821569300122 0 -0.036612938890892205 0.016208340010097525 0 -0.03588062504909853 0.016576643007749064 0 -0.035874317797108084 0.016438662518227221 0 -0.035772279818375205 0.016557037197201765 0 -0.035988414575811575 0.016465750775222398 0 -0.03588062504909853 0.016576643007749064 0 -0.035874317797108084 0.016438662518227221 0 -0.036222077647585407 0.015042301968917531 0 -0.036099347970926676 0.018055476991452511 0 -0.037260552826202886 0.018450646355254337 0 -0.036667474289834287 0.017836077739577259 0 -0.038055595861543667 0.017368603942749774 0 -0.035952678920772717 0.017113600739865294 0 -0.036340147581580197 0.017203821569300122 0 -0.036612938890892205 0.016208340010097525 0 -0.036824320122724366 0.01811819557393354 0 -0.037191893096117978 0.016022295728924552 0 -0.036824320122724366 0.01811819557393354 0 -0.036099347970926676 0.018055476991452511 0 -0.036099347970926676 0.018055476991452511 0 -0.036354339872717439 0.019855585685292453 0 -0.037497069682385038 0.018607549532391073 0 -0.03683403859244154 0.019311642613756123 0 -0.036734484787048806 0.019027438105280646 0 -0.035778333458426931 0.020222897634478244 0 -0.035747876839674071 0.02001630442304653 0 -0.035430006212053979 0.020063831327192277 0 -0.035638358634921805 0.019846434060435771 0 -0.035747876839674071 0.02001630442304653 0 -0.035430006212053979 0.020063831327192277 0 -0.037102952276261307 0.018516213320786411 0 -0.037497069682385038 0.018607549532391073 0 -0.036734484787048806 0.019027438105280646 0 -0.036354339872717439 0.019855585685292453 0 -0.035984009133532766 0.019072477784524533 0 -0.03683403859244154 0.019311642613756123 0 -0.036734484787048806 0.019027438105280646 0 -0.035952707074504785 0.018977824868226495 0 -0.036734484787048806 0.019027438105280646 0 -0.035851205530108045 0.018141554038029722 0 -0.035952707074504785 0.018977824868226495 0 -0.036824320122724366 0.01811819557393354 0 -0.036693296745845094 0.018824807595609731 0 -0.037148142796420112 0.018468564068942057 0 -0.036734484787048806 0.019027438105280646 0 -0.035851205530108045 0.018141554038029722 0 -0.036667474289834287 0.017836077739577259 0 -0.035851205530108045 0.018141554038029722 0 -0.036540730029169695 0.016974522532336132 0 -0.037260552826202886 0.018450646355254337 0 -0.036667474289834287 0.017836077739577259 0 -0.035851205530108045 0.018141554038029722 0 -0.036824320122724366 0.01811819557393354 0 -0.036110773194205581 0.018236021819687365 0 -0.035851205530108045 0.018141554038029722 0 -0.034999997501344103 0.018647543153285633 0 -0.034999966313592076 0.016545805082225081 0 -0.03499970657764323 0.018648688067865297 0 -0.035947398734884804 0.019091004079467403 0 -0.03563316772935661 0.020827555317719855 0 -0.035000250497280991 0.018647811762723857 0 -0.035984009133532766 0.019072477784524533 0 -0.035851205530108045 0.018141554038029722 0 -0.034999997501344103 0.018647543153285633 0 -0.035952707074504785 0.018977824868226495 0 -0.036354339872717439 0.019855585685292453 0 -0.035793775595441391 0.020815965068228838 0 -0.036519106944672843 0.02083820511559805 0 -0.036425042841981337 0.020460139302401287 0 -0.03563316772935661 0.020827555317719855 0 -0.036988959955191393 0.019517147906526665 0 -0.035947398734884804 0.019091004079467403 0 -0.03563316772935661 0.020827555317719855 0 -0.03626256991565633 0.022773880507605593 0 -0.03563316772935661 0.020827555317719855 0 -0.036295810200622773 0.021610812890508715 0 -0.036519106944672843 0.02083820511559805 0 -0.03563316772935661 0.020827555317719855 0 -0.036295810200622773 0.021610812890508715 0 -0.017914946212994439 0.012838507737359464 0 -0.017893224244787724 0.012532589567786171 0 -0.018581638339572742 0.012494255564659093 0 -0.017914946212994439 0.012838507737359464 0 -0.018581638339572742 0.012494255564659093 0 -0.018595059885128735 0.0130145340557394 0 -0.01778156398713163 0.012330428389959566 0 -0.018689357133268379 0.012500058148666421 0 -0.017914946212994439 0.012838507737359464 0 -0.017893224244787724 0.012532589567786171 0 -0.017713413403664703 0.012688936837560472 0 -0.018187512280539476 0.012237762724044976 0 -0.018248301062245717 0.012208918517901816 0 -0.018219482320914804 0.01219294141904678 0 -0.018187512280539476 0.012237762724044976 0 -0.018219482320914804 0.01219294141904678 0 -0.018214184811177109 0.012191170542826826 0 -0.018248301062245717 0.012208918517901816 0 -0.018219482320914804 0.01219294141904678 0 -0.018250051466638505 0.012171398242384956 0 -0.018187512280539476 0.012237762724044976 0 -0.018248301062245717 0.012208918517901816 0 -0.018581638339572742 0.012494255564659093 0 -0.018248301062245717 0.012208918517901816 0 -0.018287148760942975 0.012145868799415208 0 -0.018250051466638505 0.012171398242384956 0 -0.018248301062245717 0.012208918517901816 0 -0.018453825412447177 0.012148643959488755 0 -0.018379281415234025 0.011841509304154162 0 -0.018248301062245717 0.012208918517901816 0 -0.018453825412447177 0.012148643959488755 0 -0.018581638339572742 0.012494255564659093 0 -0.017952240041890947 0.012668896202422508 0 -0.019324004972069798 0.010773340607380529 0 -0.018453825412447177 0.012148643959488755 0 -0.01883635930166078 0.012261408769113989 0 -0.018753457607897973 0.011852366363141551 0 -0.01883635930166078 0.012261408769113989 0 -0.019090525520216766 0.012102303169900335 0 -0.018753457607897973 0.011852366363141551 0 -0.018453825412447177 0.012148643959488755 0 -0.01883635930166078 0.012261408769113989 0 -0.018581638339572742 0.012494255564659093 0 -0.019328084841495854 0.011819154231214889 0 -0.019090525520216766 0.012102303169900335 0 -0.018753457607897973 0.011852366363141551 0 -0.020424020352032033 0.01041872803404576 0 -0.019103622556321118 0.01097363298206859 0 -0.018673317155061344 0.009261486975828041 0 -0.019328084841495854 0.011819154231214889 0 -0.019090525520216766 0.012102303169900335 0 -0.01942832700178853 0.012132597526700432 0 -0.019090525520216766 0.012102303169900335 0 -0.01942832700178853 0.012132597526700432 0 -0.019175242900235309 0.012501835952301846 0 -0.01883635930166078 0.012261408769113989 0 -0.019090525520216766 0.012102303169900335 0 -0.019175242900235309 0.012501835952301846 0 -0.019630768733438348 0.012814629791360017 0 -0.01942832700178853 0.012132597526700432 0 -0.019175242900235309 0.012501835952301846 0 -0.019564684643565023 0.012588540293425316 0 -0.01930137868794056 0.011866424600249772 0 -0.019175242900235309 0.012501835952301846 0 -0.019177908521492485 0.012940963810763017 0 -0.01883261125390874 0.012748738599438722 0 -0.019630768733438348 0.012814629791360017 0 -0.019175242900235309 0.012501835952301846 0 -0.019177908521492485 0.012940963810763017 0 -0.018581638339572742 0.012494255564659093 0 -0.01883261125390874 0.012748738599438722 0 -0.018595059885128735 0.0130145340557394 0 -0.01883635930166078 0.012261408769113989 0 -0.018581638339572742 0.012494255564659093 0 -0.01883261125390874 0.012748738599438722 0 -0.01883635930166078 0.012261408769113989 0 -0.019175242900235309 0.012501835952301846 0 -0.01883261125390874 0.012748738599438722 0 -0.019177908521492485 0.012940963810763017 0 -0.01883261125390874 0.012748738599438722 0 -0.018595059885128735 0.0130145340557394 0 -0.018814086729078895 0.01459101445269822 0 -0.019158817367143064 0.014700084132109466 0 -0.018794443014976833 0.015013722511208199 0 -0.019810465099825925 0.013798026673029947 0 -0.019177908521492485 0.012940963810763017 0 -0.018595059885128735 0.0130145340557394 0 -0.019810465099825925 0.013798026673029947 0 -0.018814086729078895 0.01459101445269822 0 -0.019158817367143064 0.014700084132109466 0 -0.019810465099825925 0.013798026673029947 0 -0.019158817367143064 0.014700084132109466 0 -0.019605791003372543 0.014673288945549522 0 -0.019811253864136104 0.013822642287293503 0 -0.018803039756632136 0.01382036510684218 0 -0.019630768733438348 0.012814629791360017 0 -0.019810465099825925 0.013798026673029947 0 -0.019177908521492485 0.012940963810763017 0 -0.019371223405428691 0.015429137015041651 0 -0.019158817367143064 0.014700084132109466 0 -0.019605791003372543 0.014673288945549522 0 -0.019371223405428691 0.015429137015041651 0 -0.019158817367143064 0.014700084132109466 0 -0.019034803369180626 0.015141468598772466 0 -0.019158817367143064 0.014700084132109466 0 -0.019034803369180626 0.015141468598772466 0 -0.018794443014976833 0.015013722511208199 0 -0.018909314361366059 0.015385136619543759 0 -0.019034803369180626 0.015141468598772466 0 -0.018794443014976833 0.015013722511208199 0 -0.018659018128679133 0.015268292174942103 0 -0.018794443014976833 0.015013722511208199 0 -0.01864760270940858 0.015086650867896078 0 -0.018659018128679133 0.015268292174942103 0 -0.018909314361366059 0.015385136619543759 0 -0.018794443014976833 0.015013722511208199 0 -0.018659018128679133 0.015268292174942103 0 -0.01864760270940858 0.015086650867896078 0 -0.018561793533838713 0.015191469578162619 0 -0.018794443014976833 0.015013722511208199 0 -0.01864760270940858 0.015086650867896078 0 -0.018664950838983802 0.01491027554579393 0 -0.018814086729078895 0.01459101445269822 0 -0.018794443014976833 0.015013722511208199 0 -0.018664950838983802 0.01491027554579393 0 -0.018126400028196078 0.013787317438659814 0 -0.018803039756632136 0.01382036510684218 0 -0.018561923119948684 0.014900269457192653 0 -0.018814086729078895 0.01459101445269822 0 -0.018664950838983802 0.01491027554579393 0 -0.01864760270940858 0.015086650867896078 0 -0.018664950838983802 0.01491027554579393 0 -0.018575238698453858 0.015013242856273012 0 -0.018561923119948684 0.014900269457192653 0 -0.018492809252776295 0.015006757688861205 0 -0.018575238698453858 0.015013242856273012 0 -0.018561923119948684 0.014900269457192653 0 -0.018664950838983802 0.01491027554579393 0 -0.018575238698453858 0.015013242856273012 0 -0.018492809252776295 0.015006757688861205 0 -0.018575238698453858 0.015013242856273012 0 -0.018500660737707637 0.015130228148053601 0 -0.018505149947879242 0.015398933844827848 0 -0.018561793533838713 0.015191469578162619 0 -0.018475781820263541 0.015245914321506576 0 -0.018500660737707637 0.015130228148053601 0 -0.018475781820263541 0.015245914321506576 0 -0.018454762543844129 0.015209417921007282 0 -0.018500660737707637 0.015130228148053601 0 -0.018561793533838713 0.015191469578162619 0 -0.018475781820263541 0.015245914321506576 0 -0.018575238698453858 0.015013242856273012 0 -0.018500660737707637 0.015130228148053601 0 -0.018561793533838713 0.015191469578162619 0 -0.01864760270940858 0.015086650867896078 0 -0.018575238698453858 0.015013242856273012 0 -0.018561793533838713 0.015191469578162619 0 -0.018475781820263541 0.015245914321506576 0 -0.018454762543844129 0.015209417921007282 0 -0.018406046561231924 0.015328891370612822 0 -0.018444775102820572 0.015342015991116764 0 -0.018475781820263541 0.015245914321506576 0 -0.018406046561231924 0.015328891370612822 0 -0.018454762543844129 0.015209417921007282 0 -0.018418153405513334 0.01524081686757355 0 -0.018406046561231924 0.015328891370612822 0 -0.018454762543844129 0.015209417921007282 0 -0.018418153405513334 0.01524081686757355 0 -0.018448221030819893 0.015137113657113999 0 -0.018500660737707637 0.015130228148053601 0 -0.018454762543844129 0.015209417921007282 0 -0.018448221030819893 0.015137113657113999 0 -0.018369202703219682 0.015225028854881251 0 -0.018394544364632413 0.015316749778111961 0 -0.018369290243363239 0.015392117551596926 0 -0.018369202703219682 0.015225028854881251 0 -0.018418153405513334 0.01524081686757355 0 -0.018394544364632413 0.015316749778111961 0 -0.018369202703219682 0.015225028854881251 0 -0.018418153405513334 0.01524081686757355 0 -0.018398357082480027 0.015174816435892309 0 -0.018418153405513334 0.01524081686757355 0 -0.018448221030819893 0.015137113657113999 0 -0.018398357082480027 0.015174816435892309 0 -0.018394544364632413 0.015316749778111961 0 -0.018406046561231924 0.015328891370612822 0 -0.018369290243363239 0.015392117551596926 0 -0.018418153405513334 0.01524081686757355 0 -0.018394544364632413 0.015316749778111961 0 -0.018406046561231924 0.015328891370612822 0 -0.018413937757074124 0.015371634062107604 0 -0.018380653087610076 0.015453772936390818 0 -0.018369290243363239 0.015392117551596926 0 -0.018413937757074124 0.015371634062107604 0 -0.018406046561231924 0.015328891370612822 0 -0.018369290243363239 0.015392117551596926 0 -0.018535105038979774 0.01537225928593028 0 -0.018413937757074124 0.015371634062107604 0 -0.018380653087610076 0.015453772936390818 0 -0.018535105038979774 0.01537225928593028 0 -0.018380653087610076 0.015453772936390818 0 -0.018794209371980012 0.015688621122915945 0 -0.018380653087610076 0.015453772936390818 0 -0.018421507925661523 0.016204855776914079 0 -0.018794209371980012 0.015688621122915945 0 -0.018380653087610076 0.015453772936390818 0 -0.018369290243363239 0.015392117551596926 0 -0.01835549692464173 0.015327642365097744 0 -0.018373002804737665 0.015466691621016552 0 -0.018450593259035974 0.015872811106687559 0 -0.018369202703219682 0.015225028854881251 0 -0.018369290243363239 0.015392117551596926 0 -0.018240779603082267 0.014869865340695928 0 -0.018371285305163673 0.015716909305675788 0 -0.018304716564621081 0.014270358392372321 0 -0.018369290243363239 0.015392117551596926 0 -0.01835549692464173 0.015327642365097744 0 -0.018384432051513511 0.015257877886080131 0 -0.018450593259035974 0.015872811106687559 0 -0.019542707583604043 0.015178939595720716 0 -0.018421507925661523 0.016204855776914079 0 -0.019032883923206474 0.016485502158436093 0 -0.018507466003998538 0.01689598352667504 0 -0.018492809252776295 0.015006757688861205 0 -0.018400091947979848 0.015051096652833844 0 -0.018240779603082267 0.014869865340695928 0 -0.018400091947979848 0.015051096652833844 0 -0.018398357082480027 0.015174816435892309 0 -0.018240779603082267 0.014869865340695928 0 -0.018369202703219682 0.015225028854881251 0 -0.018398357082480027 0.015174816435892309 0 -0.018240779603082267 0.014869865340695928 0 -0.018492809252776295 0.015006757688861205 0 -0.018500660737707637 0.015130228148053601 0 -0.018448221030819893 0.015137113657113999 0 -0.018492809252776295 0.015006757688861205 0 -0.018400091947979848 0.015051096652833844 0 -0.018448221030819893 0.015137113657113999 0 -0.018400091947979848 0.015051096652833844 0 -0.018448221030819893 0.015137113657113999 0 -0.018398357082480027 0.015174816435892309 0 -0.019562848366257355 0.015578301120108575 0 -0.019066256731028703 0.015957895200633107 0 -0.019884927294072537 0.016339561825027406 0 -0.030472207166487766 0.024831662923234684 0 -0.030458612407512541 0.024489195456659934 0 -0.030622387857287579 0.024632087475967439 0 -0.028031802140464128 0.019260826270670762 0 -0.027006053294180023 0.018536105574720851 0 -0.027412415041552084 0.019877820690101636 0 -0.024207371777958536 0.020409123522034296 0 -0.023459461292775128 0.01763608701388027 0 -0.029339445866463493 0.02195146705019781 0 -0.024207371777958536 0.020409123522034296 0 -0.018535105038979774 0.01537225928593028 0 -0.019562848366257355 0.015578301120108575 0 -0.018794209371980012 0.015688621122915945 0 -0.019562848366257355 0.015578301120108575 0 -0.018794209371980012 0.015688621122915945 0 -0.019066256731028703 0.015957895200633107 0 -0.019032883923206474 0.016485502158436093 0 -0.019884927294072537 0.016339561825027406 0 -0.019313503097050051 0.017037492333645324 0 -0.019032883923206474 0.016485502158436093 0 -0.019066256731028703 0.015957895200633107 0 -0.019884927294072537 0.016339561825027406 0 -0.018421507925661523 0.016204855776914079 0 -0.019032883923206474 0.016485502158436093 0 -0.019066256731028703 0.015957895200633107 0 -0.018421507925661523 0.016204855776914079 0 -0.018794209371980012 0.015688621122915945 0 -0.019066256731028703 0.015957895200633107 0 -0.025501895468824705 0.018143131470721868 0 -0.023459461292775128 0.01763608701388027 0 -0.025433971218559209 0.015312151896000464 0 -0.022852842911091378 0.014926581961519973 0 -0.023132153503508286 0.01632716755445698 0 -0.02017474450031452 0.017182603821608557 0 -0.019884927294072537 0.016339561825027406 0 -0.019313503097050051 0.017037492333645324 0 -0.025501895468824705 0.018143131470721868 0 -0.020571675573765141 0.015890916851191782 0 -0.020571675573765141 0.015890916851191782 0 -0.019542707583604043 0.015178939595720716 0 -0.022852842911091378 0.014926581961519973 0 -0.023132153503508286 0.01632716755445698 0 -0.020512717495447082 0.016119819308629185 0 -0.022852842911091378 0.014926581961519973 0 -0.020299648107392702 0.014546691892428545 0 -0.020512717495447082 0.016119819308629185 0 -0.019032883923206474 0.016485502158436093 0 -0.019313503097050051 0.017037492333645324 0 -0.018507466003998538 0.01689598352667504 0 -0.024137779402309965 0.014835937264652824 0 -0.021810328848242223 0.013774030144802388 0 -0.025253212078929742 0.013360371356534775 0 -0.024444145816336423 0.014105075428098492 0 -0.02548070737836907 0.014294571224110486 0 -0.025253212078929742 0.013360371356534775 0 -0.024320788117793909 0.013287007546124874 0 -0.024444145816336423 0.014105075428098492 0 -0.025433971218559209 0.015312151896000464 0 -0.025776869320118908 0.016533797777326321 0 -0.023132153503508286 0.01632716755445698 0 -0.02689224680470384 0.01612115062553961 0 -0.024137779402309965 0.014835937264652824 0 -0.026183023257539174 0.013439797069508437 0 -0.025253212078929742 0.013360371356534775 0 -0.02548070737836907 0.014294571224110486 0 -0.018126400028196078 0.013787317438659814 0 -0.018304716564621081 0.014270358392372321 0 -0.017628898105667309 0.012632793028933734 0 -0.017713413403664703 0.012688936837560472 0 -0.017425903278815238 0.012733179182339941 0 -0.017893224244787724 0.012532589567786171 0 -0.017628898105667309 0.012632793028933734 0 -0.017417383746886277 0.012547083198470154 0 -0.017914946212994439 0.012838507737359464 0 -0.017713413403664703 0.012688936837560472 0 -0.017425903278815238 0.012733179182339941 0 -0.018561923119948684 0.014900269457192653 0 -0.018492809252776295 0.015006757688861205 0 -0.018240779603082267 0.014869865340695928 0 -0.017893224244787724 0.012532589567786171 0 -0.017628898105667309 0.012632793028933734 0 -0.017713413403664703 0.012688936837560472 0 -0.018304716564621081 0.014270358392372321 0 -0.019542707583604043 0.015178939595720716 0 -0.01835549692464173 0.015327642365097744 0 -0.018384432051513511 0.015257877886080131 0 -0.018356301938285823 0.015253407492212351 0 -0.019542707583604043 0.015178939595720716 0 -0.021810328848242223 0.013774030144802388 0 -0.019586699727176721 0.014029863140385818 0 -0.019772470948295918 0.013690326468013027 0 -0.019547001348239536 0.013674802510912491 0 -0.019787072757576595 0.014059124800122148 0 -0.019586699727176721 0.014029863140385818 0 -0.019772470948295918 0.013690326468013027 0 -0.018304716564621081 0.014270358392372321 0 -0.019000015129295143 0.012776592666828585 0 -0.017628898105667309 0.012632793028933734 0 -0.017425903278815238 0.012733179182339941 0 -0.017417383746886277 0.012547083198470154 0 -0.021651785132288864 0.013247912919257414 0 -0.021915093353634042 0.01265116682002102 0 -0.021582842333295122 0.012594925610226319 0 -0.019000015129295143 0.012776592666828585 0 -0.020097351934344285 0.012658257702635593 0 -0.018222422483002283 0.012186102570409561 0 -0.018214184811177109 0.012191170542826826 0 -0.018224210906922868 0.012177395769763082 0 -0.021931549509790628 0.013267413863442136 0 -0.021651785132288864 0.013247912919257414 0 -0.021915093353634042 0.01265116682002102 0 -0.021810328848242223 0.013774030144802388 0 -0.02303813038408856 0.013508398917581836 0 -0.019000015129295143 0.012776592666828585 0 -0.021810328848242223 0.013774030144802388 0 -0.018187512280539476 0.012237762724044976 0 -0.018222422483002283 0.012186102570409561 0 -0.018214184811177109 0.012191170542826826 0 -0.01778156398713163 0.012330428389959566 0 -0.019000015129295143 0.012776592666828585 0 -0.018219482320914804 0.01219294141904678 0 -0.018214184811177109 0.012191170542826826 0 -0.018233392299886797 0.012151423307460139 0 -0.02146633758701617 0.010395422465811802 0 -0.019999722938473425 0.008890005597840445 0 -0.018214184811177109 0.012191170542826826 0 -0.018224210906922868 0.012177395769763082 0 -0.018233392299886797 0.012151423307460139 0 -0.018224210906922868 0.012177395769763082 0 -0.018241791862980479 0.012150769291654281 0 -0.018233392299886797 0.012151423307460139 0 -0.021582842333295122 0.012594925610226319 0 -0.021896974142911599 0.012028904932694495 0 -0.02151629807838255 0.011937718761413562 0 -0.02303813038408856 0.013508398917581836 0 -0.024474551987519369 0.011888571392410528 0 -0.021915093353634042 0.01265116682002102 0 -0.021582842333295122 0.012594925610226319 0 -0.021896974142911599 0.012028904932694495 0 -0.020097351934344285 0.012658257702635593 0 -0.02146633758701617 0.010395422465811802 0 -0.02146633758701617 0.010395422465811802 0 -0.02582058571056078 0.004413835844354572 0 -0.024637789795152742 0.009149379730673932 0 -0.025470452330989008 0.0098753524929864091 0 -0.024722391860111558 0.010355331031530494 0 -0.022795838427252444 0.0063514460791186875 0 -0.022425436077821562 0.0065008897418302129 0 -0.022841815466095733 0.0068426405974795837 0 -0.024637789795152742 0.009149379730673932 0 -0.025389336247723937 0.0093292601529740265 0 -0.025470452330989008 0.0098753524929864091 0 -0.02146633758701617 0.010395422465811802 0 -0.024474551987519369 0.011888571392410528 0 -0.025470452330989008 0.0098753524929864091 0 -0.025694010873126692 0.010215663043896924 0 -0.024722391860111558 0.010355331031530494 0 -0.022795838427252444 0.0063514460791186875 0 -0.022425436077821562 0.0065008897418302129 0 -0.02207848444307307 0.0061824336069466954 0 -0.02582058571056078 0.004413835844354572 0 -0.02401222039074424 0.0011428711512081024 0 -0.022425436077821562 0.0065008897418302129 0 -0.022841815466095733 0.0068426405974795837 0 -0.021985129131550138 0.0066277624523670151 0 -0.022425436077821562 0.0065008897418302129 0 -0.021985129131550138 0.0066277624523670151 0 -0.02207848444307307 0.0061824336069466954 0 -0.026183023257539174 0.013439797069508437 0 -0.026408015987127376 0.014228204511803663 0 -0.02548070737836907 0.014294571224110486 0 -0.026408015987127376 0.014228204511803663 0 -0.02548070737836907 0.014294571224110486 0 -0.026047542451161032 0.014854463877505964 0 -0.024444145816336423 0.014105075428098492 0 -0.02548070737836907 0.014294571224110486 0 -0.024560542961628757 0.014913666505938526 0 -0.024474551987519369 0.011888571392410528 0 -0.026056105493993603 0.012369170769339541 0 -0.025388379177634764 0.0093198483411341664 0 -0.026264667513329339 0.0098886639499748061 0 -0.026815811104845429 0.0096607586334139482 0 -0.02548070737836907 0.014294571224110486 0 -0.024560542961628757 0.014913666505938526 0 -0.025482714883741039 0.015138345393714388 0 -0.024474551987519369 0.011888571392410528 0 -0.024740253236260883 0.0099888305619214961 0 -0.025388379177634764 0.0093198483411341664 0 -0.025470452330989008 0.0098753524929864091 0 -0.026264667513329339 0.0098886639499748061 0 -0.025470452330989008 0.0098753524929864091 0 -0.026264667513329339 0.0098886639499748061 0 -0.025694010873126692 0.010215663043896924 0 -0.028267466539632961 0.010026668915283006 0 -0.026815811104845429 0.0096607586334139482 0 -0.026894616774780632 0.010451688979058831 0 -0.028296938175065303 0.013351114263726939 0 -0.026056105493993603 0.012369170769339541 0 -0.02548070737836907 0.014294571224110486 0 -0.025482714883741039 0.015138345393714388 0 -0.026047542451161032 0.014854463877505964 0 -0.026409229802118368 0.015358490793158645 0 -0.025482714883741039 0.015138345393714388 0 -0.026047542451161032 0.014854463877505964 0 -0.026264667513329339 0.0098886639499748061 0 -0.026815811104845429 0.0096607586334139482 0 -0.026894616774780632 0.010451688979058831 0 -0.0275094150232181 0.011166040794998729 0 -0.026894616774780632 0.010451688979058831 0 -0.026069865230325152 0.010782201946245724 0 -0.029484135026029406 0.010829184383068199 0 -0.027272725731866131 0.0083441289620150572 0 -0.028267466539632961 0.010026668915283006 0 -0.0275094150232181 0.011166040794998729 0 -0.026894616774780632 0.010451688979058831 0 -0.026058422895246444 0.010711342183038142 0 -0.025694010873126692 0.010215663043896924 0 -0.024722391860111558 0.010355331031530494 0 -0.027272725731866131 0.0083441289620150572 0 -0.02582058571056078 0.004413835844354572 0 -0.027940107640113024 0.0087029237273924063 0 -0.029540977758268402 0.0091093122085854419 0 -0.029661672540996442 0.0072876592255841036 0 -0.026264667513329339 0.0098886639499748061 0 -0.026058422895246444 0.010711342183038142 0 -0.025694010873126692 0.010215663043896924 0 -0.0262957519529823 0.010562279554541356 0 -0.027272725731866131 0.0083441289620150572 0 -0.026264667513329339 0.0098886639499748061 0 -0.026894616774780632 0.010451688979058831 0 -0.026069865230325152 0.010782201946245724 0 -0.027272725731866131 0.0083441289620150572 0 -0.029185512353480669 0.0046115602569673396 0 -0.027579501798105199 0.0049850583481804382 0 -0.028693069515702895 0.0035271096343999957 0 -0.027993973536879473 0.0033086548576805987 0 -0.029540977758268402 0.0091093122085854419 0 -0.029661672540996442 0.0072876592255841036 0 -0.030060633764144883 0.0068876718708471615 0 -0.029661672540996442 0.0072876592255841036 0 -0.029088079140996047 0.0069006053957073729 0 -0.030060633764144883 0.0068876718708471615 0 -0.029485012296297346 0.0073747861307912853 0 -0.030606037199768277 0.0082991542950672115 0 -0.029484135026029406 0.010829184383068199 0 -0.030606037199768277 0.0082991542950672115 0 -0.027940107640113024 0.0087029237273924063 0 -0.029661672540996442 0.0072876592255841036 0 -0.029110038433203748 0.0069112198415690728 0 -0.031600831793807134 0.010789500677584348 0 -0.031606903235355935 0.011141703778911525 0 -0.031335736969044355 0.011173925333851181 0 -0.031788499325621 0.011048383670955677 0 -0.031600831793807134 0.010789500677584348 0 -0.031606903235355935 0.011141703778911525 0 -0.028117103321775028 -0.0024316006535845627 0 -0.025907911417219927 -0.0018147986187861079 0 -0.025910065502588599 -0.0029620526359650612 0 -0.028117103321775028 -0.0024316006535845627 0 -0.027050335738192793 -0.0011028551669165524 0 -0.025907911417219927 -0.0018147986187861079 0 -0.027579501798105199 0.0049850583481804382 0 -0.028754899593355664 0.0052780043092348688 0 -0.028693069515702895 0.0035271096343999957 0 -0.02582058571056078 0.004413835844354572 0 -0.028817197799315707 0.000916501701028053 0 -0.028117103321775028 -0.0024316006535845627 0 -0.028339306461991429 -0.00036379813885694431 0 -0.027050335738192793 -0.0011028551669165524 0 -0.028339306461991429 -0.00036379813885694431 0 -0.027050335738192793 -0.0011028551669165524 0 -0.027120216010340644 2.4906444084223799e-05 0 -0.027050335738192793 -0.0011028551669165524 0 -0.02601439974736974 -0.00032555673959865533 0 -0.025709168855155326 -0.0010751242219792523 0 -0.027050335738192793 -0.0011028551669165524 0 -0.02601439974736974 -0.00032555673959865533 0 -0.027120216010340644 2.4906444084223799e-05 0 -0.027050335738192793 -0.0011028551669165524 0 -0.025709168855155326 -0.0010751242219792523 0 -0.025907911417219927 -0.0018147986187861079 0 -0.02601439974736974 -0.00032555673959865533 0 -0.024958977003595718 -0.00071527483127011113 0 -0.025709168855155326 -0.0010751242219792523 0 -0.024958977003595718 -0.00071527483127011113 0 -0.024500864340364577 0.00022351581179270638 0 -0.025250424774186833 -5.9966981860288625e-05 0 -0.02601439974736974 -0.00032555673959865533 0 -0.024958977003595718 -0.00071527483127011113 0 -0.025250424774186833 -5.9966981860288625e-05 0 -0.024958977003595718 -0.00071527483127011113 0 -0.025709168855155326 -0.0010751242219792523 0 -0.024839595467222413 -0.0016088612813803718 0 -0.024958977003595718 -0.00071527483127011113 0 -0.023857274952621146 -0.00032403762696347663 0 -0.024500864340364577 0.00022351581179270638 0 -0.024958977003595718 -0.00071527483127011113 0 -0.023857274952621146 -0.00032403762696347663 0 -0.023976731005323982 -0.0011711876133794505 0 -0.024958977003595718 -0.00071527483127011113 0 -0.023976731005323982 -0.0011711876133794505 0 -0.024839595467222413 -0.0016088612813803718 0 -0.023857274952621146 -0.00032403762696347663 0 -0.023976731005323982 -0.0011711876133794505 0 -0.02315037210936766 -0.00091511387010905594 0 -0.023976731005323982 -0.0011711876133794505 0 -0.024018379983550744 -0.0019042518437262935 0 -0.023259089278415915 -0.0017399607172995911 0 -0.024018379983550744 -0.0019042518437262935 0 -0.023802164172683521 -0.0026109230347913341 0 -0.023259089278415915 -0.0017399607172995911 0 -0.023976731005323982 -0.0011711876133794505 0 -0.024018379983550744 -0.0019042518437262935 0 -0.024839595467222413 -0.0016088612813803718 0 -0.024018379983550744 -0.0019042518437262935 0 -0.024839595467222413 -0.0016088612813803718 0 -0.0245975765900538 -0.0026652958096396468 0 -0.024018379983550744 -0.0019042518437262935 0 -0.0245975765900538 -0.0026652958096396468 0 -0.023802164172683521 -0.0026109230347913341 0 -0.025709168855155326 -0.0010751242219792523 0 -0.024839595467222413 -0.0016088612813803718 0 -0.025907911417219927 -0.0018147986187861079 0 -0.024839595467222413 -0.0016088612813803718 0 -0.0245975765900538 -0.0026652958096396468 0 -0.025907911417219927 -0.0018147986187861079 0 -0.024536032011885082 -0.0026468369544586619 0 -0.025809335902190134 -0.00186651066852892 0 -0.024782502378430833 -0.0024726139428597354 0 -0.025907911417219927 -0.0018147986187861079 0 -0.025910065502588599 -0.0029620526359650612 0 -0.021985129131550138 0.0066277624523670151 0 -0.021645491122370464 0.0063154564692737107 0 -0.02207848444307307 0.0061824336069466954 0 -0.021985129131550138 0.0066277624523670151 0 -0.021645491122370464 0.0063154564692737107 0 -0.021148044896407092 0.0064196179264457264 0 -0.02401222039074424 0.0011428711512081024 0 -0.021319913290254205 0.0046301998374026487 0 -0.024782502378430833 -0.0024726139428597354 0 -0.025910065502588599 -0.0029620526359650612 0 -0.023809905108666499 -0.0033849789937680534 0 -0.024782502378430833 -0.0024726139428597354 0 -0.023809905108666499 -0.0033849789937680534 0 -0.023657499690240134 -0.0031151548644561913 0 -0.0245975765900538 -0.0026652958096396468 0 -0.023802164172683521 -0.0026109230347913341 0 -0.023331824346951944 -0.0034202200200378037 0 -0.024536032011885082 -0.0026468369544586619 0 -0.022142069497657971 0.00091642197595143571 0 -0.022664292771312287 -0.0016638759385502874 0 -0.021869864991275124 0.0001466835193512782 0 -0.018453825412447177 0.012148643959488755 0 -0.018379281415234025 0.011841509304154162 0 -0.018753457607897973 0.011852366363141551 0 -0.021645491122370464 0.0063154564692737107 0 -0.021148044896407092 0.0064196179264457264 0 -0.021373015402652379 0.0060324662392591353 0 -0.019324004972069798 0.010773340607380529 0 -0.018663695348959564 0.011674163378105635 0 -0.018478151906013377 0.010912127866391525 0 -0.018200563875045699 0.01141375614524584 0 -0.018602150172477901 0.0112406331668897 0 -0.021319913290254205 0.0046301998374026487 0 -0.019324004972069798 0.010773340607380529 0 -0.018219482320914804 0.01219294141904678 0 -0.018250051466638505 0.012171398242384956 0 -0.018233392299886797 0.012151423307460139 0 -0.019324004972069798 0.010773340607380529 0 -0.019999722938473425 0.008890005597840445 0 -0.018287148760942975 0.012145868799415208 0 -0.018250051466638505 0.012171398242384956 0 -0.018233392299886797 0.012151423307460139 0 -0.021645491122370464 0.0063154564692737107 0 -0.021373015402652379 0.0060324662392591353 0 -0.02207848444307307 0.0061824336069466954 0 -0.020591192905178943 0.0085249131579549359 0 -0.019807797123989754 0.0079554551587535868 0 -0.019773559613257975 0.0078055036233937048 0 -0.020092889686444571 0.0092376163145391019 0 -0.020054091250346576 0.006235649463346234 0 -0.019328084841495854 0.011819154231214889 0 -0.01942832700178853 0.012132597526700432 0 -0.019278188562353017 0.011317345756934782 0 -0.019806428665280772 0.0072381164179500706 0 -0.018316872833365395 0.006897273817117004 0 -0.019229928897838762 0.0062658113076903207 0 -0.019328084841495854 0.011819154231214889 0 -0.019278188562353017 0.011317345756934782 0 -0.018760710067668426 0.011584735368625379 0 -0.019313481618498701 0.011827434025273822 0 -0.018663695348959564 0.011674163378105635 0 -0.01930137868794056 0.011866424600249772 0 -0.020170231227338572 0.0084286076058312561 0 -0.020170231227338572 0.0084286076058312561 0 -0.020749963824011078 0.0057820014643569671 0 -0.022006714973572039 0.005166090350763158 0 -0.021425188397063265 0.0045765377781625885 0 -0.020953356651469107 0.0044470014855613246 0 -0.022006714973572039 0.005166090350763158 0 -0.021425188397063265 0.0045765377781625885 0 -0.021912542548276421 0.0047870915906904031 0 -0.020170231227338572 0.0084286076058312561 0 -0.020054091250346576 0.006235649463346234 0 -0.018200563875045699 0.01141375614524584 0 -0.018760710067668426 0.011584735368625379 0 -0.018602150172477901 0.0112406331668897 0 -0.018760710067668426 0.011584735368625379 0 -0.018602150172477901 0.0112406331668897 0 -0.018926457131131565 0.011049224138848254 0 -0.019278188562353017 0.011317345756934782 0 -0.018760710067668426 0.011584735368625379 0 -0.018926457131131565 0.011049224138848254 0 -0.020907722536778525 0.0055752358122384974 0 -0.020749963824011078 0.0057820014643569671 0 -0.021425188397063265 0.0045765377781625885 0 -0.020959093022886129 0.0044399014419566297 0 -0.020071594311929428 0.0032372230046738542 0 -0.021425188397063265 0.0045765377781625885 0 -0.021912542548276421 0.0047870915906904031 0 -0.020071594311929428 0.0032372230046738542 0 -0.020054091250346576 0.006235649463346234 0 -0.021869864991275124 0.0001466835193512782 0 -0.021527973570144892 0.0042118483704096932 0 -0.019709871373285372 0.00273769197715849 0 -0.021116350364272441 0.0025918409633173098 0 -0.020749963824011078 0.0057820014643569671 0 -0.022142069497657971 0.00091642197595143571 0 -0.021830394096074124 0.0043343210642317574 0 -0.021157716322008316 0.004173661629026648 0 -0.021723120702077884 0.004522417598821481 0 -0.018478151906013377 0.010912127866391525 0 -0.018602150172477901 0.0112406331668897 0 -0.018926457131131565 0.011049224138848254 0 -0.020959093022886129 0.0044399014419566297 0 -0.019833223025281045 0.0036597406952160964 0 -0.020071594311929428 0.0032372230046738542 0 -0.021319913290254205 0.0046301998374026487 0 -0.020749963824011078 0.0057820014643569671 0 -0.021319913290254205 0.0046301998374026487 0 -0.022142069497657971 0.00091642197595143571 0 -0.023802164172683521 -0.0026109230347913341 0 -0.023331824346951944 -0.0034202200200378037 0 -0.023148947081544909 -0.003094069347554886 0 -0.022142069497657971 0.00091642197595143571 0 -0.021869864991275124 0.0001466835193512782 0 -0.020054091250346576 0.006235649463346234 0 -0.019709981094469593 0.0040896456790116224 0 -0.018316872833365395 0.006897273817117004 0 -0.018128142374206443 0.0054217781986986751 0 -0.019229928897838762 0.0062658113076903207 0 -0.019486290069112275 0.0051501542221244643 0 -0.018128142374206443 0.0054217781986986751 0 -0.019229928897838762 0.0062658113076903207 0 -0.019486290069112275 0.0051501542221244643 0 -0.018689236595874018 0.0045909049481329262 0 -0.019290343394972521 0.003809343331585838 0 -0.019486290069112275 0.0051501542221244643 0 -0.018128142374206443 0.0054217781986986751 0 -0.018689236595874018 0.0045909049481329262 0 -0.018128142374206443 0.0054217781986986751 0 -0.018689236595874018 0.0045909049481329262 0 -0.017956027985898647 0.0040108860278956406 0 -0.018689236595874018 0.0045909049481329262 0 -0.019290343394972521 0.003809343331585838 0 -0.017956027985898647 0.0040108860278956406 0 -0.021869864991275124 0.0001466835193512782 0 -0.020816276263706912 0.00083813017858394448 0 -0.023802164172683521 -0.0026109230347913341 0 -0.023140304023813521 -0.0031147426864289642 0 -0.023259089278415915 -0.0017399607172995911 0 -0.019709871373285372 0.00273769197715849 0 -0.021116350364272441 0.0025918409633173098 0 -0.020700461163480101 0.00098442586112599813 0 -0.023140304023813521 -0.0031147426864289642 0 -0.022310654121150415 -0.0016945449702409673 0 -0.023259089278415915 -0.0017399607172995911 0 -0.019709981094469593 0.0040896456790116224 0 -0.020816276263706912 0.00083813017858394448 0 -0.020816276263706912 0.00083813017858394448 0 -0.02098075994686641 -0.00032806050306870087 0 -0.022310654121150415 -0.0016945449702409673 0 -0.022912019069639671 -0.0013405920808527625 0 -0.022412143411620952 -0.0012775177066178831 0 -0.022310654121150415 -0.0016945449702409673 0 -0.023259089278415915 -0.0017399607172995911 0 -0.022912019069639671 -0.0013405920808527625 0 -0.023259089278415915 -0.0017399607172995911 0 -0.02315037210936766 -0.00091511387010905594 0 -0.022912019069639671 -0.0013405920808527625 0 -0.023976731005323982 -0.0011711876133794505 0 -0.023259089278415915 -0.0017399607172995911 0 -0.02315037210936766 -0.00091511387010905594 0 -0.02315037210936766 -0.00091511387010905594 0 -0.022912019069639671 -0.0013405920808527625 0 -0.022412143411620952 -0.0012775177066178831 0 -0.02315037210936766 -0.00091511387010905594 0 -0.022412143411620952 -0.0012775177066178831 0 -0.022465427879087386 -0.00045158972415189309 0 -0.022412143411620952 -0.0012775177066178831 0 -0.022465427879087386 -0.00045158972415189309 0 -0.021406409882799741 -0.00019526998793473026 0 -0.023857274952621146 -0.00032403762696347663 0 -0.02315037210936766 -0.00091511387010905594 0 -0.023020527906220119 5.7974565161031483e-05 0 -0.02315037210936766 -0.00091511387010905594 0 -0.022465427879087386 -0.00045158972415189309 0 -0.023020527906220119 5.7974565161031483e-05 0 -0.020816276263706912 0.00083813017858394448 0 -0.020196297716156095 0.001380327436998468 0 -0.019290343394972521 0.003809343331585838 0 -0.017956027985898647 0.0040108860278956406 0 -0.019093412848025466 0.0026300804218323541 0 -0.022297234432190404 -0.0017146418653649095 0 -0.022412143411620952 -0.0012775177066178831 0 -0.021406409882799741 -0.00019526998793473026 0 -0.020062704108276489 0.0027530245537168868 0 -0.019290343394972521 0.003809343331585838 0 -0.019093412848025466 0.0026300804218323541 0 -0.020062704108276489 0.0027530245537168868 0 -0.019093412848025466 0.0026300804218323541 0 -0.020538073021023204 0.0016386859911419612 0 -0.020196297716156095 0.001380327436998468 0 -0.020435744266835462 0.0015497169712368 0 -0.021406409882799741 -0.00019526998793473026 0 -0.022252236301196333 0.00098281567437696264 0 -0.020538073021023204 0.0016386859911419612 0 -0.022465427879087386 -0.00045158972415189309 0 -0.021406409882799741 -0.00019526998793473026 0 -0.022252236301196333 0.00098281567437696264 0 -0.022465427879087386 -0.00045158972415189309 0 -0.023020527906220119 5.7974565161031483e-05 0 -0.022252236301196333 0.00098281567437696264 0 -0.023020527906220119 5.7974565161031483e-05 0 -0.022252236301196333 0.00098281567437696264 0 -0.023551344803111482 0.0007053533106826565 0 -0.022252236301196333 0.00098281567437696264 0 -0.023178926143720115 0.0020482098368381665 0 -0.023551344803111482 0.0007053533106826565 0 -0.022252236301196333 0.00098281567437696264 0 -0.023178926143720115 0.0020482098368381665 0 -0.021532461650173036 0.0023198875563747159 0 -0.021532461650173036 0.0023198875563747159 0 -0.020538073021023204 0.0016386859911419612 0 -0.020762196975502266 0.0021615967878185665 0 -0.022252236301196333 0.00098281567437696264 0 -0.021532461650173036 0.0023198875563747159 0 -0.020538073021023204 0.0016386859911419612 0 -0.021532461650173036 0.0023198875563747159 0 -0.022122581685679578 0.0032463566345424613 0 -0.020690462106236415 0.0030641319467084082 0 -0.023178926143720115 0.0020482098368381665 0 -0.021532461650173036 0.0023198875563747159 0 -0.022122581685679578 0.0032463566345424613 0 -0.023178926143720115 0.0020482098368381665 0 -0.022122581685679578 0.0032463566345424613 0 -0.024591156908521324 0.0033690872311658939 0 -0.022122581685679578 0.0032463566345424613 0 -0.021286560778070902 0.0040750291783137743 0 -0.02240811879202223 0.0041799940950246533 0 -0.022122581685679578 0.0032463566345424613 0 -0.024591156908521324 0.0033690872311658939 0 -0.02240811879202223 0.0041799940950246533 0 -0.022122581685679578 0.0032463566345424613 0 -0.021286560778070902 0.0040750291783137743 0 -0.020690462106236415 0.0030641319467084082 0 -0.024591156908521324 0.0033690872311658939 0 -0.026597374657682304 0.0035740239963462941 0 -0.027462156064957343 0.0053821413885131557 0 -0.024591156908521324 0.0033690872311658939 0 -0.027462156064957343 0.0053821413885131557 0 -0.025611338901421064 0.0060779386239595435 0 -0.024591156908521324 0.0033690872311658939 0 -0.02240811879202223 0.0041799940950246533 0 -0.023152828286992406 0.004574199991559301 0 -0.024593848795536149 0.0033540783870479353 0 -0.024388361435675066 0.0051844295491774873 0 -0.023178926143720115 0.0020482098368381665 0 -0.024591156908521324 0.0033690872311658939 0 -0.024687828421692877 0.002132370117375452 0 -0.024591156908521324 0.0033690872311658939 0 -0.02583498891778795 0.0024897304665290093 0 -0.024687828421692877 0.002132370117375452 0 -0.024591156908521324 0.0033690872311658939 0 -0.02583498891778795 0.0024897304665290093 0 -0.026597374657682304 0.0035740239963462941 0 -0.02583498891778795 0.0024897304665290093 0 -0.025489267449989753 0.0015794519046369829 0 -0.026786645511198345 0.001767425322829069 0 -0.02583498891778795 0.0024897304665290093 0 -0.025489267449989753 0.0015794519046369829 0 -0.024687828421692877 0.002132370117375452 0 -0.025489267449989753 0.0015794519046369829 0 -0.024687828421692877 0.002132370117375452 0 -0.024426278175844689 0.0012176961599952669 0 -0.025489267449989753 0.0015794519046369829 0 -0.024426278175844689 0.0012176961599952669 0 -0.025516415722417422 0.00057757824634000095 0 -0.025489267449989753 0.0015794519046369829 0 -0.026250190882595271 0.0010321090426488075 0 -0.026786645511198345 0.001767425322829069 0 -0.023178926143720115 0.0020482098368381665 0 -0.024687828421692877 0.002132370117375452 0 -0.024426278175844689 0.0012176961599952669 0 -0.023178926143720115 0.0020482098368381665 0 -0.024426278175844689 0.0012176961599952669 0 -0.023551344803111482 0.0007053533106826565 0 -0.024426278175844689 0.0012176961599952669 0 -0.023551344803111482 0.0007053533106826565 0 -0.024500864340364577 0.00022351581179270638 0 -0.024426278175844689 0.0012176961599952669 0 -0.024500864340364577 0.00022351581179270638 0 -0.025516415722417422 0.00057757824634000095 0 -0.023857274952621146 -0.00032403762696347663 0 -0.023551344803111482 0.0007053533106826565 0 -0.024500864340364577 0.00022351581179270638 0 -0.023857274952621146 -0.00032403762696347663 0 -0.023020527906220119 5.7974565161031483e-05 0 -0.023551344803111482 0.0007053533106826565 0 -0.026250190882595271 0.0010321090426488075 0 -0.025516415722417422 0.00057757824634000095 0 -0.026384732505505687 0.00039375717558600039 0 -0.025489267449989753 0.0015794519046369829 0 -0.026250190882595271 0.0010321090426488075 0 -0.025516415722417422 0.00057757824634000095 0 -0.024500864340364577 0.00022351581179270638 0 -0.025516415722417422 0.00057757824634000095 0 -0.025250424774186833 -5.9966981860288625e-05 0 -0.02601439974736974 -0.00032555673959865533 0 -0.025516415722417422 0.00057757824634000095 0 -0.025250424774186833 -5.9966981860288625e-05 0 -0.02601439974736974 -0.00032555673959865533 0 -0.025516415722417422 0.00057757824634000095 0 -0.026384732505505687 0.00039375717558600039 0 -0.026384732505505687 0.00039375717558600039 0 -0.027094172288590977 0.0007817280640917602 0 -0.027120216010340644 2.4906444084223799e-05 0 -0.02601439974736974 -0.00032555673959865533 0 -0.026384732505505687 0.00039375717558600039 0 -0.027120216010340644 2.4906444084223799e-05 0 -0.026250190882595271 0.0010321090426488075 0 -0.026384732505505687 0.00039375717558600039 0 -0.027094172288590977 0.0007817280640917602 0 -0.027094172288590977 0.0007817280640917602 0 -0.027120216010340644 2.4906444084223799e-05 0 -0.027857047498620235 0.00086203336819365818 0 -0.027094172288590977 0.0007817280640917602 0 -0.027857047498620235 0.00086203336819365818 0 -0.027718071529568344 0.0014368592227755087 0 -0.028693069515702895 0.0035271096343999957 0 -0.028637232154557418 0.0018496004302255909 0 -0.027993973536879473 0.0033086548576805987 0 -0.028339306461991429 -0.00036379813885694431 0 -0.027857047498620235 0.00086203336819365818 0 -0.028637232154557418 0.0018496004302255909 0 -0.028817197799315707 0.000916501701028053 0 -0.028554707721797447 0.0021240958984392821 0 -0.028339306461991429 -0.00036379813885694431 0 -0.027120216010340644 2.4906444084223799e-05 0 -0.027857047498620235 0.00086203336819365818 0 -0.028445260108606592 0.0017437763321367207 0 -0.028637232154557418 0.0018496004302255909 0 -0.027993973536879473 0.0033086548576805987 0 -0.027857047498620235 0.00086203336819365818 0 -0.028184514642656072 0.0016279082525685299 0 -0.028637232154557418 0.0018496004302255909 0 -0.027857047498620235 0.00086203336819365818 0 -0.028184514642656072 0.0016279082525685299 0 -0.027718071529568344 0.0014368592227755087 0 -0.028184514642656072 0.0016279082525685299 0 -0.028156737822087229 0.0019494462133473165 0 -0.027718071529568344 0.0014368592227755087 0 -0.028445260108606592 0.0017437763321367207 0 -0.028637232154557418 0.0018496004302255909 0 -0.028519164605292784 0.0017414692317685805 0 -0.029863247480623897 0.0041788101183332961 0 -0.029766919765979123 0.00370935678744152 0 -0.028931893326883985 0.0031995553931454244 0 -0.029766919765979123 0.00370935678744152 0 -0.028563085066912949 0.0019671459672064066 0 -0.028637232154557418 0.0018496004302255909 0 -0.028519164605292784 0.0017414692317685805 0 -0.029766919765979123 0.00370935678744152 0 -0.02957143169248537 0.0030101338581304733 0 -0.028563085066912949 0.0019671459672064066 0 -0.029070414205739678 0.0020704122265492414 0 -0.02875194528752318 0.0026364922758885341 0 -0.028156737822087229 0.0019494462133473165 0 -0.027802512820021316 0.0022644998827977608 0 -0.02875194528752318 0.0026364922758885341 0 -0.028156737822087229 0.0019494462133473165 0 -0.027802512820021316 0.0022644998827977608 0 -0.027718071529568344 0.0014368592227755087 0 -0.028184514642656072 0.0016279082525685299 0 -0.028563085066912949 0.0019671459672064066 0 -0.028637232154557418 0.0018496004302255909 0 -0.028184514642656072 0.0016279082525685299 0 -0.028563085066912949 0.0019671459672064066 0 -0.028156737822087229 0.0019494462133473165 0 -0.028563085066912949 0.0019671459672064066 0 -0.028156737822087229 0.0019494462133473165 0 -0.02875194528752318 0.0026364922758885341 0 -0.027802512820021316 0.0022644998827977608 0 -0.026786645511198345 0.001767425322829069 0 -0.027136228589228043 0.0026559817450281004 0 -0.027802512820021316 0.0022644998827977608 0 -0.026786645511198345 0.001767425322829069 0 -0.027718071529568344 0.0014368592227755087 0 -0.02583498891778795 0.0024897304665290093 0 -0.026786645511198345 0.001767425322829069 0 -0.027136228589228043 0.0026559817450281004 0 -0.026250190882595271 0.0010321090426488075 0 -0.027094172288590977 0.0007817280640917602 0 -0.026786645511198345 0.001767425322829069 0 -0.027094172288590977 0.0007817280640917602 0 -0.026786645511198345 0.001767425322829069 0 -0.027718071529568344 0.0014368592227755087 0 -0.031744186092273988 0.0069403209958213219 0 -0.031314251189472279 0.006651673768065601 0 -0.031415802799339372 0.0071739555514178065 0 -0.031606903235355935 0.011141703778911525 0 -0.031629320349945096 0.011382469586379573 0 -0.031335736969044355 0.011173925333851181 0 -0.031576855671621301 0.0090848018740779454 0 -0.030606037199768277 0.0082991542950672115 0 -0.030573155056027722 0.0046005685391441809 0 -0.029088079140996047 0.0069006053957073729 0 -0.030060633764144883 0.0068876718708471615 0 -0.029863247480623897 0.0041788101183332961 0 -0.030606037199768277 0.0082991542950672115 0 -0.029863247480623897 0.0041788101183332961 0 -0.029185512353480669 0.0046115602569673396 0 -0.030822544291725797 0.007354426319174206 0 -0.031314251189472279 0.006651673768065601 0 -0.031415802799339372 0.0071739555514178065 0 -0.030822544291725797 0.007354426319174206 0 -0.031415802799339372 0.0071739555514178065 0 -0.031419649810050521 0.0075569109452323742 0 -0.029766919765979123 0.00370935678744152 0 -0.031096571743123323 0.0051680880781648187 0 -0.030822544291725797 0.007354426319174206 0 -0.030790790092723275 0.0073988418942695809 0 -0.031419649810050521 0.0075569109452323742 0 -0.031761877373117094 0.0073242276922046582 0 -0.031419649810050521 0.0075569109452323742 0 -0.032046789964533577 0.007707238144424965 0 -0.031415802799339372 0.0071739555514178065 0 -0.031761877373117094 0.0073242276922046582 0 -0.031419649810050521 0.0075569109452323742 0 -0.031744186092273988 0.0069403209958213219 0 -0.031415802799339372 0.0071739555514178065 0 -0.031761877373117094 0.0073242276922046582 0 -0.031610471804567289 0.0038764841056725136 0 -0.031025357738402357 0.0028375642753066667 0 -0.032682144766248221 0.0032210112836300133 0 -0.031610471804567289 0.0038764841056725136 0 -0.031025357738402357 0.0028375642753066667 0 -0.030587348892969164 0.0044137385035761334 0 -0.031096571743123323 0.0051680880781648187 0 -0.033301733084905451 0.0070800291416648177 0 -0.031025357738402357 0.0028375642753066667 0 -0.029972985998067019 0.0035041169757446806 0 -0.030587348892969164 0.0044137385035761334 0 -0.029323238525432782 0.002467078775169983 0 -0.031025357738402357 0.0028375642753066667 0 -0.029972985998067019 0.0035041169757446806 0 -0.029972985998067019 0.0035041169757446806 0 -0.030587348892969164 0.0044137385035761334 0 -0.028904895518098338 0.0043010979286844352 0 -0.030587348892969164 0.0044137385035761334 0 -0.028904895518098338 0.0043010979286844352 0 -0.029202570595834771 0.0056150271655758394 0 -0.031610471804567289 0.0038764841056725136 0 -0.030587348892969164 0.0044137385035761334 0 -0.032143980275049749 0.0050298953687162081 0 -0.030587348892969164 0.0044137385035761334 0 -0.030428045056891451 0.0059075273322964535 0 -0.032143980275049749 0.0050298953687162081 0 -0.027763345093108259 0.0035055663972981274 0 -0.026597374657682304 0.0035740239963462941 0 -0.027136228589228043 0.0026559817450281004 0 -0.02583498891778795 0.0024897304665290093 0 -0.026597374657682304 0.0035740239963462941 0 -0.027136228589228043 0.0026559817450281004 0 -0.027802512820021316 0.0022644998827977608 0 -0.027763345093108259 0.0035055663972981274 0 -0.027136228589228043 0.0026559817450281004 0 -0.029766919765979123 0.00370935678744152 0 -0.028845742193438075 0.0036483631818662451 0 -0.027802512820021316 0.0022644998827977608 0 -0.027763345093108259 0.0035055663972981274 0 -0.02875194528752318 0.0026364922758885341 0 -0.029323238525432782 0.002467078775169983 0 -0.029972985998067019 0.0035041169757446806 0 -0.028904895518098338 0.0043010979286844352 0 -0.029042590212744347 0.002074477753319435 0 -0.02875194528752318 0.0026364922758885341 0 -0.028904895518098338 0.0043010979286844352 0 -0.027763345093108259 0.0035055663972981274 0 -0.02875194528752318 0.0026364922758885341 0 -0.028904895518098338 0.0043010979286844352 0 -0.028904895518098338 0.0043010979286844352 0 -0.027462156064957343 0.0053821413885131557 0 -0.029202570595834771 0.0056150271655758394 0 -0.027763345093108259 0.0035055663972981274 0 -0.028904895518098338 0.0043010979286844352 0 -0.027462156064957343 0.0053821413885131557 0 -0.027763345093108259 0.0035055663972981274 0 -0.026597374657682304 0.0035740239963462941 0 -0.027462156064957343 0.0053821413885131557 0 -0.027462156064957343 0.0053821413885131557 0 -0.029202570595834771 0.0056150271655758394 0 -0.02883219688124438 0.0067751071214095888 0 -0.029202570595834771 0.0056150271655758394 0 -0.02883219688124438 0.0067751071214095888 0 -0.030428045056891451 0.0059075273322964535 0 -0.030558895945652267 0.0070520769768710988 0 -0.032456071483231902 0.0082741289311648678 0 -0.030318353001230636 0.0089364342819399176 0 -0.029631863179922363 0.0069801327169017983 0 -0.02800372738733331 0.0076612763813476044 0 -0.030558895945652267 0.0070520769768710988 0 -0.030318353001230636 0.0089364342819399176 0 -0.027924293887768504 0.007673458771970813 0 -0.027462156064957343 0.0053821413885131557 0 -0.02883219688124438 0.0067751071214095888 0 -0.027924293887768504 0.007673458771970813 0 -0.034659628253234383 0.0081296036865039414 0 -0.034355777942974626 0.0069818770909271018 0 -0.032691480563787775 0.006559905336708304 0 -0.034411847254798122 0.0081504150705637574 0 -0.035271110566753076 0.0052747961293495675 0 -0.03152037064922953 0.0060185749166163354 0 -0.034355777942974626 0.0069818770909271018 0 -0.029631863179922363 0.0069801327169017983 0 -0.03152037064922953 0.0060185749166163354 0 -0.030587348892969164 0.0044137385035761334 0 -0.029202570595834771 0.0056150271655758394 0 -0.030428045056891451 0.0059075273322964535 0 -0.032691480563787775 0.006559905336708304 0 -0.032456071483231902 0.0082741289311648678 0 -0.034411847254798122 0.0081504150705637574 0 -0.030558895945652267 0.0070520769768710988 0 -0.032691480563787775 0.006559905336708304 0 -0.032456071483231902 0.0082741289311648678 0 -0.032456071483231902 0.0082741289311648678 0 -0.034411847254798122 0.0081504150705637574 0 -0.034204440450576197 0.0089807925261980396 0 -0.034411847254798122 0.0081504150705637574 0 -0.034204440450576197 0.0089807925261980396 0 -0.03506320429659756 0.0090104304108733282 0 -0.034204440450576197 0.0089807925261980396 0 -0.033733288393186116 0.0097489391084932004 0 -0.034828846476306574 0.0094280299720107159 0 -0.032456071483231902 0.0082741289311648678 0 -0.03207930420638571 0.0096602262162246468 0 -0.030318353001230636 0.0089364342819399176 0 -0.032456071483231902 0.0082741289311648678 0 -0.034204440450576197 0.0089807925261980396 0 -0.033733288393186116 0.0097489391084932004 0 -0.032488588470609779 0.008270382353632099 0 -0.032880295938882698 0.0096228913948048968 0 -0.033733288393186116 0.0097489391084932004 0 -0.034828846476306574 0.0094280299720107159 0 -0.03467654168129574 0.0098156106998826317 0 -0.030318353001230636 0.0089364342819399176 0 -0.028156496448245728 0.0095314604132624471 0 -0.027924293887768504 0.007673458771970813 0 -0.03207930420638571 0.0096602262162246468 0 -0.030318353001230636 0.0089364342819399176 0 -0.030051296640213634 0.010366988513138367 0 -0.030318353001230636 0.0089364342819399176 0 -0.028156496448245728 0.0095314604132624471 0 -0.030051296640213634 0.010366988513138367 0 -0.028156496448245728 0.0095314604132624471 0 -0.026262367640063844 0.0083202074246603811 0 -0.027924293887768504 0.007673458771970813 0 -0.028156496448245728 0.0095314604132624471 0 -0.026262367640063844 0.0083202074246603811 0 -0.026548059985138123 0.010476004756760434 0 -0.024130586677435045 0.0066310638785155949 0 -0.023944354109196909 0.0071381083011501888 0 -0.021990733084704353 0.0050362266514431047 0 -0.021798093298775082 0.0046839053579308745 0 -0.021299151494295461 0.0041536253472837202 0 -0.021798093298775082 0.0046839053579308745 0 -0.021565034677573418 0.0040358950820224811 0 -0.021299151494295461 0.0041536253472837202 0 -0.021798093298775082 0.0046839053579308745 0 -0.022205344605130115 0.0046149320216900833 0 -0.021565034677573418 0.0040358950820224811 0 -0.021311321390003021 0.0036709552631262036 0 -0.021223987027181038 0.0039076178878442204 0 -0.021565034677573418 0.0040358950820224811 0 -0.021819557772849961 0.0041877498375385448 0 -0.021590322568040034 0.0040260931489643674 0 -0.022205344605130115 0.0046149320216900833 0 -0.022039378243275246 0.0051856836700411432 0 -0.022445356859951211 0.0049340608394553478 0 -0.022268930386430085 0.0054472118150184889 0 -0.020337787845191614 0.0047427829558405552 0 -0.021819557772849961 0.0041877498375385448 0 -0.020337787845191614 0.0047427829558405552 0 -0.021798093298775082 0.0046839053579308745 0 -0.022205344605130115 0.0046149320216900833 0 -0.022039378243275246 0.0051856836700411432 0 -0.021990733084704353 0.0050362266514431047 0 -0.021798093298775082 0.0046839053579308745 0 -0.022039378243275246 0.0051856836700411432 0 -0.022039378243275246 0.0051856836700411432 0 -0.020888643990311005 0.0052538472996270982 0 -0.020055472056403307 0.0065206564895208489 0 -0.022039378243275246 0.0051856836700411432 0 -0.020888643990311005 0.0052538472996270982 0 -0.021286560778070902 0.0040750291783137743 0 -0.022039378243275246 0.0051856836700411432 0 -0.021286560778070902 0.0040750291783137743 0 -0.02240811879202223 0.0041799940950246533 0 -0.022039378243275246 0.0051856836700411432 0 -0.02240811879202223 0.0041799940950246533 0 -0.023152828286992406 0.004574199991559301 0 -0.027462156064957343 0.0053821413885131557 0 -0.025611338901421064 0.0060779386239595435 0 -0.027924293887768504 0.007673458771970813 0 -0.026262367640063844 0.0083202074246603811 0 -0.025611338901421064 0.0060779386239595435 0 -0.027924293887768504 0.007673458771970813 0 -0.024130586677435045 0.0066310638785155949 0 -0.024388361435675066 0.0051844295491774873 0 -0.021990733084704353 0.0050362266514431047 0 -0.022039378243275246 0.0051856836700411432 0 -0.023152828286992406 0.004574199991559301 0 -0.035918963489343154 0.014360771411826108 0 -0.034999594997228628 0.01446166529324164 0 -0.035824859201571885 0.01245848144195655 0 -0.034999594997228628 0.01446166529324164 0 -0.035824859201571885 0.01245848144195655 0 -0.034999753694446328 0.012377909568624211 0 -0.035918963489343154 0.014360771411826108 0 -0.036736367714625559 0.012284378472235223 0 -0.035824859201571885 0.01245848144195655 0 -0.035918963489343154 0.014360771411826108 0 -0.036403149525171007 0.015715409417300052 0 -0.037035115596892605 0.014474313593995878 0 -0.035918963489343154 0.014360771411826108 0 -0.037035115596892605 0.014474313593995878 0 -0.036736367714625559 0.012284378472235223 0 -0.035918963489343154 0.014360771411826108 0 -0.034999594997228628 0.01446166529324164 0 -0.034999744486992494 0.016545014758034295 0 -0.035918963489343154 0.014360771411826108 0 -0.034999744486992494 0.016545014758034295 0 -0.036403149525171007 0.015715409417300052 0 -0.035000006711932041 0.016545578570614498 0 -0.036576150970210615 0.016917544861244624 0 -0.035851205530108045 0.018141554038029722 0 -0.034999966313592076 0.016545805082225081 0 -0.036540730029169695 0.016974522532336132 0 -0.036667474289834287 0.017836077739577259 0 -0.036540730029169695 0.016974522532336132 0 -0.038055595861543667 0.017368603942749774 0 -0.034999744486992494 0.016545014758034295 0 -0.036311230081362479 0.01659017662018171 0 -0.036403149525171007 0.015715409417300052 0 -0.036311230081362479 0.01659017662018171 0 -0.036403149525171007 0.015715409417300052 0 -0.037274915109216308 0.016171439286200052 0 -0.037647996627795263 0.015525334087173765 0 -0.037274915109216308 0.016171439286200052 0 -0.038280877124836868 0.016111458262719466 0 -0.036403149525171007 0.015715409417300052 0 -0.037647996627795263 0.015525334087173765 0 -0.037274915109216308 0.016171439286200052 0 -0.036403149525171007 0.015715409417300052 0 -0.03805806670810917 0.015392302587724931 0 -0.037035115596892605 0.014474313593995878 0 -0.036429769128189099 0.015698394177144477 0 -0.038088690271032628 0.015484201723093073 0 -0.037274915109216308 0.016171439286200052 0 -0.0376992776043691 0.016908121346181984 0 -0.038280877124836868 0.016111458262719466 0 -0.036576150970210615 0.016917544861244624 0 -0.037191893096117978 0.016022295728924552 0 -0.036311230081362479 0.01659017662018171 0 -0.037274915109216308 0.016171439286200052 0 -0.0376992776043691 0.016908121346181984 0 -0.036206752655913624 0.013490159950581299 0 -0.036214561983954056 0.013735781917661385 0 -0.036039689438865694 0.013625433965999696 0 -0.036222077647585407 0.015042301968917531 0 -0.036400435092533663 0.013543130390782395 0 -0.036222077647585407 0.015042301968917531 0 -0.037191893096117978 0.016022295728924552 0 -0.036206752655913624 0.013490159950581299 0 -0.036370727506668941 0.013541486194156587 0 -0.036214561983954056 0.013735781917661385 0 -0.037191893096117978 0.016022295728924552 0 -0.037249211301295299 0.014953618386754205 0 -0.038088690271032628 0.015484201723093073 0 -0.038030373114295586 0.014219036102611177 0 -0.037647996627795263 0.015525334087173765 0 -0.038280877124836868 0.016111458262719466 0 -0.03885620242695538 0.015320116326292888 0 -0.03805806670810917 0.015392302587724931 0 -0.038498810566315912 0.014066844306308564 0 -0.040011997986243573 0.015044522685997154 0 -0.036214561983954056 0.013735781917661385 0 -0.03604689740772099 0.013961458610210999 0 -0.036039689438865694 0.013625433965999696 0 -0.037249211301295299 0.014953618386754205 0 -0.038030373114295586 0.014219036102611177 0 -0.039793763031618697 0.013914078097551498 0 -0.038498810566315912 0.014066844306308564 0 -0.040011997986243573 0.015044522685997154 0 -0.039793763031618697 0.013914078097551498 0 -0.038498810566315912 0.014066844306308564 0 -0.039135858263562237 0.012909671596835447 0 -0.03805806670810917 0.015392302587724931 0 -0.038498810566315912 0.014066844306308564 0 -0.037035115596892605 0.014474313593995878 0 -0.038498810566315912 0.014066844306308564 0 -0.037035115596892605 0.014474313593995878 0 -0.036736367714625559 0.012284378472235223 0 -0.036736367714625559 0.012284378472235223 0 -0.036535958324227881 0.010519835743775735 0 -0.036630867387501646 0.011013466822106632 0 -0.038498810566315912 0.014066844306308564 0 -0.036736367714625559 0.012284378472235223 0 -0.039135858263562237 0.012909671596835447 0 -0.036618939288016086 0.012064287207756343 0 -0.038038610269932473 0.011824078800935322 0 -0.036535958324227881 0.010519835743775735 0 -0.036366005777542447 0.010302127349996632 0 -0.036630867387501646 0.011013466822106632 0 -0.038038610269932473 0.011824078800935322 0 -0.037163038874649869 0.011123721621536863 0 -0.036535958324227881 0.010519835743775735 0 -0.036209859566073352 0.0099198521054145138 0 -0.036075959001720663 0.0095761833139097318 0 -0.036209859566073352 0.0099198521054145138 0 -0.035945860390339861 0.009440719737035733 0 -0.036122084777846522 0.0097505525640930301 0 -0.036107986113660916 0.01012934419324678 0 -0.037163038874649869 0.011123721621536863 0 -0.036535958324227881 0.010519835743775735 0 -0.036209859566073352 0.0099198521054145138 0 -0.036366005777542447 0.010302127349996632 0 -0.036209859566073352 0.0099198521054145138 0 -0.036136391648201295 0.0098491433568197867 0 -0.036366005777542447 0.010302127349996632 0 -0.036209859566073352 0.0099198521054145138 0 -0.036136391648201295 0.0098491433568197867 0 -0.035945860390339861 0.009440719737035733 0 -0.035945860390339861 0.009440719737035733 0 -0.035477085943112829 0.0087476486707925398 0 -0.035500592617274007 0.0091735597835168776 0 -0.036136391648201295 0.0098491433568197867 0 -0.035945860390339861 0.009440719737035733 0 -0.035876772595265824 0.0095689605738924488 0 -0.035945860390339861 0.009440719737035733 0 -0.035500592617274007 0.0091735597835168776 0 -0.035876772595265824 0.0095689605738924488 0 -0.036471892437389665 0.009623281013242467 0 -0.037163038874649869 0.011123721621536863 0 -0.036762794542435077 0.012760127111874827 0 -0.036699094003248597 0.012405375560358959 0 -0.036319374349791295 0.012458676109340896 0 -0.037163038874649869 0.011123721621536863 0 -0.035539364241009272 0.0098740478307713635 0 -0.035945860390339861 0.009440719737035733 0 -0.036280404719713825 0.0090115932816045921 0 -0.035477085943112829 0.0087476486707925398 0 -0.037163038874649869 0.011123721621536863 0 -0.035842360635963903 0.011817789920330604 0 -0.037010680968996193 0.011161088573412057 0 -0.035536410797524239 0.010151175156390548 0 -0.035323609001162416 0.010800159608042665 0 -0.03601854518222164 0.013230953080102473 0 -0.035842360635963903 0.011817789920330604 0 -0.037163038874649869 0.011123721621536863 0 -0.038030373114295586 0.014219036102611177 0 -0.036762794542435077 0.012760127111874827 0 -0.037079141495706763 0.012356377639428434 0 -0.036699094003248597 0.012405375560358959 0 -0.039793763031618697 0.013914078097551498 0 -0.041200609442291161 0.013404017338024465 0 -0.040011997986243573 0.015044522685997154 0 -0.039793763031618697 0.013914078097551498 0 -0.039135858263562237 0.012909671596835447 0 -0.041200609442291161 0.013404017338024465 0 -0.03604689740772099 0.013961458610210999 0 -0.03586560292783264 0.013772337046277006 0 -0.036039689438865694 0.013625433965999696 0 -0.038030373114295586 0.014219036102611177 0 -0.03601854518222164 0.013230953080102473 0 -0.03604689740772099 0.013961458610210999 0 -0.03586560292783264 0.013772337046277006 0 -0.035759174668148014 0.014001970566757676 0 -0.035887135199160224 0.013348831392500114 0 -0.036224619413326831 0.013447719384252804 0 -0.036039689438865694 0.013625433965999696 0 -0.03586560292783264 0.013772337046277006 0 -0.036039689438865694 0.013625433965999696 0 -0.035813372347688562 0.013538208163764593 0 -0.035887135199160224 0.013348831392500114 0 -0.036039689438865694 0.013625433965999696 0 -0.035813372347688562 0.013538208163764593 0 -0.035549492669203271 0.013255880184867692 0 -0.035813372347688562 0.013538208163764593 0 -0.035617156393644891 0.01364031804692911 0 -0.03586560292783264 0.013772337046277006 0 -0.035813372347688562 0.013538208163764593 0 -0.035617156393644891 0.01364031804692911 0 -0.035617156393644891 0.01364031804692911 0 -0.035759174668148014 0.014001970566757676 0 -0.035408913528349004 0.013771375685746745 0 -0.035759174668148014 0.014001970566757676 0 -0.035408913528349004 0.013771375685746745 0 -0.03546431215937175 0.014036715697658275 0 -0.03586560292783264 0.013772337046277006 0 -0.035617156393644891 0.01364031804692911 0 -0.035759174668148014 0.014001970566757676 0 -0.033281631256058063 0.010773838939772816 0 -0.035842360635963903 0.011817789920330604 0 -0.035408913528349004 0.013771375685746745 0 -0.035112972274588747 0.01379061428177468 0 -0.03546431215937175 0.014036715697658275 0 -0.034049974410445931 0.0091524885854103646 0 -0.03457685095432337 0.010305174609651992 0 -0.035515264516840506 0.010164456847238474 0 -0.035549492669203271 0.013255880184867692 0 -0.035617156393644891 0.01364031804692911 0 -0.035211152825245763 0.013489579184258641 0 -0.035617156393644891 0.01364031804692911 0 -0.035408913528349004 0.013771375685746745 0 -0.035211152825245763 0.013489579184258641 0 -0.035408913528349004 0.013771375685746745 0 -0.035211152825245763 0.013489579184258641 0 -0.035112972274588747 0.01379061428177468 0 -0.032101546247602794 0.011222126412620412 0 -0.031791245005782225 0.011442865090899101 0 -0.031969870320423983 0.01161152056667109 0 -0.033446387648698374 0.012382826300923267 0 -0.033281631256058063 0.010773838939772816 0 -0.031606903235355935 0.011141703778911525 0 -0.031629320349945096 0.011382469586379573 0 -0.031787130701386709 0.011237737574556945 0 -0.031944060266977978 0.011087768722634164 0 -0.032022362880134499 0.011260069960236626 0 -0.031787130701386709 0.011237737574556945 0 -0.032022362880134499 0.011260069960236626 0 -0.031787130701386709 0.011237737574556945 0 -0.031791245005782225 0.011442865090899101 0 -0.033446387648698374 0.012382826300923267 0 -0.031813360182843364 0.011595838610148849 0 -0.031629320349945096 0.011382469586379573 0 -0.031791245005782225 0.011442865090899101 0 -0.031969870320423983 0.01161152056667109 0 -0.031629320349945096 0.011382469586379573 0 -0.031787130701386709 0.011237737574556945 0 -0.031791245005782225 0.011442865090899101 0 -0.031576855671621301 0.0090848018740779454 0 -0.033281631256058063 0.010773838939772816 0 -0.031761877373117094 0.0073242276922046582 0 -0.03218605873668564 0.0072443652658265483 0 -0.032046789964533577 0.007707238144424965 0 -0.033281631256058063 0.010773838939772816 0 -0.033301733084905451 0.0070800291416648177 0 -0.034049974410445931 0.0091524885854103646 0 -0.033665157125466444 0.010431719627723556 0 -0.03457685095432337 0.010305174609651992 0 -0.031744186092273988 0.0069403209958213219 0 -0.031761877373117094 0.0073242276922046582 0 -0.03218605873668564 0.0072443652658265483 0 -0.031610471804567289 0.0038764841056725136 0 -0.032682144766248221 0.0032210112836300133 0 -0.032143980275049749 0.0050298953687162081 0 -0.035033629818888745 0.0086195509136866213 0 -0.035477085943112829 0.0087476486707925398 0 -0.035207508731102462 0.0089412679981164603 0 -0.033301733084905451 0.0070800291416648177 0 -0.035539364241009272 0.0098740478307713635 0 -0.033665157125466444 0.010431719627723556 0 -0.03457685095432337 0.010305174609651992 0 -0.035323609001162416 0.010800159608042665 0 -0.034852945309541777 0.010756264227470018 0 -0.035842360635963903 0.011817789920330604 0 -0.03457685095432337 0.010305174609651992 0 -0.035536410797524239 0.010151175156390548 0 -0.035323609001162416 0.010800159608042665 0 -0.035477085943112829 0.0087476486707925398 0 -0.035500592617274007 0.0091735597835168776 0 -0.035207508731102462 0.0089412679981164603 0 -0.035500592617274007 0.0091735597835168776 0 -0.035207508731102462 0.0089412679981164603 0 -0.035184179142235511 0.0089545566302403987 0 -0.035063378204337033 0.0088122223368728055 0 -0.035207508731102462 0.0089412679981164603 0 -0.035184179142235511 0.0089545566302403987 0 -0.035033629818888745 0.0086195509136866213 0 -0.034896140313882766 0.0090833375350187085 0 -0.035207508731102462 0.0089412679981164603 0 -0.034355777942974626 0.0069818770909271018 0 -0.035021940822336138 0.0089267080476477592 0 -0.033301733084905451 0.0070800291416648177 0 -0.034355777942974626 0.0069818770909271018 0 -0.034411847254798122 0.0081504150705637574 0 -0.035063378204337033 0.0088122223368728055 0 -0.0350199324854144 0.0087397849799885647 0 -0.035063378204337033 0.0088122223368728055 0 -0.0350199324854144 0.0087397849799885647 0 -0.035184179142235511 0.0089545566302403987 0 -0.0350199324854144 0.0087397849799885647 0 -0.035446181700176368 0.0091740041510819329 0 -0.035620605188082577 0.0093519260227373797 0 -0.035446181700176368 0.0091740041510819329 0 -0.035620605188082577 0.0093519260227373797 0 -0.035876772595265824 0.0095689605738924488 0 -0.0350199324854144 0.0087397849799885647 0 -0.035184179142235511 0.0089545566302403987 0 -0.035446181700176368 0.0091740041510819329 0 -0.035500592617274007 0.0091735597835168776 0 -0.035184179142235511 0.0089545566302403987 0 -0.035446181700176368 0.0091740041510819329 0 -0.035500592617274007 0.0091735597835168776 0 -0.035446181700176368 0.0091740041510819329 0 -0.035876772595265824 0.0095689605738924488 0 -0.0350199324854144 0.0087397849799885647 0 -0.035620605188082577 0.0093519260227373797 0 -0.03506320429659756 0.0090104304108733282 0 -0.034411847254798122 0.0081504150705637574 0 -0.0350199324854144 0.0087397849799885647 0 -0.03506320429659756 0.0090104304108733282 0 -0.034204440450576197 0.0089807925261980396 0 -0.03506320429659756 0.0090104304108733282 0 -0.034828846476306574 0.0094280299720107159 0 -0.034828846476306574 0.0094280299720107159 0 -0.035461875188963078 0.0096318260696060792 0 -0.03467654168129574 0.0098156106998826317 0 -0.034828846476306574 0.0094280299720107159 0 -0.035598106742086404 0.0094881041744948671 0 -0.035461875188963078 0.0096318260696060792 0 -0.035620605188082577 0.0093519260227373797 0 -0.03506320429659756 0.0090104304108733282 0 -0.035598106742086404 0.0094881041744948671 0 -0.03506320429659756 0.0090104304108733282 0 -0.034828846476306574 0.0094280299720107159 0 -0.035598106742086404 0.0094881041744948671 0 -0.035598106742086404 0.0094881041744948671 0 -0.036074166630597232 0.00959439097771486 0 -0.03610175666387605 0.0097083736911326539 0 -0.035620605188082577 0.0093519260227373797 0 -0.035598106742086404 0.0094881041744948671 0 -0.03610175666387605 0.0097083736911326539 0 -0.035598106742086404 0.0094881041744948671 0 -0.036074166630597232 0.00959439097771486 0 -0.035461875188963078 0.0096318260696060792 0 -0.036074166630597232 0.00959439097771486 0 -0.035930048693727901 0.0095342492519769687 0 -0.035461875188963078 0.0096318260696060792 0 -0.03610175666387605 0.0097083736911326539 0 -0.036331289418165796 0.010041604379327914 0 -0.036341589563431885 0.0097398830006322195 0 -0.036074166630597232 0.00959439097771486 0 -0.03610175666387605 0.0097083736911326539 0 -0.036341589563431885 0.0097398830006322195 0 -0.036331289418165796 0.010041604379327914 0 -0.036064983736534578 0.0097575654681937123 0 -0.036217709110586645 0.010005748260076422 0 -0.036331289418165796 0.010041604379327914 0 -0.036217709110586645 0.010005748260076422 0 -0.036440281537506641 0.010383051581166588 0 -0.03610175666387605 0.0097083736911326539 0 -0.036331289418165796 0.010041604379327914 0 -0.036064983736534578 0.0097575654681937123 0 -0.035620605188082577 0.0093519260227373797 0 -0.03610175666387605 0.0097083736911326539 0 -0.036064983736534578 0.0097575654681937123 0 -0.035620605188082577 0.0093519260227373797 0 -0.036064983736534578 0.0097575654681937123 0 -0.035876772595265824 0.0095689605738924488 0 -0.036064983736534578 0.0097575654681937123 0 -0.035876772595265824 0.0095689605738924488 0 -0.036217709110586645 0.010005748260076422 0 -0.036136391648201295 0.0098491433568197867 0 -0.035876772595265824 0.0095689605738924488 0 -0.036217709110586645 0.010005748260076422 0 -0.036136391648201295 0.0098491433568197867 0 -0.036366005777542447 0.010302127349996632 0 -0.036217709110586645 0.010005748260076422 0 -0.036366005777542447 0.010302127349996632 0 -0.036217709110586645 0.010005748260076422 0 -0.036440281537506641 0.010383051581166588 0 -0.036366005777542447 0.010302127349996632 0 -0.036630867387501646 0.011013466822106632 0 -0.036440281537506641 0.010383051581166588 0 -0.036630867387501646 0.011013466822106632 0 -0.036440281537506641 0.010383051581166588 0 -0.036434588161352942 0.01037645568141041 0 -0.036736367714625559 0.012284378472235223 0 -0.036630867387501646 0.011013466822106632 0 -0.036093179612364745 0.011115264438692296 0 -0.036630867387501646 0.011013466822106632 0 -0.036434588161352942 0.01037645568141041 0 -0.036093179612364745 0.011115264438692296 0 -0.036434588161352942 0.01037645568141041 0 -0.036144920089871156 0.009955511421297851 0 -0.036093179612364745 0.011115264438692296 0 -0.036331289418165796 0.010041604379327914 0 -0.036440281537506641 0.010383051581166588 0 -0.036434588161352942 0.01037645568141041 0 -0.036331289418165796 0.010041604379327914 0 -0.036434588161352942 0.01037645568141041 0 -0.036341589563431885 0.0097398830006322195 0 -0.036341589563431885 0.0097398830006322195 0 -0.036216779725775063 0.0092261476941976096 0 -0.036237768949463393 0.0092457560675953607 0 -0.036074166630597232 0.00959439097771486 0 -0.036341589563431885 0.0097398830006322195 0 -0.036237768949463393 0.0092457560675953607 0 -0.036341589563431885 0.0097398830006322195 0 -0.036144920089871156 0.009955511421297851 0 -0.036216779725775063 0.0092261476941976096 0 -0.036434588161352942 0.01037645568141041 0 -0.036341589563431885 0.0097398830006322195 0 -0.036144920089871156 0.009955511421297851 0 -0.036144920089871156 0.009955511421297851 0 -0.035749341448681644 0.0092136950169373292 0 -0.034999804895589223 0.010295882067238126 0 -0.036144920089871156 0.009955511421297851 0 -0.034999804895589223 0.010295882067238126 0 -0.036093179612364745 0.011115264438692296 0 -0.036144920089871156 0.009955511421297851 0 -0.035749341448681644 0.0092136950169373292 0 -0.036216779725775063 0.0092261476941976096 0 -0.035749341448681644 0.0092136950169373292 0 -0.034999804895589223 0.010295882067238126 0 -0.034999699534027449 0.0082128613606662383 0 -0.034999804895589223 0.010295882067238126 0 -0.036093179612364745 0.011115264438692296 0 -0.034999753694446328 0.012377909568624211 0 -0.036736367714625559 0.012284378472235223 0 -0.036093179612364745 0.011115264438692296 0 -0.035824859201571885 0.01245848144195655 0 -0.036093179612364745 0.011115264438692296 0 -0.035824859201571885 0.01245848144195655 0 -0.034999753694446328 0.012377909568624211 0 -0.034999750342308664 0.0052821817693963595 0 -0.036037329500167824 0.0045818187495690046 0 -0.034999907784298213 0.0037572549296247025 0 -0.035000084520508595 0.005283252111042607 0 -0.036195612547867607 0.0048752969980106614 0 -0.034999994039048465 0.0052835906082821802 0 -0.036311069150922956 0.0052522101618519583 0 -0.036314816052793797 0.0056203032161933515 0 -0.036037329500167824 0.0045818187495690046 0 -0.036345839614239067 0.0038198803626757235 0 -0.036619418833236946 0.003974797617643305 0 -0.035953870048203565 0.0067592090870916624 0 -0.036621371442008256 0.0054165644389110538 0 -0.036195612547867607 0.0048752969980106614 0 -0.036621371442008256 0.0054165644389110538 0 -0.036311069150922956 0.0052522101618519583 0 -0.036314816052793797 0.0056203032161933515 0 -0.037476051235848823 0.0051906114680614979 0 -0.035905804140461017 0.0076622026027196206 0 -0.035728499512430796 0.0075830770183503192 0 -0.036095522096566156 0.008309116510047513 0 -0.034999994039048465 0.0052835906082821802 0 -0.036314816052793797 0.0056203032161933515 0 -0.034999979898944489 0.0061292681999913952 0 -0.035905804140461017 0.0076622026027196206 0 -0.035000169307885007 0.0061331064279492985 0 -0.035728499512430796 0.0075830770183503192 0 -0.035953870048203565 0.0067592090870916624 0 -0.035000107233398289 0.0061298160321367366 0 -0.035728499512430796 0.0075830770183503192 0 -0.034999699534027449 0.0082128613606662383 0 -0.035989570663739243 0.0084840939014510924 0 -0.035000169307885007 0.0061331064279492985 0 -0.035728499512430796 0.0075830770183503192 0 -0.034999699534027449 0.0082128613606662383 0 -0.035749341448681644 0.0092136950169373292 0 -0.034999699534027449 0.0082128613606662383 0 -0.035989570663739243 0.0084840939014510924 0 -0.035749341448681644 0.0092136950169373292 0 -0.035989570663739243 0.0084840939014510924 0 -0.036216779725775063 0.0092261476941976096 0 -0.035728499512430796 0.0075830770183503192 0 -0.035989570663739243 0.0084840939014510924 0 -0.036095522096566156 0.008309116510047513 0 -0.036193563777068179 0.0088256542182002327 0 -0.036162410940827179 0.0090595649436243514 0 -0.036095522096566156 0.008309116510047513 0 -0.035989570663739243 0.0084840939014510924 0 -0.036193563777068179 0.0088256542182002327 0 -0.036095522096566156 0.008309116510047513 0 -0.035989570663739243 0.0084840939014510924 0 -0.036193563777068179 0.0088256542182002327 0 -0.036216779725775063 0.0092261476941976096 0 -0.036193563777068179 0.0088256542182002327 0 -0.036216779725775063 0.0092261476941976096 0 -0.036237768949463393 0.0092457560675953607 0 -0.036237768949463393 0.0092457560675953607 0 -0.036162410940827179 0.0090595649436243514 0 -0.035934550593809546 0.009611752495049088 0 -0.036193563777068179 0.0088256542182002327 0 -0.036237768949463393 0.0092457560675953607 0 -0.036162410940827179 0.0090595649436243514 0 -0.036162410940827179 0.0090595649436243514 0 -0.036150025259345721 0.0086526505942029763 0 -0.036069763940550996 0.0096405677546737151 0 -0.036162410940827179 0.0090595649436243514 0 -0.036095522096566156 0.008309116510047513 0 -0.036150025259345721 0.0086526505942029763 0 -0.035905804140461017 0.0076622026027196206 0 -0.036095522096566156 0.008309116510047513 0 -0.036150025259345721 0.0086526505942029763 0 -0.036345839614239067 0.0038198803626757235 0 -0.036619418833236946 0.003974797617643305 0 -0.036539369895091087 0.0032933170975739975 0 -0.036619418833236946 0.003974797617643305 0 -0.036789284184114084 0.0036164730789498565 0 -0.036539369895091087 0.0032933170975739975 0 -0.036621371442008256 0.0054165644389110538 0 -0.036312179594440365 0.0066598028829184365 0 -0.036804349411560272 0.0037268322455015612 0 -0.036789284184114084 0.0036164730789498565 0 -0.036776041808636972 0.0034930506031860412 0 -0.036789284184114084 0.0036164730789498565 0 -0.036776041808636972 0.0034930506031860412 0 -0.03679668715057674 0.0034538442905696336 0 -0.036621371442008256 0.0054165644389110538 0 -0.036993972147748418 0.0038278274124115821 0 -0.036776041808636972 0.0034930506031860412 0 -0.036744137126359259 0.0033488276328813788 0 -0.03679668715057674 0.0034538442905696336 0 -0.036312179594440365 0.0066598028829184365 0 -0.03609299521235914 0.006930132687043144 0 -0.036776041808636972 0.0034930506031860412 0 -0.036719657291129221 0.0033376153833949438 0 -0.036744137126359259 0.0033488276328813788 0 -0.036069763940550996 0.0096405677546737151 0 -0.035557791048693575 0.010576864225124095 0 -0.035934550593809546 0.009611752495049088 0 -0.035557791048693575 0.010576864225124095 0 -0.035934550593809546 0.009611752495049088 0 -0.035254692029278133 0.010254393270166386 0 -0.036162410940827179 0.0090595649436243514 0 -0.036069763940550996 0.0096405677546737151 0 -0.035934550593809546 0.009611752495049088 0 -0.036237768949463393 0.0092457560675953607 0 -0.035934550593809546 0.009611752495049088 0 -0.035930048693727901 0.0095342492519769687 0 -0.036074166630597232 0.00959439097771486 0 -0.036237768949463393 0.0092457560675953607 0 -0.035930048693727901 0.0095342492519769687 0 -0.035930048693727901 0.0095342492519769687 0 -0.035398378819029373 0.0098190545971491208 0 -0.035461875188963078 0.0096318260696060792 0 -0.035934550593809546 0.009611752495049088 0 -0.035398378819029373 0.0098190545971491208 0 -0.035254692029278133 0.010254393270166386 0 -0.035934550593809546 0.009611752495049088 0 -0.035930048693727901 0.0095342492519769687 0 -0.035398378819029373 0.0098190545971491208 0 -0.035398378819029373 0.0098190545971491208 0 -0.034724579758509191 0.010105276883210577 0 -0.035254692029278133 0.010254393270166386 0 -0.035398378819029373 0.0098190545971491208 0 -0.035461875188963078 0.0096318260696060792 0 -0.03467654168129574 0.0098156106998826317 0 -0.035398378819029373 0.0098190545971491208 0 -0.03467654168129574 0.0098156106998826317 0 -0.034724579758509191 0.010105276883210577 0 -0.03467654168129574 0.0098156106998826317 0 -0.034724579758509191 0.010105276883210577 0 -0.033876606214994331 0.010057544028832152 0 -0.034724579758509191 0.010105276883210577 0 -0.034373823271218788 0.010613478550679612 0 -0.033876606214994331 0.010057544028832152 0 -0.034373823271218788 0.010613478550679612 0 -0.035254692029278133 0.010254393270166386 0 -0.034473699472656355 0.01147558435466811 0 -0.034724579758509191 0.010105276883210577 0 -0.034373823271218788 0.010613478550679612 0 -0.035254692029278133 0.010254393270166386 0 -0.03609299521235914 0.006930132687043144 0 -0.035633917651045684 0.0076262669390344791 0 -0.035557791048693575 0.010576864225124095 0 -0.035254692029278133 0.010254393270166386 0 -0.034473699472656355 0.01147558435466811 0 -0.036719657291129221 0.0033376153833949438 0 -0.036805173503196321 0.0033297847266451483 0 -0.036724710918128144 0.003226061922813469 0 -0.034373823271218788 0.010613478550679612 0 -0.034473699472656355 0.01147558435466811 0 -0.033331120571238951 0.011260009291654022 0 -0.036855230592503528 0.0031040455004074491 0 -0.036724710918128144 0.003226061922813469 0 -0.03679859285685811 0.002765613408464053 0 -0.036805173503196321 0.0033297847266451483 0 -0.036855230592503528 0.0031040455004074491 0 -0.036724710918128144 0.003226061922813469 0 -0.03679859285685811 0.002765613408464053 0 -0.036636967828955147 0.002477948137276767 0 -0.036629417677481992 0.0024654688089520418 0 -0.036822935361582598 0.0027650670917284204 0 -0.03669892114714874 0.0028272569931692133 0 -0.036724710918128144 0.003226061922813469 0 -0.03679859285685811 0.002765613408464053 0 -0.036698983216272414 0.0031925212925158156 0 -0.036855230592503528 0.0031040455004074491 0 -0.03679859285685811 0.002765613408464053 0 -0.037020191664076101 0.0028520436844940182 0 -0.03679859285685811 0.002765613408464053 0 -0.036685661919054494 0.0023291838417825684 0 -0.036636967828955147 0.002477948137276767 0 -0.03679859285685811 0.002765613408464053 0 -0.036685661919054494 0.0023291838417825684 0 -0.037020191664076101 0.0028520436844940182 0 -0.036434606282433959 0.0022478477932628338 0 -0.036685661919054494 0.0023291838417825684 0 -0.036546965319673705 0.0023605824001554049 0 -0.036636967828955147 0.002477948137276767 0 -0.036546965319673705 0.0023605824001554049 0 -0.036629417677481992 0.0024654688089520418 0 -0.036685661919054494 0.0023291838417825684 0 -0.036636967828955147 0.002477948137276767 0 -0.036546965319673705 0.0023605824001554049 0 -0.036546965319673705 0.0023605824001554049 0 -0.03672164729532823 0.0023527087573634985 0 -0.036629417677481992 0.0024654688089520418 0 -0.036434606282433959 0.0022478477932628338 0 -0.036614186580784212 0.0023023779670408389 0 -0.036546965319673705 0.0023605824001554049 0 -0.036614186580784212 0.0023023779670408389 0 -0.036546965319673705 0.0023605824001554049 0 -0.03672164729532823 0.0023527087573634985 0 -0.036614186580784212 0.0023023779670408389 0 -0.03672164729532823 0.0023527087573634985 0 -0.036735756783936008 0.002299986411973402 0 -0.03672164729532823 0.0023527087573634985 0 -0.036904961645779284 0.0025138334025118368 0 -0.036629417677481992 0.0024654688089520418 0 -0.036809873872400527 0.0029611483095276798 0 -0.03669892114714874 0.0028272569931692133 0 -0.036781394080799341 0.003359697146521891 0 -0.036698983216272414 0.0031925212925158156 0 -0.036744137126359259 0.0033488276328813788 0 -0.036719657291129221 0.0033376153833949438 0 -0.036724710918128144 0.003226061922813469 0 -0.036744137126359259 0.0033488276328813788 0 -0.036724710918128144 0.003226061922813469 0 -0.036698983216272414 0.0031925212925158156 0 -0.036744137126359259 0.0033488276328813788 0 -0.036781394080799341 0.003359697146521891 0 -0.036744137126359259 0.0033488276328813788 0 -0.03679668715057674 0.0034538442905696336 0 -0.036809873872400527 0.0029611483095276798 0 -0.036512193971601076 0.0032485734594174275 0 -0.036781394080799341 0.003359697146521891 0 -0.03679668715057674 0.0034538442905696336 0 -0.036539369895091087 0.0032933170975739975 0 -0.036789284184114084 0.0036164730789498565 0 -0.03679668715057674 0.0034538442905696336 0 -0.036539369895091087 0.0032933170975739975 0 -0.036904961645779284 0.0025138334025118368 0 -0.036539369895091087 0.0032933170975739975 0 -0.036617585739666697 0.0025671439301874297 0 -0.036539369895091087 0.0032933170975739975 0 -0.036617585739666697 0.0025671439301874297 0 -0.036033126155214819 0.0032315628821938001 0 -0.036904961645779284 0.0025138334025118368 0 -0.036617585739666697 0.0025671439301874297 0 -0.036848478514806493 0.0022324544376815499 0 -0.03672164729532823 0.0023527087573634985 0 -0.036848478514806493 0.0022324544376815499 0 -0.036735756783936008 0.002299986411973402 0 -0.03672164729532823 0.0023527087573634985 0 -0.036904961645779284 0.0025138334025118368 0 -0.036848478514806493 0.0022324544376815499 0 -0.036745710874030869 0.0023223087065190897 0 -0.036735756783936008 0.002299986411973402 0 -0.036813300373125649 0.0022789640115332874 0 -0.036848478514806493 0.0022324544376815499 0 -0.036735756783936008 0.002299986411973402 0 -0.036813300373125649 0.0022789640115332874 0 -0.036803990344386861 0.0020853191862211426 0 -0.03673243860400259 0.0018656980198225369 0 -0.036617585739666697 0.0025671439301874297 0 -0.036848478514806493 0.0022324544376815499 0 -0.036168784193409374 0.0021414267389561676 0 -0.036848478514806493 0.0022324544376815499 0 -0.036546708724895814 0.0011119314136929677 0 -0.036168784193409374 0.0021414267389561676 0 -0.036546708724895814 0.0011119314136929677 0 -0.036168784193409374 0.0021414267389561676 0 -0.035849282245681832 0.0011688260914995152 0 -0.036000688555383131 0.00023969965550460894 0 -0.036546708724895814 0.0011119314136929677 0 -0.035849282245681832 0.0011688260914995152 0 -0.036371917417291587 0.00027683313746424158 0 -0.0350003116560152 0.00070446675708168678 0 -0.036000688555383131 0.00023969965550460894 0 -0.035849282245681832 0.0011688260914995152 0 -0.034999786839377149 0.00070660664664180903 0 -0.036168784193409374 0.0021414267389561676 0 -0.035849282245681832 0.0011688260914995152 0 -0.034999881928169371 0.0022308970540361431 0 -0.035849282245681832 0.0011688260914995152 0 -0.034999786839377149 0.00070660664664180903 0 -0.034999881928169371 0.0022308970540361431 0 -0.034999881928169371 0.0022308970540361431 0 -0.036033126155214819 0.0032315628821938001 0 -0.034999907784298213 0.0037572549296247025 0 -0.036168784193409374 0.0021414267389561676 0 -0.034999881928169371 0.0022308970540361431 0 -0.036033126155214819 0.0032315628821938001 0 -0.036617585739666697 0.0025671439301874297 0 -0.036168784193409374 0.0021414267389561676 0 -0.036033126155214819 0.0032315628821938001 0 -0.036037329500167824 0.0045818187495690046 0 -0.036345839614239067 0.0038198803626757235 0 -0.036033126155214819 0.0032315628821938001 0 -0.036345839614239067 0.0038198803626757235 0 -0.036539369895091087 0.0032933170975739975 0 -0.036033126155214819 0.0032315628821938001 0 -0.036037329500167824 0.0045818187495690046 0 -0.036033126155214819 0.0032315628821938001 0 -0.034999907784298213 0.0037572549296247025 0 -0.026535932290408144 0.012409277131595911 0 -0.028368437814486357 0.012754942450154677 0 -0.027745628200732887 0.014224882172393368 0 -0.026318536031668654 0.0084678689060967635 0 -0.025551269171039774 0.0084305742838829568 0 -0.028368437814486357 0.012754942450154677 0 -0.027745628200732887 0.014224882172393368 0 -0.029171776394793927 0.014164770824657003 0 -0.026535932290408144 0.012409277131595911 0 -0.027745628200732887 0.014224882172393368 0 -0.026369751582232846 0.014245493867502367 0 -0.023778255122618452 0.0086870996035830258 0 -0.023687409630846645 0.0060933396050324492 0 -0.026318536031668654 0.0084678689060967635 0 -0.023687409630846645 0.0060933396050324492 0 -0.020979591426945318 0.0035190529610354851 0 -0.02103481450415912 0.0035685374543816223 0 -0.020926113352639379 0.0034029589448317239 0 -0.021076869589778606 0.0037110429947842497 0 -0.020979591426945318 0.0035190529610354851 0 -0.02103481450415912 0.0035685374543816223 0 -0.021132860272835698 0.003607280000950772 0 -0.020926113352639379 0.0034029589448317239 0 -0.021334038570777043 0.0035541844995285146 0 -0.02103481450415912 0.0035685374543816223 0 -0.021132860272835698 0.003607280000950772 0 -0.020926113352639379 0.0034029589448317239 0 -0.021132860272835698 0.003607280000950772 0 -0.021139510027680827 0.0036377524331758443 0 -0.020757428414548692 0.0034051538060136128 0 -0.021139510027680827 0.0036377524331758443 0 -0.021092590513050714 0.0036679963176961127 0 -0.020757428414548692 0.0034051538060136128 0 -0.02103481450415912 0.0035685374543816223 0 -0.021132860272835698 0.003607280000950772 0 -0.021139510027680827 0.0036377524331758443 0 -0.021076869589778606 0.0037110429947842497 0 -0.02103481450415912 0.0035685374543816223 0 -0.021139510027680827 0.0036377524331758443 0 -0.021076869589778606 0.0037110429947842497 0 -0.021139510027680827 0.0036377524331758443 0 -0.021274094221100489 0.0038225087834518647 0 -0.021076869589778606 0.0037110429947842497 0 -0.021274094221100489 0.0038225087834518647 0 -0.021299151494295461 0.0041536253472837202 0 -0.021139510027680827 0.0036377524331758443 0 -0.021274094221100489 0.0038225087834518647 0 -0.021092590513050714 0.0036679963176961127 0 -0.021092590513050714 0.0036679963176961127 0 -0.021145933927007272 0.003856363590203863 0 -0.020757428414548692 0.0034051538060136128 0 -0.021274094221100489 0.0038225087834518647 0 -0.021092590513050714 0.0036679963176961127 0 -0.021145933927007272 0.003856363590203863 0 -0.021274094221100489 0.0038225087834518647 0 -0.021145933927007272 0.003856363590203863 0 -0.021565034677573418 0.0040358950820224811 0 -0.021145933927007272 0.003856363590203863 0 -0.021223987027181038 0.0039076178878442204 0 -0.021565034677573418 0.0040358950820224811 0 -0.021274094221100489 0.0038225087834518647 0 -0.021565034677573418 0.0040358950820224811 0 -0.021299151494295461 0.0041536253472837202 0 -0.023778255122618452 0.0086870996035830258 0 -0.023944354109196909 0.0071381083011501888 0 -0.026535932290408144 0.012409277131595911 0 -0.026548059985138123 0.010476004756760434 0 -0.028221120613587225 0.0112881733101873 0 -0.026535932290408144 0.012409277131595911 0 -0.028368437814486357 0.012754942450154677 0 -0.028221120613587225 0.0112881733101873 0 -0.028156496448245728 0.0095314604132624471 0 -0.026548059985138123 0.010476004756760434 0 -0.028221120613587225 0.0112881733101873 0 -0.028156496448245728 0.0095314604132624471 0 -0.028221120613587225 0.0112881733101873 0 -0.030051296640213634 0.010366988513138367 0 -0.030051296640213634 0.010366988513138367 0 -0.032386628881462737 0.010707263940620678 0 -0.031119626065679834 0.011100270180306153 0 -0.029942949298761241 0.0097843914645837585 0 -0.030970709964739444 0.013014960742506618 0 -0.028368437814486357 0.012754942450154677 0 -0.028221120613587225 0.0112881733101873 0 -0.030181094497003097 0.012325939879112572 0 -0.028221120613587225 0.0112881733101873 0 -0.030051296640213634 0.010366988513138367 0 -0.030181094497003097 0.012325939879112572 0 -0.03207930420638571 0.0096602262162246468 0 -0.030051296640213634 0.010366988513138367 0 -0.032386628881462737 0.010707263940620678 0 -0.032880295938882698 0.0096228913948048968 0 -0.033141036392764313 0.010450246927606982 0 -0.033733288393186116 0.0097489391084932004 0 -0.03467654168129574 0.0098156106998826317 0 -0.033876606214994331 0.010057544028832152 0 -0.032386628881462737 0.010707263940620678 0 -0.032158084209554232 0.01119611974522502 0 -0.031119626065679834 0.011100270180306153 0 -0.032386628881462737 0.010707263940620678 0 -0.033331120571238951 0.011260009291654022 0 -0.032158084209554232 0.01119611974522502 0 -0.034373823271218788 0.010613478550679612 0 -0.033876606214994331 0.010057544028832152 0 -0.033331120571238951 0.011260009291654022 0 -0.033141036392764313 0.010450246927606982 0 -0.033331766616595974 0.011291452518533718 0 -0.033331120571238951 0.011260009291654022 0 -0.032158084209554232 0.01119611974522502 0 -0.032473971624329898 0.011834686665470731 0 -0.034643506786323476 0.0055956976983785245 0 -0.029671167193273482 0.007401340879705072 0 -0.032158084209554232 0.01119611974522502 0 -0.032473971624329898 0.011834686665470731 0 -0.031705294783353821 0.012099954106053804 0 -0.034851536932859618 0.00046487387294639082 0 -0.034632744205371484 0.0004907050915665546 0 -0.034747011903537496 0.00059205367370084982 0 -0.032557065309298652 0.012033927937516896 0 -0.032473971624329898 0.011834686665470731 0 -0.031705294783353821 0.012099954106053804 0 -0.034643506786323476 0.0055956976983785245 0 -0.034901280315563527 0.0082578084190155811 0 -0.035633917651045684 0.0076262669390344791 0 -0.034643506786323476 0.0055956976983785245 0 -0.034473699472656355 0.01147558435466811 0 -0.033331120571238951 0.011260009291654022 0 -0.032622471557863908 0.012101418275973153 0 -0.036805173503196321 0.0033297847266451483 0 -0.036855230592503528 0.0031040455004074491 0 -0.037151554142273481 0.0033430997735144764 0 -0.033331120571238951 0.011260009291654022 0 -0.032622471557863908 0.012101418275973153 0 -0.032473971624329898 0.011834686665470731 0 -0.028368437814486357 0.012754942450154677 0 -0.030181094497003097 0.012325939879112572 0 -0.029171776394793927 0.014164770824657003 0 -0.032158084209554232 0.01119611974522502 0 -0.031119626065679834 0.011100270180306153 0 -0.031705294783353821 0.012099954106053804 0 -0.030970709964739444 0.013014960742506618 0 -0.029671167193273482 0.007401340879705072 0 -0.030181094497003097 0.012325939879112572 0 -0.030536165288483439 0.014049242407202062 0 -0.029171776394793927 0.014164770824657003 0 -0.029671167193273482 0.007401340879705072 0 -0.025551269171039774 0.0084305742838829568 0 -0.023460264329055954 0.0020389805599490282 0 -0.022903391459091836 0.0021720643578628076 0 -0.022969950224721997 0.0016524706226591082 0 -0.023971885624696022 0.0025325240749879472 0 -0.023279029803684435 0.0025600418074907495 0 -0.023460264329055954 0.0020389805599490282 0 -0.023279029803684435 0.0025600418074907495 0 -0.023460264329055954 0.0020389805599490282 0 -0.022903391459091836 0.0021720643578628076 0 -0.022903391459091836 0.0021720643578628076 0 -0.022969950224721997 0.0016524706226591082 0 -0.022412248168497548 0.0019612150417157893 0 -0.022603633889883838 0.0026083517828080264 0 -0.023279029803684435 0.0025600418074907495 0 -0.022903391459091836 0.0021720643578628076 0 -0.022603633889883838 0.0026083517828080264 0 -0.022903391459091836 0.0021720643578628076 0 -0.022412248168497548 0.0019612150417157893 0 -0.022969950224721997 0.0016524706226591082 0 -0.022412248168497548 0.0019612150417157893 0 -0.022713566094847818 0.0010692354957650275 0 -0.028540444129467001 9.9532284987009531e-05 0 -0.021063973774156024 -0.0020857407952792335 0 -0.022969950224721997 0.0016524706226591082 0 -0.022996711300188582 0.0012021776106740845 0 -0.022713566094847818 0.0010692354957650275 0 -0.022969950224721997 0.0016524706226591082 0 -0.023491030807758693 0.0014503912974177166 0 -0.022996711300188582 0.0012021776106740845 0 -0.023460264329055954 0.0020389805599490282 0 -0.022969950224721997 0.0016524706226591082 0 -0.023491030807758693 0.0014503912974177166 0 -0.034851536932859618 0.00046487387294639082 0 -0.034915878910110096 0.00067396716447590667 0 -0.035138651397102511 0.00075646792377675218 0 -0.036855230592503528 0.0031040455004074491 0 -0.037151554142273481 0.0033430997735144764 0 -0.037020191664076101 0.0028520436844940182 0 -0.034643506786323476 0.0055956976983785245 0 -0.036187213825793492 0.001035915171363602 0 -0.029671167193273482 0.007401340879705072 0 -0.028540444129467001 9.9532284987009531e-05 0 -0.034632744205371484 0.0004907050915665546 0 -0.034747011903537496 0.00059205367370084982 0 -0.034691644011288235 0.00067665636222088933 0 -0.034851536932859618 0.00046487387294639082 0 -0.034915878910110096 0.00067396716447590667 0 -0.034747011903537496 0.00059205367370084982 0 -0.031299238189120754 -0.00057661182691414543 0 -0.028540444129467001 9.9532284987009531e-05 0 -0.034915878910110096 0.00067396716447590667 0 -0.034747011903537496 0.00059205367370084982 0 -0.034717362561687282 0.00065014129352891951 0 -0.024960822479368865 -0.0019678442013691499 0 -0.024714621361996123 -0.0028787876104221727 0 -0.025208645361370335 -0.0027297476499057644 0 -0.034915878910110096 0.00067396716447590667 0 -0.034717362561687282 0.00065014129352891951 0 -0.034874022599770564 0.0010851471297670199 0 -0.028540444129467001 9.9532284987009531e-05 0 -0.029914496820321726 -0.0012651815028760984 0 -0.034915878910110096 0.00067396716447590667 0 -0.035138651397102511 0.00075646792377675218 0 -0.034874022599770564 0.0010851471297670199 0 -0.03615073245672492 0.002019298759367549 0 -0.036187213825793492 0.001035915171363602 0 -0.035603773805202167 0.0012845574826687307 0 -0.035138651397102511 0.00075646792377675218 0 -0.034874022599770564 0.0010851471297670199 0 -0.024714621361996123 -0.0028787876104221727 0 -0.025208645361370335 -0.0027297476499057644 0 -0.024992529084237585 -0.0033324158252532017 0 -0.030111780307026197 0.00015563857608074633 0 -0.029914496820321726 -0.0012651815028760984 0 -0.024563746237553478 -0.003677313434590824 0 -0.024714621361996123 -0.0028787876104221727 0 -0.024992529084237585 -0.0033324158252532017 0 -0.035111047892225605 0.0018665736969742473 0 -0.035603773805202167 0.0012845574826687307 0 -0.034874022599770564 0.0010851471297670199 0 -0.023271279880410781 0.0010295751377525661 0 -0.022736177732379133 0.0010080341048889054 0 -0.023437096013465612 0.00053837488959405965 0 -0.020645536896103694 -0.0035225909557019741 0 -0.019888618304335855 -0.0033801336641019817 0 -0.023271279880410781 0.0010295751377525661 0 -0.023437096013465612 0.00053837488959405965 0 -0.023715333512760978 0.00097011676850278477 0 -0.023491030807758693 0.0014503912974177166 0 -0.023271279880410781 0.0010295751377525661 0 -0.023715333512760978 0.00097011676850278477 0 -0.023491030807758693 0.0014503912974177166 0 -0.023271279880410781 0.0010295751377525661 0 -0.022996711300188582 0.0012021776106740845 0 -0.023271279880410781 0.0010295751377525661 0 -0.022996711300188582 0.0012021776106740845 0 -0.022736177732379133 0.0010080341048889054 0 -0.025208645361370335 -0.0027297476499057644 0 -0.025223307885891853 -0.002780495393360163 0 -0.024992529084237585 -0.0033324158252532017 0 -0.022996711300188582 0.0012021776106740845 0 -0.022713566094847818 0.0010692354957650275 0 -0.022736177732379133 0.0010080341048889054 0 -0.021063973774156024 -0.0020857407952792335 0 -0.020645536896103694 -0.0035225909557019741 0 -0.025223307885891853 -0.002780495393360163 0 -0.024992529084237585 -0.0033324158252532017 0 -0.025398600055438949 -0.0034403454939240874 0 -0.020645536896103694 -0.0035225909557019741 0 -0.021266406442700139 -0.0055023057391403495 0 -0.016723108142524794 -0.0076474939849834429 0 -0.016685804123776588 -0.0075812235324848329 0 -0.016746042140044506 -0.0075173931917921887 0 -0.01669029651043652 -0.0073845478946901726 0 -0.016685804123776588 -0.0075812235324848329 0 -0.016746042140044506 -0.0075173931917921887 0 -0.024153298896414668 3.2272966090438048e-05 0 -0.023437096013465612 0.00053837488959405965 0 -0.023983299913080972 0.00057207702613152288 0 -0.020625521532476741 -0.0038461544225372232 0 -0.019888618304335855 -0.0033801336641019817 0 -0.016723108142524794 -0.0076474939849834429 0 -0.016831328905204862 -0.0076055848330852461 0 -0.016746042140044506 -0.0075173931917921887 0 -0.023437096013465612 0.00053837488959405965 0 -0.023983299913080972 0.00057207702613152288 0 -0.023715333512760978 0.00097011676850278477 0 -0.024362430080149652 0.00041976084539457171 0 -0.024256657143789041 0.00089553958289627475 0 -0.024849849469810583 0.00053622752804190102 0 -0.024153298896414668 3.2272966090438048e-05 0 -0.024566113158314817 0.00012455340522445481 0 -0.024362430080149652 0.00041976084539457171 0 -0.024566113158314817 0.00012455340522445481 0 -0.024362430080149652 0.00041976084539457171 0 -0.024849849469810583 0.00053622752804190102 0 -0.024153298896414668 3.2272966090438048e-05 0 -0.023983299913080972 0.00057207702613152288 0 -0.024362430080149652 0.00041976084539457171 0 -0.023983299913080972 0.00057207702613152288 0 -0.024362430080149652 0.00041976084539457171 0 -0.024256657143789041 0.00089553958289627475 0 -0.024256657143789041 0.00089553958289627475 0 -0.02401541673687696 0.0013519758045257688 0 -0.024778993863732713 0.0015254437140370407 0 -0.024256657143789041 0.00089553958289627475 0 -0.024778993863732713 0.0015254437140370407 0 -0.024849849469810583 0.00053622752804190102 0 -0.023983299913080972 0.00057207702613152288 0 -0.024256657143789041 0.00089553958289627475 0 -0.023715333512760978 0.00097011676850278477 0 -0.024256657143789041 0.00089553958289627475 0 -0.023715333512760978 0.00097011676850278477 0 -0.02401541673687696 0.0013519758045257688 0 -0.023491030807758693 0.0014503912974177166 0 -0.023715333512760978 0.00097011676850278477 0 -0.02401541673687696 0.0013519758045257688 0 -0.023491030807758693 0.0014503912974177166 0 -0.02401541673687696 0.0013519758045257688 0 -0.024166779778221851 0.0018544139701664551 0 -0.023460264329055954 0.0020389805599490282 0 -0.023491030807758693 0.0014503912974177166 0 -0.024166779778221851 0.0018544139701664551 0 -0.02401541673687696 0.0013519758045257688 0 -0.024166779778221851 0.0018544139701664551 0 -0.024778993863732713 0.0015254437140370407 0 -0.023971885624696022 0.0025325240749879472 0 -0.024694597031363515 0.0025074620169267922 0 -0.024166779778221851 0.0018544139701664551 0 -0.024694597031363515 0.0025074620169267922 0 -0.024166779778221851 0.0018544139701664551 0 -0.024778993863732713 0.0015254437140370407 0 -0.023971885624696022 0.0025325240749879472 0 -0.023460264329055954 0.0020389805599490282 0 -0.024166779778221851 0.0018544139701664551 0 -0.020926113352639379 0.0034029589448317239 0 -0.020593435154046498 0.0024614186008114799 0 -0.021403836581907938 0.0018402719074468755 0 -0.020926113352639379 0.0034029589448317239 0 -0.021403836581907938 0.0018402719074468755 0 -0.021334038570777043 0.0035541844995285146 0 -0.019192841557554473 -0.0013737336221518609 0 -0.019786139159290131 0.0013935633157236614 0 -0.019690603965693373 0.0035329505527038315 0 -0.020593435154046498 0.0024614186008114799 0 -0.019769813054967653 0.0017012661238317833 0 -0.019690603965693373 0.0035329505527038315 0 -0.020926113352639379 0.0034029589448317239 0 -0.020593435154046498 0.0024614186008114799 0 -0.023687409630846645 0.0060933396050324492 0 -0.019768888247427271 0.0034301921139248135 0 -0.023687409630846645 0.0060933396050324492 0 -0.022118685757028363 0.00084783886232941378 0 -0.020593435154046498 0.0024614186008114799 0 -0.019769813054967653 0.0017012661238317833 0 -0.020502922560051502 0.0008351762580131463 0 -0.020593435154046498 0.0024614186008114799 0 -0.021403836581907938 0.0018402719074468755 0 -0.020502922560051502 0.0008351762580131463 0 -0.019192841557554473 -0.0013737336221518609 0 -0.018843461440623828 -0.0035184322774641907 0 -0.016972223875699702 -0.0045891962181861526 0 -0.016740873296105706 -0.0066458784663077971 0 -0.017991606611498973 -0.0059592264306629729 0 -0.021403836581907938 0.0018402719074468755 0 -0.020502922560051502 0.0008351762580131463 0 -0.021024479653445064 -0.00049097871573824947 0 -0.022118685757028363 0.00084783886232941378 0 -0.022548272845053573 0.00068153572963510997 0 -0.019769813054967653 0.0017012661238317833 0 -0.020502922560051502 0.0008351762580131463 0 -0.019839560353526343 -0.0004136299316300924 0 -0.020502922560051502 0.0008351762580131463 0 -0.019839560353526343 -0.0004136299316300924 0 -0.021024479653445064 -0.00049097871573824947 0 -0.020342806680719694 -0.0016947814353337985 0 -0.019839560353526343 -0.0004136299316300924 0 -0.021024479653445064 -0.00049097871573824947 0 -0.016740873296105706 -0.0066458784663077971 0 -0.017632993287331301 -0.0072291526310457946 0 -0.017991606611498973 -0.0059592264306629729 0 -0.017029206542889315 -0.0075017811177882842 0 -0.016740873296105706 -0.0066458784663077971 0 -0.017632993287331301 -0.0072291526310457946 0 -0.017632993287331301 -0.0072291526310457946 0 -0.018853450910629784 -0.006489684202828856 0 -0.017991606611498973 -0.0059592264306629729 0 -0.019006215827025722 -0.0072027906563480945 0 -0.017632993287331301 -0.0072291526310457946 0 -0.018853450910629784 -0.006489684202828856 0 -0.019006215827025722 -0.0072027906563480945 0 -0.018853450910629784 -0.006489684202828856 0 -0.019291670215921802 -0.0067196712546481454 0 -0.018853450910629784 -0.006489684202828856 0 -0.019082404732754393 -0.005541283057701094 0 -0.019304658829806309 -0.006232249314546392 0 -0.018853450910629784 -0.006489684202828856 0 -0.019082404732754393 -0.005541283057701094 0 -0.017991606611498973 -0.0059592264306629729 0 -0.019082404732754393 -0.005541283057701094 0 -0.017991606611498973 -0.0059592264306629729 0 -0.01862807922978494 -0.0042891242817214249 0 -0.01934823066287631 -0.0069747949101580855 0 -0.019472627522794505 -0.0066724273986001866 0 -0.019610580925847648 -0.0065273426040393292 0 -0.019472627522794505 -0.0066724273986001866 0 -0.019304658829806309 -0.006232249314546392 0 -0.019522439630347319 -0.0062745781190682633 0 -0.019472627522794505 -0.0066724273986001866 0 -0.019522439630347319 -0.0062745781190682633 0 -0.019610580925847648 -0.0065273426040393292 0 -0.018853450910629784 -0.006489684202828856 0 -0.019291670215921802 -0.0067196712546481454 0 -0.019304658829806309 -0.006232249314546392 0 -0.019472627522794505 -0.0066724273986001866 0 -0.019291670215921802 -0.0067196712546481454 0 -0.019304658829806309 -0.006232249314546392 0 -0.019082404732754393 -0.005541283057701094 0 -0.019304658829806309 -0.006232249314546392 0 -0.019255551969799879 -0.0056857122371634398 0 -0.019304658829806309 -0.006232249314546392 0 -0.019444724721875153 -0.0058651356826963348 0 -0.019255551969799879 -0.0056857122371634398 0 -0.019304658829806309 -0.006232249314546392 0 -0.019522439630347319 -0.0062745781190682633 0 -0.019444724721875153 -0.0058651356826963348 0 -0.019522439630347319 -0.0062745781190682633 0 -0.019444724721875153 -0.0058651356826963348 0 -0.019620582069961059 -0.0059767100537375002 0 -0.019469970219727267 -0.0056623922376653115 0 -0.019444724721875153 -0.0058651356826963348 0 -0.019620582069961059 -0.0059767100537375002 0 -0.019469970219727267 -0.0056623922376653115 0 -0.019444724721875153 -0.0058651356826963348 0 -0.019480385152881002 -0.0056137149852533664 0 -0.019480385152881002 -0.0056137149852533664 0 -0.019255551969799879 -0.0056857122371634398 0 -0.019124420281325077 -0.0054609669635339204 0 -0.019444724721875153 -0.0058651356826963348 0 -0.019480385152881002 -0.0056137149852533664 0 -0.019255551969799879 -0.0056857122371634398 0 -0.019480385152881002 -0.0056137149852533664 0 -0.019443307108624346 -0.0052151654575450651 0 -0.019124420281325077 -0.0054609669635339204 0 -0.019443307108624346 -0.0052151654575450651 0 -0.019124420281325077 -0.0054609669635339204 0 -0.01929166746686712 -0.004703675270180425 0 -0.019480385152881002 -0.0056137149852533664 0 -0.019416199170095343 -0.0060516258527134716 0 -0.019313904892120769 -0.005832967913567572 0 -0.019480385152881002 -0.0056137149852533664 0 -0.019443307108624346 -0.0052151654575450651 0 -0.019934232905915849 -0.0050366624987516085 0 -0.019467154538152419 -0.0056441873828954334 0 -0.019836431651552189 -0.0055489002447321658 0 -0.019469970219727267 -0.0056623922376653115 0 -0.019480385152881002 -0.0056137149852533664 0 -0.019313904892120769 -0.005832967913567572 0 -0.016972223875699702 -0.0045891962181861526 0 -0.01862807922978494 -0.0042891242817214249 0 -0.018477259728153825 -0.0027086816868233036 0 -0.016972223875699702 -0.0045891962181861526 0 -0.017991606611498973 -0.0059592264306629729 0 -0.01862807922978494 -0.0042891242817214249 0 -0.019169599471727868 -0.0054552369965266854 0 -0.019809490205594225 -0.0041620485561985792 0 -0.019082404732754393 -0.005541283057701094 0 -0.019255551969799879 -0.0056857122371634398 0 -0.019124420281325077 -0.0054609669635339204 0 -0.019082404732754393 -0.005541283057701094 0 -0.01862807922978494 -0.0042891242817214249 0 -0.020584447563921859 -0.0029031514493016858 0 -0.01862807922978494 -0.0042891242817214249 0 -0.019268390082589248 -0.0028781976497647336 0 -0.020584447563921859 -0.0029031514493016858 0 -0.019268390082589248 -0.0028781976497647336 0 -0.020584447563921859 -0.0029031514493016858 0 -0.019483268998710213 -0.0017811178493775141 0 -0.016972223875699702 -0.0045891962181861526 0 -0.018477259728153825 -0.0027086816868233036 0 -0.018138277626527251 -0.00061330193399656869 0 -0.019268390082589248 -0.0028781976497647336 0 -0.018477259728153825 -0.0027086816868233036 0 -0.019483268998710213 -0.0017811178493775141 0 -0.01862807922978494 -0.0042891242817214249 0 -0.019268390082589248 -0.0028781976497647336 0 -0.018477259728153825 -0.0027086816868233036 0 -0.018477259728153825 -0.0027086816868233036 0 -0.018138277626527251 -0.00061330193399656869 0 -0.020989204278091513 0.0018240273884654536 0 -0.018477259728153825 -0.0027086816868233036 0 -0.019101193385836088 -0.00039385059424178941 0 -0.019483268998710213 -0.0017811178493775141 0 -0.018661526833224574 -0.0024809138731645905 0 -0.019960820479181542 0.00068662729134035786 0 -0.020757428414548692 0.0034051538060136128 0 -0.020989204278091513 0.0018240273884654536 0 -0.021288288348866591 0.00410341614947996 0 -0.018138277626527251 -0.00061330193399656869 0 -0.020757428414548692 0.0034051538060136128 0 -0.020989204278091513 0.0018240273884654536 0 -0.021132860272835698 0.003607280000950772 0 -0.021334038570777043 0.0035541844995285146 0 -0.020757428414548692 0.0034051538060136128 0 -0.019786139159290131 0.0013935633157236614 0 -0.020608885544681727 0.0032304760582106402 0 -0.019101193385836088 -0.00039385059424178941 0 -0.020436591991179802 0.00054823462366806769 0 -0.019869553061420638 0.001974699953576165 0 -0.019960820479181542 0.00068662729134035786 0 -0.020578028171396236 0.0029795278419509959 0 -0.020436591991179802 0.00054823462366806769 0 -0.020185684319149445 -0.0010418652589857065 0 -0.02137904938020866 -0.00078192453769743142 0 -0.019101193385836088 -0.00039385059424178941 0 -0.020436591991179802 0.00054823462366806769 0 -0.020185684319149445 -0.0010418652589857065 0 -0.020584447563921859 -0.0029031514493016858 0 -0.020185684319149445 -0.0010418652589857065 0 -0.019483268998710213 -0.0017811178493775141 0 -0.019101193385836088 -0.00039385059424178941 0 -0.020185684319149445 -0.0010418652589857065 0 -0.019483268998710213 -0.0017811178493775141 0 -0.019809490205594225 -0.0041620485561985792 0 -0.020449667935804886 -0.0028456288587050426 0 -0.020584447563921859 -0.0029031514493016858 0 -0.020185684319149445 -0.0010418652589857065 0 -0.02137904938020866 -0.00078192453769743142 0 -0.019934232905915849 -0.0050366624987516085 0 -0.019795983975166562 -0.0045024584987397049 0 -0.020360987460323252 -0.0043871325345855383 0 -0.01929166746686712 -0.004703675270180425 0 -0.019934232905915849 -0.0050366624987516085 0 -0.019795983975166562 -0.0045024584987397049 0 -0.019443307108624346 -0.0052151654575450651 0 -0.01929166746686712 -0.004703675270180425 0 -0.019934232905915849 -0.0050366624987516085 0 -0.01981265323377256 -0.00060974271859395304 0 -0.0179321625690709 -0.0047477223836569068 0 -0.019795983975166562 -0.0045024584987397049 0 -0.019596524450749487 -0.003867071676423168 0 -0.020360987460323252 -0.0043871325345855383 0 -0.01929166746686712 -0.004703675270180425 0 -0.019795983975166562 -0.0045024584987397049 0 -0.019596524450749487 -0.003867071676423168 0 -0.020436591991179802 0.00054823462366806769 0 -0.02137904938020866 -0.00078192453769743142 0 -0.02120134423676364 0.0007610512056115406 0 -0.020449667935804886 -0.0028456288587050426 0 -0.01981265323377256 -0.00060974271859395304 0 -0.02137904938020866 -0.00078192453769743142 0 -0.02120134423676364 0.0007610512056115406 0 -0.02216274552145394 0.0012110986775417361 0 -0.020436591991179802 0.00054823462366806769 0 -0.02120134423676364 0.0007610512056115406 0 -0.020828802329836166 0.0020526334830518766 0 -0.02120134423676364 0.0007610512056115406 0 -0.020828802329836166 0.0020526334830518766 0 -0.02216274552145394 0.0012110986775417361 0 -0.021187373565883811 0.0019499669959939594 0 -0.01981265323377256 -0.00060974271859395304 0 -0.021404954983854453 0.0021384083546495424 0 -0.020828802329836166 0.0020526334830518766 0 -0.021610872260221958 0.0015952885322598487 0 -0.016230686915838975 -0.0020134247325537726 0 -0.016221826947657468 -0.0019799595762230102 0 -0.016236335883556018 -0.0020166144675254471 0 -0.016230686915838975 -0.0020134247325537726 0 -0.016236335883556018 -0.0020166144675254471 0 -0.016253536287708262 -0.0020677361452123622 0 -0.01981265323377256 -0.00060974271859395304 0 -0.019053496412331537 0.00030538203550099086 0 -0.021404954983854453 0.0021384083546495424 0 -0.021610872260221958 0.0015952885322598487 0 -0.021918612180212522 0.0024053625550175175 0 -0.021404954983854453 0.0021384083546495424 0 -0.021918612180212522 0.0024053625550175175 0 -0.02130563086151983 0.0027710946700539537 0 -0.021918612180212522 0.0024053625550175175 0 -0.021704059013631788 0.0028521699219669055 0 -0.02130563086151983 0.0027710946700539537 0 -0.021501663000812854 0.0029717539810770761 0 -0.021704059013631788 0.0028521699219669055 0 -0.021626448621002207 0.003100163710349105 0 -0.016221826947657468 -0.0019799595762230102 0 -0.016227283926639819 -0.001982888301138277 0 -0.016210637712794889 -0.0019425259902429467 0 -0.021918612180212522 0.0024053625550175175 0 -0.021704059013631788 0.0028521699219669055 0 -0.022187742046381877 0.0032159903356762977 0 -0.019053496412331537 0.00030538203550099086 0 -0.015307276597898732 0.001725047754441468 0 -0.021404954983854453 0.0021384083546495424 0 -0.020828802329836166 0.0020526334830518766 0 -0.020913191368792355 0.0024432158086752785 0 -0.021404954983854453 0.0021384083546495424 0 -0.020913191368792355 0.0024432158086752785 0 -0.02130563086151983 0.0027710946700539537 0 -0.021501663000812854 0.0029717539810770761 0 -0.021704059013631788 0.0028521699219669055 0 -0.02130563086151983 0.0027710946700539537 0 -0.021501663000812854 0.0029717539810770761 0 -0.02130563086151983 0.0027710946700539537 0 -0.021371274104434686 0.0031598548956479665 0 -0.020913191368792355 0.0024432158086752785 0 -0.02130563086151983 0.0027710946700539537 0 -0.020893854464926337 0.0029683256903314478 0 -0.02130563086151983 0.0027710946700539537 0 -0.020893854464926337 0.0029683256903314478 0 -0.021145184196787396 0.0031528687641821178 0 -0.019869553061420638 0.001974699953576165 0 -0.020707549215779518 0.003615452009540361 0 -0.020712100968719407 0.0031183906422609189 0 -0.020913191368792355 0.0024432158086752785 0 -0.020893854464926337 0.0029683256903314478 0 -0.019869553061420638 0.001974699953576165 0 -0.020893854464926337 0.0029683256903314478 0 -0.019869553061420638 0.001974699953576165 0 -0.020712100968719407 0.0031183906422609189 0 -0.021099594562245291 0.0038504202603548165 0 -0.021288288348866591 0.00410341614947996 0 -0.020984270228907552 0.003767132236943888 0 -0.021288288348866591 0.00410341614947996 0 -0.020707549215779518 0.003615452009540361 0 -0.020984270228907552 0.003767132236943888 0 -0.020578028171396236 0.0029795278419509959 0 -0.020693823883768031 0.0035636668265787326 0 -0.020828802329836166 0.0020526334830518766 0 -0.020913191368792355 0.0024432158086752785 0 -0.019869553061420638 0.001974699953576165 0 -0.021099594562245291 0.0038504202603548165 0 -0.021120811116129519 0.0039603696635800816 0 -0.021288288348866591 0.00410341614947996 0 -0.021223987027181038 0.0039076178878442204 0 -0.021099594562245291 0.0038504202603548165 0 -0.021120811116129519 0.0039603696635800816 0 -0.021145933927007272 0.003856363590203863 0 -0.021223987027181038 0.0039076178878442204 0 -0.021120811116129519 0.0039603696635800816 0 -0.020757428414548692 0.0034051538060136128 0 -0.021120811116129519 0.0039603696635800816 0 -0.021288288348866591 0.00410341614947996 0 -0.021145933927007272 0.003856363590203863 0 -0.020757428414548692 0.0034051538060136128 0 -0.021120811116129519 0.0039603696635800816 0 -0.020436591991179802 0.00054823462366806769 0 -0.020828802329836166 0.0020526334830518766 0 -0.019869553061420638 0.001974699953576165 0 -0.0097578550768506588 -0.0083784843248254515 0 -0.0096967704371796401 -0.007726256947449237 0 -0.0094064822983451497 -0.0082183840086209256 0 -0.0095967031860805883 -0.0092764725632002876 0 -0.0093686803333592975 -0.0093446596879057271 0 -0.0094927844509134166 -0.0094667037086901464 0 -0.0095967031860805883 -0.0092764725632002876 0 -0.0093686803333592975 -0.0093446596879057271 0 -0.0093842984564871113 -0.0090943983371439621 0 -0.0091373095125544829 -0.009183730982804646 0 -0.0093686803333592975 -0.0093446596879057271 0 -0.0093842984564871113 -0.0090943983371439621 0 -0.0091373095125544829 -0.009183730982804646 0 -0.0091724930253217398 -0.0094143000978868258 0 -0.0089855977528008613 -0.0092963986621591756 0 -0.0091373095125544829 -0.009183730982804646 0 -0.0091724930253217398 -0.0094143000978868258 0 -0.0093686803333592975 -0.0093446596879057271 0 -0.0091724930253217398 -0.0094143000978868258 0 -0.0093686803333592975 -0.0093446596879057271 0 -0.0093415446635092339 -0.0096148387097615209 0 -0.0093686803333592975 -0.0093446596879057271 0 -0.0093415446635092339 -0.0096148387097615209 0 -0.0094927844509134166 -0.0094667037086901464 0 -0.0091724930253217398 -0.0094143000978868258 0 -0.0093415446635092339 -0.0096148387097615209 0 -0.0090065902103314503 -0.0095840179068279567 0 -0.0099300127001602182 -0.0053815093662794994 0 -0.011053364739705373 -0.0056187323823141243 0 -0.010455228506415139 -0.0045603155907198364 0 -0.0095821567537646649 -0.0074794427094411128 0 -0.010074955951916889 -0.0074613895421481715 0 -0.0099300127001602182 -0.0053815093662794994 0 -0.0093117182147093927 -0.005024309146813251 0 -0.0097052054055674249 -0.00450831359408167 0 -0.0095967031860805883 -0.0092764725632002876 0 -0.0094927844509134166 -0.0094667037086901464 0 -0.0096446343414616758 -0.0096324275231136278 0 -0.0095821567537646649 -0.0074794427094411128 0 -0.010127874007491352 -0.0041616957560492041 0 -0.0097427493150448029 -0.0097553005172364999 0 -0.010127874007491352 -0.0041616957560492041 0 -0.0099300127001602182 -0.0053815093662794994 0 -0.0093117182147093927 -0.005024309146813251 0 -0.0087464489950493281 -0.0051371862917702505 0 -0.0093415446635092339 -0.0096148387097615209 0 -0.0094927844509134166 -0.0094667037086901464 0 -0.0096446343414616758 -0.0096324275231136278 0 -0.010127874007491352 -0.0041616957560492041 0 -0.012261625533930289 -0.0013732122413346983 0 -0.012176424233703222 -0.003460115841411174 0 -0.01174128653948185 -0.0041403987757654579 0 -0.011566467227796784 -0.0033313255574635254 0 -0.010127874007491352 -0.0041616957560492041 0 -0.012979526347237513 -0.0052503853016742114 0 -0.012979526347237513 -0.0052503853016742114 0 -0.012261625533930289 -0.0013732122413346983 0 -0.016227283926639819 -0.001982888301138277 0 -0.016247824529319613 -0.0020274105280860951 0 -0.016229384962688685 -0.0019660657629360797 0 -0.016227283926639819 -0.001982888301138277 0 -0.016210637712794889 -0.0019425259902429467 0 -0.016229384962688685 -0.0019660657629360797 0 -0.016221826947657468 -0.0019799595762230102 0 -0.016227283926639819 -0.001982888301138277 0 -0.016236335883556018 -0.0020166144675254471 0 -0.016227283926639819 -0.001982888301138277 0 -0.016236335883556018 -0.0020166144675254471 0 -0.016247824529319613 -0.0020274105280860951 0 -0.016236335883556018 -0.0020166144675254471 0 -0.016247824529319613 -0.0020274105280860951 0 -0.016253536287708262 -0.0020677361452123622 0 -0.0097578550768506588 -0.0083784843248254515 0 -0.0094064822983451497 -0.0082183840086209256 0 -0.0095372814605742713 -0.0086199500285911064 0 -0.012979526347237513 -0.0052503853016742114 0 -0.0179321625690709 -0.0047477223836569068 0 -0.012979526347237513 -0.0052503853016742114 0 -0.012052957172270277 -0.0075843089012390952 0 -0.014484830242156526 -0.0061656131569272033 0 -0.014497385027902713 -0.0062009733717170914 0 -0.014487915365345945 -0.0061989990411579462 0 -0.014497385027902713 -0.0062009733717170914 0 -0.014487915365345945 -0.0061989990411579462 0 -0.014500149685824632 -0.0062379366206111774 0 -0.012052957172270277 -0.0075843089012390952 0 -0.013338980700342971 -0.0077449126769389386 0 -0.019836431651552189 -0.0055489002447321658 0 -0.0179321625690709 -0.0047477223836569068 0 -0.019416199170095343 -0.0060516258527134716 0 -0.019116158393497354 -0.0064845365440459428 0 -0.018964259618647887 -0.0059288971222799603 0 -0.019116158393497354 -0.0064845365440459428 0 -0.018637553127682241 -0.006218942788486735 0 -0.018964259618647887 -0.0059288971222799603 0 -0.0179321625690709 -0.0047477223836569068 0 -0.013338980700342971 -0.0077449126769389386 0 -0.009685978385565364 -0.008701946723153442 0 -0.0094273267922115878 -0.0086562482817486922 0 -0.0094875585473119545 -0.0084028533923432239 0 -0.013338980700342971 -0.0077449126769389386 0 -0.0085411467772114284 -0.0083822103331052233 0 -0.009685978385565364 -0.008701946723153442 0 -0.0096050678815403322 -0.0087637573338771903 0 -0.0094273267922115878 -0.0086562482817486922 0 -0.0097427493150448029 -0.0097553005172364999 0 -0.0095752555377923293 -0.0083800655159536261 0 -0.0095967031860805883 -0.0092764725632002876 0 -0.0096050678815403322 -0.0087637573338771903 0 -0.0093842984564871113 -0.0090943983371439621 0 -0.0095372814605742713 -0.0086199500285911064 0 -0.009685978385565364 -0.008701946723153442 0 -0.0096050678815403322 -0.0087637573338771903 0 -0.0097578550768506588 -0.0083784843248254515 0 -0.0095372814605742713 -0.0086199500285911064 0 -0.0096050678815403322 -0.0087637573338771903 0 -0.0096050678815403322 -0.0087637573338771903 0 -0.0093842984564871113 -0.0090943983371439621 0 -0.0092093283262474259 -0.0088859346734396927 0 -0.0091373095125544829 -0.009183730982804646 0 -0.0093842984564871113 -0.0090943983371439621 0 -0.0092093283262474259 -0.0088859346734396927 0 -0.0091373095125544829 -0.009183730982804646 0 -0.0092093283262474259 -0.0088859346734396927 0 -0.0089061454642690493 -0.009039202201976777 0 -0.0096050678815403322 -0.0087637573338771903 0 -0.0092093283262474259 -0.0088859346734396927 0 -0.0094273267922115878 -0.0086562482817486922 0 -0.0092093283262474259 -0.0088859346734396927 0 -0.0094273267922115878 -0.0086562482817486922 0 -0.0089697076318393607 -0.0085566664428889105 0 -0.0094273267922115878 -0.0086562482817486922 0 -0.0094875585473119545 -0.0084028533923432239 0 -0.0089697076318393607 -0.0085566664428889105 0 -0.0080312905074855778 -0.0093402656059043705 0 -0.0087800540709302606 -0.0088547822877725127 0 -0.0093839259620284096 -0.0080153774905363136 0 -0.0094875585473119545 -0.0084028533923432239 0 -0.0089697076318393607 -0.0085566664428889105 0 -0.0082771353879448582 -0.009623168701683572 0 -0.0082490207187854436 -0.0096545468248833231 0 -0.0082610848124481887 -0.0094143795272963997 0 -0.0082771353879448582 -0.009623168701683572 0 -0.0082490207187854436 -0.0096545468248833231 0 -0.0082745363607063527 -0.0096733520747681444 0 -0.0093839259620284096 -0.0080153774905363136 0 -0.0094875585473119545 -0.0084028533923432239 0 -0.0098649669023134108 -0.0081586866756049956 0 -0.013338980700342971 -0.0077449126769389386 0 -0.014424355919144856 -0.0067675197667366122 0 -0.010557902418512718 -0.0090714086119531075 0 -0.0094875585473119545 -0.0084028533923432239 0 -0.0098649669023134108 -0.0081586866756049956 0 -0.010557902418512718 -0.0090714086119531075 0 -0.010330649079683105 -0.0081229682932948358 0 -0.0098649669023134108 -0.0081586866756049956 0 -0.010330649079683105 -0.0081229682932948358 0 -0.0098649669023134108 -0.0081586866756049956 0 -0.0099287727424582552 -0.0078725125243534096 0 -0.0093839259620284096 -0.0080153774905363136 0 -0.0098649669023134108 -0.0081586866756049956 0 -0.0099287727424582552 -0.0078725125243534096 0 -0.0093839259620284096 -0.0080153774905363136 0 -0.0099287727424582552 -0.0078725125243534096 0 -0.010151607321073102 -0.0071877295319266038 0 -0.018547872874736922 -0.0058176928373824231 0 -0.018434847099844508 -0.0053941041196098848 0 -0.018682456720233387 -0.0055716064559116815 0 -0.010330649079683105 -0.0081229682932948358 0 -0.0099287727424582552 -0.0078725125243534096 0 -0.010151607321073102 -0.0071877295319266038 0 -0.0080312905074855778 -0.0093402656059043705 0 -0.014958524303197331 -0.0074579876462481133 0 -0.014424355919144856 -0.0067675197667366122 0 -0.014958524303197331 -0.0074579876462481133 0 -0.0083255419193437961 -0.0096663648146197712 0 -0.0082936468190932672 -0.0096855017348037482 0 -0.0082924700427188299 -0.009728196407106704 0 -0.0082936468190932672 -0.0096855017348037482 0 -0.0082880196940080843 -0.0097073618268275399 0 -0.0082924700427188299 -0.009728196407106704 0 -0.0082936468190932672 -0.0096855017348037482 0 -0.0082880196940080843 -0.0097073618268275399 0 -0.0082745363607063527 -0.0096733520747681444 0 -0.0082880196940080843 -0.0097073618268275399 0 -0.0082745363607063527 -0.0096733520747681444 0 -0.0082931898441077033 -0.0096698689351557739 0 -0.0082771353879448582 -0.009623168701683572 0 -0.0082745363607063527 -0.0096733520747681444 0 -0.0082931898441077033 -0.0096698689351557739 0 -0.0082490207187854436 -0.0096545468248833231 0 -0.0083255419193437961 -0.0096663648146197712 0 -0.0082936468190932672 -0.0096855017348037482 0 -0.0082490207187854436 -0.0096545468248833231 0 -0.0082936468190932672 -0.0096855017348037482 0 -0.0082745363607063527 -0.0096733520747681444 0 -0.019313904892120769 -0.005832967913567572 0 -0.018964259618647887 -0.0059288971222799603 0 -0.018975072425726627 -0.0054792839721628309 0 -0.019416199170095343 -0.0060516258527134716 0 -0.019313904892120769 -0.005832967913567572 0 -0.018964259618647887 -0.0059288971222799603 0 -0.018547872874736922 -0.0058176928373824231 0 -0.018964259618647887 -0.0059288971222799603 0 -0.018682456720233387 -0.0055716064559116815 0 -0.018637553127682241 -0.006218942788486735 0 -0.018547872874736922 -0.0058176928373824231 0 -0.018964259618647887 -0.0059288971222799603 0 -0.014958524303197331 -0.0074579876462481133 0 -0.020345970056282678 -0.005625610849732272 0 -0.018434847099844508 -0.0053941041196098848 0 -0.018682456720233387 -0.0055716064559116815 0 -0.018975072425726627 -0.0054792839721628309 0 -0.018964259618647887 -0.0059288971222799603 0 -0.018682456720233387 -0.0055716064559116815 0 -0.018975072425726627 -0.0054792839721628309 0 -0.019469970219727267 -0.0056623922376653115 0 -0.019313904892120769 -0.005832967913567572 0 -0.018975072425726627 -0.0054792839721628309 0 -0.019147525663068054 -0.0056085377585850032 0 -0.020345970056282678 -0.005625610849732272 0 -0.019469970219727267 -0.0056623922376653115 0 -0.019982875065569564 -0.0058194583457958316 0 -0.019620582069961059 -0.0059767100537375002 0 -0.019982875065569564 -0.0058194583457958316 0 -0.019757564292545948 -0.0062082538236595862 0 -0.019620582069961059 -0.0059767100537375002 0 -0.019982875065569564 -0.0058194583457958316 0 -0.019757564292545948 -0.0062082538236595862 0 -0.020045148695274507 -0.0063894750223870101 0 -0.019522439630347319 -0.0062745781190682633 0 -0.019757564292545948 -0.0062082538236595862 0 -0.019620582069961059 -0.0059767100537375002 0 -0.018158311069988099 -0.0082928109846260815 0 -0.018904204233661501 -0.007538278310829722 0 -0.018317533265479458 -0.0078957258715012472 0 -0.020383421962617599 -0.0059242160041558991 0 -0.019982875065569564 -0.0058194583457958316 0 -0.020045148695274507 -0.0063894750223870101 0 -0.014958524303197331 -0.0074579876462481133 0 -0.020294556944679205 -0.006672251715344411 0 -0.018852723615633615 -0.0070534689407308233 0 -0.018904204233661501 -0.007538278310829722 0 -0.018021385868322384 -0.0075420222261089395 0 -0.01934823066287631 -0.0069747949101580855 0 -0.020045148695274507 -0.0063894750223870101 0 -0.019610580925847648 -0.0065273426040393292 0 -0.018852723615633615 -0.0070534689407308233 0 -0.01934823066287631 -0.0069747949101580855 0 -0.018904204233661501 -0.007538278310829722 0 -0.019063450942346034 -0.0071530995359192773 0 -0.020294556944679205 -0.006672251715344411 0 -0.019757564292545948 -0.0062082538236595862 0 -0.020045148695274507 -0.0063894750223870101 0 -0.019610580925847648 -0.0065273426040393292 0 -0.019522439630347319 -0.0062745781190682633 0 -0.019757564292545948 -0.0062082538236595862 0 -0.019610580925847648 -0.0065273426040393292 0 -0.0098088829926806162 -0.0099563746493979179 0 -0.015070125918529539 -0.0091128981561317893 0 -0.014958524303197331 -0.0074579876462481133 0 -0.0098088829926806162 -0.0099563746493979179 0 -0.014045719472705406 -0.0097219395017788465 0 -0.011740856483544532 -0.0090899875345888774 0 -0.013626113959093385 -0.0077547045769625102 0 -0.012086706765147654 -0.011769257255552426 0 -0.013912034754261244 -0.010730986698506667 0 -0.012372007355053404 -0.010489555415863253 0 -0.014958524303197331 -0.0074579876462481133 0 -0.015070125918529539 -0.0091128981561317893 0 -0.018158311069988099 -0.0082928109846260815 0 -0.018317533265479458 -0.0078957258715012472 0 -0.018021385868322384 -0.0075420222261089395 0 -0.018904204233661501 -0.007538278310829722 0 -0.018317533265479458 -0.0078957258715012472 0 -0.018021385868322384 -0.0075420222261089395 0 -0.015077820275974069 -0.0088588128598575643 0 -0.017023522107962527 -0.0091170024524698107 0 -0.014147698536602202 -0.011250377193929354 0 -0.018095301398305435 -0.0080627891569004535 0 -0.015070125918529539 -0.0091128981561317893 0 -0.015077820275974069 -0.0088588128598575643 0 -0.014147698536602202 -0.011250377193929354 0 -0.013808233073388727 -0.009743170704535991 0 -0.015070125918529539 -0.0091128981561317893 0 -0.014277879150238641 -0.010205781803542898 0 -0.013912034754261244 -0.010730986698506667 0 -0.013808233073388727 -0.009743170704535991 0 -0.012372007355053404 -0.010489555415863253 0 -0.012720826791396307 -0.009663674483723508 0 -0.013808233073388727 -0.009743170704535991 0 -0.012372007355053404 -0.010489555415863253 0 -0.011161520730019288 -0.009905024853837362 0 -0.012372007355053404 -0.010489555415863253 0 -0.011286195384558032 -0.010638820967069567 0 -0.011161520730019288 -0.009905024853837362 0 -0.012720826791396307 -0.009663674483723508 0 -0.012372007355053404 -0.010489555415863253 0 -0.011161520730019288 -0.009905024853837362 0 -0.011286195384558032 -0.010638820967069567 0 -0.010336577553485837 -0.010141852394921463 0 -0.012086706765147654 -0.011769257255552426 0 -0.012372007355053404 -0.010489555415863253 0 -0.011286195384558032 -0.010638820967069567 0 -0.0083001464199056584 -0.0097487546899814124 0 -0.008406929597729115 -0.0098796967967542774 0 -0.0083812330855077711 -0.0097111135558122699 0 -0.0098088829926806162 -0.0099563746493979179 0 -0.0096461112804309031 -0.010536424738627224 0 -0.0082768302525682569 -0.0097613453381599612 0 -0.0083001464199056584 -0.0097487546899814124 0 -0.008406929597729115 -0.0098796967967542774 0 -0.012086706765147654 -0.011769257255552426 0 -0.011286195384558032 -0.010638820967069567 0 -0.010590019112619817 -0.011160324012860537 0 -0.0082880196940080843 -0.0097073618268275399 0 -0.0082924700427188299 -0.009728196407106704 0 -0.0083001464199056584 -0.0097487546899814124 0 -0.0098088829926806162 -0.0099563746493979179 0 -0.0092401656413178736 -0.010139116243551505 0 -0.008406929597729115 -0.0098796967967542774 0 -0.0090911654847221964 -0.0099658081674659192 0 -0.0087126575825847187 -0.0098022684772170049 0 -0.0096461112804309031 -0.010536424738627224 0 -0.0091135253321344804 -0.010094062227756348 0 -0.008406929597729115 -0.0098796967967542774 0 -0.0087126575825847187 -0.0098022684772170049 0 -0.0085119307908054758 -0.0097264834230828927 0 -0.011286195384558032 -0.010638820967069567 0 -0.010590019112619817 -0.011160324012860537 0 -0.010336577553485837 -0.010141852394921463 0 -0.010590019112619817 -0.011160324012860537 0 -0.010336577553485837 -0.010141852394921463 0 -0.0090911654847221964 -0.0099658081674659192 0 -0.0098033854216109263 -0.0099675658623474758 0 -0.0090911654847221964 -0.0099658081674659192 0 -0.008739094065407748 -0.0098347433738751131 0 -0.0089951045832572379 -0.0082961853902871543 0 -0.0082932725930263389 -0.0088381589429310202 0 -0.008739094065407748 -0.0098347433738751131 0 -0.0098033854216109263 -0.0099675658623474758 0 -0.010336577553485837 -0.010141852394921463 0 -0.0090911654847221964 -0.0099658081674659192 0 -0.0093417808282046551 -0.0091556105310284762 0 -0.0088279732652071143 -0.00987214146464435 0 -0.0077525295998004222 -0.0082415421181228788 0 -0.0082932725930263389 -0.0088381589429310202 0 -0.0076163874331247779 -0.0089913558886946434 0 -0.0077525295998004222 -0.0082415421181228788 0 -0.0083272932836889208 -0.0081282883636339051 0 -0.0082932725930263389 -0.0088381589429310202 0 -0.0083272932836889208 -0.0081282883636339051 0 -0.0089951045832572379 -0.0082961853902871543 0 -0.0082932725930263389 -0.0088381589429310202 0 -0.0082932725930263389 -0.0088381589429310202 0 -0.0081773365726282021 -0.0094610397975996557 0 -0.0076163874331247779 -0.0089913558886946434 0 -0.0082932725930263389 -0.0088381589429310202 0 -0.0081773365726282021 -0.0094610397975996557 0 -0.008739094065407748 -0.0098347433738751131 0 -0.0081773365726282021 -0.0094610397975996557 0 -0.008739094065407748 -0.0098347433738751131 0 -0.008346032749179973 -0.0097717832714776954 0 -0.0081773365726282021 -0.0094610397975996557 0 -0.008346032749179973 -0.0097717832714776954 0 -0.0078192861139180329 -0.0096249317370838382 0 -0.0090911654847221964 -0.0099658081674659192 0 -0.008739094065407748 -0.0098347433738751131 0 -0.0087126575825847187 -0.0098022684772170049 0 -0.008739094065407748 -0.0098347433738751131 0 -0.0087126575825847187 -0.0098022684772170049 0 -0.0085705096979951812 -0.0097778249892523511 0 -0.0085705096979951812 -0.0097778249892523511 0 -0.0084085478167585676 -0.0097425741497570578 0 -0.0085119307908054758 -0.0097264834230828927 0 -0.0087126575825847187 -0.0098022684772170049 0 -0.0085705096979951812 -0.0097778249892523511 0 -0.0085119307908054758 -0.0097264834230828927 0 -0.0085705096979951812 -0.0097778249892523511 0 -0.008346032749179973 -0.0097717832714776954 0 -0.008335780850303131 -0.0098431820112992088 0 -0.008739094065407748 -0.0098347433738751131 0 -0.0085705096979951812 -0.0097778249892523511 0 -0.008346032749179973 -0.0097717832714776954 0 -0.0085705096979951812 -0.0097778249892523511 0 -0.0084085478167585676 -0.0097425741497570578 0 -0.008335780850303131 -0.0098431820112992088 0 -0.008346032749179973 -0.0097717832714776954 0 -0.0080730681262949633 -0.0098874841843639861 0 -0.0078192861139180329 -0.0096249317370838382 0 -0.008346032749179973 -0.0097717832714776954 0 -0.008335780850303131 -0.0098431820112992088 0 -0.0080730681262949633 -0.0098874841843639861 0 -0.008335780850303131 -0.0098431820112992088 0 -0.0080730681262949633 -0.0098874841843639861 0 -0.0082957526533942675 -0.0099494866935444619 0 -0.008335780850303131 -0.0098431820112992088 0 -0.0082957526533942675 -0.0099494866935444619 0 -0.0081979097049674748 -0.0096960203515185726 0 -0.0084085478167585676 -0.0097425741497570578 0 -0.0081979097049674748 -0.0096960203515185726 0 -0.0084079435221625053 -0.009674286135147479 0 -0.0084085478167585676 -0.0097425741497570578 0 -0.008335780850303131 -0.0098431820112992088 0 -0.0081979097049674748 -0.0096960203515185726 0 -0.0081979097049674748 -0.0096960203515185726 0 -0.0084079435221625053 -0.009674286135147479 0 -0.0078821521351079074 -0.0092708014528488404 0 -0.0083012129707604708 -0.010034541326834664 0 -0.0083726089445891379 -0.0080591969748861157 0 -0.0084079435221625053 -0.009674286135147479 0 -0.0083386931166722685 -0.0096324568607012943 0 -0.0084620913916595934 -0.0093640768575942689 0 -0.0083386931166722685 -0.0096324568607012943 0 -0.0082610848124481887 -0.0094143795272963997 0 -0.0084620913916595934 -0.0093640768575942689 0 -0.0082771353879448582 -0.009623168701683572 0 -0.0083386931166722685 -0.0096324568607012943 0 -0.0082931898441077033 -0.0096698689351557739 0 -0.0082771353879448582 -0.009623168701683572 0 -0.0083386931166722685 -0.0096324568607012943 0 -0.0082610848124481887 -0.0094143795272963997 0 -0.0083386931166722685 -0.0096324568607012943 0 -0.0083201421990305013 -0.0097006447971819242 0 -0.0083812330855077711 -0.0097111135558122699 0 -0.0083386931166722685 -0.0096324568607012943 0 -0.0082931898441077033 -0.0096698689351557739 0 -0.0083201421990305013 -0.0097006447971819242 0 -0.0082880196940080843 -0.0097073618268275399 0 -0.0082931898441077033 -0.0096698689351557739 0 -0.0083201421990305013 -0.0097006447971819242 0 -0.0082880196940080843 -0.0097073618268275399 0 -0.0083001464199056584 -0.0097487546899814124 0 -0.0083201421990305013 -0.0097006447971819242 0 -0.0083001464199056584 -0.0097487546899814124 0 -0.0083201421990305013 -0.0097006447971819242 0 -0.0083812330855077711 -0.0097111135558122699 0 -0.008406929597729115 -0.0098796967967542774 0 -0.0083812330855077711 -0.0097111135558122699 0 -0.0085119307908054758 -0.0097264834230828927 0 -0.0084085478167585676 -0.0097425741497570578 0 -0.0084079435221625053 -0.009674286135147479 0 -0.0085119307908054758 -0.0097264834230828927 0 -0.0084079435221625053 -0.009674286135147479 0 -0.0083386931166722685 -0.0096324568607012943 0 -0.0083812330855077711 -0.0097111135558122699 0 -0.0084079435221625053 -0.009674286135147479 0 -0.0083812330855077711 -0.0097111135558122699 0 -0.0085119307908054758 -0.0097264834230828927 0 -0.0048061520302888046 -0.0085316040209638261 0 -0.0058225426708596725 -0.0090231633199249778 0 -0.004702260108634981 -0.0084830797091257019 0 -0.0048629256217850303 -0.0087682162290471273 0 -0.0057275227522320671 -0.0084664789583319029 0 -0.004702260108634981 -0.0084830797091257019 0 -0.0055165534638506371 -0.0086109033311867044 0 -0.0049626600544164868 -0.0082008670894940672 0 -0.004702260108634981 -0.0084830797091257019 0 -0.0055165534638506371 -0.0086109033311867044 0 -0.0058897546187779157 -0.0095919244076564675 0 -0.0045695000429050057 -0.0076293465457058108 0 -0.0049626600544164868 -0.0082008670894940672 0 -0.0056121881029343249 -0.0080992341898315466 0 -0.0055165534638506371 -0.0086109033311867044 0 -0.0049626600544164868 -0.0082008670894940672 0 -0.0056121881029343249 -0.0080992341898315466 0 -0.0055165534638506371 -0.0086109033311867044 0 -0.0056121881029343249 -0.0080992341898315466 0 -0.0065332019500376481 -0.0086888909169247942 0 -0.0063112202587272698 -0.0078100265230414195 0 -0.0056121881029343249 -0.0080992341898315466 0 -0.0065332019500376481 -0.0086888909169247942 0 -0.0055165534638506371 -0.0086109033311867044 0 -0.0065332019500376481 -0.0086888909169247942 0 -0.0058897546187779157 -0.0095919244076564675 0 -0.0070659022153267562 -0.0094068282336309279 0 -0.0065332019500376481 -0.0086888909169247942 0 -0.0076163874331247779 -0.0089913558886946434 0 -0.0070659022153267562 -0.0094068282336309279 0 -0.0065332019500376481 -0.0086888909169247942 0 -0.0058897546187779157 -0.0095919244076564675 0 -0.0065332019500376481 -0.0086888909169247942 0 -0.0076163874331247779 -0.0089913558886946434 0 -0.0071696129634884649 -0.0082851596888354438 0 -0.0063112202587272698 -0.0078100265230414195 0 -0.0065332019500376481 -0.0086888909169247942 0 -0.0071696129634884649 -0.0082851596888354438 0 -0.0077525295998004222 -0.0082415421181228788 0 -0.0076163874331247779 -0.0089913558886946434 0 -0.0071696129634884649 -0.0082851596888354438 0 -0.0081773365726282021 -0.0094610397975996557 0 -0.0076163874331247779 -0.0089913558886946434 0 -0.0078192861139180329 -0.0096249317370838382 0 -0.0070659022153267562 -0.0094068282336309279 0 -0.0076163874331247779 -0.0089913558886946434 0 -0.0078192861139180329 -0.0096249317370838382 0 -0.0080730681262949633 -0.0098874841843639861 0 -0.0078192861139180329 -0.0096249317370838382 0 -0.0072918881541348722 -0.010158291529173767 0 -0.0070659022153267562 -0.0094068282336309279 0 -0.0078192861139180329 -0.0096249317370838382 0 -0.0072918881541348722 -0.010158291529173767 0 -0.0080730681262949633 -0.0098874841843639861 0 -0.0082957526533942675 -0.0099494866935444619 0 -0.0072918881541348722 -0.010158291529173767 0 -0.0071654926034174391 -0.0087897785154363618 0 -0.0065147537465142262 -0.0085700642850599449 0 -0.0063939433869982963 -0.0090046174338264517 0 -0.00768479188036327 -0.0093641568643021544 0 -0.0068952426678856212 -0.0093438293698958411 0 -0.0065147537465142262 -0.0085700642850599449 0 -0.0057584609033187973 -0.0089441648413562929 0 -0.0063939433869982963 -0.0090046174338264517 0 -0.0070659022153267562 -0.0094068282336309279 0 -0.0072918881541348722 -0.010158291529173767 0 -0.0058897546187779157 -0.0095919244076564675 0 -0.0068952426678856212 -0.0093438293698958411 0 -0.0058225426708596725 -0.0090231633199249778 0 -0.0065147537465142262 -0.0085700642850599449 0 -0.0057275227522320671 -0.0084664789583319029 0 -0.0057584609033187973 -0.0089441648413562929 0 -0.0057275227522320671 -0.0084664789583319029 0 -0.0057584609033187973 -0.0089441648413562929 0 -0.0053027386401029676 -0.0088249360495841513 0 -0.0057584609033187973 -0.0089441648413562929 0 -0.0053027386401029676 -0.0088249360495841513 0 -0.0053424336391324516 -0.0090575295227438048 0 -0.0048629256217850303 -0.0087682162290471273 0 -0.0057275227522320671 -0.0084664789583319029 0 -0.0053027386401029676 -0.0088249360495841513 0 -0.0044835024721063526 -0.00829534731734736 0 -0.0064138605101270174 -0.00941509057042734 0 -0.0052801871348640284 -0.0094640539767303824 0 -0.0057850357468300067 -0.0094982225073835334 0 -0.0056393262044787517 -0.0092219400108412442 0 -0.0064068159283959206 -0.0092342913478328497 0 -0.0065052582897898188 -0.0092577516930415129 0 -0.0065003470536958829 -0.00928988744942413 0 -0.0057584609033187973 -0.0089441648413562929 0 -0.0053424336391324516 -0.0090575295227438048 0 -0.0056393262044787517 -0.0092219400108412442 0 -0.0052801871348640284 -0.0094640539767303824 0 -0.0053424336391324516 -0.0090575295227438048 0 -0.0056393262044787517 -0.0092219400108412442 0 -0.0057584609033187973 -0.0089441648413562929 0 -0.0060269954612454674 -0.0091537033143466364 0 -0.0063939433869982963 -0.0090046174338264517 0 -0.0057584609033187973 -0.0089441648413562929 0 -0.0056393262044787517 -0.0092219400108412442 0 -0.0060269954612454674 -0.0091537033143466364 0 -0.0060269954612454674 -0.0091537033143466364 0 -0.0064716976727889619 -0.0093270856591682536 0 -0.0063939433869982963 -0.0090046174338264517 0 -0.0057850357468300067 -0.0094982225073835334 0 -0.0060269954612454674 -0.0091537033143466364 0 -0.0064716976727889619 -0.0093270856591682536 0 -0.0064138605101270174 -0.00941509057042734 0 -0.0063137896622490431 -0.0093356532855025914 0 -0.0057850357468300067 -0.0094982225073835334 0 -0.0056393262044787517 -0.0092219400108412442 0 -0.0060269954612454674 -0.0091537033143466364 0 -0.0064716976727889619 -0.0093270856591682536 0 -0.0063939433869982963 -0.0090046174338264517 0 -0.0068146817577214597 -0.0092068175017050204 0 -0.0071654926034174391 -0.0087897785154363618 0 -0.0063939433869982963 -0.0090046174338264517 0 -0.0068146817577214597 -0.0092068175017050204 0 -0.0068146817577214597 -0.0092068175017050204 0 -0.0070188434723189681 -0.0092074009948900411 0 -0.007296085316002697 -0.0092350337658992938 0 -0.0068146817577214597 -0.0092068175017050204 0 -0.0070188434723189681 -0.0092074009948900411 0 -0.0066774077376446561 -0.00927610726255702 0 -0.0070188434723189681 -0.0092074009948900411 0 -0.0067626674932784502 -0.0092621931514917395 0 -0.0066774077376446561 -0.00927610726255702 0 -0.0070188434723189681 -0.0092074009948900411 0 -0.0067626674932784502 -0.0092621931514917395 0 -0.0071493590252640956 -0.0092474330588877812 0 -0.0067626674932784502 -0.0092621931514917395 0 -0.0066774077376446561 -0.00927610726255702 0 -0.0066076627102991878 -0.009305113369684561 0 -0.0066774077376446561 -0.00927610726255702 0 -0.0065527936830516434 -0.0092812316487881283 0 -0.0066076627102991878 -0.009305113369684561 0 -0.0064716976727889619 -0.0093270856591682536 0 -0.0066774077376446561 -0.00927610726255702 0 -0.0065527936830516434 -0.0092812316487881283 0 -0.0064716976727889619 -0.0093270856591682536 0 -0.0068146817577214597 -0.0092068175017050204 0 -0.0066774077376446561 -0.00927610726255702 0 -0.0065052582897898188 -0.0092577516930415129 0 -0.0064716976727889619 -0.0093270856591682536 0 -0.0065527936830516434 -0.0092812316487881283 0 -0.0065052582897898188 -0.0092577516930415129 0 -0.0065527936830516434 -0.0092812316487881283 0 -0.0065003470536958829 -0.00928988744942413 0 -0.0059917239246833152 -0.0086546136367702149 0 -0.0053328946489398284 -0.0079100133312971325 0 -0.0053555039242467045 -0.0079266101604039928 0 -0.0038911935606321113 -0.0078482047158597631 0 -0.0041848680167404558 -0.0067802891754228873 0 -0.0065527936830516434 -0.0092812316487881283 0 -0.0066076627102991878 -0.009305113369684561 0 -0.0065003470536958829 -0.00928988744942413 0 -0.0028378848943410905 -0.0071603668691777233 0 -0.0038911935606321113 -0.0078482047158597631 0 -0.0041848680167404558 -0.0067802891754228873 0 -0.0030705952380365355 -0.0056507910772710286 0 -0.0028378848943410905 -0.0071603668691777233 0 -0.0041848680167404558 -0.0067802891754228873 0 -0.0044835024721063526 -0.00829534731734736 0 -0.0053328946489398284 -0.0079100133312971325 0 -0.0085633740849868564 -0.0054727997997232082 0 -0.0081535234567026594 -0.0069718099241854372 0 -0.0093402208553167165 -0.0067504170834530612 0 -0.0083726089445891379 -0.0080591969748861157 0 -0.0089702633885150786 -0.008007258848449831 0 -0.0086346537029336843 -0.009067727938644566 0 -0.0086659831977354152 -0.0091385762897217178 0 -0.0086980831249148724 -0.0091316442086693383 0 -0.0086346537029336843 -0.009067727938644566 0 -0.0089061454642690493 -0.009039202201976777 0 -0.0086980831249148724 -0.0091316442086693383 0 -0.0089061454642690493 -0.009039202201976777 0 -0.0086980831249148724 -0.0091316442086693383 0 -0.008931096844539672 -0.0091598274081090732 0 -0.0091373095125544829 -0.009183730982804646 0 -0.0089061454642690493 -0.009039202201976777 0 -0.008931096844539672 -0.0091598274081090732 0 -0.0086346537029336843 -0.009067727938644566 0 -0.0089061454642690493 -0.009039202201976777 0 -0.0089697076318393607 -0.0085566664428889105 0 -0.0092093283262474259 -0.0088859346734396927 0 -0.0089061454642690493 -0.009039202201976777 0 -0.0089697076318393607 -0.0085566664428889105 0 -0.0085708865739324951 -0.0091038139311786503 0 -0.0087800540709302606 -0.0088547822877725127 0 -0.0086346537029336843 -0.009067727938644566 0 -0.0082610848124481887 -0.0094143795272963997 0 -0.0084620913916595934 -0.0093640768575942689 0 -0.0084079435221625053 -0.009674286135147479 0 -0.0084620913916595934 -0.0093640768575942689 0 -0.0086659831977354152 -0.0091385762897217178 0 -0.0086346537029336843 -0.009067727938644566 0 -0.0084620913916595934 -0.0093640768575942689 0 -0.0086659831977354152 -0.0091385762897217178 0 -0.0081979097049674748 -0.0096960203515185726 0 -0.0078821521351079074 -0.0092708014528488404 0 -0.0078533320542851347 -0.0092381242177375592 0 -0.00768479188036327 -0.0093641568643021544 0 -0.0078294502228849604 -0.0092533251868564034 0 -0.0082957526533942675 -0.0099494866935444619 0 -0.0081979097049674748 -0.0096960203515185726 0 -0.0078533320542851347 -0.0092381242177375592 0 -0.0071654926034174391 -0.0087897785154363618 0 -0.0078533320542851347 -0.0092381242177375592 0 -0.007296085316002697 -0.0092350337658992938 0 -0.0071654926034174391 -0.0087897785154363618 0 -0.0068146817577214597 -0.0092068175017050204 0 -0.007296085316002697 -0.0092350337658992938 0 -0.0083726089445891379 -0.0080591969748861157 0 -0.0078092700766217386 -0.0079505932271966406 0 -0.0078821521351079074 -0.0092708014528488404 0 -0.0078533320542851347 -0.0092381242177375592 0 -0.0074318487934365096 -0.0092242119840514249 0 -0.0078533320542851347 -0.0092381242177375592 0 -0.007296085316002697 -0.0092350337658992938 0 -0.0074318487934365096 -0.0092242119840514249 0 -0.007296085316002697 -0.0092350337658992938 0 -0.0074318487934365096 -0.0092242119840514249 0 -0.0073622321172736316 -0.0091309143986061467 0 -0.0070188434723189681 -0.0092074009948900411 0 -0.007296085316002697 -0.0092350337658992938 0 -0.0073622321172736316 -0.0091309143986061467 0 -0.0070188434723189681 -0.0092074009948900411 0 -0.0073622321172736316 -0.0091309143986061467 0 -0.0071493590252640956 -0.0092474330588877812 0 -0.0073622321172736316 -0.0091309143986061467 0 -0.0075842964254592875 -0.008964789883361796 0 -0.0071493590252640956 -0.0092474330588877812 0 -0.0081535234567026594 -0.0069718099241854372 0 -0.0089004749049931501 -0.0075521582857100006 0 -0.0075842964254592875 -0.008964789883361796 0 -0.0078092700766217386 -0.0079505932271966406 0 -0.0075823257068786025 -0.0089982183382226761 0 -0.0074318487934365096 -0.0092242119840514249 0 -0.0073622321172736316 -0.0091309143986061467 0 -0.0075842964254592875 -0.008964789883361796 0 -0.0087604925738636753 -0.0084869868276277825 0 -0.0089004749049931501 -0.0075521582857100006 0 -0.0075842964254592875 -0.008964789883361796 0 -0.0087604925738636753 -0.0084869868276277825 0 -0.0089004749049931501 -0.0075521582857100006 0 -0.0098475235104974138 -0.0078155695203646503 0 -0.0081535234567026594 -0.0069718099241854372 0 -0.0089004749049931501 -0.0075521582857100006 0 -0.0093402208553167165 -0.0067504170834530612 0 -0.0089004749049931501 -0.0075521582857100006 0 -0.0093402208553167165 -0.0067504170834530612 0 -0.0098475235104974138 -0.0078155695203646503 0 -0.0089702633885150786 -0.008007258848449831 0 -0.010074955951916889 -0.0074613895421481715 0 -0.0086980831249148724 -0.0091316442086693383 0 -0.0089855977528008613 -0.0092963986621591756 0 -0.0090065902103314503 -0.0095840179068279567 0 -0.0093402208553167165 -0.0067504170834530612 0 -0.0097477263350446812 -0.007800511668635538 0 -0.0098475235104974138 -0.0078155695203646503 0 -0.0091373095125544829 -0.009183730982804646 0 -0.008931096844539672 -0.0091598274081090732 0 -0.0089855977528008613 -0.0092963986621591756 0 -0.0086980831249148724 -0.0091316442086693383 0 -0.008931096844539672 -0.0091598274081090732 0 -0.0089855977528008613 -0.0092963986621591756 0 -0.0091724930253217398 -0.0094143000978868258 0 -0.0089855977528008613 -0.0092963986621591756 0 -0.0090065902103314503 -0.0095840179068279567 0 -0.0097477263350446812 -0.007800511668635538 0 -0.0098475235104974138 -0.0078155695203646503 0 -0.0097922387087413191 -0.007478935071854589 0 -0.0098475235104974138 -0.0078155695203646503 0 -0.0097957178249664829 -0.0066414452430918949 0 -0.0097922387087413191 -0.007478935071854589 0 -0.010074955951916889 -0.0074613895421481715 0 -0.0094730875105609579 -0.005174595783596192 0 -0.0097477263350446812 -0.007800511668635538 0 -0.0097957178249664829 -0.0066414452430918949 0 -0.0083833291005361091 -0.0057339891174655617 0 -0.0097477263350446812 -0.007800511668635538 0 -0.0097957178249664829 -0.0066414452430918949 0 -0.0097922387087413191 -0.007478935071854589 0 -0.0097957178249664829 -0.0066414452430918949 0 -0.0098144110442755124 -0.0050884805626975763 0 -0.0083833291005361091 -0.0057339891174655617 0 -0.0099146123141492393 -0.0077647002481762992 0 -0.010289876146340214 -0.0068635921458761193 0 -0.0098475235104974138 -0.0078155695203646503 0 -0.0097957178249664829 -0.0066414452430918949 0 -0.011675317422184845 -0.0047167069190861936 0 -0.0097957178249664829 -0.0066414452430918949 0 -0.0098144110442755124 -0.0050884805626975763 0 -0.011675317422184845 -0.0047167069190861936 0 -0.0098144110442755124 -0.0050884805626975763 0 -0.0097130145841852981 -0.0034609264149940652 0 -0.011675317422184845 -0.0047167069190861936 0 -0.0098144110442755124 -0.0050884805626975763 0 -0.0097130145841852981 -0.0034609264149940652 0 -0.0083833291005361091 -0.0057339891174655617 0 -0.0097130145841852981 -0.0034609264149940652 0 -0.011675317422184845 -0.0047167069190861936 0 -0.010853868038175268 -0.001733825816517519 0 -0.010289876146340214 -0.0068635921458761193 0 -0.01028733981587502 -0.006680712364169345 0 -0.011675317422184845 -0.0047167069190861936 0 -0.010853868038175268 -0.001733825816517519 0 -0.012351486220599847 -0.001914047179882989 0 -0.0089383938259799123 -0.0093530433823679118 0 -0.0077912797805599187 -0.0096676318119268065 0 -0.0083254953767510909 -0.009996675240258289 0 -0.0087604925738636753 -0.0084869868276277825 0 -0.0098475235104974138 -0.0078155695203646503 0 -0.0089383938259799123 -0.0093530433823679118 0 -0.0087604925738636753 -0.0084869868276277825 0 -0.0089383938259799123 -0.0093530433823679118 0 -0.0075842964254592875 -0.008964789883361796 0 -0.0089383938259799123 -0.0093530433823679118 0 -0.0075842964254592875 -0.008964789883361796 0 -0.0077912797805599187 -0.0096676318119268065 0 -0.0075842964254592875 -0.008964789883361796 0 -0.0071493590252640956 -0.0092474330588877812 0 -0.0077912797805599187 -0.0096676318119268065 0 -0.0071493590252640956 -0.0092474330588877812 0 -0.0073348128299785542 -0.0097798763192107185 0 -0.0069136057402922769 -0.0097215641347567824 0 -0.0071493590252640956 -0.0092474330588877812 0 -0.0073348128299785542 -0.0097798763192107185 0 -0.0077912797805599187 -0.0096676318119268065 0 -0.0073348128299785542 -0.0097798763192107185 0 -0.0073139883187792057 -0.010110816633837708 0 -0.0076269935586327888 -0.0099662431471880582 0 -0.0073348128299785542 -0.0097798763192107185 0 -0.0077912797805599187 -0.0096676318119268065 0 -0.0076269935586327888 -0.0099662431471880582 0 -0.0073348128299785542 -0.0097798763192107185 0 -0.0073139883187792057 -0.010110816633837708 0 -0.0070895048599004216 -0.0099670386218061111 0 -0.0073348128299785542 -0.0097798763192107185 0 -0.0069136057402922769 -0.0097215641347567824 0 -0.0070895048599004216 -0.0099670386218061111 0 -0.0077912797805599187 -0.0096676318119268065 0 -0.0080012117391618526 -0.010065268550202473 0 -0.0083254953767510909 -0.009996675240258289 0 -0.0077912797805599187 -0.0096676318119268065 0 -0.0080012117391618526 -0.010065268550202473 0 -0.0076269935586327888 -0.0099662431471880582 0 -0.0080012117391618526 -0.010065268550202473 0 -0.0079890865595217946 -0.010023951246032578 0 -0.0080238512595190627 -0.010063483635643989 0 -0.0080012117391618526 -0.010065268550202473 0 -0.0080238512595190627 -0.010063483635643989 0 -0.0083254953767510909 -0.009996675240258289 0 -0.0080012117391618526 -0.010065268550202473 0 -0.0076269935586327888 -0.0099662431471880582 0 -0.0075077623760543642 -0.010453072907521037 0 -0.0070918141627578585 -0.010280189170195769 0 -0.006431079145004891 -0.0040617422574328373 0 -0.0073139883187792057 -0.010110816633837708 0 -0.0075077623760543642 -0.010453072907521037 0 -0.006711202592902081 -0.01022878558568989 0 -0.0073139883187792057 -0.010110816633837708 0 -0.0076269935586327888 -0.0099662431471880582 0 -0.0075077623760543642 -0.010453072907521037 0 -0.006431079145004891 -0.0040617422574328373 0 -0.0047062758272343169 0.0019316636720928698 0 -0.0072292510714150951 0.0032330879986044647 0 -0.0071153495081356386 0.002729691189848062 0 -0.0064520281011951194 0.0027803951750960706 0 -0.0071153495081356386 0.002729691189848062 0 -0.007754694082966444 0.0030449621755938732 0 -0.0074820078775343773 0.0023353094680145731 0 -0.006431079145004891 -0.0040617422574328373 0 -0.00862267132634628 -0.00077876935056498818 0 -0.0072292510714150951 0.0032330879986044647 0 -0.0071153495081356386 0.002729691189848062 0 -0.007754694082966444 0.0030449621755938732 0 -0.007835560338454348 0.0032208778162090669 0 -0.0088489867866369254 0.0029312725868409439 0 -0.0082402958233159206 0.0023179808858215549 0 -0.012675168152538012 -8.2682831815144602e-05 0 -0.010538413071591533 0.00031204297296287596 0 -0.011223778873692547 -0.00065824737373236107 0 -0.00862267132634628 -0.00077876935056498818 0 -0.010069962971319808 0.001847076840757362 0 -0.010538413071591533 0.00031204297296287596 0 -0.0099496809941228819 -0.00032787515150593794 0 -0.011223778873692547 -0.00065824737373236107 0 -0.0099496809941228819 -0.00032787515150593794 0 -0.010853868038175268 -0.001733825816517519 0 -0.011223778873692547 -0.00065824737373236107 0 -0.0097130145841852981 -0.0034609264149940652 0 -0.0099496809941228819 -0.00032787515150593794 0 -0.010853868038175268 -0.001733825816517519 0 -0.00862267132634628 -0.00077876935056498818 0 -0.01028733981587502 -0.006680712364169345 0 -0.012675168152538012 -8.2682831815144602e-05 0 -0.012351486220599847 -0.001914047179882989 0 -0.011223778873692547 -0.00065824737373236107 0 -0.010853868038175268 -0.001733825816517519 0 -0.012351486220599847 -0.001914047179882989 0 -0.011223778873692547 -0.00065824737373236107 0 -0.0035976639917071809 -0.009566649413271679 0 -0.0046490846509265873 -0.0099331492717941814 0 -0.003871750082837491 -0.010752567606186184 0 -0.0035976639917071809 -0.009566649413271679 0 -0.0042452495744981257 -0.0088123492401783275 0 -0.0046490846509265873 -0.0099331492717941814 0 -0.0028786529479294374 -0.0085700166710162857 0 -0.0038911935606321113 -0.0078482047158597631 0 -0.0042452495744981257 -0.0088123492401783275 0 -0.0028786529479294374 -0.0085700166710162857 0 -0.0035976639917071809 -0.009566649413271679 0 -0.0042452495744981257 -0.0088123492401783275 0 -0.0053555039242467045 -0.0079266101604039928 0 -0.0042452495744981257 -0.0088123492401783275 0 -0.0055280874577919659 -0.0093738868036161594 0 -0.0053555039242467045 -0.0079266101604039928 0 -0.0038911935606321113 -0.0078482047158597631 0 -0.0042452495744981257 -0.0088123492401783275 0 -0.0042452495744981257 -0.0088123492401783275 0 -0.0055280874577919659 -0.0093738868036161594 0 -0.0046490846509265873 -0.0099331492717941814 0 -0.0055280874577919659 -0.0093738868036161594 0 -0.0046490846509265873 -0.0099331492717941814 0 -0.0057656435946496212 -0.010250499718422583 0 -0.0046956455686941248 -0.0099286582190670561 0 -0.0059053267479648088 -0.010239924078936475 0 -0.0055280874577919659 -0.0093738868036161594 0 -0.0064216625411025897 -0.009897731036759427 0 -0.0057656435946496212 -0.010250499718422583 0 -0.0055280874577919659 -0.0093738868036161594 0 -0.0064216625411025897 -0.009897731036759427 0 -0.0065884907956376831 -0.0093128969068759903 0 -0.0067626674932784502 -0.0092621931514917395 0 -0.0066076627102991878 -0.009305113369684561 0 -0.0065884907956376831 -0.0093128969068759903 0 -0.0053555039242467045 -0.0079266101604039928 0 -0.0055280874577919659 -0.0093738868036161594 0 -0.0065884907956376831 -0.0093128969068759903 0 -0.0059917239246833152 -0.0086546136367702149 0 -0.0065464486973078528 -0.0092514196358484402 0 -0.0071493590252640956 -0.0092474330588877812 0 -0.0065884907956376831 -0.0093128969068759903 0 -0.0069136057402922769 -0.0097215641347567824 0 -0.0067626674932784502 -0.0092621931514917395 0 -0.0071493590252640956 -0.0092474330588877812 0 -0.0065884907956376831 -0.0093128969068759903 0 -0.0064216625411025897 -0.009897731036759427 0 -0.0065884907956376831 -0.0093128969068759903 0 -0.0069136057402922769 -0.0097215641347567824 0 -0.0064216625411025897 -0.009897731036759427 0 -0.0069136057402922769 -0.0097215641347567824 0 -0.006711202592902081 -0.01022878558568989 0 -0.0069136057402922769 -0.0097215641347567824 0 -0.0070895048599004216 -0.0099670386218061111 0 -0.006711202592902081 -0.01022878558568989 0 -0.0075077623760543642 -0.010453072907521037 0 -0.0066204486419163527 -0.010275248395171598 0 -0.006711202592902081 -0.01022878558568989 0 -0.0073139883187792057 -0.010110816633837708 0 -0.0070895048599004216 -0.0099670386218061111 0 -0.006711202592902081 -0.01022878558568989 0 -0.0026811216868798966 -0.00075501074983052923 0 -0.0030826549029023499 -0.00090282135570980313 0 -0.0031332710387531695 -0.00063319114280449703 0 -0.006431079145004891 -0.0040617422574328373 0 -0.0050530473294459755 -0.0078437821256425472 0 -0.0064216625411025897 -0.009897731036759427 0 -0.0066019062074617694 -0.010320240992161086 0 -0.006711202592902081 -0.01022878558568989 0 -0.0050530473294459755 -0.0078437821256425472 0 -0.0052520407981642954 -0.0080047490939874049 0 -0.0026811216868798966 -0.00075501074983052923 0 -0.0029837724595982162 -0.00041605010533710493 0 -0.0031332710387531695 -0.00063319114280449703 0 -0.0029837724595982162 -0.00041605010533710493 0 -0.0032860852272996567 -0.000404683228480402 0 -0.0031332710387531695 -0.00063319114280449703 0 -0.0032860852272996567 -0.000404683228480402 0 -0.0031332710387531695 -0.00063319114280449703 0 -0.0034720824180818535 -0.00069574182936798601 0 -0.0030826549029023499 -0.00090282135570980313 0 -0.0031332710387531695 -0.00063319114280449703 0 -0.0034720824180818535 -0.00069574182936798601 0 -0.0062526671082971204 -0.010473962720014036 0 -0.0054431209666240812 -0.010214274659688358 0 -0.0050132134860430043 -0.011120511372065139 0 -0.0050530473294459755 -0.0078437821256425472 0 -0.0042503569046342202 -0.0056562926250878325 0 -0.0064216625411025897 -0.009897731036759427 0 -0.0066019062074617694 -0.010320240992161086 0 -0.0057656435946496212 -0.010250499718422583 0 -0.0050530473294459755 -0.0078437821256425472 0 -0.0059053267479648088 -0.010239924078936475 0 -0.0046490846509265873 -0.0099331492717941814 0 -0.0054431209666240812 -0.010214274659688358 0 -0.0050132134860430043 -0.011120511372065139 0 -0.0046490846509265873 -0.0099331492717941814 0 -0.0050132134860430043 -0.011120511372065139 0 -0.003871750082837491 -0.010752567606186184 0 -0.0032860852272996567 -0.000404683228480402 0 -0.0034720824180818535 -0.00069574182936798601 0 -0.0035784462180437869 -0.00029367385363825355 0 -0.0034720824180818535 -0.00069574182936798601 0 -0.0039847100705526668 -0.00045184374894136113 0 -0.0035784462180437869 -0.00029367385363825355 0 -0.0050132134860430043 -0.011120511372065139 0 -0.0036181214580803408 -0.01180807122237122 0 -0.003871750082837491 -0.010752567606186184 0 -0.0042503569046342202 -0.0056562926250878325 0 -0.0038504589180501318 -0.0061846948709472901 0 -0.0027080230907864187 -0.010301942860453025 0 -0.0035976639917071809 -0.009566649413271679 0 -0.003871750082837491 -0.010752567606186184 0 -0.0038369782279922089 0.00061560115218763632 0 -0.00396721803161805 0.00037338862565122245 0 -0.0038748943257985867 5.5157581758923662e-05 0 -0.0043051038944971649 0.00026916089880156893 0 -0.00396721803161805 0.00037338862565122245 0 -0.0038748943257985867 5.5157581758923662e-05 0 -0.0038369782279922089 0.00061560115218763632 0 -0.00396721803161805 0.00037338862565122245 0 -0.0038459736360621001 0.00068415076963718906 0 -0.0039847100705526668 -0.00045184374894136113 0 -0.0038748943257985867 5.5157581758923662e-05 0 -0.0035784462180437869 -0.00029367385363825355 0 -0.0043051038944971649 0.00026916089880156893 0 -0.0039847100705526668 -0.00045184374894136113 0 -0.0038748943257985867 5.5157581758923662e-05 0 -0.0038748943257985867 5.5157581758923662e-05 0 -0.0035784462180437869 -0.00029367385363825355 0 -0.003312537596365499 3.2777309451977458e-05 0 -0.0032860852272996567 -0.000404683228480402 0 -0.0035784462180437869 -0.00029367385363825355 0 -0.003312537596365499 3.2777309451977458e-05 0 -0.0045231267186401679 0.0014766488585751579 0 -0.0054320058823255791 0.0021548675664593464 0 -0.0052250053328909878 0.0012800987026800853 0 -0.0038369782279922089 0.00061560115218763632 0 -0.0038748943257985867 5.5157581758923662e-05 0 -0.003312537596365499 3.2777309451977458e-05 0 -0.0041900579134053354 0.0010588495630535072 0 -0.0043489039194148709 0.00098106132674960185 0 -0.0054320058823255791 0.0021548675664593464 0 -0.0065668080322131535 0.0021767541725905551 0 -0.0060414263352620489 0.0011010323127101666 0 -0.0054320058823255791 0.0021548675664593464 0 -0.0060414263352620489 0.0011010323127101666 0 -0.0052250053328909878 0.0012800987026800853 0 -0.0047062758272343169 0.0019316636720928698 0 -0.0043489039194148709 0.00098106132674960185 0 -0.0029837724595982162 -0.00041605010533710493 0 -0.0032860852272996567 -0.000404683228480402 0 -0.003312537596365499 3.2777309451977458e-05 0 -0.0071153495081356386 0.002729691189848062 0 -0.0064520281011951194 0.0027803951750960706 0 -0.0065668080322131535 0.0021767541725905551 0 -0.0064520281011951194 0.0027803951750960706 0 -0.0054320058823255791 0.0021548675664593464 0 -0.0065668080322131535 0.0021767541725905551 0 -0.0065668080322131535 0.0021767541725905551 0 -0.006516938849394519 0.0013664328512830405 0 -0.0070018217131381554 0.0016627161108586489 0 -0.0065325106935489241 0.0020683299795559245 0 -0.0063508877161298771 0.0014306170574886472 0 -0.006516938849394519 0.0013664328512830405 0 -0.0070018217131381554 0.0016627161108586489 0 -0.0071681177115150161 0.0011522797010945611 0 -0.0064604621772229812 0.00074317127050125924 0 -0.006516938849394519 0.0013664328512830405 0 -0.0068128652451722701 0.00085678770258389972 0 -0.006516938849394519 0.0013664328512830405 0 -0.0068128652451722701 0.00085678770258389972 0 -0.0071681177115150161 0.0011522797010945611 0 -0.0056969051273154337 -0.00019548569291034834 0 -0.0063508877161298771 0.0014306170574886472 0 -0.0055706889294545843 0.00022046736981208231 0 -0.0060414263352620489 0.0011010323127101666 0 -0.0053500149414314763 0.00073155837524225566 0 -0.0055706889294545843 0.00022046736981208231 0 -0.0053500149414314763 0.00073155837524225566 0 -0.004984341061257916 0.00036536920092658471 0 -0.0060414263352620489 0.0011010323127101666 0 -0.0053500149414314763 0.00073155837524225566 0 -0.0052250053328909878 0.0012800987026800853 0 -0.0045231267186401679 0.0014766488585751579 0 -0.0052250053328909878 0.0012800987026800853 0 -0.0047733569417808689 0.0010781591479770126 0 -0.0052250053328909878 0.0012800987026800853 0 -0.0047733569417808689 0.0010781591479770126 0 -0.0049457108018928523 0.00075426868483397511 0 -0.0047733569417808689 0.0010781591479770126 0 -0.0049457108018928523 0.00075426868483397511 0 -0.0043995112205175591 0.00081725011002340797 0 -0.0053500149414314763 0.00073155837524225566 0 -0.0052250053328909878 0.0012800987026800853 0 -0.0049457108018928523 0.00075426868483397511 0 -0.0053500149414314763 0.00073155837524225566 0 -0.004984341061257916 0.00036536920092658471 0 -0.0049457108018928523 0.00075426868483397511 0 -0.004984341061257916 0.00036536920092658471 0 -0.0049457108018928523 0.00075426868483397511 0 -0.0045928516920471672 0.00048173686692997477 0 -0.0045494563420509599 0.00012336612139598744 0 -0.004984341061257916 0.00036536920092658471 0 -0.0045928516920471672 0.00048173686692997477 0 -0.0049457108018928523 0.00075426868483397511 0 -0.0043995112205175591 0.00081725011002340797 0 -0.0045928516920471672 0.00048173686692997477 0 -0.0045494563420509599 0.00012336612139598744 0 -0.0045928516920471672 0.00048173686692997477 0 -0.0041139040360827321 0.00036162514670092454 0 -0.0043995112205175591 0.00081725011002340797 0 -0.0045928516920471672 0.00048173686692997477 0 -0.0041139040360827321 0.00036162514670092454 0 -0.0037568289817884941 0.00075143016300212014 0 -0.0038369782279922089 0.00061560115218763632 0 -0.0038459736360621001 0.00068415076963718906 0 -0.0045231267186401679 0.0014766488585751579 0 -0.0047733569417808689 0.0010781591479770126 0 -0.0043995112205175591 0.00081725011002340797 0 -0.0037903257755909211 0.00077107870967422425 0 -0.0041900579134053354 0.0010588495630535072 0 -0.0037568289817884941 0.00075143016300212014 0 -0.0045231267186401679 0.0014766488585751579 0 -0.0043995112205175591 0.00081725011002340797 0 -0.0082402958233159206 0.0023179808858215549 0 -0.0076568764001557149 0.0015956092057928207 0 -0.0084302637468363778 0.0015992716976075535 0 -0.0091646479560779041 0.0021133210038014136 0 -0.009110299297767006 0.0015901375055976271 0 -0.0084302637468363778 0.0015992716976075535 0 -0.0091646479560779041 0.0021133210038014136 0 -0.0082402958233159206 0.0023179808858215549 0 -0.0084302637468363778 0.0015992716976075535 0 -0.0088489867866369254 0.0029312725868409439 0 -0.0091646479560779041 0.0021133210038014136 0 -0.0082402958233159206 0.0023179808858215549 0 -0.007835560338454348 0.0032208778162090669 0 -0.0082402958233159206 0.0023179808858215549 0 -0.0074820078775343773 0.0023353094680145731 0 -0.00862267132634628 -0.00077876935056498818 0 -0.0076042663116615743 0.003807739654712337 0 -0.0071153495081356386 0.002729691189848062 0 -0.0065668080322131535 0.0021767541725905551 0 -0.0074820078775343773 0.0023353094680145731 0 -0.0074820078775343773 0.0023353094680145731 0 -0.0070018217131381554 0.0016627161108586489 0 -0.0076568764001557149 0.0015956092057928207 0 -0.0065668080322131535 0.0021767541725905551 0 -0.0074820078775343773 0.0023353094680145731 0 -0.0070018217131381554 0.0016627161108586489 0 -0.0082402958233159206 0.0023179808858215549 0 -0.0074820078775343773 0.0023353094680145731 0 -0.0076568764001557149 0.0015956092057928207 0 -0.0076568764001557149 0.0015956092057928207 0 -0.0071681177115150161 0.0011522797010945611 0 -0.0079594234889457088 0.00090364870659322334 0 -0.0070018217131381554 0.0016627161108586489 0 -0.0076568764001557149 0.0015956092057928207 0 -0.0071681177115150161 0.0011522797010945611 0 -0.0072566900820484155 0.00065557194169017926 0 -0.0068128652451722701 0.00085678770258389972 0 -0.0071681177115150161 0.0011522797010945611 0 -0.0072566900820484155 0.00065557194169017926 0 -0.0071681177115150161 0.0011522797010945611 0 -0.0079594234889457088 0.00090364870659322334 0 -0.0077898878087059066 0.0070314119685043735 0 -0.0085148501267678194 0.0071170704326739128 0 -0.0076819494045090014 0.0068744098048576386 0 -0.0078740969584604383 0.003852388814814903 0 -0.0076038524963725745 0.0040364295268149183 0 -0.0078365490180819838 0.006864788264433549 0 -0.0077898878087059066 0.0070314119685043735 0 -0.0076819494045090014 0.0068744098048576386 0 -0.0078365490180819838 0.006864788264433549 0 -0.0076819494045090014 0.0068744098048576386 0 -0.0079486920578631624 0.0069997890986945076 0 -0.0076038524963725745 0.0040364295268149183 0 -0.010225534019434258 0.0022865294445685454 0 -0.0076568764001557149 0.0015956092057928207 0 -0.0079594234889457088 0.00090364870659322334 0 -0.0084302637468363778 0.0015992716976075535 0 -0.0079594234889457088 0.00090364870659322334 0 -0.0084302637468363778 0.0015992716976075535 0 -0.0087045686373107365 0.0012442299048994489 0 -0.0086332354677253441 0.0016429439335121207 0 -0.010225534019434258 0.0022865294445685454 0 -0.009110299297767006 0.0015901375055976271 0 -0.0084302637468363778 0.0015992716976075535 0 -0.0088576472085390417 0.0010373335204299174 0 -0.010225534019434258 0.0022865294445685454 0 -0.012677541348476675 0.0039273683136642071 0 -0.0078365490180819838 0.006864788264433549 0 -0.0079486920578631624 0.0069997890986945076 0 -0.0081022834697667689 0.0068738320117592957 0 -0.017179272925167983 0.00025093991275430279 0 -0.016770066816811525 0.00087112003174701839 0 -0.016419000899494312 0.00038840345303708316 0 -0.016277731366200952 0.00096919980859695438 0 -0.016770066816811525 0.00087112003174701839 0 -0.016419000899494312 0.00038840345303708316 0 -0.016277731366200952 0.00096919980859695438 0 -0.016419000899494312 0.00038840345303708316 0 -0.015865955883588002 0.00056230922344868738 0 -0.016419000899494312 0.00038840345303708316 0 -0.015925841036193482 -7.9226543244793269e-05 0 -0.015865955883588002 0.00056230922344868738 0 -0.016419000899494312 0.00038840345303708316 0 -0.015925841036193482 -7.9226543244793269e-05 0 -0.016389510384155582 -0.00029975979332017596 0 -0.017179272925167983 0.00025093991275430279 0 -0.016419000899494312 0.00038840345303708316 0 -0.016389510384155582 -0.00029975979332017596 0 -0.009110299297767006 0.0015901375055976271 0 -0.0088576472085390417 0.0010373335204299174 0 -0.0099844234697435835 0.001606887364693152 0 -0.010225534019434258 0.0022865294445685454 0 -0.013855308109850657 0.00056347737812456557 0 -0.0091646479560779041 0.0021133210038014136 0 -0.0099844234697435835 0.001606887364693152 0 -0.0099649013761688773 0.0026126376883347326 0 -0.0091646479560779041 0.0021133210038014136 0 -0.009110299297767006 0.0015901375055976271 0 -0.0099844234697435835 0.001606887364693152 0 -0.013855308109850657 0.00056347737812456557 0 -0.012467618567628925 0.00043009006197352906 0 -0.0099844234697435835 0.001606887364693152 0 -0.0099649013761688773 0.0026126376883347326 0 -0.011141480784404014 0.0022036803147244847 0 -0.015925841036193482 -7.9226543244793269e-05 0 -0.016389510384155582 -0.00029975979332017596 0 -0.015514050263181201 -0.00088959202997070477 0 -0.0097540496510117227 0.0014332025649621844 0 -0.012467618567628925 0.00043009006197352906 0 -0.010183508757701029 0.00013575143521015224 0 -0.010698713438301859 0.00023476879441095881 0 -0.011078310151371106 -0.00049988591546241653 0 -0.010069962971319808 0.001847076840757362 0 -0.0097540496510117227 0.0014332025649621844 0 -0.0088489867866369254 0.0029312725868409439 0 -0.0091646479560779041 0.0021133210038014136 0 -0.0099649013761688773 0.0026126376883347326 0 -0.012317383610682846 -5.7090171016413593e-05 0 -0.011583504547218718 -0.00047174544252169992 0 -0.012908952333114102 -0.00079169119694057568 0 -0.012317383610682846 -5.7090171016413593e-05 0 -0.013127938851655231 -0.00016562379668548608 0 -0.012908952333114102 -0.00079169119694057568 0 -0.012317383610682846 -5.7090171016413593e-05 0 -0.013423799315438316 0.00045602000650285529 0 -0.012175922504988685 0.00057965255825788431 0 -0.012317383610682846 -5.7090171016413593e-05 0 -0.013127938851655231 -0.00016562379668548608 0 -0.013423799315438316 0.00045602000650285529 0 -0.012317383610682846 -5.7090171016413593e-05 0 -0.011350373423629125 0.00013239199097456073 0 -0.012175922504988685 0.00057965255825788431 0 -0.011350373423629125 0.00013239199097456073 0 -0.010698713438301859 0.00023476879441095881 0 -0.010974009326667615 0.00054999729150562529 0 -0.011350373423629125 0.00013239199097456073 0 -0.010974009326667615 0.00054999729150562529 0 -0.012175922504988685 0.00057965255825788431 0 -0.011350373423629125 0.00013239199097456073 0 -0.010698713438301859 0.00023476879441095881 0 -0.011078310151371106 -0.00049988591546241653 0 -0.011820569779523636 -0.0002444569116790454 0 -0.012467618567628925 0.00043009006197352906 0 -0.012317383610682846 -5.7090171016413593e-05 0 -0.011350373423629125 0.00013239199097456073 0 -0.011078310151371106 -0.00049988591546241653 0 -0.015514050263181201 -0.00088959202997070477 0 -0.01527568715840367 -0.00057224388041995651 0 -0.015425741227346813 -0.00014823405775979938 0 -0.015925841036193482 -7.9226543244793269e-05 0 -0.015514050263181201 -0.00088959202997070477 0 -0.015425741227346813 -0.00014823405775979938 0 -0.01527568715840367 -0.00057224388041995651 0 -0.014865421960300843 -0.00073582253162661211 0 -0.015028398657401612 -7.6209734307213818e-05 0 -0.015514050263181201 -0.00088959202997070477 0 -0.01527568715840367 -0.00057224388041995651 0 -0.014865421960300843 -0.00073582253162661211 0 -0.012467618567628925 0.00043009006197352906 0 -0.014106224705403665 -0.00084116814395129933 0 -0.014865421960300843 -0.00073582253162661211 0 -0.015028398657401612 -7.6209734307213818e-05 0 -0.014599873226734986 -0.00026831198754403605 0 -0.015028398657401612 -7.6209734307213818e-05 0 -0.015425741227346813 -0.00014823405775979938 0 -0.015252505866714425 0.00062650690043911724 0 -0.01527568715840367 -0.00057224388041995651 0 -0.015028398657401612 -7.6209734307213818e-05 0 -0.015425741227346813 -0.00014823405775979938 0 -0.015028398657401612 -7.6209734307213818e-05 0 -0.014875031742247061 0.00032116598486829135 0 -0.014599873226734986 -0.00026831198754403605 0 -0.015925841036193482 -7.9226543244793269e-05 0 -0.015425741227346813 -0.00014823405775979938 0 -0.015865955883588002 0.00056230922344868738 0 -0.015425741227346813 -0.00014823405775979938 0 -0.015865955883588002 0.00056230922344868738 0 -0.015252505866714425 0.00062650690043911724 0 -0.015252505866714425 0.00062650690043911724 0 -0.014875031742247061 0.00032116598486829135 0 -0.014640178068665004 0.00079210296942787666 0 -0.015028398657401612 -7.6209734307213818e-05 0 -0.015252505866714425 0.00062650690043911724 0 -0.014875031742247061 0.00032116598486829135 0 -0.014640178068665004 0.00079210296942787666 0 -0.014393345333936736 0.00017099801831230927 0 -0.013720539363671696 0.00063244008802731445 0 -0.014875031742247061 0.00032116598486829135 0 -0.014640178068665004 0.00079210296942787666 0 -0.014393345333936736 0.00017099801831230927 0 -0.014393345333936736 0.00017099801831230927 0 -0.013720539363671696 0.00063244008802731445 0 -0.014199029476536633 -0.0001884952665965353 0 -0.017346161450561465 0.0004850511382784717 0 -0.014655063437689103 -0.0011680326112239847 0 -0.013720539363671696 0.00063244008802731445 0 -0.014051433445781799 -0.00062158287350935672 0 -0.014199029476536633 -0.0001884952665965353 0 -0.016223603994187277 -0.0036400997845461936 0 -0.01575261113519608 -0.00099327443280972354 0 -0.017685448584343129 -0.0014737507408133157 0 -0.014051433445781799 -0.00062158287350935672 0 -0.014199029476536633 -0.0001884952665965353 0 -0.014080667903800944 -0.00063030485224381061 0 -0.014599873226734986 -0.00026831198754403605 0 -0.014199029476536633 -0.0001884952665965353 0 -0.014080667903800944 -0.00063030485224381061 0 -0.014875031742247061 0.00032116598486829135 0 -0.014393345333936736 0.00017099801831230927 0 -0.014599873226734986 -0.00026831198754403605 0 -0.014393345333936736 0.00017099801831230927 0 -0.014599873226734986 -0.00026831198754403605 0 -0.014199029476536633 -0.0001884952665965353 0 -0.020538073021023204 0.0016386859911419612 0 -0.020757460577380399 0.0024066246665562238 0 -0.020614873726506396 0.0019037228478523251 0 -0.020062704108276489 0.0027530245537168868 0 -0.020538073021023204 0.0016386859911419612 0 -0.020757460577380399 0.0024066246665562238 0 -0.021447653257949815 0.0024244095985976404 0 -0.020757460577380399 0.0024066246665562238 0 -0.020614873726506396 0.0019037228478523251 0 -0.017346161450561465 0.0004850511382784717 0 -0.019352706455061298 0.00012897569614433213 0 -0.020538073021023204 0.0016386859911419612 0 -0.020614873726506396 0.0019037228478523251 0 -0.020762196975502266 0.0021615967878185665 0 -0.021532461650173036 0.0023198875563747159 0 -0.020762196975502266 0.0021615967878185665 0 -0.020690462106236415 0.0030641319467084082 0 -0.020614873726506396 0.0019037228478523251 0 -0.020762196975502266 0.0021615967878185665 0 -0.020690462106236415 0.0030641319467084082 0 -0.019352706455061298 0.00012897569614433213 0 -0.020114108358733434 0.0020748850609848676 0 -0.01575261113519608 -0.00099327443280972354 0 -0.017685448584343129 -0.0014737507408133157 0 -0.016935121110608454 0.000639350727357441 0 -0.017685448584343129 -0.0014737507408133157 0 -0.016935121110608454 0.000639350727357441 0 -0.019517054716665216 0.00096664565267566799 0 -0.016935121110608454 0.000639350727357441 0 -0.018390093779584983 0.0024024053964689152 0 -0.015970214731802081 0.0018183846223691106 0 -0.016935121110608454 0.000639350727357441 0 -0.018390093779584983 0.0024024053964689152 0 -0.019517054716665216 0.00096664565267566799 0 -0.021224535232344237 0.0039293554415524793 0 -0.020114108358733434 0.0020748850609848676 0 -0.021286560778070902 0.0040750291783137743 0 -0.018390093779584983 0.0024024053964689152 0 -0.019517054716665216 0.00096664565267566799 0 -0.014080667903800944 -0.00063030485224381061 0 -0.01448398047645217 0.00017642240311074476 0 -0.013788937870056592 -0.00028290545166932387 0 -0.014865421960300843 -0.00073582253162661211 0 -0.014599873226734986 -0.00026831198754403605 0 -0.014080667903800944 -0.00063030485224381061 0 -0.012908952333114102 -0.00079169119694057568 0 -0.014080667903800944 -0.00063030485224381061 0 -0.013788937870056592 -0.00028290545166932387 0 -0.014106224705403665 -0.00084116814395129933 0 -0.01391324076137211 -0.00062903786314704455 0 -0.013127938851655231 -0.00016562379668548608 0 -0.012908952333114102 -0.00079169119694057568 0 -0.013788937870056592 -0.00028290545166932387 0 -0.01575261113519608 -0.00099327443280972354 0 -0.016935121110608454 0.000639350727357441 0 -0.015293063039800768 0.0017586301149969006 0 -0.014655063437689103 -0.0011680326112239847 0 -0.014890404383962635 0.0011151697267504767 0 -0.014051433445781799 -0.00062158287350935672 0 -0.014080667903800944 -0.00063030485224381061 0 -0.01448398047645217 0.00017642240311074476 0 -0.016935121110608454 0.000639350727357441 0 -0.015970214731802081 0.0018183846223691106 0 -0.015293063039800768 0.0017586301149969006 0 -0.01448398047645217 0.00017642240311074476 0 -0.013716992701561534 4.4498741765451254e-05 0 -0.013423799315438316 0.00045602000650285529 0 -0.01448398047645217 0.00017642240311074476 0 -0.013788937870056592 -0.00028290545166932387 0 -0.013716992701561534 4.4498741765451254e-05 0 -0.013127938851655231 -0.00016562379668548608 0 -0.013788937870056592 -0.00028290545166932387 0 -0.013716992701561534 4.4498741765451254e-05 0 -0.013127938851655231 -0.00016562379668548608 0 -0.013716992701561534 4.4498741765451254e-05 0 -0.013423799315438316 0.00045602000650285529 0 -0.014890404383962635 0.0011151697267504767 0 -0.01467923963937952 0.002812215273382857 0 -0.013423799315438316 0.00045602000650285529 0 -0.014688757101476758 0.0029044153700020191 0 -0.012824733902407202 0.0016430924451975193 0 -0.01448398047645217 0.00017642240311074476 0 -0.013423799315438316 0.00045602000650285529 0 -0.014688757101476758 0.0029044153700020191 0 -0.015970214731802081 0.0018183846223691106 0 -0.015293063039800768 0.0017586301149969006 0 -0.015701046944564565 0.0025263967532977482 0 -0.015970214731802081 0.0018183846223691106 0 -0.015701046944564565 0.0025263967532977482 0 -0.016680961490083458 0.0027849161311220951 0 -0.015293063039800768 0.0017586301149969006 0 -0.015701046944564565 0.0025263967532977482 0 -0.014688757101476758 0.0029044153700020191 0 -0.015701046944564565 0.0025263967532977482 0 -0.015851321458200032 0.0036439330552327657 0 -0.014688757101476758 0.0029044153700020191 0 -0.015851321458200032 0.0036439330552327657 0 -0.014688757101476758 0.0029044153700020191 0 -0.014890880165116832 0.0039957076311566021 0 -0.013706485495455443 0.0037198343350284997 0 -0.014688757101476758 0.0029044153700020191 0 -0.014890880165116832 0.0039957076311566021 0 -0.013706485495455443 0.0037198343350284997 0 -0.014688757101476758 0.0029044153700020191 0 -0.012905583989642026 0.0027286615265356435 0 -0.014688757101476758 0.0029044153700020191 0 -0.012824733902407202 0.0016430924451975193 0 -0.012905583989642026 0.0027286615265356435 0 -0.021286560778070902 0.0040750291783137743 0 -0.018390093779584983 0.0024024053964689152 0 -0.018179213828569133 0.0046252258738470149 0 -0.018390093779584983 0.0024024053964689152 0 -0.015970214731802081 0.0018183846223691106 0 -0.018179213828569133 0.0046252258738470149 0 -0.016101862830657895 0.0019247095368577199 0 -0.017242281060871712 0.0037102018847833523 0 -0.015701046944564565 0.0025263967532977482 0 -0.015851321458200032 0.0036439330552327657 0 -0.016680961490083458 0.0027849161311220951 0 -0.015851321458200032 0.0036439330552327657 0 -0.016680961490083458 0.0027849161311220951 0 -0.016838860416039009 0.0041429827360602439 0 -0.020888643990311005 0.0052538472996270982 0 -0.018179213828569133 0.0046252258738470149 0 -0.020055472056403307 0.0065206564895208489 0 -0.020888643990311005 0.0052538472996270982 0 -0.021286560778070902 0.0040750291783137743 0 -0.018179213828569133 0.0046252258738470149 0 -0.016680961490083458 0.0027849161311220951 0 -0.017940745568848306 0.0042626511496999748 0 -0.016838860416039009 0.0041429827360602439 0 -0.017242281060871712 0.0037102018847833523 0 -0.020337787845191614 0.0047427829558405552 0 -0.021311321390003021 0.0036709552631262036 0 -0.021127229302244855 0.0034293041193078741 0 -0.020993079183974955 0.0036234216504440423 0 -0.020337787845191614 0.0047427829558405552 0 -0.018359253427311897 0.0043120366271476975 0 -0.017940745568848306 0.0042626511496999748 0 -0.016838860416039009 0.0041429827360602439 0 -0.016178410139096176 0.0050432427314198031 0 -0.021127229302244855 0.0034293041193078741 0 -0.020723518756097643 0.0036589836188655302 0 -0.020993079183974955 0.0036234216504440423 0 -0.015851321458200032 0.0036439330552327657 0 -0.016838860416039009 0.0041429827360602439 0 -0.016131782715708278 0.0043340240941162015 0 -0.016838860416039009 0.0041429827360602439 0 -0.016131782715708278 0.0043340240941162015 0 -0.016178410139096176 0.0050432427314198031 0 -0.020723518756097643 0.0036589836188655302 0 -0.02084146461042926 0.0036423209179662305 0 -0.020993079183974955 0.0036234216504440423 0 -0.020723518756097643 0.0036589836188655302 0 -0.020707549215779518 0.003615452009540361 0 -0.02084146461042926 0.0036423209179662305 0 -0.020723518756097643 0.0036589836188655302 0 -0.020707549215779518 0.003615452009540361 0 -0.020872077143970897 0.0035079114775930583 0 -0.020707549215779518 0.003615452009540361 0 -0.020712100968719407 0.0031183906422609189 0 -0.020872077143970897 0.0035079114775930583 0 -0.020707549215779518 0.003615452009540361 0 -0.020984270228907552 0.003767132236943888 0 -0.02084146461042926 0.0036423209179662305 0 -0.020984270228907552 0.003767132236943888 0 -0.02084146461042926 0.0036423209179662305 0 -0.020993079183974955 0.0036234216504440423 0 -0.021311321390003021 0.0036709552631262036 0 -0.021099594562245291 0.0038504202603548165 0 -0.020993079183974955 0.0036234216504440423 0 -0.021099594562245291 0.0038504202603548165 0 -0.020984270228907552 0.003767132236943888 0 -0.020993079183974955 0.0036234216504440423 0 -0.021311321390003021 0.0036709552631262036 0 -0.021223987027181038 0.0039076178878442204 0 -0.021099594562245291 0.0038504202603548165 0 -0.013504123480634884 0.004712260055762944 0 -0.013524931565320267 0.0061280455224618918 0 -0.013025429687533329 0.0042241808225735701 0 -0.014410577599257209 0.0050082346193849178 0 -0.014294234305434219 0.0044167668242525758 0 -0.014972615606458812 0.0047699072040369118 0 -0.014410577599257209 0.0050082346193849178 0 -0.013990701231725777 0.0047898264691314035 0 -0.014294234305434219 0.0044167668242525758 0 -0.014410577599257209 0.0050082346193849178 0 -0.014972615606458812 0.0047699072040369118 0 -0.01474078201340099 0.0053599296833178253 0 -0.014410577599257209 0.0050082346193849178 0 -0.013990701231725777 0.0047898264691314035 0 -0.014099103213022874 0.005259837970771993 0 -0.013837018117798486 0.0050883780222110656 0 -0.013504123480634884 0.004712260055762944 0 -0.013732231004766882 0.0055811767258323259 0 -0.013837018117798486 0.0050883780222110656 0 -0.013504123480634884 0.004712260055762944 0 -0.013990701231725777 0.0047898264691314035 0 -0.013837018117798486 0.0050883780222110656 0 -0.013990701231725777 0.0047898264691314035 0 -0.014099103213022874 0.005259837970771993 0 -0.013504123480634884 0.004712260055762944 0 -0.013990701231725777 0.0047898264691314035 0 -0.013671513482429926 0.0043179293730381905 0 -0.013990701231725777 0.0047898264691314035 0 -0.013671513482429926 0.0043179293730381905 0 -0.014294234305434219 0.0044167668242525758 0 -0.013706485495455443 0.0037198343350284997 0 -0.013671513482429926 0.0043179293730381905 0 -0.014294234305434219 0.0044167668242525758 0 -0.013504123480634884 0.004712260055762944 0 -0.013671513482429926 0.0043179293730381905 0 -0.013025429687533329 0.0042241808225735701 0 -0.013706485495455443 0.0037198343350284997 0 -0.013671513482429926 0.0043179293730381905 0 -0.013025429687533329 0.0042241808225735701 0 -0.013706485495455443 0.0037198343350284997 0 -0.014294234305434219 0.0044167668242525758 0 -0.014890880165116832 0.0039957076311566021 0 -0.014294234305434219 0.0044167668242525758 0 -0.014890880165116832 0.0039957076311566021 0 -0.014972615606458812 0.0047699072040369118 0 -0.014890880165116832 0.0039957076311566021 0 -0.015644650717985237 0.004507404967985182 0 -0.014972615606458812 0.0047699072040369118 0 -0.015851321458200032 0.0036439330552327657 0 -0.014890880165116832 0.0039957076311566021 0 -0.015644650717985237 0.004507404967985182 0 -0.015851321458200032 0.0036439330552327657 0 -0.016131782715708278 0.0043340240941162015 0 -0.015644650717985237 0.004507404967985182 0 -0.016178410139096176 0.0050432427314198031 0 -0.015644650717985237 0.004507404967985182 0 -0.015320567984807253 0.005143331618125439 0 -0.016131782715708278 0.0043340240941162015 0 -0.016178410139096176 0.0050432427314198031 0 -0.015644650717985237 0.004507404967985182 0 -0.015644650717985237 0.004507404967985182 0 -0.014972615606458812 0.0047699072040369118 0 -0.015320567984807253 0.005143331618125439 0 -0.014972615606458812 0.0047699072040369118 0 -0.015320567984807253 0.005143331618125439 0 -0.01474078201340099 0.0053599296833178253 0 -0.016178410139096176 0.0050432427314198031 0 -0.015320567984807253 0.005143331618125439 0 -0.014370606217364737 0.0058970389283432116 0 -0.020723518756097643 0.0036589836188655302 0 -0.021153499836894268 0.0034298275472712408 0 -0.02168259816822616 0.0033623635729071798 0 -0.018359253427311897 0.0043120366271476975 0 -0.017762060087315661 0.0040154283112916744 0 -0.020723518756097643 0.0036589836188655302 0 -0.021153499836894268 0.0034298275472712408 0 -0.020872077143970897 0.0035079114775930583 0 -0.021153499836894268 0.0034298275472712408 0 -0.020872077143970897 0.0035079114775930583 0 -0.020991674009385005 0.0033468915712514761 0 -0.020712100968719407 0.0031183906422609189 0 -0.020872077143970897 0.0035079114775930583 0 -0.020991674009385005 0.0033468915712514761 0 -0.021153499836894268 0.0034298275472712408 0 -0.020991674009385005 0.0033468915712514761 0 -0.021145184196787396 0.0031528687641821178 0 -0.020893854464926337 0.0029683256903314478 0 -0.020991674009385005 0.0033468915712514761 0 -0.021145184196787396 0.0031528687641821178 0 -0.020893854464926337 0.0029683256903314478 0 -0.020712100968719407 0.0031183906422609189 0 -0.020991674009385005 0.0033468915712514761 0 -0.021153499836894268 0.0034298275472712408 0 -0.021371274104434686 0.0031598548956479665 0 -0.02168259816822616 0.0033623635729071798 0 -0.021153499836894268 0.0034298275472712408 0 -0.021145184196787396 0.0031528687641821178 0 -0.021371274104434686 0.0031598548956479665 0 -0.02130563086151983 0.0027710946700539537 0 -0.021145184196787396 0.0031528687641821178 0 -0.021371274104434686 0.0031598548956479665 0 -0.013504123480634884 0.004712260055762944 0 -0.013732231004766882 0.0055811767258323259 0 -0.013524931565320267 0.0061280455224618918 0 -0.021371274104434686 0.0031598548956479665 0 -0.021626448621002207 0.003100163710349105 0 -0.02168259816822616 0.0033623635729071798 0 -0.021501663000812854 0.0029717539810770761 0 -0.021371274104434686 0.0031598548956479665 0 -0.021626448621002207 0.003100163710349105 0 -0.021704059013631788 0.0028521699219669055 0 -0.021626448621002207 0.003100163710349105 0 -0.021803120590474338 0.0031203068804731165 0 -0.021626448621002207 0.003100163710349105 0 -0.021803120590474338 0.0031203068804731165 0 -0.021759498902426566 0.0032255032750751716 0 -0.021626448621002207 0.003100163710349105 0 -0.021759498902426566 0.0032255032750751716 0 -0.02168259816822616 0.0033623635729071798 0 -0.021803120590474338 0.0031203068804731165 0 -0.021817169536644608 0.0033011235988963852 0 -0.021759498902426566 0.0032255032750751716 0 -0.021817169536644608 0.0033011235988963852 0 -0.021759498902426566 0.0032255032750751716 0 -0.02168259816822616 0.0033623635729071798 0 -0.017498095318799912 0.0037116614900641696 0 -0.017762060087315661 0.0040154283112916744 0 -0.015320567984807253 0.005143331618125439 0 -0.014175562233500574 0.0059855354861552829 0 -0.014370606217364737 0.0058970389283432116 0 -0.015320567984807253 0.005143331618125439 0 -0.014175562233500574 0.0059855354861552829 0 -0.01474078201340099 0.0053599296833178253 0 -0.014175562233500574 0.0059855354861552829 0 -0.014109284336333823 0.0055606295038262855 0 -0.014337276353033572 0.0054412674489527383 0 -0.014175562233500574 0.0059855354861552829 0 -0.014337276353033572 0.0054412674489527383 0 -0.01474078201340099 0.0053599296833178253 0 -0.014410577599257209 0.0050082346193849178 0 -0.014337276353033572 0.0054412674489527383 0 -0.014099103213022874 0.005259837970771993 0 -0.014109284336333823 0.0055606295038262855 0 -0.014337276353033572 0.0054412674489527383 0 -0.014099103213022874 0.005259837970771993 0 -0.014410577599257209 0.0050082346193849178 0 -0.014337276353033572 0.0054412674489527383 0 -0.01474078201340099 0.0053599296833178253 0 -0.013837018117798486 0.0050883780222110656 0 -0.014099103213022874 0.005259837970771993 0 -0.013732231004766882 0.0055811767258323259 0 -0.014175562233500574 0.0059855354861552829 0 -0.014109284336333823 0.0055606295038262855 0 -0.013732231004766882 0.0055811767258323259 0 -0.014109284336333823 0.0055606295038262855 0 -0.014099103213022874 0.005259837970771993 0 -0.013732231004766882 0.0055811767258323259 0 -0.021704059013631788 0.0028521699219669055 0 -0.021803120590474338 0.0031203068804731165 0 -0.022187742046381877 0.0032159903356762977 0 -0.021803120590474338 0.0031203068804731165 0 -0.021817169536644608 0.0033011235988963852 0 -0.022187742046381877 0.0032159903356762977 0 -0.014175562233500574 0.0059855354861552829 0 -0.013732231004766882 0.0055811767258323259 0 -0.013524931565320267 0.0061280455224618918 0 -0.017498095318799912 0.0037116614900641696 0 -0.015307276597898732 0.001725047754441468 0 -0.010796629964235955 0.00027259699121642681 0 -0.010755346558633815 0.00024441000569662213 0 -0.010806937078804852 0.00030734630708144605 0 -0.010871549266968442 0.00030277390589809053 0 -0.010796629964235955 0.00027259699121642681 0 -0.010806937078804852 0.00030734630708144605 0 -0.015307276597898732 0.001725047754441468 0 -0.012261625533930289 -0.0013732122413346983 0 -0.010344850175619548 0.00086564474774826678 0 -0.012261625533930289 -0.0013732122413346983 0 -0.015307276597898732 0.001725047754441468 0 -0.011059744877537232 0.0022132041533094136 0 -0.010796629964235955 0.00027259699121642681 0 -0.010755346558633815 0.00024441000569662213 0 -0.010741191245657648 0.00025299497720173 0 -0.013524931565320267 0.0061280455224618918 0 -0.013025429687533329 0.0042241808225735701 0 -0.012267159445040471 0.0037614712899049804 0 -0.010871549266968442 0.00030277390589809053 0 -0.010796629964235955 0.00027259699121642681 0 -0.010741191245657648 0.00025299497720173 0 -0.010755346558633815 0.00024441000569662213 0 -0.010825509345885581 0.00026348377419534337 0 -0.010741191245657648 0.00025299497720173 0 -0.013025429687533329 0.0042241808225735701 0 -0.012949237892797475 0.0036159884843634848 0 -0.012267159445040471 0.0037614712899049804 0 -0.013706485495455443 0.0037198343350284997 0 -0.013025429687533329 0.0042241808225735701 0 -0.012949237892797475 0.0036159884843634848 0 -0.010984935928509002 0.00023074253234462163 0 -0.010864064396110602 9.5376975446152321e-05 0 -0.010962397535565601 -8.4369692902495517e-05 0 -0.010984935928509002 0.00023074253234462163 0 -0.010825509345885581 0.00026348377419534337 0 -0.010864064396110602 9.5376975446152321e-05 0 -0.010755346558633815 0.00024441000569662213 0 -0.010825509345885581 0.00026348377419534337 0 -0.010864064396110602 9.5376975446152321e-05 0 -0.011086112665174149 -0.00031883437347566992 0 -0.010962397535565601 -8.4369692902495517e-05 0 -0.010785464764098363 -0.00024370471721418623 0 -0.010864064396110602 9.5376975446152321e-05 0 -0.010962397535565601 -8.4369692902495517e-05 0 -0.010785464764098363 -0.00024370471721418623 0 -0.010755346558633815 0.00024441000569662213 0 -0.010864064396110602 9.5376975446152321e-05 0 -0.010785464764098363 -0.00024370471721418623 0 -0.011086112665174149 -0.00031883437347566992 0 -0.010984935928509002 0.00023074253234462163 0 -0.010962397535565601 -8.4369692902495517e-05 0 -0.010346096940176665 0.00020334905810429071 0 -0.010395480317329312 0.00019397287327704819 0 -0.010284514688934581 0.00023391264248147264 0 -0.0087464489950493281 -0.0051371862917702505 0 -0.0097052054055674249 -0.00450831359408167 0 -0.0098522384340722531 -0.0035079947917068042 0 -0.010127874007491352 -0.0041616957560492041 0 -0.010744125916277519 0.0011838606590706907 0 -0.010127874007491352 -0.0041616957560492041 0 -0.0096496829039710557 -0.0019235352190122277 0 -0.0093117182147093927 -0.005024309146813251 0 -0.0087464489950493281 -0.0051371862917702505 0 -0.0097052054055674249 -0.00450831359408167 0 -0.0097130145841852981 -0.0034609264149940652 0 -0.0083833291005361091 -0.0057339891174655617 0 -0.0072636850551420972 -0.0034626869543846967 0 -0.0099300127001602182 -0.0053815093662794994 0 -0.010455228506415139 -0.0045603155907198364 0 -0.0097052054055674249 -0.00450831359408167 0 -0.010455228506415139 -0.0045603155907198364 0 -0.0097052054055674249 -0.00450831359408167 0 -0.0098522384340722531 -0.0035079947917068042 0 -0.0094730875105609579 -0.005174595783596192 0 -0.0096496829039710557 -0.0019235352190122277 0 -0.0097130145841852981 -0.0034609264149940652 0 -0.0099496809941228819 -0.00032787515150593794 0 -0.0072636850551420972 -0.0034626869543846967 0 -0.0096170847206890741 -0.0003772345282539291 0 -0.0096496829039710557 -0.0019235352190122277 0 -0.010395480317329312 0.00019397287327704819 0 -0.010284514688934581 0.00023391264248147264 0 -0.010325626610926064 9.0389096960766718e-05 0 -0.010395480317329312 0.00019397287327704819 0 -0.010325626610926064 9.0389096960766718e-05 0 -0.010762818906067118 0.00039461692509642007 0 -0.0099496809941228819 -0.00032787515150593794 0 -0.010325626610926064 9.0389096960766718e-05 0 -0.010377851770618189 0.00014951374581078869 0 -0.0099496809941228819 -0.00032787515150593794 0 -0.010284514688934581 0.00023391264248147264 0 -0.010325626610926064 9.0389096960766718e-05 0 -0.010538413071591533 0.00031204297296287596 0 -0.0099496809941228819 -0.00032787515150593794 0 -0.010183508757701029 0.00013575143521015224 0 -0.0099496809941228819 -0.00032787515150593794 0 -0.010183508757701029 0.00013575143521015224 0 -0.010377851770618189 0.00014951374581078869 0 -0.010183508757701029 0.00013575143521015224 0 -0.010698713438301859 0.00023476879441095881 0 -0.010377851770618189 0.00014951374581078869 0 -0.010325626610926064 9.0389096960766718e-05 0 -0.010377851770618189 0.00014951374581078869 0 -0.010762818906067118 0.00039461692509642007 0 -0.010698713438301859 0.00023476879441095881 0 -0.010377851770618189 0.00014951374581078869 0 -0.010762818906067118 0.00039461692509642007 0 -0.010762818906067118 0.00039461692509642007 0 -0.010974009326667615 0.00054999729150562529 0 -0.010846563926440801 0.0003440895823149229 0 -0.010698713438301859 0.00023476879441095881 0 -0.010762818906067118 0.00039461692509642007 0 -0.010974009326667615 0.00054999729150562529 0 -0.010974009326667615 0.00054999729150562529 0 -0.012824733902407202 0.0016430924451975193 0 -0.012905583989642026 0.0027286615265356435 0 -0.010974009326667615 0.00054999729150562529 0 -0.012175922504988685 0.00057965255825788431 0 -0.012824733902407202 0.0016430924451975193 0 -0.013423799315438316 0.00045602000650285529 0 -0.012175922504988685 0.00057965255825788431 0 -0.012824733902407202 0.0016430924451975193 0 -0.010974009326667615 0.00054999729150562529 0 -0.012905583989642026 0.0027286615265356435 0 -0.012267159445040471 0.0037614712899049804 0 -0.013706485495455443 0.0037198343350284997 0 -0.012905583989642026 0.0027286615265356435 0 -0.012949237892797475 0.0036159884843634848 0 -0.012905583989642026 0.0027286615265356435 0 -0.012949237892797475 0.0036159884843634848 0 -0.012267159445040471 0.0037614712899049804 0 -0.010825509345885581 0.00026348377419534337 0 -0.010741191245657648 0.00025299497720173 0 -0.010846563926440801 0.0003440895823149229 0 -0.010984935928509002 0.00023074253234462163 0 -0.010762818906067118 0.00039461692509642007 0 -0.010846563926440801 0.0003440895823149229 0 -0.010744125916277519 0.0011838606590706907 0 -0.010763622389192255 -6.5685671324867961e-05 0 -0.010974009326667615 0.00054999729150562529 0 -0.010741191245657648 0.00025299497720173 0 -0.010846563926440801 0.0003440895823149229 0 -0.011112381772626533 0.00054623014996329144 0 -0.011059744877537232 0.0022132041533094136 0 -0.010984935928509002 0.00023074253234462163 0 -0.010825509345885581 0.00026348377419534337 0 -0.010846563926440801 0.0003440895823149229 0 
</DataArray>
</PointData>
<CellData Scalars="region_id,cross_section_updated," Vectors="" Tensors="stress,">
<DataArray type="Float64" Name="region_id" format="ascii">
5 5 6 5 5 5 5 5 5 6 5 5 5 5 5 5 5 5 5 5 5 5 6 5 5 5 5 6 5 6 5 5 5 5 6 5 5 6 5 5 5 6 5 5 5 6 5 5 5 5 6 5 6 5 5 5 5 6 5 5 5 5 6 5 5 5 5 5 5 5 5 5 5 5 5 5 5 5 5 5 5 6 5 5 5 5 5 5 5 5 6 5 5 5 5 5 5 5 5 5 5 5 5 5 5 5 5 5 5 5 5 5 5 5 5 5 5 5 5 6 5 5 6 5 5 5 5 5 5 5 5 5 6 5 5 5 6 5 5 5 5 5 6 5 6 5 6 5 5 5 5 5 5 5 5 5 5 5 6 5 5 5 5 5 5 5 5 5 6 5 5 5 5 5 6 5 5 5 5 5 5 6 5 5 5 5 5 5 5 5 6 5 5 5 5 5 5 6 5 5 6 5 5 5 6 5 6 5 5 5 5 5 5 5 5 5 5 5 5 5 5 5 5 5 5 5 5 5 5 5 5 5 5 5 5 5 5 5 5 5 5 5 5 6 5 5 5 5 5 6 5 5 5 5 6 5 5 5 5 5 5 5 5 5 5 5 5 5 6 5 5 5 5 5 5 5 5 5 5 5 5 5 5 5 5 5 5 5 5 6 5 5 5 6 5 5 6 6 5 5 5 5 5 5 5 5 5 5 5 5 5 5 5 5 5 5 5 6 5 5 5 5 5 5 6 5 5 5 5 5 5 5 5 5 5 5 5 6 5 5 5 5 6 6 5 5 6 5 5 5 6 5 5 5 5 5 5 5 5 5 5 5 6 5 5 6 5 5 5 5 5 5 5 5 5 5 5 5 5 5 5 5 6 5 5 5 5 5 5 6 5 5 5 5 5 5 5 5 5 5 5 5 5 5 5 5 5 5 5 5 5 5 5 5 5 5 5 5 5 5 5 5 5 5 5 5 5 5 5 5 5 5 5 5 5 5 5 5 5 5 5 5 5 5 6 6 5 5 5 5 5 6 5 5 5 5 5 6 5 5 5 6 6 6 5 6 5 5 5 5 5 6 5 5 5 5 6 5 5 5 5 5 5 5 5 5 6 5 6 5 5 5 5 5 5 5 5 5 5 5 5 6 6 5 5 5 5 5 5 5 5 6 5 5 5 5 5 5 5 5 5 5 5 6 5 5 5 6 5 5 5 5 5 5 5 5 5 5 5 5 5 5 5 5 5 5 5 5 5 5 5 6 5 5 5 5 6 5 5 5 5 5 5 5 5 5 5 5 5 5 5 5 5 5 5 5 5 5 5 5 5 5 5 5 5 5 5 6 5 5 6 5 5 5 5 5 5 5 5 5 5 6 5 5 5 5 5 6 6 5 5 5 5 5 6 5 5 5 5 5 5 5 5 5 5 6 5 5 5 5 5 5 5 6 5 5 5 5 5 5 5 5 5 5 6 5 5 5 6 5 5 5 5 6 5 5 5 5 5 5 5 5 5 5 6 6 6 5 5 5 5 5 6 5 6 6 5 6 5 5 5 6 5 5 6 5 5 6 5 6 5 5 5 5 6 5 5 5 5 5 6 5 5 5 5 5 5 5 5 5 6 5 5 5 5 5 5 5 5 6 5 5 5 5 5 5 6 5 5 5 5 5 5 6 5 6 5 5 5 6 5 5 5 5 5 5 6 6 5 6 5 5 5 5 5 5 6 5 5 5 5 5 5 5 5 6 5 5 5 5 5 5 5 5 5 5 5 6 5 5 6 5 5 5 5 5 5 5 5 5 5 5 6 5 5 5 5 6 5 5 5 5 6 5 5 5 5 6 5 5 5 5 5 5 5 5 5 5 6 5 5 5 6 5 5 6 5 5 6 5 6 5 5 5 5 5 5 5 6 5 5 6 5 5 5 5 6 6 5 5 6 5 5 5 5 6 5 5 5 5 5 6 5 5 5 5 5 5 5 5 5 5 5 5 5 5 5 5 5 5 5 5 5 5 5 5 5 6 5 5 5 5 5 5 5 5 5 5 5 5 5 5 5 5 6 5 5 5 5 5 5 5 5 5 5 5 5 5 5 5 5 5 5 5 5 5 5 5 5 5 5 5 5 5 5 5 5 5 6 5 5 6 5 5 5 5 5 6 5 5 6 5 5 5 6 5 5 5 6 5 5 5 5 5 5 5 6 5 5 5 5 5 5 5 5 5 5 5 5 5 5 5 5 5 5 5 5 5 5 5 6 5 5 5 5 5 5 5 5 5 6 5 5 5 5 5 5 5 5 5 5 5 5 5 5 5 5 5 5 5 5 5 6 5 5 5 5 5 5 5 5 6 5 5 6 5 5 5 5 5 5 5 5 5 5 6 5 5 5 5 5 6 5 5 5 5 5 5 5 5 5 5 5 6 5 6 6 5 5 5 5 5 5 5 6 5 6 5 5 6 5 5 5 5 5 6 5 5 5 5 5 5 6 5 6 5 5 6 5 5 5 5 5 5 6 5 5 5 5 5 6 6 5 6 5 5 5 6 5 5 6 5 5 5 5 6 5 5 5 6 5 5 5 6 5 5 5 6 5 5 5 5 5 5 5 5 5 5 5 6 5 5 5 5 5 6 5 5 5 5 5 5 5 5 5 5 5 5 6 5 6 5 5 6 5 5 6 5 5 5 5 5 5 5 5 5 5 5 5 5 5 6 6 5 5 5 5 5 5 5 5 6 5 5 5 5 5 5 5 5 5 5 5 6 5 5 6 5 5 5 5 5 5 6 5 5 5 5 5 5 5 6 5 6 6 5 5 5 5 5 5 5 5 5 5 5 5 5 5 5 5 5 5 5 5 5 5 6 5 5 5 6 5 5 5 5 5 5 6 5 5 5 5 5 5 5 5 5 5 5 5 5 5 5 5 5 5 5 5 5 5 5 5 5 5 5 5 6 5 6 5 5 5 5 5 5 6 5 5 5 5 6 5 5 5 5 5 6 5 6 5 5 5 5 5 5 6 5 5 5 5 5 5 6 5 6 5 5 5 5 5 5 5 5 6 5 5 6 5 5 5 5 6 6 6 5 6 5 6 5 5 6 5 5 5 5 5 5 6 5 5 6 6 5 6 6 5 5 5 6 5 5 5 5 5 5 6 5 6 5 6 5 5 6 6 5 5 5 5 5 6 5 5 5 5 5 5 5 5 5 5 5 6 5 5 5 5 5 5 5 5 5 5 5 5 5 5 5 5 5 6 5 5 5 5 5 5 5 5 6 5 5 5 5 5 5 5 5 6 5 5 5 5 5 5 5 5 6 5 5 5 6 5 5 5 6 6 5 5 5 5 5 5 5 5 5 5 5 5 5 5 5 5 5 5 5 5 5 5 6 5 5 5 5 6 5 5 5 5 5 5 5 6 6 5 5 5 5 6 5 5 5 5 5 5 5 5 5 5 5 5 5 5 5 5 5 5 5 5 5 5 5 5 5 5 5 5 5 5 6 5 5 5 6 5 5 5 5 5 5 5 5 5 5 6 5 5 5 6 5 5 6 5 5 5 5 5 5 5 5 5 5 5 5 5 5 5 5 5 5 5 6 5 5 5 5 5 5 5 5 5 5 6 5 5 5 5 5 6 5 5 5 6 5 5 5 5 5 5 5 5 6 5 6 5 5 5 5 5 5 5 5 5 5 5 5 5 5 5 5 5 5 5 5 5 5 5 5 5 5 5 5 5 5 5 5 5 5 5 6 5 5 5 5 5 5 5 5 5 5 6 5 5 5 5 5 5 5 5 5 5 5 6 5 5 5 5 5 5 5 5 5 5 5 5 5 5 5 5 5 5 5 5 5 5 5 5 5 5 6 5 5 5 5 6 5 5 5 5 6 5 5 5 5 5 5 5 5 6 5 5 6 5 5 5 5 5 6 5 5 5 5 5 5 5 5 5 5 5 5 5 6 5 5 5 6 5 5 5 5 5 5 5 5 5 5 5 6 5 6 5 5 5 5 5 5 5 5 6 5 6 5 5 6 5 5 6 6 5 5 6 5 5 5 6 6 5 5 5 5 6 5 6 5 6 5 5 6 5 6 5 6 5 5 6 5 5 6 5 5 6 5 5 5 5 5 5 5 5 6 5 5 5 5 5 5 6 5 6 6 5 6 5 6 6 5 6 5 6 5 5 5 5 6 6 6 5 5 5 6 5 6 5 5 5 5 5 5 5 5 5 5 5 5 5 5 5 5 5 5 5 6 5 5 6 6 5 6 5 5 5 5 6 6 5 5 6 5 5 5 5 5 5 5 5 5 5 5 5 5 6 5 5 5 5 6 6 5 5 6 5 5 5 5 6 6 6 5 5 5 5 6 5 5 5 5 5 5 5 5 5 5 5 6 5 6 5 5 5 5 6 5 5 5 5 5 6 5 5 5 5 5 5 5 5 6 6 5 6 5 5 5 6 5 5 5 5 5 5 5 5 5 5 5 5 5 5 5 5 5 5 5 5 5 5 5 5 5 5 5 5 5 5 5 5 5 5 5 5 5 5 5 5 5 5 5 5 5 5 5 5 5 5 5 5 5 5 6 5 6 5 5 5 5 5 5 5 6 5 5 5 5 5 5 5 5 5 5 5 5 5 5 5 5 5 5 6 6 5 5 5 6 5 5 5 5 6 5 5 5 5 5 5 5 5 5 5 5 5 6 5 6 6 5 5 5 5 6 5 5 5 6 5 6 5 5 5 5 5 6 5 6 5 6 5 5 6 5 5 6 6 5 6 5 5 5 6 5 5 5 5 5 5 5 5 5 5 5 5 5 5 5 5 5 5 5 5 5 5 5 5 6 6 5 5 5 6 5 5 5 5 5 5 5 5 6 5 5 5 5 5 6 5 6 5 5 5 5 5 5 5 5 5 5 5 5 6 5 5 5 5 5 6 5 5 5 6 5 5 5 5 5 5 6 5 5 6 5 5 5 5 5 5 5 6 6 5 5 5 6 5 5 5 5 5 6 5 5 5 5 6 5 5 5 5 5 6 5 5 5 5 5 5 5 5 5 6 5 5 5 5 5 5 5 6 5 5 5 5 5 5 5 5 5 5 5 5 5 5 5 5 5 5 5 6 5 5 5 5 5 5 5 5 5 5 5 5 5 5 6 5 6 5 5 5 5 5 5 5 5 5 5 5 5 6 5 5 5 5 5 5 5 6 5 5 5 6 5 6 5 5 5 5 5 5 5 5 5 5 5 5 5 5 5 5 5 5 5 5 6 5 5 5 5 5 5 5 5 5 5 5 5 5 5 5 6 5 5 5 5 6 5 5 5 5 5 5 5 5 5 5 5 5 5 5 5 5 5 5 5 5 5 5 5 5 5 5 5 5 5 5 5 5 5 5 5 5 5 6 5 5 5 5 5 5 5 5 6 5 5 5 5 6 5 5 5 5 5 6 5 5 5 5 5 6 5 6 5 5 6 5 5 5 5 6 5 5 5 5 5 6 5 5 5 5 5 5 5 5 5 5 5 5 5 5 5 6 5 5 5 5 5 5 5 5 5 5 5 5 5 5 5 5 5 5 5 6 5 5 5 5 5 5 5 5 5 5 5 6 5 5 6 5 5 5 5 5 5 5 5 5 5 5 5 5 5 5 5 6 5 6 5 5 5 5 5 5 5 5 5 5 5 5 5 5 5 5 5 5 5 5 5 5 5 5 5 5 5 5 5 5 5 5 5 5 5 5 6 5 5 5 5 6 5 5 5 6 6 5 5 5 5 5 5 5 5 5 5 5 5 5 5 5 5 5 5 5 5 6 5 5 5 5 5 6 5 5 5 5 5 5 5 5 5 5 5 5 5 5 5 5 6 5 5 6 5 6 5 5 5 5 5 5 5 5 5 6 5 5 5 5 5 5 5 5 5 5 5 5 5 5 5 6 5 6 5 5 5 5 5 5 6 5 5 5 5 5 5 5 5 6 5 5 5 6 5 5 5 5 5 5 6 5 5 6 5 5 5 5 5 5 5 5 5 6 5 5 5 5 5 5 6 5 5 5 5 6 5 6 5 5 6 5 6 5 5 5 5 6 5 5 5 5 5 5 5 5 5 5 5 5 5 5 6 5 5 5 5 5 5 5 5 6 5 5 5 5 5 5 5 5 5 5 5 5 5 5 5 5 5 6 5 5 5 5 5 5 5 5 5 5 5 5 5 5 5 5 6 5 5 6 5 5 5 5 5 5 5 5 6 5 5 5 6 5 5 6 5 5 5 5 6 5 5 5 5 5 5 5 5 6 5 5 5 5 5 5 5 5 5 5 5 6 5 5 5 5 5 5 5 5 5 5 5 5 5 5 5 5 5 5 5 5 5 5 6 5 5 6 5 5 5 5 5 5 5 5 5 5 5 5 5 5 5 5 5 5 5 5 5 5 5 5 5 5 6 5 5 5 6 5 5 5 5 5 5 5 5 5 5 6 5 5 5 6 5 5 5 5 6 5 5 5 5 5 5 5 5 5 5 6 5 5 6 5 5 5 5 5 5 5 5 5 5 5 5 5 5 5 5 5 5 5 5 6 5 5 5 5 5 5 5 5 5 5 6 5 5 5 5 5 5 5 5 5 5 6 5 6 6 6 5 5 5 5 5 5 5 6 5 5 5 6 5 5 5 5 5 5 5 5 5 5 6 5 5 5 5 5 5 5 5 5 5 5 5 5 5 5 5 5 5 5 5 5 5 5 5 5 5 5 5 5 5 5 5 5 5 5 6 5 5 5 5 5 5 5 5 5 5 5 5 5 5 5 5 5 5 5 5 5 5 5 5 5 5 5 5 5 5 5 5 5 5 5 5 5 5 5 6 5 5 5 5 5 5 5 6 5 5 5 6 5 5 5 5 5 6 5 5 5 6 6 6 5 5 5 5 5 5 5 5 6 5 5 5 5 5 5 5 5 5 5 5 5 5 5 5 5 5 5 5 5 5 5 5 5 5 5 6 5 5 5 5 5 5 5 5 5 5 5 5 5 5 5 5 5 5 5 5 5 5 5 5 5 5 5 5 5 5 5 5 5 5 5 5 5 5 6 5 5 5 5 5 5 5 5 6 5 5 6 5 5 5 5 5 5 5 5 5 5 5 6 5 5 5 5 5 5 5 6 6 5 5 6 5 6 5 5 5 5 5 5 5 5 5 5 5 5 5 5 5 5 5 5 5 5 6 5 5 5 6 5 5 5 5 5 5 5 5 5 5 5 5 6 5 5 5 5 5 5 6 5 6 5 5 5 5 5 5 5 5 5 6 5 5 5 5 5 6 5 6 5 6 6 5 6 5 6 5 6 5 5 5 5 5 5 5 5 5 5 6 5 6 5 5 5 5 5 5 5 5 5 5 5 5 5 5 5 5 5 5 5 5 5 5 5 5 5 5 5 5 5 5 5 5 5 5 5 6 5 5 5 5 5 5 5 6 5 5 5 5 5 6 5 5 5 6 5 5 5 5 5 5 5 6 5 5 6 5 5 5 5 5 5 5 5 5 5 5 5 5 5 5 5 5 5 5 5 5 5 6 5 5 6 5 5 5 5 5 5 5 5 5 5 5 5 5 5 5 5 5 6 5 5 5 5 5 5 5 5 5 5 6 5 5 5 6 5 5 5 5 5 6 6 5 5 6 5 5 5 6 5 5 5 6 6 5 6 5 5 5 6 5 5 5 5 5 5 5 5 5 5 5 5 6 5 5 5 5 5 5 5 5 5 5 6 5 5 5 5 6 5 5 6 5 5 5 6 5 5 5 5 5 5 6 5 5 5 5 5 6 5 5 5 6 5 5 5 5 5 6 5 5 5 5 5 5 6 6 5 5 5 5 5 5 5 5 5 5 5 5 5 5 6 5 5 5 5 5 5 5 5 6 5 5 5 5 5 5 5 5 5 5 5 5 6 5 5 5 6 5 5 5 6 5 5 5 5 5 5 5 5 5 5 5 5 5 5 5 5 5 5 5 5 5 5 5 5 5 5 5 5 5 5 5 6 6 5 5 6 5 5 6 5 5 6 5 5 6 5 5 6 6 5 5 5 5 5 5 6 5 5 5 5 5 5 5 5 5 5 6 5 5 5 5 5 5 5 5 5 5 5 5 5 5 5 5 5 5 5 5 5 5 5 5 5 5 5 5 6 5 5 5 5 5 5 5 5 5 5 5 5 5 5 5 5 5 5 6 5 6 5 5 5 5 5 5 5 5 5 5 5 5 5 5 5 5 6 5 5 5 5 5 5 6 5 6 5 5 5 6 6 5 5 5 5 5 5 6 5 5 6 5 5 5 5 6 5 5 5 5 5 5 6 5 5 5 5 5 6 5 5 5 5 5 5 5 5 5 5 5 5 5 5 5 5 6 5 5 5 5 6 5 5 5 5 6 5 6 5 5 5 6 5 5 5 5 5 5 5 5 6 5 5 5 5 5 5 5 5 5 6 5 5 5 5 5 5 5 5 5 5 5 6 5 5 6 5 5 5 6 6 5 5 5 5 5 5 5 6 5 5 5 6 6 5 5 5 5 6 5 5 6 6 6 5 6 5 6 5 6 5 5 5 5 5 5 5 5 5 5 5 5 6 5 5 5 5 5 5 5 5 5 5 5 5 5 5 5 5 5 5 5 5 5 5 5 5 5 5 6 5 5 5 5 5 5 5 5 5 5 5 5 5 5 5 5 6 5 6 6 6 5 5 5 5 6 5 5 6 5 5 5 5 6 5 5 5 5 6 5 5 5 5 5 5 5 5 6 5 5 6 5 6 5 5 5 5 5 5 5 5 5 5 5 5 5 5 5 5 5 5 5 5 5 5 5 5 5 5 5 5 5 5 5 5 5 5 5 5 5 5 5 5 5 5 5 5 5 5 5 5 5 5 5 5 5 5 5 5 5 5 5 5 5 5 5 5 5 5 5 5 5 5 5 5 5 5 5 5 5 5 5 5 5 5 5 5 5 5 5 5 5 5 5 5 5 5 6 6 5 5 5 5 5 5 5 5 5 5 5 5 5 5 5 5 5 5 5 5 5 5 5 5 5 5 5 5 5 5 5 5 5 5 5 5 5 5 6 5 5 5 5 5 5 5 5 5 6 5 5 5 5 5 6 5 5 5 5 5 5 5 5 5 5 5 5 5 5 6 5 5 5 5 5 5 5 5 5 6 5 5 5 5 5 5 6 5 5 5 6 5 5 5 5 5 5 6 5 5 5 5 5 5 5 5 5 5 5 5 5 5 5 5 5 5 5 6 5 5 5 5 6 5 5 6 5 5 6 5 6 5 5 5 5 5 5 5 5 5 5 5 5 5 5 5 5 6 5 5 5 6 5 5 5 5 5 5 6 5 5 5 5 5 5 5 6 5 6 5 5 5 5 5 5 5 5 6 5 5 6 5 6 5 5 5 5 5 5 5 5 5 6 5 6 5 5 5 5 5 5 5 5 6 5 5 5 5 5 5 5 6 5 5 6 5 5 5 6 5 5 6 5 5 5 5 5 5 6 5 5 5 5 5 5 5 5 5 5 6 5 5 5 5 5 5 5 5 5 5 5 5 6 5 6 5 5 6 5 5 6 6 5 6 5 5 5 5 5 5 5 5 5 5 5 5 5 6 5 5 6 5 5 5 6 5 5 5 5 5 5 5 5 5 5 5 5 5 5 5 5 5 5 5 5 5 5 5 5 5 5 5 5 5 5 5 5 5 6 5 5 5 5 5 5 6 5 5 6 5 5 5 5 5 6 5 5 5 6 5 5 5 5 5 6 5 5 6 5 5 6 5 5 6 5 5 5 5 5 6 5 6 6 5 5 6 5 5 6 5 6 5 5 5 5 5 5 5 5 5 5 5 5 5 5 5 5 5 5 5 6 5 5 6 5 5 5 5 5 5 5 5 5 5 5 5 5 5 5 6 5 6 5 5 5 6 5 5 6 5 5 6 6 5 5 5 5 5 5 5 5 5 5 5 5 6 6 6 5 5 5 5 5 5 5 5 5 5 5 5 6 6 5 5 5 5 5 5 5 5 5 5 5 5 5 5 5 5 5 5 5 5 5 5 5 5 5 5 5 6 5 5 5 5 5 5 5 5 5 5 5 6 5 6 5 5 6 6 5 5 5 6 6 5 5 5 5 5 5 6 6 5 5 6 5 5 5 5 6 6 5 5 6 5 5 6 5 5 5 5 5 5 5 5 5 5 5 5 5 5 5 5 5 5 5 5 5 5 5 5 5 5 5 5 5 5 5 5 5 5 5 5 5 5 5 5 6 5 5 6 5 5 5 5 5 6 5 5 5 5 5 5 5 5 5 5 5 5 5 6 5 5 6 5 5 5 5 6 5 5 5 6 5 5 5 5 5 5 6 5 5 5 5 5 6 5 5 5 5 5 5 5 5 5 6 5 5 5 5 5 5 6 5 5 5 5 5 5 5 5 5 5 5 5 5 5 5 6 5 5 6 5 5 5 6 5 5 6 5 5 5 5 5 5 5 6 5 5 5 5 5 5 5 5 5 5 5 6 5 5 5 5 5 5 5 5 5 5 5 5 5 5 5 5 5 5 5 5 5 5 5 5 5 5 5 6 5 5 5 5 5 5 5 6 5 5 5 5 5 5 5 6 5 5 5 5 5 6 5 5 5 6 5 5 5 6 5 5 5 6 5 5 5 6 5 6 5 6 5 5 6 5 5 6 5 6 5 5 5 5 5 5 5 5 5 6 5 5 5 5 5 5 6 5 5 5 6 5 5 6 5 5 5 6 5 5 5 5 5 5 5 5 5 6 5 5 6 5 5 6 5 6 5 5 5 5 5 5 6 5 5 5 6 5 5 5 5 5 5 6 5 5 5 5 5 6 6 5 5 5 5 6 5 5 5 5 5 5 5 6 5 6 5 5 5 5 5 5 6 6 5 5 5 6 5 5 6 5 5 5 5 5 5 5 5 5 5 5 5 5 5 5 6 6 5 6 5 5 5 5 5 5 6 5 5 5 5 5 5 5 5 5 5 5 5 5 5 5 6 5 5 5 5 5 5 5 5 6 5 5 5 6 5 6 5 5 5 5 6 5 5 6 5 5 5 5 5 5 5 6 5 5 6 5 5 6 5 5 5 5 6 5 5 5 5 5 5 5 5 5 5 5 5 5 5 5 5 5 5 5 5 6 5 5 5 5 5 5 5 5 5 5 5 5 5 5 5 5 5 5 5 5 5 6 5 5 5 6 5 5 5 5 5 5 5 5 5 5 5 5 5 5 5 5 5 5 5 5 5 5 5 6 5 5 6 5 5 5 5 5 5 5 5 6 5 5 5 6 5 5 6 5 5 5 5 5 5 5 5 5 5 5 5 6 5 5 6 5 5 5 5 5 6 5 6 5 5 6 5 5 6 5 6 5 5 5 5 5 5 6 5 5 5 6 5 5 5 5 5 5 5 5 5 5 5 5 5 5 5 5 5 5 5 5 5 5 5 5 6 5 5 6 5 5 5 6 5 5 5 5 5 6 5 5 5 5 5 5 5 5 5 5 6 5 5 6 5 5 6 5 5 5 5 5 5 5 5 5 5 5 5 5 5 5 6 5 5 5 5 5 5 5 5 5 5 5 5 6 5 5 6 5 5 5 5 5 5 5 5 5 5 5 5 5 6 5 5 5 6 5 6 6 5 5 6 5 5 5 5 5 6 5 5 6 5 5 5 5 5 5 5 5 6 5 5 5 5 5 5 5 5 6 5 5 6 5 5 5 5 5 5 5 5 5 5 6 5 5 5 5 5 6 5 5 5 6 6 5 5 5 5 5 5 5 5 5 5 6 5 5 5 5 5 6 5 5 5 5 5 6 5 5 5 5 5 5 5 6 6 5 5 5 6 5 5 5 5 5 5 5 5 5 5 6 5 5 5 5 5 5 5 6 5 5 5 5 5 5 5 5 5 6 5 5 5 5 5 5 5 5 6 5 6 5 5 5 5 5 5 6 5 5 5 5 6 5 5 5 5 5 5 5 6 5 5 5 5 5 5 5 5 6 5 6 5 5 5 6 5 5 5 5 5 5 5 5 5 5 5 5 5 5 6 5 5 5 6 5 5 5 5 5 5 5 6 5 5 5 5 5 5 5 5 5 5 6 5 5 5 5 5 5 5 5 5 5 5 5 6 5 5 5 5 5 5 5 5 5 5 6 5 5 5 6 5 5 6 5 5 6 5 5 5 5 6 6 6 5 6 5 5 5 5 5 5 5 5 5 6 5 6 5 5 5 5 5 6 6 5 5 5 5 5 5 5 5 5 5 5 5 5 5 5 5 5 5 5 5 5 6 5 5 5 5 5 5 5 5 5 5 5 5 5 5 5 5 5 5 5 5 6 5 5 5 6 5 5 5 5 5 5 6 6 5 6 6 5 6 5 5 5 6 6 5 5 6 6 5 5 5 5 5 5 5 5 5 5 5 5 5 5 5 5 5 5 5 5 5 5 5 6 6 5 5 5 5 5 5 5 6 5 5 5 5 5 5 5 5 5 6 5 5 5 5 6 6 5 5 5 6 5 5 5 5 5 5 5 6 6 5 5 5 5 6 5 6 5 5 5 5 5 6 6 5 5 6 5 5 5 6 5 5 5 5 5 5 5 5 5 5 5 5 5 5 5 6 6 5 5 5 6 5 5 6 6 5 5 5 5 6 5 5 5 6 5 6 5 5 5 6 5 5 6 5 5 5 5 5 5 5 5 5 5 5 6 5 5 5 5 5 5 5 5 5 5 5 5 5 5 5 5 6 5 5 5 6 5 5 5 5 6 5 5 5 5 5 5 5 6 5 5 5 5 5 5 5 6 5 5 5 5 6 5 5 5 5 5 6 5 6 5 5 5 5 5 5 5 5 5 5 5 5 5 5 5 5 5 5 5 5 5 5 5 5 5 5 6 5 5 5 5 5 6 6 5 6 6 5 5 5 5 5 5 5 5 5 6 5 5 5 5 6 5 5 5 5 5 5 5 5 5 5 5 5 5 5 5 6 5 5 5 5 6 5 6 5 5 5 5 5 5 5 5 5 5 5 5 5 5 5 5 5 5 5 5 6 5 5 5 5 5 5 5 6 5 5 5 5 5 5 5 5 5 5 5 6 5 5 5 5 6 5 5 5 5 5 5 5 5 6 5 5 5 5 5 5 5 5 5 5 5 5 5 5 5 5 5 5 6 5 6 5 5 5 5 6 5 5 5 5 5 5 5 5 5 5 5 5 5 6 5 5 5 5 5 5 5 5 5 5 5 6 5 5 5 5 5 5 5 5 5 6 5 5 5 5 6 5 5 5 5 5 5 5 5 5 5 5 5 5 6 5 5 5 5 5 5 6 5 6 5 5 6 6 6 5 5 5 5 5 6 5 5 5 5 5 5 5 6 5 5 6 5 5 5 6 5 5 5 6 6 5 6 5 5 5 5 6 5 5 5 5 6 5 6 6 6 5 6 5 5 5 6 5 5 5 6 5 6 5 5 6 5 6 5 5 5 5 5 5 5 5 5 5 5 5 5 5 5 5 6 5 5 6 6 5 5 5 5 6 5 5 5 5 5 5 5 5 5 5 6 5 5 5 5 5 5 5 6 5 5 5 5 5 5 5 5 5 5 5 5 5 5 5 5 5 6 5 6 6 5 5 5 5 5 6 5 5 5 5 5 5 5 5 5 6 6 5 5 5 5 5 5 5 5 5 5 6 5 5 5 5 5 5 6 5 5 5 5 5 5 5 5 5 5 5 5 5 5 5 5 5 5 5 5 5 5 5 5 6 5 6 5 5 5 5 6 5 5 5 6 5 5 5 5 5 6 5 5 5 5 5 5 6 5 5 5 5 5 5 5 5 5 5 5 5 6 5 5 5 5 5 5 5 5 5 6 5 5 5 5 5 5 5 5 5 5 5 5 5 5 5 5 5 5 5 5 5 5 5 5 5 5 6 5 5 5 6 6 5 5 5 5 5 5 5 6 6 5 5 6 5 5 6 5 6 5 6 5 6 5 6 5 5 6 5 6 5 6 6 6 5 6 5 5 6 5 5 5 5 5 5 5 6 5 5 5 6 5 5 5 5 5 6 5 5 5 5 6 5 5 6 5 6 5 6 5 5 5 6 6 5 5 5 6 5 5 6 5 6 5 5 5 5 6 5 5 5 5 5 5 5 5 5 5 5 5 5 5 5 5 5 5 5 5 5 6 5 6 6 5 5 5 5 5 5 5 5 5 5 6 5 5 5 6 6 5 5 5 5 6 6 5 5 5 5 5 5 5 5 6 5 5 6 5 5 5 6 5 5 5 5 5 5 5 5 5 5 5 6 5 5 5 5 5 5 5 5 5 5 5 5 5 5 5 5 5 5 6 5 5 6 5 5 5 5 6 5 5 5 5 5 5 5 6 5 5 5 5 5 5 5 6 5 5 6 5 5 5 5 5 5 5 5 5 5 5 5 5 5 5 6 5 5 5 5 5 5 5 5 5 5 6 5 5 5 5 5 5 5 5 5 5 5 5 5 5 6 5 5 5 6 5 5 5 5 5 5 5 5 6 5 5 5 5 5 5 5 6 5 5 5 6 5 5 5 6 5 5 5 6 5 5 5 5 5 5 5 5 5 5 5 5 5 5 5 5 5 5 5 6 5 6 5 5 5 5 5 5 6 5 5 5 5 5 5 5 5 5 5 5 5 5 5 5 5 5 6 5 6 5 5 6 5 5 5 5 5 5 5 5 5 6 5 5 5 5 5 5 5 6 5 5 5 6 5 5 5 5 5 5 5 5 5 5 5 6 5 5 6 5 5 5 5 5 5 5 5 5 5 5 5 5 5 5 5 5 6 5 6 5 5 6 5 5 5 5 5 5 5 5 5 5 5 5 5 5 5 6 5 5 6 6 5 5 5 6 5 5 5 5 5 5 5 5 5 5 5 6 5 5 5 5 5 5 5 5 5 5 5 6 5 5 5 5 5 5 5 5 6 5 5 5 6 5 6 5 5 5 5 5 5 5 5 5 6 5 6 5 5 5 5 5 5 5 6 6 5 6 5 5 5 5 5 5 5 6 5 5 6 5 5 5 6 5 5 5 6 6 5 5 6 5 5 6 5 5 6 5 6 5 5 5 5 5 6 5 5 6 5 6 5 6 5 6 5 6 5 5 5 5 6 5 5 6 5 5 6 5 5 5 5 6 5 5 5 6 6 6 5 5 5 6 5 5 6 5 5 5 6 5 5 5 5 5 5 5 5 5 6 5 5 5 5 6 6 5 5 6 5 5 5 5 5 5 5 5 5 6 6 5 5 5 5 5 5 5 5 5 5 6 5 5 5 5 5 5 5 5 5 5 5 5 5 6 6 5 5 6 5 5 6 5 5 5 6 5 5 5 5 5 5 5 5 5 5 5 5 5 6 5 5 5 5 5 5 5 5 5 5 5 6 5 5 5 5 5 5 5 5 5 5 5 6 5 5 5 5 5 5 5 5 5 5 5 5 5 5 5 5 6 5 5 5 6 5 5 5 6 5 5 5 5 5 5 5 5 5 5 5 6 5 5 5 5 5 6 5 5 5 5 5 5 5 5 5 5 5 6 5 5 5 6 5 5 5 5 5 5 6 6 5 6 5 6 5 5 5 5 5 6 5 5 5 5 6 5 6 5 5 5 5 5 6 5 5 5 5 6 5 6 5 5 5 5 5 6 5 5 6 5 5 5 6 5 5 5 5 5 6 5 5 5 5 5 5 6 6 5 5 5 5 5 5 5 5 5 5 5 5 5 5 5 5 5 5 5 5 5 5 5 5 5 5 5 5 5 5 5 5 5 5 5 5 5 6 6 5 5 5 5 5 5 5 5 5 5 5 5 5 5 5 5 6 5 5 6 5 5 5 5 5 5 6 5 5 5 5 6 5 5 5 5 5 5 5 6 5 5 5 5 5 5 5 5 6 5 5 5 5 5 5 5 5 5 5 5 5 5 5 5 5 6 5 5 5 5 5 5 5 5 5 5 5 6 5 5 5 5 5 6 5 5 5 5 5 6 5 5 5 6 6 5 5 5 5 5 5 5 5 5 5 6 5 5 5 5 5 5 5 5 5 5 5 5 5 5 5 5 5 5 5 5 5 6 5 5 5 5 5 5 5 5 5 5 6 5 5 5 5 5 5 5 6 5 5 6 5 5 5 5 5 5 5 5 5 5 5 5 5 5 5 5 5 5 6 6 5 5 5 5 5 5 6 5 5 5 6 6 5 5 5 5 5 5 6 5 5 6 5 5 5 6 5 5 6 5 6 5 5 5 6 5 5 5 5 6 5 5 5 5 5 5 5 5 5 6 5 5 5 5 5 5 5 5 5 5 5 5 5 5 5 5 5 6 5 6 5 5 5 5 5 5 5 5 5 5 5 5 5 5 5 5 5 5 5 5 5 6 5 5 5 5 5 5 5 5 5 5 5 5 5 5 5 5 5 5 5 5 6 5 5 6 5 5 6 5 5 5 5 5 5 5 5 5 6 5 5 5 6 5 5 5 5 6 5 5 6 5 5 6 5 5 6 5 5 5 5 5 5 5 5 5 6 5 5 6 5 6 5 5 5 6 6 5 5 5 6 6 5 6 6 5 5 5 6 5 5 5 5 5 5 5 5 5 5 5 5 5 6 5 6 5 5 5 5 5 5 5 6 5 5 5 5 5 5 5 5 6 5 5 5 5 6 5 6 5 5 5 6 5 5 5 5 6 5 5 6 6 5 6 5 5 6 5 5 5 6 6 6 5 5 5 5 5 5 5 5 5 5 5 5 5 5 5 5 5 6 5 5 6 5 5 5 6 5 5 6 5 5 6 6 6 6 5 5 5 6 5 5 5 5 6 5 6 5 6 5 5 5 5 6 5 5 5 5 5 6 6 6 5 5 5 5 5 5 5 6 5 6 5 6 6 5 6 5 5 6 6 5 5 5 5 5 6 5 5 5 6 5 5 6 5 5 5 5 5 5 5 5 5 5 5 5 5 5 5 5 5 5 6 5 5 5 6 5 5 5 5 6 5 6 5 5 5 6 5 5 5 5 5 5 5 5 5 5 6 5 5 5 5 5 5 5 5 6 5 5 5 5 5 6 5 6 5 5 6 5 5 5 5 5 5 5 5 5 5 5 6 5 5 6 5 5 5 5 5 5 5 6 5 6 5 6 5 5 5 6 5 6 5 5 6 5 5 6 6 6 5 5 5 5 5 6 5 5 6 5 5 5 6 6 5 6 5 6 5 5 5 6 6 6 5 5 5 6 5 5 5 5 5 6 5 5 5 5 6 5 5 5 6 5 6 5 5 5 6 5 5 5 5 5 5 5 5 5 5 5 5 5 5 5 5 5 5 5 5 5 5 5 5 5 5 5 5 5 5 6 5 5 5 5 5 5 5 5 5 5 5 5 5 5 5 5 5 5 5 6 5 5 5 5 5 5 5 5 5 5 5 5 5 5 5 5 5 6 6 5 5 6 5 5 6 5 5 5 6 5 6 5 6 5 6 5 5 5 5 5 5 5 5 5 5 5 5 5 5 5 5 5 6 5 5 5 5 6 5 5 5 5 5 5 6 5 5 5 6 5 5 6 5 5 5 6 6 6 5 6 6 5 6 5 6 5 6 5 5 6 5 6 5 5 5 5 5 5 5 5 5 5 5 5 5 5 6 5 5 5 5 5 5 5 5 5 5 5 5 5 5 6 5 5 5 6 5 5 5 6 5 5 5 6 5 5 5 5 5 5 5 5 5 6 5 5 5 5 6 5 5 6 5 5 5 5 5 5 5 6 5 5 5 5 5 5 5 5 5 5 6 6 5 5 5 5 5 5 5 6 6 5 6 6 5 6 5 6 6 5 5 6 5 5 5 5 5 5 5 5 5 5 6 5 6 5 6 5 5 5 5 5 5 5 5 5 5 5 5 5 5 5 5 5 5 5 5 5 5 5 5 5 5 5 5 5 5 5 5 5 5 5 5 5 5 5 5 5 5 5 5 5 5 5 5 5 5 5 5 5 5 5 5 6 5 5 5 5 5 5 5 5 5 5 5 5 5 5 5 5 6 6 5 5 5 5 5 5 5 5 5 5 5 5 5 5 5 5 5 5 5 5 5 5 5 5 5 5 5 5 5 5 5 5 5 5 5 5 5 5 5 5 5 5 5 5 5 5 5 5 5 5 5 5 5 5 5 5 5 5 5 5 5 5 5 5 5 5 5 5 5 5 5 5 5 5 5 5 5 5 5 5 5 5 5 5 5 5 5 5 5 5 5 5 5 5 5 5 5 6 5 5 5 5 5 5 5 5 5 5 5 5 5 5 5 5 5 5 5 5 5 6 5 5 5 5 5 5 6 5 5 5 5 5 5 5 5 5 5 5 5 5 5 5 5 5 5 5 5 5 5 5 5 5 5 5 5 5 5 6 5 5 6 5 6 5 5 5 5 5 5 5 5 5 6 5 6 5 5 5 6 5 5 5 5 5 5 5 5 5 5 5 5 5 5 5 5 5 6 5 5 5 6 5 5 6 6 5 6 5 6 5 6 5 5 6 5 5 5 6 5 5 5 5 5 6 6 5 5 6 5 6 5 6 5 5 5 5 5 6 6 6 6 5 5 5 6 5 6 6 5 5 5 5 5 6 6 5 5 5 6 6 5 5 5 5 5 5 5 5 5 5 5 6 5 5 5 5 6 6 5 5 5 5 5 6 5 5 5 5 5 5 5 5 5 5 5 6 5 5 5 6 6 5 5 5 5 5 5 5 5 5 5 6 5 6 5 5 5 5 6 5 6 5 6 5 5 6 5 5 5 5 6 5 6 6 5 5 6 5 6 6 5 5 5 5 6 5 6 5 5 5 6 6 5 6 5 6 5 5 5 5 5 5 5 5 5 6 5 5 6 5 5 5 6 6 5 5 5 5 6 5 6 5 5 5 5 5 5 5 5 5 6 5 5 5 5 5 5 5 5 5 5 5 5 5 5 5 6 5 5 5 5 5 5 5 5 5 5 5 6 5 5 5 5 5 5 5 5 5 5 5 5 5 5 6 5 5 5 5 5 5 6 5 5 5 5 6 6 5 5 5 5 6 5 5 6 6 5 5 5 5 5 5 6 5 5 5 5 5 5 6 5 6 5 5 5 5 6 5 5 5 6 5 5 5 5 5 5 5 5 5 5 5 5 5 5 5 5 5 5 6 5 5 5 5 5 6 6 6 5 5 5 5 5 5 5 5 5 6 5 6 5 5 5 5 5 5 5 5 5 5 5 5 5 6 6 5 5 5 5 5 5 5 6 5 5 5 5 6 5 5 5 5 5 5 5 5 6 5 5 5 5 5 5 5 5 5 5 5 5 5 5 5 5 5 5 5 5 5 5 5 5 5 5 5 5 5 5 5 5 5 5 6 5 5 5 5 5 5 5 5 5 5 5 5 5 5 5 5 5 5 5 5 5 5 6 5 5 5 5 5 5 5 5 5 6 5 6 5 5 6 5 6 5 5 5 5 5 5 5 5 5 5 5 5 6 5 5 5 5 5 6 5 5 5 5 5 5 5 5 5 5 6 5 5 6 5 5 5 5 5 5 5 5 5 5 5 6 5 5 5 5 5 6 5 5 5 6 5 5 5 5 6 6 5 5 5 5 6 5 6 5 6 6 5 5 5 5 6 5 5 6 5 5 6 5 5 5 6 5 5 5 5 5 5 5 6 6 5 6 5 5 5 5 5 5 5 5 5 5 5 5 5 5 5 6 6 5 6 5 5 5 5 6 5 5 5 5 5 5 5 5 5 5 6 5 5 5 6 5 5 5 5 5 5 5 5 5 5 5 5 5 5 6 5 6 5 5 5 5 5 5 5 5 5 5 5 5 5 5 5 5 5 5 6 5 5 5 5 5 5 5 5 5 5 5 5 5 5 5 5 5 5 5 6 5 5 5 5 5 5 5 5 5 6 5 5 5 6 5 5 5 5 5 5 5 5 6 5 6 5 5 5 5 5 6 5 5 5 5 5 5 5 5 5 5 6 5 5 5 5 6 5 5 5 5 6 5 5 6 5 5 5 6 6 5 5 5 5 6 6 5 5 5 5 5 6 5 5 5 5 5 6 5 5 6 5 5 5 6 5 5 6 5 5 5 5 5 5 6 5 6 5 5 5 6 6 5 5 6 5 5 6 5 5 5 6 5 5 5 5 5 5 5 5 5 6 6 5 5 5 6 5 5 6 5 5 5 5 5 5 5 5 5 6 5 5 5 5 5 5 5 5 5 5 5 6 5 5 5 5 6 5 5 5 5 5 5 5 5 6 5 5 5 5 6 5 5 5 5 6 5 5 6 5 5 6 6 5 5 6 5 5 5 6 6 5 6 5 5 6 6 6 5 6 5 5 5 6 5 5 6 5 5 5 5 5 5 6 5 5 5 5 5 5 6 5 5 6 6 5 5 6 6 5 5 5 6 5 5 6 6 5 5 5 5 5 6 6 6 5 6 5 5 6 5 6 5 5 5 6 5 6 6 5 5 6 5 5 5 6 5 6 5 5 6 5 5 6 5 5 5 5 5 5 5 5 5 5 5 5 5 6 5 5 5 6 6 5 6 5 5 5 6 5 6 5 5 5 5 5 5 5 6 5 5 5 5 5 5 5 5 5 5 5 5 5 5 6 5 5 5 5 5 6 5 5 5 6 5 5 5 5 6 6 6 5 5 5 5 6 5 5 6 5 5 5 6 5 5 6 5 6 5 6 5 5 5 5 5 5 5 5 5 5 5 5 5 5 6 5 5 5 5 5 5 5 5 5 6 5 5 5 5 5 6 5 5 5 5 5 5 6 5 5 6 5 5 5 5 5 5 5 6 6 5 6 5 5 5 6 5 5 5 6 5 5 5 5 5 6 5 6 6 5 5 5 5 6 5 5 5 5 5 6 5 5 5 6 5 6 5 5 5 5 5 5 5 5 5 5 5 5 5 5 5 5 5 5 5 5 5 5 5 5 6 5 5 6 5 5 5 5 6 6 5 5 5 6 5 5 5 5 5 5 5 5 6 5 5 5 5 5 5 6 5 5 6 5 5 5 6 5 5 5 6 5 6 6 5 5 6 5 6 5 5 6 5 5 6 6 5 5 6 5 5 5 5 5 5 5 5 6 6 5 5 5 6 5 5 6 5 6 6 5 5 6 6 5 5 6 5 5 6 5 5 6 6 5 5 5 5 6 5 5 5 6 5 6 5 6 5 6 5 5 6 5 5 5 6 6 5 5 5 6 5 6 5 6 6 5 5 5 6 5 6 5 6 5 6 5 5 5 5 5 5 5 5 5 5 5 5 6 5 5 5 5 5 5 5 5 5 6 5 5 5 6 5 5 5 5 6 6 5 5 5 5 5 6 5 5 6 6 6 5 5 5 5 6 5 5 6 5 5 5 6 5 5 6 5 6 5 5 5 5 5 5 6 5 5 5 5 5 5 5 5 6 5 5 5 5 5 5 5 5 5 6 5 5 5 5 5 5 5 5 5 5 6 5 5 5 5 5 5 5 5 5 5 6 5 5 5 5 5 5 5 5 5 5 5 5 5 5 5 5 5 5 5 5 5 5 5 5 5 5 5 6 5 6 5 6 5 5 5 5 5 5 5 5 5 5 6 6 5 5 5 5 5 5 6 5 5 6 6 5 5 5 6 5 5 5 6 5 6 5 5 5 5 5 6 5 6 5 5 6 5 5 6 5 5 6 6 5 6 5 6 5 5 5 6 5 6 6 5 5 5 6 5 5 6 5 5 5 5 5 6 5 5 6 5 5 5 6 5 5 5 5 6 5 5 6 5 5 6 5 6 5 5 5 6 6 5 5 5 5 5 5 6 5 5 5 5 5 5 5 5 5 5 5 5 5 5 5 5 5 5 5 5 6 5 5 5 6 5 5 5 6 6 5 5 6 5 6 5 6 5 5 5 6 5 5 5 6 6 6 5 5 6 5 5 5 6 5 5 6 5 6 5 5 5 6 6 5 6 6 5 5 5 5 5 5 6 5 5 5 6 6 5 5 5 5 5 5 5 5 5 6 5 5 5 5 6 5 5 5 5 5 5 5 5 5 5 5 5 5 5 5 5 5 6 5 5 5 5 5 5 5 5 5 5 5 5 5 5 5 5 5 5 5 5 5 5 5 5 5 5 6 5 5 5 5 5 5 6 6 5 6 5 5 5 5 5 5 5 5 5 5 5 5 5 6 5 6 6 5 5 6 5 5 5 5 5 5 6 5 5 5 5 5 5 5 5 5 6 5 5 5 5 5 5 5 5 5 5 6 5 5 6 5 6 6 5 5 5 5 5 5 5 5 6 5 5 5 5 5 5 6 5 5 5 5 6 5 6 6 5 5 5 5 5 5 5 5 6 5 5 5 5 5 5 5 5 6 5 5 5 5 5 5 5 6 5 6 5 5 6 6 5 6 6 5 5 5 6 5 5 5 5 5 5 6 5 6 5 5 6 5 5 5 5 5 5 6 5 6 5 6 5 6 6 5 5 5 5 6 5 5 5 5 5 5 5 5 5 6 5 5 5 5 5 5 6 5 5 5 6 5 5 6 5 6 5 5 5 5 6 5 6 5 5 5 5 5 6 6 5 5 5 5 5 5 5 5 5 5 5 5 5 5 5 5 5 5 5 5 5 5 5 5 5 5 5 5 5 5 5 5 5 5 5 5 5 5 5 5 5 5 5 5 5 5 5 5 6 5 5 6 6 5 5 5 5 6 5 5 5 5 5 5 5 5 5 5 5 5 5 5 5 5 6 5 5 6 5 6 5 5 5 5 5 5 5 5 5 5 5 5 5 5 5 5 6 5 5 5 5 5 5 6 5 5 5 5 5 5 5 5 5 5 5 5 6 5 5 5 5 6 5 5 5 5 5 5 5 5 5 6 5 5 5 5 6 5 5 5 5 5 5 5 5 5 5 6 5 5 6 6 5 5 5 5 5 5 5 5 5 5 5 5 5 5 5 5 6 5 5 5 5 5 6 5 5 5 6 5 5 5 5 6 5 6 5 5 5 6 6 5 5 5 5 5 6 5 6 5 5 5 5 5 5 5 6 5 5 5 5 5 6 6 5 5 6 5 5 5 6 5 6 5 5 6 5 5 5 6 5 5 5 5 5 5 6 5 6 5 5 5 6 5 5 5 5 5 5 5 5 5 5 5 5 5 5 5 5 5 5 5 5 6 5 5 6 6 5 5 6 5 5 6 5 5 5 5 5 5 5 5 5 5 5 5 5 5 5 5 5 5 5 5 5 5 5 5 5 5 5 5 6 5 5 5 6 5 5 5 5 5 5 5 5 5 6 5 5 5 6 5 6 5 5 5 5 6 5 5 5 5 6 5 5 5 6 5 5 5 6 5 5 5 6 5 5 5 5 5 5 6 5 5 5 5 5 5 5 5 5 5 5 6 5 5 5 5 5 5 5 5 5 5 5 5 5 5 5 5 5 6 5 5 6 6 5 5 6 5 6 6 5 5 5 5 5 5 6 6 5 5 6 6 5 5 6 5 6 5 6 5 5 5 5 5 5 5 5 5 6 5 5 5 5 6 5 5 5 5 5 5 5 6 6 5 5 5 5 5 5 5 5 5 5 5 6 5 5 5 6 5 5 5 5 5 5 6 5 5 5 6 5 5 6 6 5 5 6 5 5 5 6 5 6 5 5 5 5 5 5 5 6 5 5 5 6 5 6 5 5 5 5 5 5 6 5 5 5 5 5 5 5 5 5 5 5 5 5 5 5 5 5 5 5 5 5 6 5 5 5 5 5 5 5 5 5 5 5 5 5 6 5 5 5 5 5 5 5 5 5 5 5 5 5 5 5 5 5 5 5 6 5 5 6 5 5 5 5 6 5 5 5 5 5 5 5 5 6 5 5 5 5 5 5 5 5 5 5 5 5 5 6 5 5 5 5 6 5 6 5 5 5 5 5 5 6 5 5 5 5 6 5 5 5 6 5 5 5 5 5 5 5 6 5 5 5 5 5 6 5 5 5 5 5 5 5 6 5 5 5 6 5 5 5 5 5 6 5 5 5 5 5 5 5 5 5 5 5 5 5 5 5 5 5 6 5 5 6 5 5 6 5 5 5 6 5 5 5 6 5 5 5 5 5 5 5 5 5 5 6 5 5 5 5 6 5 5 5 5 5 5 5 5 6 5 6 5 5 5 5 5 6 5 6 5 5 5 5 5 6 5 5 5 5 5 5 5 5 5 5 6 5 5 6 5 5 5 5 6 5 5 5 6 5 5 5 5 5 5 5 5 5 5 5 5 5 5 5 6 5 5 5 5 5 5 6 5 5 5 5 5 5 5 5 5 6 5 5 6 5 5 6 5 6 5 5 5 5 5 5 5 5 6 5 5 6 5 5 6 5 6 5 5 5 5 5 5 5 5 5 6 5 5 5 5 5 6 5 5 5 5 5 5 5 5 5 5 5 6 5 5 5 5 5 5 5 5 5 6 5 5 5 6 5 5 5 5 6 5 5 5 5 6 5 5 6 5 5 5 5 5 5 6 5 5 5 5 5 5 5 5 5 5 5 5 6 5 5 5 5 5 6 5 6 5 5 5 5 5 5 5 5 5 5 5 5 5 5 5 5 5 5 5 5 5 5 5 5 5 5 5 5 5 5 5 5 5 5 5 5 5 6 5 5 5 5 5 5 5 5 5 5 5 5 5 5 5 5 5 6 5 5 5 5 5 5 5 5 5 5 5 5 5 6 5 5 6 6 6 5 5 5 5 5 5 5 5 5 5 5 5 5 5 5 6 6 5 5 5 5 6 5 6 5 5 5 5 5 5 5 5 5 5 5 5 5 5 5 5 5 5 5 6 5 6 5 
</DataArray>
<DataArray type="Float64" Name="stress" NumberOfComponents="9" format="ascii">
-3169.7703543048992 3364.9575791103271 0 3364.9575791103271 2.7480369392891619 0 0 0 0 -1.5563719319688971 956.13700683571551 0 956.13700683571551 -378.49151926124614 0 0 0 0 -1.0965200228107896 7.4804480924529173 0 7.4804480924529173 -9.1835152681820773 0 0 0 0 2030.7358846906718 350.2520856543124 0 350.2520856543124 -776.41930958091689 0 0 0 0 -439.56685594805458 923.80337184334348 0 923.80337184334348 1.0437268120876979 0 0 0 0 1253.8279108332645 730.78209830758715 0 730.78209830758715 -220.8128416351974 0 0 0 0 -1206.5164696911525 697.65579899723525 0 697.65579899723525 25.615351664448099 0 0 0 0 935.30615381007374 -202.72515303327236 0 -202.72515303327236 -77.076697036725818 0 0 0 0 -971.89123114221729 903.64578753747628 0 903.64578753747628 343.97995052268379 0 0 0 0 -0.24438212045226759 15.634940571983861 0 15.634940571983861 -19.534528395248742 0 0 0 0 -93.77133082950786 977.0740136540627 0 977.0740136540627 495.294500757067 0 0 0 0 558.46379004748087 757.76415371787084 0 757.76415371787084 -668.97287426597904 0 0 0 0 -795.62734897701012 354.74917970225943 0 354.74917970225943 -45.695093113332405 0 0 0 0 -2845.671262386968 1562.8712778642584 0 1562.8712778642584 -140.65901010049856 0 0 0 0 -2331.3796098853636 1076.044953126795 0 1076.044953126795 -34.624311668943847 0 0 0 0 -1969.6163866452989 916.60326273182 0 916.60326273182 27.646390913991127 0 0 0 0 -1855.7918099857634 1091.0936220041694 0 1091.0936220041694 -190.39451989613008 0 0 0 0 -1471.9060697951354 542.58025606907904 0 542.58025606907904 -18.255394557585532 0 0 0 0 -1752.1743428980626 935.17192878270362 0 935.17192878270362 18.160854261688655 0 0 0 0 -1658.944286193022 1206.1270112017701 0 1206.1270112017701 -517.49561615241691 0 0 0 0 -1215.8015080495097 723.73780623178754 0 723.73780623178754 -345.9953549055208 0 0 0 0 2919.1551438128972 1278.3491732945599 0 1278.3491732945599 -3317.2548992676602 0 0 0 0 -0.1253974873235979 9.2099219680586657 0 9.2099219680586657 -10.320487502322464 0 0 0 0 279.84364015527535 405.55572609805677 0 405.55572609805677 182.57218165136874 0 0 0 0 523.46718055508973 681.94599961525819 0 681.94599961525819 -232.05941091691784 0 0 0 0 569.4337798908382 465.94800484045118 0 465.94800484045118 -535.47007425755146 0 0 0 0 175.80469410113051 1137.8686280685704 0 1137.8686280685704 1045.4523557056382 0 0 0 0 5.7436480326265098 4.8810697214155425 0 4.8810697214155425 2.0890955286228632 0 0 0 0 2460.0373927557084 -510.39827897616487 0 -510.39827897616487 -1071.9007084160985 0 0 0 0 13.198404260134069 18.141368703143314 0 18.141368703143314 -14.669321735901235 0 0 0 0 1881.3359384030191 -457.76387154651457 0 -457.76387154651457 -119.50493881327566 0 0 0 0 -2116.6152822385993 1591.4489236047084 0 1591.4489236047084 -202.23214542451024 0 0 0 0 -1392.839116224648 1450.7106543469672 0 1450.7106543469672 -909.65661869963515 0 0 0 0 512.92591679546604 -34.708126139550586 0 -34.708126139550586 726.39830973052449 0 0 0 0 9.171936616136577 8.9066723087313733 0 8.9066723087313733 3.8089707937817252 0 0 0 0 651.51419892038393 -146.46678358347708 0 -146.46678358347708 -275.10887643682508 0 0 0 0 -42.307946002052631 391.12941271145246 0 391.12941271145246 198.9713926595723 0 0 0 0 4.21962612075734 4.3546361812396412 0 4.3546361812396412 4.2929612515442273 0 0 0 0 206.81296991908687 -560.70491329104402 0 -560.70491329104402 -545.17641166341491 0 0 0 0 2249.1234899735282 -297.11142097215634 0 -297.11142097215634 -975.48961619011243 0 0 0 0 -3503.1544798559626 1665.6534039795806 0 1665.6534039795806 202.6552118716063 0 0 0 0 3.7081410887719102 7.6008701174804401 0 7.6008701174804401 -4.0724839509713888 0 0 0 0 -1294.736885235885 275.60940946182382 0 275.60940946182382 -661.31779068693868 0 0 0 0 -835.65511213202262 534.9514045757096 0 534.9514045757096 -377.99018804627121 0 0 0 0 -1176.1128605157496 1362.9483792258625 0 1362.9483792258625 -629.03886942124518 0 0 0 0 2.592676758656296 3.1729553518670457 0 3.1729553518670457 2.7560468365505244 0 0 0 0 -1090.3434071751326 583.12538500525625 0 583.12538500525625 -1.028149698919151 0 0 0 0 -882.43208032137045 897.52902609081502 0 897.52902609081502 300.37676797901804 0 0 0 0 1294.898212361004 -535.56012280877985 0 -535.56012280877985 -547.54508695515688 0 0 0 0 -467.3891273370391 928.0565112812983 0 928.0565112812983 0.95222221518204431 0 0 0 0 1.4397435246185353 -2.7848576390209416 0 -2.7848576390209416 -10.980556777665015 0 0 0 0 78.032418282382423 64.106435706125922 0 64.106435706125922 -60.304509587673238 0 0 0 0 5.319338028504319 9.751873276586025 0 9.751873276586025 12.739587185152061 0 0 0 0 2366.9994798935004 366.93894825688403 0 366.93894825688403 -132.43601625051815 0 0 0 0 -148.36938160538557 -76.399129477606039 0 -76.399129477606039 147.64753874749294 0 0 0 0 755.60700917019858 63.910096777748549 0 63.910096777748549 -73.962362241261872 0 0 0 0 42.072481577459257 112.66058590575994 0 112.66058590575994 68.030677588976687 0 0 0 0 9.3074643283227374 10.931882546728247 0 10.931882546728247 10.817642474261504 0 0 0 0 -25.308180089574307 144.97090587791172 0 144.97090587791172 -131.56198076877627 0 0 0 0 52.469317757750105 717.3307194944864 0 717.3307194944864 -115.17542111285729 0 0 0 0 171.8668755145045 -89.087976548529696 0 -89.087976548529696 -134.30014226153435 0 0 0 0 30.644501439805026 74.792421164864209 0 74.792421164864209 0.26188303885174624 0 0 0 0 -0.13875239525407324 5.5376752644910283 0 5.5376752644910283 -6.406914912810123 0 0 0 0 669.06119109327665 945.07222985440421 0 945.07222985440421 625.17736330850312 0 0 0 0 1249.1531974471436 1896.0117498494001 0 1896.0117498494001 6.5146761545019798 0 0 0 0 1078.1476185266765 677.6972439167148 0 677.6972439167148 5.1850469789351337 0 0 0 0 531.24973931492423 637.70385498764517 0 637.70385498764517 699.23868625066461 0 0 0 0 610.61337251526129 398.07704792360164 0 398.07704792360164 259.0914165228096 0 0 0 0 538.17964127230516 282.01288694243704 0 282.01288694243704 -15.492677061200084 0 0 0 0 579.97037510183873 486.57340349756851 0 486.57340349756851 179.55936929343443 0 0 0 0 525.51709727707203 338.92442910221871 0 338.92442910221871 96.471805416123971 0 0 0 0 706.0194011240892 374.15281922255963 0 374.15281922255963 -142.49486573998001 0 0 0 0 621.26175608726771 296.03745295997214 0 296.03745295997214 -207.20385214738781 0 0 0 0 520.56499362780596 162.37272467654839 0 162.37272467654839 -297.04750636852623 0 0 0 0 511.99781597914443 289.21074700777717 0 289.21074700777717 -235.0773378941376 0 0 0 0 477.63656117051687 157.14980174287484 0 157.14980174287484 -329.85446864034748 0 0 0 0 502.35996767907636 203.94220244590542 0 203.94220244590542 -206.08361364316079 0 0 0 0 536.68955781969998 221.12023335139384 0 221.12023335139384 -113.4445977053183 0 0 0 0 599.54058206621994 341.76283867661004 0 341.76283867661004 -164.32066201114503 0 0 0 0 -150.54759539422957 -146.8015184285623 0 -146.8015184285623 104.85964951396454 0 0 0 0 187.82966637419304 72.697293926175917 0 72.697293926175917 -258.79159523799899 0 0 0 0 1.4352100657271478 -0.12727007023877945 0 -0.12727007023877945 -6.7058992278419964 0 0 0 0 135.78906925709452 269.26230894435139 0 269.26230894435139 -203.1444849659747 0 0 0 0 -1.2383984658954432 290.32040535886335 0 290.32040535886335 -47.189908637548797 0 0 0 0 314.65603025499149 70.927346375698107 0 70.927346375698107 -61.428818454951397 0 0 0 0 236.70203065813985 274.30643979298475 0 274.30643979298475 -146.29402432298957 0 0 0 0 197.98675202236336 99.142600699124159 0 99.142600699124159 -321.62445961066987 0 0 0 0 -267.97187653713627 113.79381647100672 0 113.79381647100672 -200.04657585236419 0 0 0 0 233.15369283138716 218.49556560016936 0 218.49556560016936 -267.76327511412092 0 0 0 0 231.42907148598397 263.6972050966865 0 263.6972050966865 -383.03895221225685 0 0 0 0 -0.20775192057406855 -0.14782747701408994 0 -0.14782747701408994 -1.6826250841873502 0 0 0 0 -532.26359407488417 579.6426704503865 0 579.6426704503865 -200.27946526776941 0 0 0 0 468.33607553606271 14.111365724747884 0 14.111365724747884 88.917411584821821 0 0 0 0 229.05367010782356 324.78429309657804 0 324.78429309657804 -248.78772488014511 0 0 0 0 56.969828114713891 485.18199590840959 0 485.18199590840959 -369.62030969060288 0 0 0 0 380.14575253849762 217.60547687383587 0 217.60547687383587 -237.62146800184564 0 0 0 0 107.81602198451583 172.05332471129077 0 172.05332471129077 -259.02165064588189 0 0 0 0 242.93495541899756 258.30061140392354 0 258.30061140392354 -245.88066618212906 0 0 0 0 421.76043535451754 152.04910831860616 0 152.04910831860616 -317.17664732639969 0 0 0 0 213.05297741322283 376.86010544572127 0 376.86010544572127 -129.94062078361458 0 0 0 0 376.72815004862787 303.89710948344145 0 303.89710948344145 -102.33338403337984 0 0 0 0 554.68597115205921 237.75361167989649 0 237.75361167989649 -324.34278825791262 0 0 0 0 455.1944330510596 262.68767375911557 0 262.68767375911557 -315.23900328752643 0 0 0 0 483.192029325568 216.94435104238073 0 216.94435104238073 -283.79509118041824 0 0 0 0 446.73420690500643 201.16836868016253 0 201.16836868016253 -286.85875797933841 0 0 0 0 383.10294459666329 246.51246267604074 0 246.51246267604074 -134.10183270733978 0 0 0 0 486.37042046431452 224.65115427702403 0 224.65115427702403 -269.09851855809393 0 0 0 0 472.06586598414287 334.51329750775039 0 334.51329750775039 -233.923078483469 0 0 0 0 405.01376962091308 263.71821408409596 0 263.71821408409596 -164.62935247308633 0 0 0 0 207.94885977175727 444.33293091302767 0 444.33293091302767 -63.941273617863772 0 0 0 0 427.76669855234286 309.73263615922042 0 309.73263615922042 4.1795269402937265 0 0 0 0 470.93797459806956 293.86750202353869 0 293.86750202353869 -136.31285525794146 0 0 0 0 516.75467014229434 548.70275135104657 0 548.70275135104657 92.94059640391788 0 0 0 0 403.65393622412375 397.3294460568286 0 397.3294460568286 389.59298494612449 0 0 0 0 442.95057617470047 302.16007055637147 0 302.16007055637147 19.587421792530222 0 0 0 0 260.83886820884072 340.41906924015348 0 340.41906924015348 285.40011462629627 0 0 0 0 406.6598526132002 443.22187299811776 0 443.22187299811776 93.553237920903484 0 0 0 0 479.00071637975634 612.98744597355835 0 612.98744597355835 374.36650580179048 0 0 0 0 -108.20756398666708 23.703643639393704 0 23.703643639393704 -114.71501071713283 0 0 0 0 -15.296235476670233 56.065850613389095 0 56.065850613389095 -75.300606570526497 0 0 0 0 345.51410509725974 55.567636535117344 0 55.567636535117344 -465.25671257418435 0 0 0 0 392.49055208465506 421.41727778456152 0 421.41727778456152 67.807849398617691 0 0 0 0 -14.876433948748257 58.378829615820209 0 58.378829615820209 -80.836166211518616 0 0 0 0 51.510132805153262 284.26775472065492 0 284.26775472065492 -192.74709997743776 0 0 0 0 -262.59636724629672 297.8007924521844 0 297.8007924521844 -13.9660583218174 0 0 0 0 122.61953091285613 385.94807166183637 0 385.94807166183637 -226.51082749724446 0 0 0 0 -152.30108388794179 545.11030842337641 0 545.11030842337641 -241.43138146167621 0 0 0 0 -46.034033069154248 375.46016689993849 0 375.46016689993849 -209.51089319288076 0 0 0 0 -1010.808981842194 619.64471261486688 0 619.64471261486688 57.084371202232433 0 0 0 0 -416.51441259786225 291.98987383064377 0 291.98987383064377 -68.497724970584386 0 0 0 0 -12.66705926755094 28.113233987765852 0 28.113233987765852 28.206724201156248 0 0 0 0 -1067.8133033525955 -63.391269501680654 0 -63.391269501680654 -446.41073484384106 0 0 0 0 6.9733936484059456 14.537637482470103 0 14.537637482470103 28.828251533980449 0 0 0 0 -13.207246864796616 37.385570473255939 0 37.385570473255939 31.863135287600016 0 0 0 0 -0.016042616800405085 41.57721071857668 0 41.57721071857668 15.060035614296794 0 0 0 0 -21.177474278571026 53.229752770599589 0 53.229752770599589 20.959774087095866 0 0 0 0 4.9657590569858456 37.9705556984444 0 37.9705556984444 51.220162400428364 0 0 0 0 -303.64102298287617 377.1586973425874 0 377.1586973425874 -63.597295468897528 0 0 0 0 1.6409022797743091 51.594198115635663 0 51.594198115635663 3.2226555543820723 0 0 0 0 1.533763857500162 37.517894351258292 0 37.517894351258292 18.252379973193456 0 0 0 0 0.029486769781215116 40.353584915817919 0 40.353584915817919 26.759796437821933 0 0 0 0 1138.6664923157659 -1.3484556385337783 0 -1.3484556385337783 -2334.5766092596459 0 0 0 0 -7.5639314561231572 5.6831039361498767 0 5.6831039361498767 -4.7236584841312776 0 0 0 0 -150.53680228728626 164.57369275064775 0 164.57369275064775 -1286.8701294971397 0 0 0 0 12.253978265087781 27.480729045563578 0 27.480729045563578 -34.691258188454867 0 0 0 0 -485.36774340242846 948.01995557190821 0 948.01995557190821 -44.742199464322766 0 0 0 0 -6.994848024154976 21.3341890696748 0 21.3341890696748 -7.4470458480358275 0 0 0 0 104.98306021593453 -1302.4231232796883 0 -1302.4231232796883 -3164.7855503789906 0 0 0 0 -1377.8759332181944 1958.0804912849853 0 1958.0804912849853 -1950.8015546246024 0 0 0 0 -234.62736347448663 224.96564452128951 0 224.96564452128951 1159.6349341727328 0 0 0 0 298.93847524942248 249.10810819034668 0 249.10810819034668 -286.55861769983312 0 0 0 0 379.23562027214211 383.33982490971539 0 383.33982490971539 -250.52417272047023 0 0 0 0 296.65047617342861 267.16440873434658 0 267.16440873434658 -410.48372931688209 0 0 0 0 171.92544682436346 484.56866957722741 0 484.56866957722741 -180.4542285354255 0 0 0 0 293.06785621984454 514.42185467768286 0 514.42185467768286 -282.32490501966095 0 0 0 0 193.76169452481554 351.40020082618139 0 351.40020082618139 -80.501263482219656 0 0 0 0 202.85179610432897 461.10997438436243 0 461.10997438436243 66.035216241449234 0 0 0 0 216.06541245439439 216.55071508782567 0 216.55071508782567 -299.34674780133355 0 0 0 0 -12.061443340101079 66.110916531141243 0 66.110916531141243 -78.712005139250948 0 0 0 0 167.75548072221136 284.1923807334897 0 284.1923807334897 -239.48328978195786 0 0 0 0 -612.52610222947987 342.85071937961038 0 342.85071937961038 58.622199528341298 0 0 0 0 -767.23449615323625 146.50306839155246 0 146.50306839155246 -85.761617694079177 0 0 0 0 166.61065671737015 562.45161993075453 0 562.45161993075453 84.330616340324923 0 0 0 0 -734.43578577668814 186.7876083104893 0 186.7876083104893 140.32653967311489 0 0 0 0 -739.63474969197341 587.23674773229322 0 587.23674773229322 378.01036884523637 0 0 0 0 -1567.6310921750264 145.99699118268472 0 145.99699118268472 240.24131172026682 0 0 0 0 -930.8954406047269 409.55092472739489 0 409.55092472739489 4.4869152403261978 0 0 0 0 -2100.8164197077467 86.761130024041449 0 86.761130024041449 58.432562942078221 0 0 0 0 -1.9211924216382066 0.71804937580921546 0 0.71804937580921546 -3.5022931589163591 0 0 0 0 -918.55999305111618 745.88973540627194 0 745.88973540627194 -0.83822869274004941 0 0 0 0 -844.31375414576723 663.26593115982541 0 663.26593115982541 -81.982527893116639 0 0 0 0 -681.56789647139522 796.62169639674903 0 796.62169639674903 0.10317321672396662 0 0 0 0 96.919481379765784 1080.9428932952142 0 1080.9428932952142 50.747426900594292 0 0 0 0 2095.4978092542515 651.66208392221597 0 651.66208392221597 -272.59566861851636 0 0 0 0 -1.5851040265394616 7.587730135736507 0 7.587730135736507 -3.0622351769064835 0 0 0 0 -3576.0599038371856 1097.0574966127704 0 1097.0574966127704 518.18898195205838 0 0 0 0 152.97785980439221 505.86187673578388 0 505.86187673578388 247.54613716659514 0 0 0 0 -1862.0315166747605 971.84953132871306 0 971.84953132871306 -511.39425847693565 0 0 0 0 65.301908973051468 159.89379100056976 0 159.89379100056976 -153.85886863258202 0 0 0 0 -35.940925530972891 606.6748438411887 0 606.6748438411887 -1668.1082398686121 0 0 0 0 -1918.9609177983511 824.36968101168895 0 824.36968101168895 796.59074262755166 0 0 0 0 -4.621023710303632 5.8601816335872314 0 5.8601816335872314 -6.0510047143348515 0 0 0 0 -746.0262463495601 165.29258262419171 0 165.29258262419171 341.88162191610172 0 0 0 0 261.87510072603436 230.66669831315994 0 230.66669831315994 21.151760161228594 0 0 0 0 363.71371902843475 765.060343229512 0 765.060343229512 436.16423458246572 0 0 0 0 -1269.7909675289193 1233.4910261984332 0 1233.4910261984332 -190.6618959557818 0 0 0 0 -639.0741270028775 638.46234136569183 0 638.46234136569183 134.61986432176491 0 0 0 0 -374.66019076589873 726.40509096409369 0 726.40509096409369 0.37113357849011663 0 0 0 0 60.408814818394603 175.31030240518885 0 175.31030240518885 94.883649398543639 0 0 0 0 110.89584402430773 574.56575989706107 0 574.56575989706107 101.64379698761331 0 0 0 0 -3.2553061523744589 2.7800721520987182 0 2.7800721520987182 6.9896978214750334 0 0 0 0 335.99225488084267 282.67406264481906 0 282.67406264481906 280.10748351698567 0 0 0 0 886.42329812985554 604.61971539607475 0 604.61971539607475 124.65847996760931 0 0 0 0 179.93506680635619 408.75716669341637 0 408.75716669341637 257.24892990553053 0 0 0 0 978.14556550003181 569.48128529551468 0 569.48128529551468 -0.11372242715776236 0 0 0 0 -111.45389009005885 -27.567371838602412 0 -27.567371838602412 53.087726756173652 0 0 0 0 30.819293909415137 74.607777066386916 0 74.607777066386916 -0.24152364274777938 0 0 0 0 2.486833166703704 -1.7609671786534591 0 -1.7609671786534591 -0.3662685622800268 0 0 0 0 545.58173650499884 545.25765215569118 0 545.25765215569118 340.58480214691372 0 0 0 0 -23.97156795427145 63.746648979911697 0 63.746648979911697 53.087726756164578 0 0 0 0 -4.3371427717193853 13.107674474484831 0 13.107674474484831 -13.880766001203511 0 0 0 0 547.52655207777025 401.07941110350521 0 401.07941110350521 36.551158056157874 0 0 0 0 469.22644357077661 300.54711796969059 0 300.54711796969059 301.02798876071029 0 0 0 0 -157.5553307873779 91.736246334126918 0 91.736246334126918 11.002000123684411 0 0 0 0 -2.4971313476367101 1.8780428613949027 0 1.8780428613949027 4.0683893850994082 0 0 0 0 630.97224530621315 367.20946767722853 0 367.20946767722853 -5.9017328343470581 0 0 0 0 -9.0732344039015231 14.708586334375923 0 14.708586334375923 -11.602157179340651 0 0 0 0 290.18289055580681 249.97241444737301 0 249.97241444737301 -224.45737407116394 0 0 0 0 455.87990362124401 471.49148431108915 0 471.49148431108915 -67.855624832824105 0 0 0 0 510.74229756668501 321.99796285496268 0 321.99796285496268 -256.74359146943607 0 0 0 0 461.84071421723638 218.12986938361428 0 218.12986938361428 -94.145662453622208 0 0 0 0 308.10805470208288 416.86380643825396 0 416.86380643825396 -417.0826091501076 0 0 0 0 416.80891705890008 236.11842029978834 0 236.11842029978834 -325.6525607011572 0 0 0 0 405.57270135676572 463.32238694944863 0 463.32238694944863 -565.86847454032977 0 0 0 0 373.54010647344694 622.74820768095742 0 622.74820768095742 -1075.6037950603932 0 0 0 0 -34.735388857483485 627.57165888125746 0 627.57165888125746 -371.61307944363216 0 0 0 0 -38.381969366091653 610.57721166820556 0 610.57721166820556 -447.2482327611142 0 0 0 0 278.57399937782611 396.42845644798217 0 396.42845644798217 -366.94676988958963 0 0 0 0 -505.21133240906056 744.81166219981969 0 744.81166219981969 -284.18919803330209 0 0 0 0 -120.84249328093574 464.99067876771369 0 464.99067876771369 -184.26310059477692 0 0 0 0 -51.149335131733096 524.85604426602367 0 524.85604426602367 -317.18417834689535 0 0 0 0 240.25426643736864 328.00001884443191 0 328.00001884443191 -254.33736175033846 0 0 0 0 455.10770442115609 257.79824271188772 0 257.79824271188772 -341.57113864892744 0 0 0 0 288.64532275694364 398.37752608837764 0 398.37752608837764 -296.48916262510102 0 0 0 0 241.86440470612433 316.099059900057 0 316.099059900057 -143.20258075547463 0 0 0 0 -384.6290979263722 395.65322878291772 0 395.65322878291772 71.756081877036195 0 0 0 0 -139.69594795278681 376.77927486234694 0 376.77927486234694 -122.54893335254746 0 0 0 0 -271.8873426414284 553.0174578841652 0 553.0174578841652 -168.56254500961222 0 0 0 0 -817.76029029309575 613.4520136179126 0 613.4520136179126 -30.094516560493503 0 0 0 0 -458.54563597754168 388.94231694124755 0 388.94231694124755 -19.190875039130333 0 0 0 0 -383.00890895198972 394.58469627515296 0 394.58469627515296 -67.96670482148329 0 0 0 0 -893.24490360176424 437.18803088057757 0 437.18803088057757 46.905111599633528 0 0 0 0 -175.8592847190157 1079.1367616383723 0 1079.1367616383723 55.757720477489784 0 0 0 0 -946.68653952990826 656.31133663249329 0 656.31133663249329 18.893800001227646 0 0 0 0 -674.77701422289829 238.05658296652837 0 238.05658296652837 -36.033599650487304 0 0 0 0 -908.95049073678092 566.99117069647764 0 566.99117069647764 36.216655701273339 0 0 0 0 -1216.4605835830828 162.1679042194969 0 162.1679042194969 -43.538666518841637 0 0 0 0 -1181.9354738308029 851.75762625268544 0 851.75762625268544 -157.26108622725587 0 0 0 0 -647.32327492922195 574.45727625085419 0 574.45727625085419 -49.062904881713621 0 0 0 0 -1915.3098605925916 1314.2388412087239 0 1314.2388412087239 -478.71351265130943 0 0 0 0 -655.62119127060669 726.9652517455288 0 726.9652517455288 -296.95833767457225 0 0 0 0 -622.09565491069225 953.95915977141703 0 953.95915977141703 -489.44421147865069 0 0 0 0 -1593.0310442975169 138.3319814469578 0 138.3319814469578 -572.60321695156836 0 0 0 0 -2.1521561784822065 19.497945036205692 0 19.497945036205692 -5.0737114344565839 0 0 0 0 -1528.8983577629915 386.78498106396364 0 386.78498106396364 -196.61792237945338 0 0 0 0 817.25294790056796 618.88430952704221 0 618.88430952704221 41.376217641500261 0 0 0 0 195.75946130234661 361.10008778537303 0 361.10008778537303 221.66278881831386 0 0 0 0 -148.77565457300079 197.55000079551974 0 197.55000079551974 200.57252551199053 0 0 0 0 -883.96958654467016 54.13191590409042 0 54.13191590409042 -149.82322814813233 0 0 0 0 -2.9098105102833269 23.576371284232962 0 23.576371284232962 -2.4451664523259069 0 0 0 0 186.32928049994189 -16.512160983569629 0 -16.512160983569629 -291.35500380670419 0 0 0 0 -14.135236848662316 2.0955692936040577 0 2.0955692936040577 3.379481566567847 0 0 0 0 46.188612386667728 149.62557602894344 0 149.62557602894344 145.5095255614724 0 0 0 0 -341.13227130180167 -296.02981260510569 0 -296.02981260510569 191.62668219428087 0 0 0 0 -4.5823626453876045 3.2311839841369476 0 3.2311839841369476 7.9141017150894868 0 0 0 0 -20.220550295440262 34.46586186029981 0 34.46586186029981 -4.4433797017118195 0 0 0 0 -368.00613033112313 284.01760699580336 0 284.01760699580336 -297.83366232353728 0 0 0 0 -371.57539150351636 463.86871243646453 0 463.86871243646453 -479.97864331104211 0 0 0 0 -987.37294588463556 955.65763595932367 0 955.65763595932367 -527.0636762741924 0 0 0 0 -532.47147739723732 -366.05202307357104 0 -366.05202307357104 1827.0899061399687 0 0 0 0 -468.96307618674837 -170.87229006903726 0 -170.87229006903726 2347.5202920176962 0 0 0 0 50.105075804498483 853.32595139817749 0 853.32595139817749 2385.1366613715945 0 0 0 0 -470.42768685905321 617.52517587356124 0 617.52517587356124 1148.6965666677061 0 0 0 0 -26.698371377291551 481.03092455373917 0 481.03092455373917 877.11319399799686 0 0 0 0 -144.47319207248074 257.2828215839254 0 257.2828215839254 852.95720028772485 0 0 0 0 -453.28055470704567 735.27021249604149 0 735.27021249604149 451.98496401828743 0 0 0 0 79.850705374872632 687.63230234775801 0 687.63230234775801 68.78634988720296 0 0 0 0 -449.21342178938357 529.14220254358224 0 529.14220254358224 204.27498670087516 0 0 0 0 -2.7863725376227251 4.2659213293646872 0 4.2659213293646872 -0.46760630689903238 0 0 0 0 -449.97668363698085 470.4929641281289 0 470.4929641281289 -365.03820630822156 0 0 0 0 440.66163038063678 282.48923509346787 0 282.48923509346787 188.21561315111467 0 0 0 0 -280.46453542565723 167.00832735303993 0 167.00832735303993 -53.392171645609778 0 0 0 0 -275.53881208447274 185.20378071279993 0 185.20378071279993 -80.382061571770464 0 0 0 0 -246.52231913111609 352.87328003361108 0 352.87328003361108 -142.39250667710439 0 0 0 0 -356.67867663924699 304.77644332028285 0 304.77644332028285 -124.94038438511416 0 0 0 0 -165.07684741314006 249.76850886582542 0 249.76850886582542 -114.22881225585661 0 0 0 0 -333.48701483036712 298.76838180339109 0 298.76838180339109 -152.65551382541162 0 0 0 0 -558.69947576911363 227.06330549256018 0 227.06330549256018 -78.501960999506991 0 0 0 0 -322.72336330232793 168.01164457344839 0 168.01164457344839 -75.975866536609828 0 0 0 0 -398.94025245986995 347.15789103272255 0 347.15789103272255 -209.36720481453813 0 0 0 0 -406.94666239649814 331.84198410634417 0 331.84198410634417 -218.88151156030654 0 0 0 0 -581.55111492890137 425.57158054937463 0 425.57158054937463 -272.63664612258435 0 0 0 0 -571.50563636260995 398.96959650847566 0 398.96959650847566 -239.13326950161718 0 0 0 0 -908.42400607468153 573.4431984040566 0 573.4431984040566 -297.43836494607967 0 0 0 0 -275.73367184038216 370.1180882531371 0 370.1180882531371 -322.64680288783711 0 0 0 0 -372.14436462210142 428.93993553624023 0 428.93993553624023 -341.3977139490562 0 0 0 0 -406.45129605144757 342.21408343245639 0 342.21408343245639 -200.12872290989617 0 0 0 0 -404.07555048861468 354.10012530401582 0 354.10012530401582 -194.2541757793515 0 0 0 0 -598.17503335129004 327.64575912723012 0 327.64575912723012 -151.90218836484564 0 0 0 0 -9.8920202416619816 5.8978522426882876 0 5.8978522426882876 7.0985925331305282 0 0 0 0 -301.35811989485046 208.72775664414166 0 208.72775664414166 -118.56125115466421 0 0 0 0 -33.600430469195999 24.343118787437561 0 24.343118787437561 -14.808969982150302 0 0 0 0 61.881164688005811 880.08205960527266 0 880.08205960527266 1125.187056175273 0 0 0 0 1.401689092003517 27.567193096894954 0 27.567193096894954 -5.842045516956432 0 0 0 0 3417.3316912771043 -411.05019190176245 0 -411.05019190176245 -687.23107103474467 0 0 0 0 450.48358428656547 509.54213884931482 0 509.54213884931482 523.91368249918742 0 0 0 0 9.5116007912409088 12.603278917423125 0 12.603278917423125 1.8290533391881922 0 0 0 0 1.6266509952813735 3.6098412946246583 0 3.6098412946246583 -6.9592541656537037 0 0 0 0 1933.6497369424324 438.69763358274213 0 438.69763358274213 -476.30831696444511 0 0 0 0 -365.38922820965763 437.65427109312168 0 437.65427109312168 -161.6314309133013 0 0 0 0 -191.66115323825943 389.21751306224178 0 389.21751306224178 -148.1321188091315 0 0 0 0 -136.21215668165132 338.42674761471426 0 338.42674761471426 -160.12572829901183 0 0 0 0 -53.100353692665522 601.28841314149759 0 601.28841314149759 109.34791838405363 0 0 0 0 1034.7568221446709 814.53646575122548 0 814.53646575122548 -542.7759715594002 0 0 0 0 767.89104678187869 367.32398783934332 0 367.32398783934332 -14.182986304355836 0 0 0 0 1532.6366418029502 -325.56796203121485 0 -325.56796203121485 85.406396323329318 0 0 0 0 -2956.7826345531212 1212.4602698567905 0 1212.4602698567905 1104.6785311868443 0 0 0 0 -1243.5030016591627 -494.19826379609003 0 -494.19826379609003 -1995.93991905648 0 0 0 0 -2367.4001408348122 291.89802666189644 0 291.89802666189644 146.57192662396119 0 0 0 0 -1574.3713401200948 1970.6459727593174 0 1970.6459727593174 -710.29985483296332 0 0 0 0 -2197.3740502669243 1755.3016887384001 0 1755.3016887384001 1449.803295775404 0 0 0 0 -2344.453801515614 1347.4631076733494 0 1347.4631076733494 3677.1574124534382 0 0 0 0 535.19004600312473 1009.3541734118553 0 1009.3541734118553 323.74724861132563 0 0 0 0 -245.74638943263562 -278.36769835519226 0 -278.36769835519226 1807.748693135276 0 0 0 0 -1336.0024526196648 1091.1688975642828 0 1091.1688975642828 275.96331566813751 0 0 0 0 -2351.6693414360925 822.29900074924808 0 822.29900074924808 1968.0875880235617 0 0 0 0 2692.2614185202401 -1634.398662626103 0 -1634.398662626103 2295.0009037932614 0 0 0 0 9.7371400604057285 32.391902530322966 0 32.391902530322966 -8.1614626659719534 0 0 0 0 -2549.6806391835853 1575.8285811904061 0 1575.8285811904061 -362.42716998205287 0 0 0 0 -3168.2576423232713 1642.3754264707932 0 1642.3754264707932 1280.5963620486727 0 0 0 0 1998.9319338632267 -178.06844111648388 0 -178.06844111648388 -225.53311438194942 0 0 0 0 -2855.017545065115 -741.16578950010444 0 -741.16578950010444 -667.51175468962174 0 0 0 0 4663.9409884384368 -565.94689999188995 0 -565.94689999188995 -1263.9693415690854 0 0 0 0 -1885.5370530220389 -92.59033878876653 0 -92.59033878876653 -1590.0714063246414 0 0 0 0 3.9469699331124417 14.556457768549876 0 14.556457768549876 7.3388123034828254 0 0 0 0 -4079.8608510746635 641.09009712376792 0 641.09009712376792 622.66915487422375 0 0 0 0 -2324.2530956049886 1438.6312987881684 0 1438.6312987881684 -2.9690567441102758 0 0 0 0 -1408.6155999728908 90.066497439765953 0 90.066497439765953 25.457066331175156 0 0 0 0 -915.82673778106255 604.44304972879036 0 604.44304972879036 -183.63316857126483 0 0 0 0 -2627.0521899777232 -170.79752493933483 0 -170.79752493933483 -182.17681597184855 0 0 0 0 -1558.3673753196199 767.13162941545306 0 767.13162941545306 -354.4559426125561 0 0 0 0 -681.15255350813095 129.12440982706903 0 129.12440982706903 -65.318551486940123 0 0 0 0 -511.42330672645403 886.31902100325533 0 886.31902100325533 475.24419175853836 0 0 0 0 2.7987211137206032 859.62011818680639 0 859.62011818680639 333.55136937381758 0 0 0 0 -174.97134020235535 149.31981582622393 0 149.31981582622393 -380.76530305943743 0 0 0 0 288.40297620265483 245.80050050823047 0 245.80050050823047 -62.226499181975669 0 0 0 0 403.41900896956213 470.6007861776161 0 470.6007861776161 706.00814695285226 0 0 0 0 -23.409584995322717 49.551786445989457 0 49.551786445989457 -56.962702860334474 0 0 0 0 -77.952999933957472 24.383909490599763 0 24.383909490599763 -87.803704167963588 0 0 0 0 35.78075828794681 942.0194414002035 0 942.0194414002035 1045.1007029880529 0 0 0 0 51.110537675987871 659.73828914247861 0 659.73828914247861 2382.5815577589819 0 0 0 0 680.71402722648054 1030.7646157016316 0 1030.7646157016316 315.50079350930173 0 0 0 0 4.5854666917480813 18.276121385667324 0 18.276121385667324 -13.097275264058055 0 0 0 0 13.105981007492119 1.3371190026199997 0 1.3371190026199997 -39.708916822755214 0 0 0 0 -242.63041742795031 606.9713761838284 0 606.9713761838284 -1463.0969570700254 0 0 0 0 -306.61791476825601 973.57619915081887 0 973.57619915081887 -2805.2284370874841 0 0 0 0 -7.7769390056841416 6.9705127110687357 0 6.9705127110687357 -10.57260864980347 0 0 0 0 -82.709598640598415 34.50426877636437 0 34.50426877636437 -56.921292649523821 0 0 0 0 -74.167385651117002 63.200806329587977 0 63.200806329587977 -50.754936974713928 0 0 0 0 -70.236857368363417 52.520696136169136 0 52.520696136169136 -84.531165514136774 0 0 0 0 17.634268685508573 2.1729761246136263 0 2.1729761246136263 -20.786328792424797 0 0 0 0 -695.36966389804729 1335.3152683554872 0 1335.3152683554872 -1240.3419200194658 0 0 0 0 -643.01016930639616 905.64268657988396 0 905.64268657988396 -1064.150224131401 0 0 0 0 -844.89222065959621 932.80570509939935 0 932.80570509939935 -710.38386276319216 0 0 0 0 -549.67327722797927 1057.6316808159609 0 1057.6316808159609 -691.93054549758381 0 0 0 0 -1191.0060435853666 776.16471432288381 0 776.16471432288381 -843.93324836028114 0 0 0 0 -955.52956222823013 1465.4041384107932 0 1465.4041384107932 -1264.5232656094013 0 0 0 0 -555.17673591747484 984.34493899361121 0 984.34493899361121 -963.99526246193273 0 0 0 0 -633.43577748420648 244.6715837156371 0 244.6715837156371 -422.97194273262357 0 0 0 0 -194.26268865865131 417.06986839999445 0 417.06986839999445 -413.00038286457129 0 0 0 0 -264.59596218180377 28.840300199371995 0 28.840300199371995 160.6908746829431 0 0 0 0 286.18697925944434 87.836381598433945 0 87.836381598433945 -412.72314136202476 0 0 0 0 -0.59798015557151984 -0.18510808739515028 0 -0.18510808739515028 6.6507384977960555 0 0 0 0 -539.14933466695209 275.78141731293863 0 275.78141731293863 13.512408451948431 0 0 0 0 92.32676407044346 34.925183290466521 0 34.925183290466521 177.67281393894518 0 0 0 0 11.72953757837081 32.375338801932401 0 32.375338801932401 -61.750806020684081 0 0 0 0 426.61307795462199 -146.09329311449619 0 -146.09329311449619 -284.90207321831258 0 0 0 0 20.75073997497384 0.56193593556963606 0 0.56193593556963606 -40.220896957685909 0 0 0 0 65.045858366109314 50.834199628377974 0 50.834199628377974 -128.41995945344388 0 0 0 0 25.46962411153072 39.67659089146764 0 39.67659089146764 24.326526629534783 0 0 0 0 56.027331202829373 58.093228873287444 0 58.093228873287444 16.668631056061713 0 0 0 0 124.62324090849143 191.72861957328132 0 191.72861957328132 163.05382327034022 0 0 0 0 193.63208665561979 163.4164310112028 0 163.4164310112028 70.247961555898655 0 0 0 0 88.418004527702578 61.182825246840366 0 61.182825246840366 -29.052255418437198 0 0 0 0 270.19897094990301 398.63988277355384 0 398.63988277355384 269.06038716941839 0 0 0 0 625.75749753488344 71.874507071654079 0 71.874507071654079 -22.3639957388325 0 0 0 0 173.48283841880038 212.92096862901235 0 212.92096862901235 -25.390680426644394 0 0 0 0 -22.71214449227773 -17.925754715568473 0 -17.925754715568473 213.19179351333878 0 0 0 0 -1100.2865627723513 1115.2139880178584 0 1115.2139880178584 -445.45729218074121 0 0 0 0 -17.142821372188337 364.88405721033632 0 364.88405721033632 -1605.7659858553961 0 0 0 0 -1961.2286964584782 1629.2018466298032 0 1629.2018466298032 -1427.0004001550988 0 0 0 0 1074.0269394182797 134.22646446261751 0 134.22646446261751 -343.96048154257005 0 0 0 0 14.247000794752154 36.514692038288814 0 36.514692038288814 -45.069420594539508 0 0 0 0 -24.514005700431881 700.61583217798034 0 700.61583217798034 -150.30024035100018 0 0 0 0 49.738502111642447 324.79575295659743 0 324.79575295659743 -173.38152838248789 0 0 0 0 820.58944650690682 385.49905383461373 0 385.49905383461373 -300.43901295709657 0 0 0 0 -58.728688216324372 473.19696092490994 0 473.19696092490994 -689.91569616830384 0 0 0 0 -75.58413876646955 384.23379191860295 0 384.23379191860295 -161.4509426804143 0 0 0 0 99.253404341070564 -44.153609004046302 0 -44.153609004046302 109.59007810345065 0 0 0 0 -3.0327012138354235 2.024757453952887 0 2.024757453952887 -0.7808331131188595 0 0 0 0 287.07107319173519 675.22418560487858 0 675.22418560487858 697.62116879651148 0 0 0 0 46.818233675422562 43.754474373888115 0 43.754474373888115 -938.3804999897111 0 0 0 0 46.720115696676658 73.919678364703941 0 73.919678364703941 -225.09407170221675 0 0 0 0 196.10807457609917 655.16739761718782 0 655.16739761718782 1236.50452244404 0 0 0 0 441.56797787360847 262.85853969099117 0 262.85853969099117 647.46565335489868 0 0 0 0 1.6833658100222237 570.50688240439922 0 570.50688240439922 1029.5664638355229 0 0 0 0 -40.234465942037787 718.13354567988063 0 718.13354567988063 524.24676111526787 0 0 0 0 506.35870723883454 399.92555134434588 0 399.92555134434588 -408.57159453409258 0 0 0 0 116.16925189140602 684.00545801792759 0 684.00545801792759 -199.37364847714343 0 0 0 0 47.412314356348361 273.65895697523956 0 273.65895697523956 424.98720033065183 0 0 0 0 38.254341928593931 224.12557725742226 0 224.12557725742226 157.60744806124421 0 0 0 0 106.00669465347892 223.5751239402307 0 223.5751239402307 467.66931484724591 0 0 0 0 140.8848197808893 243.61311900139117 0 243.61311900139117 378.42558461532462 0 0 0 0 100.91619941810495 83.593409237408196 0 83.593409237408196 243.00318046218308 0 0 0 0 93.571624218591751 161.31385001686795 0 161.31385001686795 153.77433790685609 0 0 0 0 59.660820542398142 6.6046436942415312 0 6.6046436942415312 49.746078278054483 0 0 0 0 125.40827783055647 181.98660716149061 0 181.98660716149061 10.83727521149558 0 0 0 0 69.644370752372197 100.40748681485638 0 100.40748681485638 -85.386873823910719 0 0 0 0 178.91582293128886 27.478094385180157 0 27.478094385180157 170.46608997954172 0 0 0 0 163.95727497659527 243.25537539635206 0 243.25537539635206 341.55470578817767 0 0 0 0 129.79101524020371 -2.7440726270942832 0 -2.7440726270942832 7.0252376003045356 0 0 0 0 280.21503313275753 170.6134521075146 0 170.6134521075146 375.01893202403153 0 0 0 0 288.1422366045299 147.29622537465184 0 147.29622537465184 441.10777081626293 0 0 0 0 549.24608901842657 625.73547488114127 0 625.73547488114127 804.98383986737463 0 0 0 0 125.72147951120496 334.9933050019572 0 334.9933050019572 667.30387180286925 0 0 0 0 279.28345376203652 294.01547212986043 0 294.01547212986043 721.1234772617463 0 0 0 0 200.60807619790648 348.36742997931287 0 348.36742997931287 684.95614829866099 0 0 0 0 170.73075318410702 450.76732719583379 0 450.76732719583379 1008.9265331026982 0 0 0 0 83.855938569147838 355.13376998761669 0 355.13376998761669 1118.9806312669534 0 0 0 0 120.50525410498085 288.87942671150086 0 288.87942671150086 948.6170138224843 0 0 0 0 90.99256823855103 288.52325085204211 0 288.52325085204211 1182.4305152774614 0 0 0 0 96.202877266099676 149.0631825493474 0 149.0631825493474 1327.1229940769263 0 0 0 0 246.51960080854769 329.53152210474946 0 329.53152210474946 836.01289774896577 0 0 0 0 194.3508221051452 402.27934333852318 0 402.27934333852318 799.6041322532692 0 0 0 0 181.43528566899477 176.28010973552591 0 176.28010973552591 765.13394315799087 0 0 0 0 36.748669994412921 84.204391462961212 0 84.204391462961212 936.37486576894298 0 0 0 0 100.01151589141227 218.87305715092225 0 218.87305715092225 1025.483920800878 0 0 0 0 137.96687769208802 152.11195168780978 0 152.11195168780978 1010.0426312302443 0 0 0 0 408.99781896243803 220.39202397398185 0 220.39202397398185 1026.9583636461175 0 0 0 0 13.93083319591824 218.08208068029489 0 218.08208068029489 1349.5343903636094 0 0 0 0 208.90989159727178 210.54183872327849 0 210.54183872327849 839.55340964143397 0 0 0 0 91.262665853981161 160.12075528304558 0 160.12075528304558 453.21454424252443 0 0 0 0 36.341979526026989 374.0055312836048 0 374.0055312836048 752.00138940720353 0 0 0 0 211.71380519590457 364.80189855165372 0 364.80189855165372 563.13149529711518 0 0 0 0 88.159181681476184 210.41300465152017 0 210.41300465152017 771.40096965827797 0 0 0 0 -157.76525172808033 160.32667634203244 0 160.32667634203244 82.80385857870715 0 0 0 0 160.4371229924509 317.69375947667868 0 317.69375947667868 148.60464833950391 0 0 0 0 24.966505183721893 310.68428732677421 0 310.68428732677421 335.98917259192967 0 0 0 0 166.24088190378825 211.09080880122929 0 211.09080880122929 218.52738947377657 0 0 0 0 173.29415670668823 196.31831175954721 0 196.31831175954721 154.79674862272805 0 0 0 0 -17.871890327311121 353.7649911087392 0 353.7649911087392 534.25979337128229 0 0 0 0 -9.5597837281238753 26.271825833362527 0 26.271825833362527 50.907629372057272 0 0 0 0 -57.526003707767813 335.38762854758534 0 335.38762854758534 899.38593972059607 0 0 0 0 -20.257568216096843 48.620258584036492 0 48.620258584036492 73.034248090571054 0 0 0 0 -9.4120495910599118 0.25807259596500387 0 0.25807259596500387 2.2290981716019047 0 0 0 0 -3.9883154014270019 3.5398073873087696 0 3.5398073873087696 1.2794699142148858 0 0 0 0 -6.5797529725459754 269.75361703491217 0 269.75361703491217 579.24054984177928 0 0 0 0 -60.47028040906298 241.15215863897174 0 241.15215863897174 597.69629013977828 0 0 0 0 111.9198008289095 303.24563982026302 0 303.24563982026302 585.96409433456938 0 0 0 0 -45.461314439919079 288.77563040297537 0 288.77563040297537 804.68263494115672 0 0 0 0 67.542540186725091 361.97400272544473 0 361.97400272544473 773.47455996664939 0 0 0 0 6.9797440692179862 19.745935062153251 0 19.745935062153251 3.4434887128805656 0 0 0 0 -54.592567665389652 18.690765752195148 0 18.690765752195148 46.412737091945019 0 0 0 0 20.541124874085654 18.080954874836607 0 18.080954874836607 20.836653195437975 0 0 0 0 -2.8445453735912452 41.238727045390988 0 41.238727045390988 51.333924854639918 0 0 0 0 -39.612823819858022 44.886255590710789 0 44.886255590710789 72.553008715498436 0 0 0 0 -36.178137175898883 -7.2018244105856866 0 -7.2018244105856866 -6.7617638527372037 0 0 0 0 0.80478853279115725 13.16532021327005 0 13.16532021327005 -4.315383830753774 0 0 0 0 -11.679826456849696 32.015123385092011 0 32.015123385092011 59.556280343749677 0 0 0 0 33.681624907971127 21.821724873007042 0 21.821724873007042 -135.21942323650001 0 0 0 0 30.420279368205229 462.45286479481729 0 462.45286479481729 1421.4466830699239 0 0 0 0 3.7463209275571785 1.9998721751216522 0 1.9998721751216522 1.0940419197040683 0 0 0 0 -12.606301911985156 5.8057015006618542 0 5.8057015006618542 11.784231722580557 0 0 0 0 -0.30272796033352734 0.53098727043231975 0 0.53098727043231975 -0.053877854954578197 0 0 0 0 0.59867370506981388 83.867878092773026 0 83.867878092773026 -147.74126612245163 0 0 0 0 -7.2698044765376153 7.6811248833416812 0 7.6811248833416812 1.4726293892257729 0 0 0 0 282.8679219011683 156.42525386461057 0 156.42525386461057 1327.368520696109 0 0 0 0 -63.869418333953945 109.25982169082272 0 109.25982169082272 -142.31595786396065 0 0 0 0 -2.9173527959792409 36.735272751568118 0 36.735272751568118 -113.30038243444869 0 0 0 0 -95.996897953693406 158.07744267942326 0 158.07744267942326 -142.34659340569124 0 0 0 0 -37.957630168675678 241.84603566339501 0 241.84603566339501 -351.10171640801855 0 0 0 0 6.3605096549268794 19.091256803338396 0 19.091256803338396 -27.05414349635214 0 0 0 0 -62.952234510587004 108.15551253108424 0 108.15551253108424 -69.723240886916756 0 0 0 0 -45.151428690380271 104.43805780417824 0 104.43805780417824 -113.01470693966257 0 0 0 0 299.03038024208763 -62.788395406898871 0 -62.788395406898871 14.658457902900409 0 0 0 0 289.6619665484759 58.030231288270443 0 58.030231288270443 -24.655999263282865 0 0 0 0 13.795184526716724 13.762038036103434 0 13.762038036103434 15.424225514475438 0 0 0 0 411.31628151261248 38.186495569971157 0 38.186495569971157 -64.512071064236807 0 0 0 0 343.23495755248587 30.445898593578022 0 30.445898593578022 -33.031205012892315 0 0 0 0 227.84537466338952 78.174171675564139 0 78.174171675564139 -58.285334478916866 0 0 0 0 358.91771752601198 70.733107331921929 0 70.733107331921929 -57.911858995619696 0 0 0 0 104.10972525770194 5.2097701209568186 0 5.2097701209568186 -5.9657537143430091 0 0 0 0 158.66845676145749 -3.3365120491944253 0 -3.3365120491944253 -27.194721121348266 0 0 0 0 79.045909476146335 18.152701549493941 0 18.152701549493941 -14.684088094443723 0 0 0 0 117.85101481628772 90.435589588164476 0 90.435589588164476 -122.97830503340811 0 0 0 0 86.174103296594694 28.501763591208146 0 28.501763591208146 -11.686800187897461 0 0 0 0 13.500206716256741 29.657377808926071 0 29.657377808926071 13.05274313477085 0 0 0 0 -2.0308228370049619 711.4416681296716 0 711.4416681296716 -447.58355516991287 0 0 0 0 4.0889807210317635 10.469358417050586 0 10.469358417050586 -42.733671035735597 0 0 0 0 -1209.6684615566992 762.9743370674405 0 762.9743370674405 110.92081763812166 0 0 0 0 -563.82802964402072 100.42606701597106 0 100.42606701597106 -361.17042163623046 0 0 0 0 -640.70195412264729 1269.7336605988057 0 1269.7336605988057 6.0498318733152701 0 0 0 0 -96.660415412683506 95.97657582913962 0 95.97657582913962 95.303832078963751 0 0 0 0 -81.778058584692189 241.92273454332462 0 241.92273454332462 -58.738383506832179 0 0 0 0 526.67760036802792 170.41074842402668 0 170.41074842402668 -181.22690448442881 0 0 0 0 338.92034877056722 43.363863193269935 0 43.363863193269935 43.113583506696159 0 0 0 0 26.549885241722222 -41.045869632675021 0 -41.045869632675021 91.072749526129428 0 0 0 0 -103.59820307270274 247.35056469967822 0 247.35056469967822 -6.4144365998654393 0 0 0 0 -2228.1828993870586 11.879387143362692 0 11.879387143362692 -78.011354537013631 0 0 0 0 -2880.8917315465369 1478.4423041425944 0 1478.4423041425944 327.02161021911888 0 0 0 0 -0.014309570267804987 14.931790536153576 0 14.931790536153576 8.6475938835937995 0 0 0 0 1.8716491950703471 7.265137839495651 0 7.265137839495651 4.991988451410009 0 0 0 0 -2.1102025463052847 1.9210342237841473 0 1.9210342237841473 -12.087219115134701 0 0 0 0 -0.016652781589073129 14.930386789426848 0 14.930386789426848 8.6471335407404695 0 0 0 0 267.95490920326847 406.86359056725996 0 406.86359056725996 -212.77127439681499 0 0 0 0 -295.71987862855894 859.29171363683417 0 859.29171363683417 -261.69144692427653 0 0 0 0 208.80899158293505 287.00928266162464 0 287.00928266162464 -184.6509058274678 0 0 0 0 142.86389996249636 558.87393197349229 0 558.87393197349229 -63.061660106381169 0 0 0 0 -106.1069470844941 252.04959841747495 0 252.04959841747495 413.73320348137349 0 0 0 0 -151.45986714519677 44.823090267265798 0 44.823090267265798 128.0642479999151 0 0 0 0 -143.32720196815535 164.19508404140015 0 164.19508404140015 608.638961257544 0 0 0 0 3.99257403901467 4.8636122587999466 0 4.8636122587999466 6.67087786208225 0 0 0 0 91.782647447689669 101.80354127490864 0 101.80354127490864 -108.49797846903675 0 0 0 0 1143.777979365419 -144.0620834887377 0 -144.0620834887377 3.5411643720181019 0 0 0 0 396.4594043595207 558.01663002064743 0 558.01663002064743 770.67188619911758 0 0 0 0 770.11818901275728 -338.75203643463487 0 -338.75203643463487 -5.6418906844774028 0 0 0 0 894.69342710643832 857.20895057547023 0 857.20895057547023 271.34938287377554 0 0 0 0 53.16070868499628 -438.56022582822243 0 -438.56022582822243 -406.35532233660342 0 0 0 0 -86.323534188282792 237.75159121151592 0 237.75159121151592 94.861316849532159 0 0 0 0 -260.24806415542662 -134.83784221450151 0 -134.83784221450151 -104.36799661340046 0 0 0 0 166.77319673697639 101.29830412227784 0 101.29830412227784 24.569952358709997 0 0 0 0 328.65339220173337 677.48993634359067 0 677.48993634359067 244.22699453532914 0 0 0 0 501.33712898165686 448.33178935367323 0 448.33178935367323 482.8841683519131 0 0 0 0 -19.93333109687029 54.734197013905494 0 54.734197013905494 -69.79700394632917 0 0 0 0 585.95548491145746 835.04528532725089 0 835.04528532725089 572.09338242933154 0 0 0 0 -40.22377956037235 118.54661419296463 0 118.54661419296463 -5.0658252096363867 0 0 0 0 511.7605792807999 1054.3763760232732 0 1054.3763760232732 810.07884241793363 0 0 0 0 -24.679570739587575 53.022477983237494 0 53.022477983237494 -63.979746908505774 0 0 0 0 -150.26661636590143 -17.030725460783287 0 -17.030725460783287 -63.938929582458513 0 0 0 0 -30.876090429839678 74.856688181309437 0 74.856688181309437 -41.788602733277003 0 0 0 0 39.997607681187219 129.13839910404204 0 129.13839910404204 -30.673064557500766 0 0 0 0 -27.402608264033915 77.811299645047256 0 77.811299645047256 -50.391900936745515 0 0 0 0 516.46810335734335 299.58673780261779 0 299.58673780261779 -42.229047265354893 0 0 0 0 77.221422613642062 286.00405528691408 0 286.00405528691408 223.86902136331628 0 0 0 0 5.5881498443486635 102.3333249098614 0 102.3333249098614 -8.8172915737741278 0 0 0 0 61.097842773444427 207.51263300408937 0 207.51263300408937 58.199771842657356 0 0 0 0 214.15539612877183 217.01842044262958 0 217.01842044262958 -77.853662684785377 0 0 0 0 213.24761244596448 218.11086404953676 0 218.11086404953676 -62.423096097831149 0 0 0 0 222.89992436279135 195.0636064299415 0 195.0636064299415 -112.95893650279322 0 0 0 0 211.58093418666977 221.74170219479856 0 221.74170219479856 -101.81992428567173 0 0 0 0 179.56881896808045 207.33764456093922 0 207.33764456093922 -80.274785310662992 0 0 0 0 206.40777776298637 202.44357812693488 0 202.44357812693488 -127.76359267704538 0 0 0 0 217.10133046863484 214.52863673108368 0 214.52863673108368 -134.56955477058727 0 0 0 0 216.58617973983928 223.69186038595217 0 223.69186038595217 -126.49218881285924 0 0 0 0 150.00120094952581 204.24949441909848 0 204.24949441909848 -113.88764928491582 0 0 0 0 -52.010694019991206 103.65484364186705 0 103.65484364186705 -59.483698507796362 0 0 0 0 -17.936830406608351 58.273966023163666 0 58.273966023163666 -73.377693440081202 0 0 0 0 141.86885640933178 134.93633739071993 0 134.93633739071993 -110.97703466442181 0 0 0 0 95.263234230551461 48.381027726161847 0 48.381027726161847 -99.079878428303346 0 0 0 0 148.58519960800186 86.473053921676183 0 86.473053921676183 -88.489547441082323 0 0 0 0 253.36614617303348 147.35130436698091 0 147.35130436698091 -109.6575284295177 0 0 0 0 14.090621765129498 5.9201206961812716 0 5.9201206961812716 -11.01546930809937 0 0 0 0 -1286.4529131333338 1638.4633641874248 0 1638.4633641874248 -1358.0515859231236 0 0 0 0 -1488.7643210332026 782.26231391384499 0 782.26231391384499 -1072.9593173122867 0 0 0 0 284.45811163174949 -24.128849011889542 0 -24.128849011889542 -24.052711073491082 0 0 0 0 -650.886280939274 1562.9397421625981 0 1562.9397421625981 -1360.4398243589822 0 0 0 0 4.5952513062297555 3.3526505522419825 0 3.3526505522419825 -2.8031915292073109 0 0 0 0 -1447.7540013025832 2065.0910676520571 0 2065.0910676520571 -1228.4388173293555 0 0 0 0 -696.49635114194825 1125.4908311133477 0 1125.4908311133477 -1003.7089539806257 0 0 0 0 -466.96968130147434 456.23615205220995 0 456.23615205220995 -580.78520210013812 0 0 0 0 -32.761611491700023 117.78396596439234 0 117.78396596439234 -169.67457525180362 0 0 0 0 117.73970864208241 233.25468294886377 0 233.25468294886377 -103.26750728228217 0 0 0 0 30.286093302653171 337.97630072008906 0 337.97630072008906 -119.60126623740143 0 0 0 0 566.12000984673796 279.29709692623146 0 279.29709692623146 -179.28651531675132 0 0 0 0 986.19121542679204 -248.10393385707721 0 -248.10393385707721 -144.41852173789448 0 0 0 0 -811.01719240343664 501.05998516900581 0 501.05998516900581 -409.7695736679525 0 0 0 0 778.1360447815714 472.59237150933313 0 472.59237150933313 -416.97925509476045 0 0 0 0 -168.47839560394641 303.53284033417731 0 303.53284033417731 -296.61572354973396 0 0 0 0 82.24413245775213 174.5571434483536 0 174.5571434483536 -179.5976684151683 0 0 0 0 115.40416385106801 169.3886317738652 0 169.3886317738652 -341.23971273360075 0 0 0 0 65.738210656956653 188.13080273741798 0 188.13080273741798 -188.40071908562095 0 0 0 0 64.103638784916257 141.39843397679942 0 141.39843397679942 -117.05460242835397 0 0 0 0 72.793448857442854 97.027784412558503 0 97.027784412558503 -93.926052826020168 0 0 0 0 104.83025279865251 129.69280489317316 0 129.69280489317316 -173.79811137087654 0 0 0 0 54.151774676189234 149.72978484951454 0 149.72978484951454 -111.71302906218625 0 0 0 0 166.4548850022984 181.60900485706952 0 181.60900485706952 -107.69347791176278 0 0 0 0 110.43832558667782 140.88402339706954 0 140.88402339706954 -100.89671957331302 0 0 0 0 136.82734275718394 113.96085517320171 0 113.96085517320171 -108.04793315161442 0 0 0 0 101.35771621091408 75.820202801205596 0 75.820202801205596 -78.858332099101972 0 0 0 0 57.5905946562998 96.417511620660662 0 96.417511620660662 -88.538099772144051 0 0 0 0 92.23785604142904 88.877606016809295 0 88.877606016809295 -74.952054619119735 0 0 0 0 228.6892732306078 82.123654586195698 0 82.123654586195698 -70.457602076625335 0 0 0 0 149.74576924681605 76.343829564259067 0 76.343829564259067 -70.880180901294807 0 0 0 0 130.83163152037014 90.077355006273137 0 90.077355006273137 -74.981481452138723 0 0 0 0 185.3377109316134 178.02904346100331 0 178.02904346100331 -100.76448564867314 0 0 0 0 335.08097984569031 175.80148104883483 0 175.80148104883483 -100.90007588524895 0 0 0 0 229.01359670014062 137.88686103309738 0 137.88686103309738 -101.16350082881672 0 0 0 0 9.6952435901992544 32.25054811566207 0 32.25054811566207 -35.985943457216479 0 0 0 0 41.281030907004606 33.656868605616182 0 33.656868605616182 -20.39397578570788 0 0 0 0 -19.389428520473302 68.938483205594821 0 68.938483205594821 -39.111037547292653 0 0 0 0 -5.8087281358635607 8.8850593658374351 0 8.8850593658374351 -11.520288397499201 0 0 0 0 0.32068380911368877 119.48682296221523 0 119.48682296221523 -365.56524550849645 0 0 0 0 130.09109973483282 35.377796031028993 0 35.377796031028993 -38.738080369934323 0 0 0 0 79.237716565752635 41.114926321613893 0 41.114926321613893 -39.281026491054945 0 0 0 0 122.99898756346556 47.411557010867 0 47.411557010867 -61.137282621944905 0 0 0 0 79.333996173549167 41.574416294533876 0 41.574416294533876 -51.314182162110228 0 0 0 0 49.546283325951663 33.348795469823017 0 33.348795469823017 -53.428736166155431 0 0 0 0 69.454951589810662 62.500519743814948 0 62.500519743814948 -65.198901091236621 0 0 0 0 69.022226645553019 63.287947493241518 0 63.287947493241518 -66.558259171390091 0 0 0 0 59.652584632247454 65.293701294896891 0 65.293701294896891 -62.56486423095339 0 0 0 0 16.801677683513844 49.678817201714992 0 49.678817201714992 -49.736702813912416 0 0 0 0 -1.3620325902898287 31.503703777342764 0 31.503703777342764 -49.409556471356979 0 0 0 0 62.63839014977566 22.76874816812051 0 22.76874816812051 -134.5024267318513 0 0 0 0 -0.12767236621584743 51.692718683418207 0 51.692718683418207 -24.33549861217034 0 0 0 0 410.79070725035854 288.74035521304177 0 288.74035521304177 139.24917968921363 0 0 0 0 0.58533180423546582 419.17909805854651 0 419.17909805854651 744.26891553620226 0 0 0 0 498.57161885140431 692.50454104184837 0 692.50454104184837 738.08434300185763 0 0 0 0 7.1572522978333382 -0.63994426049355724 0 -0.63994426049355724 -8.1210768705216196 0 0 0 0 -5.2863518038155988 13.795374337667482 0 13.795374337667482 -1.6387407375273426 0 0 0 0 0.96673969105177093 102.40216015170881 0 102.40216015170881 -62.94275874390587 0 0 0 0 13.991998809913639 86.282594207652437 0 86.282594207652437 -71.243488552427152 0 0 0 0 24.919744105063728 60.02172920123121 0 60.02172920123121 -38.206188334581384 0 0 0 0 52.350262584979646 109.00818642370723 0 109.00818642370723 -98.613153776910622 0 0 0 0 238.75761299181613 873.1765656561729 0 873.1765656561729 616.37900262428593 0 0 0 0 -38.485787949565577 45.981949404537581 0 45.981949404537581 -47.538500684789369 0 0 0 0 -26.731320287770359 158.36264273642155 0 158.36264273642155 -101.51296210002965 0 0 0 0 331.42675876237627 551.83493924631694 0 551.83493924631694 513.74751009196189 0 0 0 0 281.63650222287833 751.65239361337444 0 751.65239361337444 -240.32545553588716 0 0 0 0 0.15581085898156743 759.23932983710802 0 759.23932983710802 387.23254662994441 0 0 0 0 272.33503061012016 541.35331782187495 0 541.35331782187495 411.21643674477127 0 0 0 0 384.3504941606443 845.0523837939345 0 845.0523837939345 -1168.6118146224253 0 0 0 0 -0.62803954339437351 945.66002785807405 0 945.66002785807405 -1122.6006521488234 0 0 0 0 -13.019602751068305 563.23934139563789 0 563.23934139563789 -262.83277734146577 0 0 0 0 134.30170306846776 172.95880300272984 0 172.95880300272984 -361.58655164668744 0 0 0 0 -225.85575151722878 798.90405090952117 0 798.90405090952117 -73.761830862778879 0 0 0 0 -44.173049606040308 50.553011253602271 0 50.553011253602271 -54.302729004187896 0 0 0 0 585.31499701790744 1071.6176389532138 0 1071.6176389532138 -72.66919407833484 0 0 0 0 219.24414130343939 349.68161834381317 0 349.68161834381317 -200.38827483176101 0 0 0 0 233.38811101269675 668.16250992054847 0 668.16250992054847 -106.2029349981467 0 0 0 0 370.1153758788314 593.00489213060519 0 593.00489213060519 -690.19788199420873 0 0 0 0 -143.72296158690006 1180.1253792912321 0 1180.1253792912321 -304.189909393579 0 0 0 0 -1870.8007664678153 2947.0674138228642 0 2947.0674138228642 -2110.7800868035993 0 0 0 0 119.86794374583769 1226.341078114312 0 1226.341078114312 -51.915967259570607 0 0 0 0 -41.524609530799921 50.727312658903287 0 50.727312658903287 -56.330940322694985 0 0 0 0 -560.57705076313869 728.30749483468026 0 728.30749483468026 -644.52607397867359 0 0 0 0 315.3513899881832 -198.05311816536585 0 -198.05311816536585 -535.28241779838572 0 0 0 0 -1556.0321122974274 540.40556751272379 0 540.40556751272379 253.61295557366975 0 0 0 0 726.99444477798534 -11.641813767440908 0 -11.641813767440908 -1099.6030962505683 0 0 0 0 238.33946464883047 473.44668314203591 0 473.44668314203591 -863.23108889184368 0 0 0 0 159.75888348027365 441.80389765227301 0 441.80389765227301 -871.66765670658788 0 0 0 0 155.51190757856239 361.35340874920803 0 361.35340874920803 -782.3169212959765 0 0 0 0 52.401700878166594 123.87923968549785 0 123.87923968549785 -200.27014278951538 0 0 0 0 13.261728239365766 286.04532423357841 0 286.04532423357841 -613.50048431590403 0 0 0 0 -196.06066068763175 363.72497566630955 0 363.72497566630955 -356.55954804556313 0 0 0 0 -1.0046461282051498 -3.2977652089846003 0 -3.2977652089846003 -10.831859641493679 0 0 0 0 298.32167399078753 -177.30145534001531 0 -177.30145534001531 -2664.6387079647975 0 0 0 0 167.48411475340254 81.225325083387361 0 81.225325083387361 -1037.6217322794814 0 0 0 0 253.80672234280428 269.17015194636861 0 269.17015194636861 -654.65644403542683 0 0 0 0 -5.6884618532799891 3.4542749067406646 0 3.4542749067406646 -5.5090872760493141 0 0 0 0 0.021117763957590796 24.481067694126978 0 24.481067694126978 13.06022676505745 0 0 0 0 0.32147709825949278 23.088560992235216 0 23.088560992235216 11.309768455574158 0 0 0 0 -0.0075834954550373368 24.727286716208255 0 24.727286716208255 8.7392523234302644 0 0 0 0 -6.853877392000868 26.941799902298953 0 26.941799902298953 10.404100137593559 0 0 0 0 -10.154766506607757 16.713292132832393 0 16.713292132832393 -8.1276389843952899 0 0 0 0 0.72472791765630973 27.970932606466363 0 27.970932606466363 9.3086639545035723 0 0 0 0 -108.81833596504293 -121.71586134590325 0 -121.71586134590325 -219.91960205015494 0 0 0 0 47.114575430372497 3.8719217473117169 0 3.8719217473117169 -493.94484706612639 0 0 0 0 4.4781324813957326 0.98344969505342306 0 0.98344969505342306 -7.8041926093719667 0 0 0 0 40.433021358199767 -25.302832155030046 0 -25.302832155030046 -100.45766632894811 0 0 0 0 49.569192802329781 44.778871387545223 0 44.778871387545223 -81.746949214037159 0 0 0 0 115.64963887934573 134.32438597938744 0 134.32438597938744 59.431814485695213 0 0 0 0 13.437362711789319 63.201343912405719 0 63.201343912405719 67.66725204740942 0 0 0 0 27.156739124329761 125.11599506627681 0 125.11599506627681 58.680130245058535 0 0 0 0 2.5579705485142767 19.696155725840072 0 19.696155725840072 -31.084502343524946 0 0 0 0 10.448278951680095 27.23120388149934 0 27.23120388149934 -22.216971253364619 0 0 0 0 1.703642934336159 7.6140493670201863 0 7.6140493670201863 -2.2066208123730462 0 0 0 0 16.201231677709739 16.014368179995529 0 16.014368179995529 -29.652316123496291 0 0 0 0 66.12855757898069 70.691508422372863 0 70.691508422372863 -226.6643001063203 0 0 0 0 -2.0549499594490044 98.796899474451493 0 98.796899474451493 -65.663816088395834 0 0 0 0 232.17475702846809 154.82040274269156 0 154.82040274269156 -26.08889084495604 0 0 0 0 24.793909992091358 41.270408489726833 0 41.270408489726833 62.087347945656802 0 0 0 0 -23.190153868155903 75.72368950370219 0 75.72368950370219 39.257944807257445 0 0 0 0 2.1752453351510281 50.775989306347299 0 50.775989306347299 57.891658326065084 0 0 0 0 16.608665443620794 48.90200764404392 0 48.90200764404392 18.655544580127753 0 0 0 0 26.972081708524968 34.884681516548255 0 34.884681516548255 -8.1247944668731087 0 0 0 0 -8.1113840860574555 22.165120269942584 0 22.165120269942584 17.27651535529013 0 0 0 0 -6.4120076498074923 56.593879037252918 0 56.593879037252918 43.309518391361053 0 0 0 0 2.3889076075165008 19.943788681443721 0 19.943788681443721 18.751174329409736 0 0 0 0 -20.299734018255549 46.01544733454466 0 46.01544733454466 46.197377695716568 0 0 0 0 -31.255192717180762 29.727058025959195 0 29.727058025959195 44.261224904079427 0 0 0 0 -15.823077839973848 29.388413747081358 0 29.388413747081358 68.136798620507875 0 0 0 0 0.040128152868874167 1.4517171449364099 0 1.4517171449364099 -4.3297790777284311 0 0 0 0 -9.9164895638095913 18.61288312384022 0 18.61288312384022 -15.438287642358773 0 0 0 0 -1.9095403036044445 23.006626148371652 0 23.006626148371652 39.059620677780003 0 0 0 0 -8.6604409162782794 17.742653831262828 0 17.742653831262828 40.061819443365678 0 0 0 0 -11.679665740361088 32.399061876390988 0 32.399061876390988 30.452046658316249 0 0 0 0 3.7092768513830379 6.2088571993008372 0 6.2088571993008372 20.736998060029237 0 0 0 0 -6.3679344764645318 18.862322760197856 0 18.862322760197856 24.368108963883387 0 0 0 0 -73.391793302522274 35.647550710429641 0 35.647550710429641 43.38390257968058 0 0 0 0 1.0784562206038757 15.216403583085082 0 15.216403583085082 11.90283658112952 0 0 0 0 -17.206624625141558 19.601811477282354 0 19.601811477282354 17.480794374971083 0 0 0 0 -38.890246853959979 16.3866631259516 0 16.3866631259516 32.753587483504816 0 0 0 0 -0.65442053698643576 12.170670440700633 0 12.170670440700633 2.8552519238673995 0 0 0 0 3.31677526414569 15.83412551361198 0 15.83412551361198 -13.156352840518593 0 0 0 0 -0.56300791881761825 -2.6871213333764103 0 -2.6871213333764103 1.6928026806926511 0 0 0 0 -0.00025033972809920232 22.257018263525577 0 22.257018263525577 1.3587776513122662 0 0 0 0 -3.5201785959216068 20.889180046478941 0 20.889180046478941 5.2384874357649096 0 0 0 0 -3.2427421496686293 23.342788977874079 0 23.342788977874079 13.980478486286302 0 0 0 0 45.475746406998951 147.21569911421739 0 147.21569911421739 135.30054102534359 0 0 0 0 50.619278729653161 140.21322297667757 0 140.21322297667757 101.45385888848614 0 0 0 0 -34.046209834757889 34.194803927868286 0 34.194803927868286 -35.89898606962057 0 0 0 0 44.492057999566896 148.87487399526435 0 148.87487399526435 135.56191743257205 0 0 0 0 -392.38758877344662 573.5723273198455 0 573.5723273198455 72.063654496247182 0 0 0 0 -260.56167143466882 285.59361958721274 0 285.59361958721274 40.610129764783778 0 0 0 0 141.7266685047216 293.63664100597452 0 293.63664100597452 18.139736156874278 0 0 0 0 32.9790805182638 135.91576940384311 0 135.91576940384311 145.77062573693911 0 0 0 0 53.923570237209788 164.08193444074641 0 164.08193444074641 143.85357396014479 0 0 0 0 18.626406165989465 138.1812026147054 0 138.1812026147054 177.00245814460141 0 0 0 0 28.325477388556465 162.41679630260296 0 162.41679630260296 225.31051962107267 0 0 0 0 36.117184035771061 138.06839231807226 0 138.06839231807226 145.43503531520128 0 0 0 0 -29.002448542206707 10.220140348309627 0 10.220140348309627 0.055421301536924261 0 0 0 0 26.247649573393574 52.803917716468277 0 52.803917716468277 7.3380540270009078 0 0 0 0 37.889642429494415 132.47578350926415 0 132.47578350926415 141.91644709338152 0 0 0 0 13.961289993278115 80.72197868931994 0 80.72197868931994 55.557321671563841 0 0 0 0 -54.286698092197184 19.179390862333094 0 19.179390862333094 55.114180555174244 0 0 0 0 -66.342297914932715 55.993079049223525 0 55.993079049223525 17.96578060885804 0 0 0 0 3.4795974328444572 27.905548036834261 0 27.905548036834261 27.022551755195309 0 0 0 0 65.985944766565808 125.47486198246861 0 125.47486198246861 116.09749253802147 0 0 0 0 -14.326288172098771 64.335231442766656 0 64.335231442766656 58.889890490381731 0 0 0 0 -22.645358615451016 18.953749663953992 0 18.953749663953992 7.08772966630168 0 0 0 0 58.924426894198405 121.66652978701131 0 121.66652978701131 138.63929964157342 0 0 0 0 71.743154845455138 119.40149086921815 0 119.40149086921815 103.66892423810714 0 0 0 0 70.651024503895314 116.80683313268673 0 116.80683313268673 109.48007226143818 0 0 0 0 67.510656634578481 123.52853641681395 0 123.52853641681395 105.15146236471901 0 0 0 0 69.705563999152218 125.47360929108072 0 125.47360929108072 100.6690651234785 0 0 0 0 74.912753679964226 112.77468433470312 0 112.77468433470312 81.082533203299064 0 0 0 0 72.544434264069537 80.771193361674904 0 80.771193361674904 -1.4083797716974054 0 0 0 0 56.813162125202098 95.050201571578313 0 95.050201571578313 111.84031290270468 0 0 0 0 83.377437415270833 125.10934235685272 0 125.10934235685272 36.24509876365471 0 0 0 0 193.13691152425599 154.96144885852118 0 154.96144885852118 44.04244348766224 0 0 0 0 224.56472505976126 215.33294928170289 0 215.33294928170289 -163.51024043568759 0 0 0 0 194.8020490759227 199.64295042910089 0 199.64295042910089 6.9974884446273791 0 0 0 0 160.68180910081719 -822.21208804869093 0 -822.21208804869093 -653.32772641595147 0 0 0 0 -10.146524258949825 10.773423362225486 0 10.773423362225486 -12.091840281343167 0 0 0 0 1154.4332115593922 -678.25418392909648 0 -678.25418392909648 -258.34447632583033 0 0 0 0 15.550358435077442 22.545070450021093 0 22.545070450021093 32.69471221805162 0 0 0 0 1156.4924265853479 513.05265686624625 0 513.05265686624625 111.11014310682367 0 0 0 0 91.232667823504016 -85.597069478269987 0 -85.597069478269987 -172.50076117596473 0 0 0 0 -196.51782164984616 -25.171861015134709 0 -25.171861015134709 28.194275797846785 0 0 0 0 -38.935880974161989 53.85802631965754 0 53.85802631965754 98.346168525547114 0 0 0 0 229.86895239043224 1434.792263603249 0 1434.792263603249 -888.67778039484256 0 0 0 0 -1652.6613799985789 635.79798442126776 0 635.79798442126776 1512.599334837636 0 0 0 0 -2770.355792094575 1795.7472895955798 0 1795.7472895955798 867.62403248644841 0 0 0 0 313.96066197258187 320.09488745476119 0 320.09488745476119 -1198.9009571441275 0 0 0 0 239.07591950446658 231.7836136979422 0 231.7836136979422 9.9396535353899935 0 0 0 0 67.885562702558673 123.45924732236267 0 123.45924732236267 99.109671529973639 0 0 0 0 112.93739960908042 58.929717231201778 0 58.929717231201778 -2.9405083258424796 0 0 0 0 -14.481578960230792 49.983658206092997 0 49.983658206092997 -11.858202696607265 0 0 0 0 -402.24140475373133 260.57867683158474 0 260.57867683158474 -37.475330682747881 0 0 0 0 18.44514609617805 14.258542596146427 0 14.258542596146427 5.3044499999156187 0 0 0 0 47.006736626448401 -193.37737204530822 0 -193.37737204530822 440.46231270547287 0 0 0 0 -423.35713110939832 243.96880179231812 0 243.96880179231812 43.260689910362998 0 0 0 0 -340.78544453025097 202.05605639525675 0 202.05605639525675 -25.787709420386818 0 0 0 0 -407.63251851814857 64.459415409912253 0 64.459415409912253 -61.232344683856354 0 0 0 0 5.4810831545037217 134.07505824266627 0 134.07505824266627 -53.832318511995254 0 0 0 0 -490.22103016826441 291.14434870178229 0 291.14434870178229 -71.382535371099948 0 0 0 0 -6.2280828486441351 19.805890358562085 0 19.805890358562085 21.596616012532483 0 0 0 0 -435.86797798704356 304.56682650981384 0 304.56682650981384 -90.382345251302468 0 0 0 0 -626.39301572137992 -1061.268508086365 0 -1061.268508086365 -985.57006613510021 0 0 0 0 39.370557746748091 -162.11409695199836 0 -162.11409695199836 -456.09166552256647 0 0 0 0 -455.91084073904494 172.34008018628811 0 172.34008018628811 -30.547084690464544 0 0 0 0 -705.03665227987221 236.62691363546037 0 236.62691363546037 -30.936313090387557 0 0 0 0 -1580.9882479063381 -14.498727433106978 0 -14.498727433106978 741.18008073342207 0 0 0 0 -488.09668515826343 42.465163825211675 0 42.465163825211675 260.77004356106045 0 0 0 0 572.58625808713259 199.67554597094386 0 199.67554597094386 421.08768214989686 0 0 0 0 -1.9185285613454113 3.3380343934597363 0 3.3380343934597363 -3.0050338437447834 0 0 0 0 -873.01685251874733 183.34700252201219 0 183.34700252201219 419.41563474069699 0 0 0 0 -1232.9477173459018 -425.78431555921634 0 -425.78431555921634 139.44362336967606 0 0 0 0 -557.22058441504487 -89.843342825020954 0 -89.843342825020954 184.40797393977209 0 0 0 0 -547.97975473283441 -307.7011091945642 0 -307.7011091945642 -69.598548515583389 0 0 0 0 -708.37383317211061 -475.49186896812898 0 -475.49186896812898 -198.77456725731463 0 0 0 0 708.32216837731539 -2.6240957213267393 0 -2.6240957213267393 697.5348208969408 0 0 0 0 -267.21535069301899 685.56619632134789 0 685.56619632134789 631.37249040730603 0 0 0 0 -490.99713986722782 81.531267198457726 0 81.531267198457726 57.970347595772182 0 0 0 0 704.53802835636452 771.63898024609443 0 771.63898024609443 64.117439605859545 0 0 0 0 460.56197817281463 -10.020378371891184 0 -10.020378371891184 336.43745000604395 0 0 0 0 279.97490096490947 244.59638272132179 0 244.59638272132179 10.311496507805259 0 0 0 0 -43.249359925644129 52.802320295636349 0 52.802320295636349 121.60526562506512 0 0 0 0 -168.67050577364716 -87.898037949505124 0 -87.898037949505124 446.2519537098342 0 0 0 0 15.660229862711276 48.538709680751708 0 48.538709680751708 -43.525296413366959 0 0 0 0 8.2548855345077641 1.5975005193151048 0 1.5975005193151048 5.5773817315245928 0 0 0 0 194.00903042391292 515.77511951317138 0 515.77511951317138 586.86826872417805 0 0 0 0 367.62119892114424 -61.819489847170189 0 -61.819489847170189 -181.99299961779616 0 0 0 0 320.94780375590199 -11.838683786623733 0 -11.838683786623733 -32.813006825956109 0 0 0 0 234.75627618975705 184.95036866200826 0 184.95036866200826 -92.784276021906408 0 0 0 0 220.26758029069606 182.58745867353718 0 182.58745867353718 -255.22846502980974 0 0 0 0 214.50780931643385 330.51663240594644 0 330.51663240594644 336.03909801072496 0 0 0 0 -284.63379263233219 -48.140596158969856 0 -48.140596158969856 -33.534851779346354 0 0 0 0 -147.15792833094019 193.9612754028858 0 193.9612754028858 -72.173106407331943 0 0 0 0 -224.40960556839127 240.58989547083547 0 240.58989547083547 721.56514231601614 0 0 0 0 59.725587911143521 642.3057627829694 0 642.3057627829694 644.77670442634553 0 0 0 0 596.06246106169419 243.76970728931337 0 243.76970728931337 -343.48519871895041 0 0 0 0 -29.0746433015413 35.424814096016242 0 35.424814096016242 -39.799231550103798 0 0 0 0 2988.4968102180865 -2189.176337280951 0 -2189.176337280951 2022.8852942429075 0 0 0 0 431.69481969656772 344.81434278019151 0 344.81434278019151 296.47602684787125 0 0 0 0 732.3626111424237 21.066616206106119 0 21.066616206106119 -906.44895706983516 0 0 0 0 -632.21857301595446 1040.4011683476856 0 1040.4011683476856 -1017.2341135966126 0 0 0 0 -15.147141625015536 7.2011116635860901 0 7.2011116635860901 17.611310059201884 0 0 0 0 -167.67433693312341 761.72280008319649 0 761.72280008319649 -795.92518672298684 0 0 0 0 -152.73475034375133 1291.5057218707666 0 1291.5057218707666 -937.74826101964572 0 0 0 0 470.95802801286482 22.779440414058627 0 22.779440414058627 -726.7549230446748 0 0 0 0 -1231.7502723813523 930.67276504516485 0 930.67276504516485 -831.7383211760025 0 0 0 0 8.2247592338092232 22.128154610191757 0 22.128154610191757 2.145656545516772 0 0 0 0 -316.7408261082528 1323.4620712529049 0 1323.4620712529049 -1191.9440374639526 0 0 0 0 -631.70025596259802 1154.8405813232384 0 1154.8405813232384 -1098.0903542551532 0 0 0 0 -38.440788247404271 277.48272203242595 0 277.48272203242595 -1200.4956671350592 0 0 0 0 -64.65083032019902 -51.515526918947216 0 -51.515526918947216 -97.479586173303687 0 0 0 0 78.32921718690352 87.102132943323568 0 87.102132943323568 24.685828980619156 0 0 0 0 466.23684612390934 318.29827511009171 0 318.29827511009171 -226.05134724840173 0 0 0 0 -326.21494940914272 512.91236580382974 0 512.91236580382974 58.75523893024365 0 0 0 0 -308.82838817682932 25.622182236096705 0 25.622182236096705 454.5449951129267 0 0 0 0 290.96411706638173 628.6276978164824 0 628.6276978164824 -1320.5924098501346 0 0 0 0 214.00081417041656 266.01029552843102 0 266.01029552843102 -338.19759735499974 0 0 0 0 -117.17349606493372 619.89113846258988 0 619.89113846258988 -508.7050304597069 0 0 0 0 196.06198527227298 -131.32648057280312 0 -131.32648057280312 -12.197984466940397 0 0 0 0 -388.75688467402506 260.4538953258816 0 260.4538953258816 -52.06439281112398 0 0 0 0 -89.488490594245377 -70.986499105812982 0 -70.986499105812982 -144.79331441995964 0 0 0 0 75.004970889960532 146.80839698174168 0 146.80839698174168 123.2671586967117 0 0 0 0 55.600910152817818 75.751562927135538 0 75.751562927135538 23.60715897901531 0 0 0 0 70.220807033241726 7.1426355919393245 0 7.1426355919393245 -177.58437875314121 0 0 0 0 -109.0909256166633 -125.98862571666177 0 -125.98862571666177 524.08509169405443 0 0 0 0 53.42822025843634 106.01154229919484 0 106.01154229919484 53.433204059864693 0 0 0 0 84.813511772473703 77.60637793465304 0 77.60637793465304 -18.124301822732981 0 0 0 0 179.16150288643621 21.43233099535064 0 21.43233099535064 -107.75369854018209 0 0 0 0 353.52719701576279 -208.76347465281651 0 -208.76347465281651 -38.318562061827834 0 0 0 0 17.737039381228982 23.275820161124528 0 23.275820161124528 6.8125079489376219 0 0 0 0 73.142196372667968 73.805235183484911 0 73.805235183484911 88.40730064031959 0 0 0 0 23.530138777139655 31.800262888606085 0 31.800262888606085 -164.96768091044214 0 0 0 0 22.429176948975353 39.238233641084278 0 39.238233641084278 -76.360171262940867 0 0 0 0 -5.5293211171083385 24.47606007604918 0 24.47606007604918 -139.39101620070869 0 0 0 0 31.659303115472511 107.53378025069017 0 107.53378025069017 27.294204720576609 0 0 0 0 115.49157135571295 75.567935198385385 0 75.567935198385385 -420.4641934578467 0 0 0 0 63.874175821285462 -17.178609241396771 0 -17.178609241396771 -173.97288049347844 0 0 0 0 17.583093292982085 112.72663814212137 0 112.72663814212137 -299.01241959153413 0 0 0 0 46.514732404316192 94.308139742534706 0 94.308139742534706 98.414594960308023 0 0 0 0 48.402474890754092 103.23955710468545 0 103.23955710468545 77.346197619801387 0 0 0 0 64.126352449347905 129.93589168859398 0 129.93589168859398 69.792776519347171 0 0 0 0 47.183397879547556 127.74913316207676 0 127.74913316207676 85.213313198939431 0 0 0 0 22.847279446057371 115.42425704123947 0 115.42425704123947 49.583237333231928 0 0 0 0 35.896141548197193 91.325523640007304 0 91.325523640007304 120.99507013509538 0 0 0 0 77.802497666798445 121.68308508245718 0 121.68308508245718 109.38570742536467 0 0 0 0 -7.0459102108347338 4.991228347674916 0 4.991228347674916 -1.9929604787255073 0 0 0 0 41.869762821701443 134.61690544660996 0 134.61690544660996 197.25960312709503 0 0 0 0 -4.4735238671637489 94.349255696877663 0 94.349255696877663 -88.824458668663283 0 0 0 0 106.78417278754205 -39.971697412165668 0 -39.971697412165668 -19.528639281354117 0 0 0 0 25.809356238692999 207.24352067669679 0 207.24352067669679 201.79655574748358 0 0 0 0 -11.108056632665551 8.927368623678948 0 8.927368623678948 -6.0645165968986809 0 0 0 0 -1.5863283566918938 0.20374359552242538 0 0.20374359552242538 5.8385693640598504 0 0 0 0 1157.1508143019746 320.50317938876105 0 320.50317938876105 234.7624752759657 0 0 0 0 -118.12074507641955 5.7015288511083781 0 5.7015288511083781 450.84569778387504 0 0 0 0 27.904308030673093 33.448864713367655 0 33.448864713367655 -4.4188129257046143 0 0 0 0 43.122899318674172 9.660159419883712 0 9.660159419883712 -156.64067497200085 0 0 0 0 45.971600673139619 96.748411839831533 0 96.748411839831533 73.233142100303667 0 0 0 0 36.797990432192364 77.659260054410595 0 77.659260054410595 55.711035084194009 0 0 0 0 30.001775614317012 81.740095450039007 0 81.740095450039007 130.04995131441501 0 0 0 0 36.64476418710268 113.56846755917692 0 113.56846755917692 27.168613762282384 0 0 0 0 214.45575242395716 306.26028209253855 0 306.26028209253855 -515.10946101091395 0 0 0 0 62.715281274562585 110.55217177147097 0 110.55217177147097 19.102487083113374 0 0 0 0 30.018296594924323 91.397896638501152 0 91.397896638501152 103.42959045768293 0 0 0 0 9.6782950147608062 131.96745723005552 0 131.96745723005552 57.393180627152105 0 0 0 0 122.95892336468387 270.7858723567806 0 270.7858723567806 -228.30488633544883 0 0 0 0 37.179061103044916 110.99385495284972 0 110.99385495284972 26.152145544772306 0 0 0 0 226.69322714382361 36.01838568473795 0 36.01838568473795 -643.55162501445011 0 0 0 0 94.529368737301411 8.2404678937418794 0 8.2404678937418794 -379.46971410280094 0 0 0 0 -4.5552438715894823 -60.083245522182551 0 -60.083245522182551 -167.96506952476557 0 0 0 0 -65.807756417867495 87.181636715060449 0 87.181636715060449 -31.398940002811287 0 0 0 0 26.575596166123432 91.470855868478793 0 91.470855868478793 105.13000381432357 0 0 0 0 58.932768747616137 89.187789204177534 0 89.187789204177534 100.93824166358536 0 0 0 0 -88.328569721837994 225.81928711368346 0 225.81928711368346 305.62510358115651 0 0 0 0 -45.974059951833624 344.99851422435677 0 344.99851422435677 -176.48866904573879 0 0 0 0 58.185110376973171 130.11271989534271 0 130.11271989534271 -8.3819249123662303 0 0 0 0 54.595628776602098 123.84483276338506 0 123.84483276338506 21.2807432722052 0 0 0 0 155.07543216037448 221.95514401252876 0 221.95514401252876 -225.87619023271327 0 0 0 0 16.459117489059281 247.89371176105487 0 247.89371176105487 -30.869070285857561 0 0 0 0 123.59478010210296 136.8543123263189 0 136.8543123263189 -125.51170942747194 0 0 0 0 165.54497805637948 169.26404593032203 0 169.26404593032203 -208.79815978087208 0 0 0 0 91.46876356107532 116.47542647596401 0 116.47542647596401 -128.74087220402726 0 0 0 0 215.29772845899424 278.54931046634556 0 278.54931046634556 -144.09822346554211 0 0 0 0 222.00239059474552 187.1930007175597 0 187.1930007175597 -246.72969842204111 0 0 0 0 178.01303882436332 143.6873946759606 0 143.6873946759606 -289.33421821634693 0 0 0 0 232.29362144729748 196.53416455180559 0 196.53416455180559 -280.51156778516088 0 0 0 0 99.52406239703123 239.45299043851992 0 239.45299043851992 -223.63793495960635 0 0 0 0 255.24558464138681 285.67872143381464 0 285.67872143381464 -217.89608632300587 0 0 0 0 -26.685341702232108 302.0342239536003 0 302.0342239536003 -36.430158015518828 0 0 0 0 -233.44752483280899 353.77471813590182 0 353.77471813590182 -133.37090168724899 0 0 0 0 90.543605937886241 208.07127144719016 0 208.07127144719016 -327.6694560374599 0 0 0 0 44.786211310623912 191.57828800178322 0 191.57828800178322 -649.94112117832265 0 0 0 0 -2.1439425117844735 2.3274632555017085 0 2.3274632555017085 -1.2585015394303483 0 0 0 0 -151.39554454085737 366.93882868154196 0 366.93882868154196 135.88815595788401 0 0 0 0 22.574126178857114 292.00721018028707 0 292.00721018028707 -126.91997900076035 0 0 0 0 -156.63908840770455 381.25198983330574 0 381.25198983330574 183.75979789806297 0 0 0 0 -134.3475773666305 450.94810216632368 0 450.94810216632368 351.14726310780316 0 0 0 0 -142.97702412361105 318.34196733458703 0 318.34196733458703 236.21571338991816 0 0 0 0 207.38761396587506 380.56494681476488 0 380.56494681476488 -23.940331370931744 0 0 0 0 221.90190766849264 451.27403578562553 0 451.27403578562553 122.87217533726653 0 0 0 0 578.01373579500796 395.07417200332384 0 395.07417200332384 119.80503575845898 0 0 0 0 247.04717793060991 161.58698494600685 0 161.58698494600685 650.31880142706359 0 0 0 0 131.90490488009891 449.13025829986145 0 449.13025829986145 169.86729330908565 0 0 0 0 288.61461661721478 216.08787040903599 0 216.08787040903599 -111.09607517280529 0 0 0 0 199.44446794175019 281.00511592068142 0 281.00511592068142 82.10684736494386 0 0 0 0 352.3896940711129 296.50250574884922 0 296.50250574884922 82.959887783278646 0 0 0 0 169.12042690261296 225.10334519447315 0 225.10334519447315 115.22780274610705 0 0 0 0 445.61964669626468 239.69886839431274 0 239.69886839431274 -15.672932131406924 0 0 0 0 35.312726237579682 11.051168729222866 0 11.051168729222866 -216.9926913589079 0 0 0 0 -0.9924942833761321 3.5530716496962924 0 3.5530716496962924 -6.2155956550165143 0 0 0 0 412.2948452124474 167.28110458954689 0 167.28110458954689 69.980880368922953 0 0 0 0 525.92684344529698 276.98788607864481 0 276.98788607864481 -68.873524491849821 0 0 0 0 357.86076271159254 359.02177890625444 0 359.02177890625444 89.321883737080498 0 0 0 0 528.47695712093264 473.4595631202792 0 473.4595631202792 166.03861111470906 0 0 0 0 717.38392801582813 374.70780812116573 0 374.70780812116573 -23.12793824030814 0 0 0 0 766.35049401113065 415.65857640359536 0 415.65857640359536 179.63566602181527 0 0 0 0 257.13004884720431 507.77523507384467 0 507.77523507384467 582.08684775447273 0 0 0 0 111.51064044143342 205.43228326789381 0 205.43228326789381 35.686360137406155 0 0 0 0 92.559235330532829 180.53195265388513 0 180.53195265388513 183.07154366106261 0 0 0 0 111.63374853742425 300.49384077347713 0 300.49384077347713 245.96277972434109 0 0 0 0 -54.441599667541595 110.47783719458039 0 110.47783719458039 164.43518218000099 0 0 0 0 -27.340871472206345 113.50641596459536 0 113.50641596459536 -20.705837717705435 0 0 0 0 -50.37323279807606 328.17297107373088 0 328.17297107373088 -87.349437329961802 0 0 0 0 34.77049288454873 292.07736042810211 0 292.07736042810211 111.06444207646928 0 0 0 0 -17.779961334112159 241.16864080494543 0 241.16864080494543 136.91819263378784 0 0 0 0 -148.20551261867513 300.65540452536516 0 300.65540452536516 162.39729924782296 0 0 0 0 33.699374192744472 270.34877194140086 0 270.34877194140086 108.16529619013454 0 0 0 0 -149.73619258013787 353.6753352660744 0 353.6753352660744 136.93282484402243 0 0 0 0 -138.54894306074129 322.80451687603272 0 322.80451687603272 209.474304082054 0 0 0 0 -253.97988733645616 279.13113480199354 0 279.13113480199354 193.45552256737938 0 0 0 0 -224.02371372433117 360.11382520889856 0 360.11382520889856 306.7057531048049 0 0 0 0 -4.6930033996832208 211.73367250131196 0 211.73367250131196 161.15653418923466 0 0 0 0 -88.245206505365786 239.25300611708371 0 239.25300611708371 153.44634132092324 0 0 0 0 26.66596123520867 82.345994464543764 0 82.345994464543764 109.37837043214404 0 0 0 0 205.07825255974603 130.16874731496137 0 130.16874731496137 86.721918566498061 0 0 0 0 7.5515242632609443 222.78086551406341 0 222.78086551406341 125.09478175416007 0 0 0 0 251.48950926278849 217.03191681797944 0 217.03191681797944 78.785643800722028 0 0 0 0 171.49627400751206 187.84287125346958 0 187.84287125346958 132.6266119221109 0 0 0 0 28.183044188252097 251.37371494220997 0 251.37371494220997 147.64436466392362 0 0 0 0 170.82396954711294 213.32034509784353 0 213.32034509784353 104.48277668883748 0 0 0 0 -68.463750398252159 -15.224970320714419 0 -15.224970320714419 204.81480457253201 0 0 0 0 177.86802002716104 -49.778141941025524 0 -49.778141941025524 -18.517211315389432 0 0 0 0 -70.248946271916793 -44.645227327444445 0 -44.645227327444445 -13.834009717458684 0 0 0 0 -28.849678322788833 37.357115142599476 0 37.357115142599476 -38.481182816976599 0 0 0 0 63.348011816415237 172.2243074804428 0 172.2243074804428 246.38248748420301 0 0 0 0 63.755492491858604 186.5298999816273 0 186.5298999816273 186.09555301458022 0 0 0 0 -8.0233179784569018 6.1232457805666627 0 6.1232457805666627 2.9771433020388116 0 0 0 0 33.019752930071263 108.91242745899581 0 108.91242745899581 202.14601673575089 0 0 0 0 107.08330069747171 140.21382081253432 0 140.21382081253432 239.95423266685384 0 0 0 0 59.775948375441658 159.3829357526256 0 159.3829357526256 295.47198331844993 0 0 0 0 -65.941674740546432 160.5117913436269 0 160.5117913436269 -10.287817594129592 0 0 0 0 -10.44792706539738 89.808317552851804 0 89.808317552851804 313.19789753241776 0 0 0 0 -6.9676510481513674 3.0497886476418614 0 3.0497886476418614 3.7437652019702661 0 0 0 0 -579.56903866306493 -102.00003405608902 0 -102.00003405608902 27.185793428903708 0 0 0 0 46.944761974940775 308.18639222788624 0 308.18639222788624 -230.73770025593694 0 0 0 0 1.3138046550804461 5.904386518086973 0 5.904386518086973 -3.5287112109205552 0 0 0 0 -464.59602875182736 490.4490303727996 0 490.4490303727996 369.79483285013339 0 0 0 0 -51.882088505870229 716.56667684122363 0 716.56667684122363 271.73394349403316 0 0 0 0 623.79140076531621 -83.017870884381409 0 -83.017870884381409 -364.92924616112577 0 0 0 0 -18.776126545947221 30.269773500496839 0 30.269773500496839 -42.14759295597252 0 0 0 0 11.013638584161527 100.5690600621765 0 100.5690600621765 -198.13119757112145 0 0 0 0 -126.10320618310652 104.8661555070139 0 104.8661555070139 106.73277978487977 0 0 0 0 527.6476354858969 531.62019863398655 0 531.62019863398655 76.180286147759034 0 0 0 0 4.3783736426388487 2.8189739078472407 0 2.8189739078472407 -7.4159626329604507 0 0 0 0 -210.32597262303898 284.64741571937839 0 284.64741571937839 107.68374635936925 0 0 0 0 -244.85544526300509 209.9969816645953 0 209.9969816645953 163.3751667192173 0 0 0 0 -316.11696447864233 66.683944552047251 0 66.683944552047251 -55.941336150412099 0 0 0 0 -256.80369279682054 185.97924867341044 0 185.97924867341044 115.10134836307407 0 0 0 0 -279.82285172201227 44.674163837724336 0 44.674163837724336 48.258897751122277 0 0 0 0 -331.9102259045394 38.579474214682705 0 38.579474214682705 69.423151790357224 0 0 0 0 -456.99948796992976 20.418568136970862 0 20.418568136970862 77.102523510823175 0 0 0 0 -8.7266779021451129 19.370164245723061 0 19.370164245723061 -35.197054717678213 0 0 0 0 -379.63572545039642 121.76563617748525 0 121.76563617748525 -7.8011300367179501 0 0 0 0 -513.29971295857831 -32.818641342708361 0 -32.818641342708361 -102.9430481169984 0 0 0 0 496.48665156395873 -72.217155503381946 0 -72.217155503381946 89.635729818176515 0 0 0 0 243.0471932690416 388.54513009144284 0 388.54513009144284 267.22956702084412 0 0 0 0 324.95910116616869 163.09484870449523 0 163.09484870449523 -228.22752687757747 0 0 0 0 160.10088013006316 15.620292994673946 0 15.620292994673946 -184.81025728055101 0 0 0 0 -310.40443622485327 405.03301606503373 0 405.03301606503373 -504.41220701028942 0 0 0 0 -1083.252527798235 344.24425212109054 0 344.24425212109054 -70.231597491540015 0 0 0 0 -752.05738123427727 -403.40695970589513 0 -403.40695970589513 -152.94538492296124 0 0 0 0 -525.78523406319437 313.41848453103012 0 313.41848453103012 -79.957232662734896 0 0 0 0 -582.15051084987135 -37.875615941940396 0 -37.875615941940396 -197.66715959258727 0 0 0 0 -320.52950510242954 109.91558570758934 0 109.91558570758934 -74.121903362567537 0 0 0 0 -359.29063333106751 319.17030301582236 0 319.17030301582236 -15.32901396870966 0 0 0 0 -352.00108141428791 236.97080978079612 0 236.97080978079612 -56.207372808188666 0 0 0 0 -255.5017371540016 269.00880174837948 0 269.00880174837948 15.263143488932315 0 0 0 0 -440.52989494247595 238.03512827761733 0 238.03512827761733 16.272846177234896 0 0 0 0 -565.19561551615698 141.54511848069706 0 141.54511848069706 44.605947674015624 0 0 0 0 -493.51467240286365 455.62434332283351 0 455.62434332283351 -126.24720123818406 0 0 0 0 1094.0318320125152 578.11234086508375 0 578.11234086508375 -229.46363482073139 0 0 0 0 260.18625619621889 94.931208035082818 0 94.931208035082818 -30.340122582023469 0 0 0 0 112.77715072017236 398.44516398710402 0 398.44516398710402 397.65046807723047 0 0 0 0 155.53347537376976 532.09220007700878 0 532.09220007700878 776.80790663914013 0 0 0 0 711.28899585655017 395.75068339665177 0 395.75068339665177 135.91098019338096 0 0 0 0 1.7828526924478467 3.4955817216794429 0 3.4955817216794429 6.9405881966890774 0 0 0 0 -286.56361080334682 83.229710753171275 0 83.229710753171275 494.78688327472264 0 0 0 0 -170.09711329617858 39.126873535195045 0 39.126873535195045 58.074889646522934 0 0 0 0 33.785189652895497 667.35077704074683 0 667.35077704074683 763.15775836668035 0 0 0 0 -275.06285951568861 191.03315718707381 0 191.03315718707381 139.13846322039535 0 0 0 0 -238.00861259991143 309.24695109513959 0 309.24695109513959 419.81656488533554 0 0 0 0 -257.87437135999789 184.16550426610593 0 184.16550426610593 -39.575722494955698 0 0 0 0 -120.01429640356946 187.29264398093073 0 187.29264398093073 -58.169317963031062 0 0 0 0 -428.54984840105317 260.28662689206067 0 260.28662689206067 50.822576373437187 0 0 0 0 -98.346761104883626 54.027241744068306 0 54.027241744068306 16.324092044911595 0 0 0 0 4.3986291215357198 9.5173998500158774 0 9.5173998500158774 17.756233542426926 0 0 0 0 -23.688405471752048 102.49408956921707 0 102.49408956921707 56.320010173440096 0 0 0 0 109.59854658281256 62.02596926753904 0 62.02596926753904 -4.1751614955219338 0 0 0 0 -14.338885916295112 48.152431864564278 0 48.152431864564278 13.025901037672156 0 0 0 0 59.406273744563805 148.29301018359638 0 148.29301018359638 1.2754858161424636 0 0 0 0 14.423507199717278 141.19805702966551 0 141.19805702966551 54.67409715940812 0 0 0 0 299.51375978857686 303.77748660137695 0 303.77748660137695 101.46202005917075 0 0 0 0 12.474574765728903 52.260145517579986 0 52.260145517579986 -62.851512805915263 0 0 0 0 -57.165876842300349 143.61965825382777 0 143.61965825382777 -19.414030429885315 0 0 0 0 166.01579517053324 52.758377402595215 0 52.758377402595215 -43.812253335418063 0 0 0 0 33.235379973659292 101.7961010086874 0 101.7961010086874 -22.730774410621962 0 0 0 0 61.700159994594287 51.807795919601631 0 51.807795919601631 -53.884659447654485 0 0 0 0 2.6701572701640544 115.09288103772269 0 115.09288103772269 -72.856518655047694 0 0 0 0 44.628320842190078 95.694735564326493 0 95.694735564326493 -79.621978963325091 0 0 0 0 46.665226011179584 109.07873653657043 0 109.07873653657043 -85.466342183353845 0 0 0 0 120.89989465717008 109.80817788322565 0 109.80817788322565 -90.289768325317709 0 0 0 0 -14.499016076064436 114.84620755648575 0 114.84620755648575 -5.2591534688763204 0 0 0 0 41.116001832080656 211.92026442032875 0 211.92026442032875 -107.2409261771827 0 0 0 0 -1.4606654237722978 114.87230813315364 0 114.87230813315364 -33.959383284920477 0 0 0 0 -138.8813569630729 112.8679766358091 0 112.8679766358091 -32.659777974884491 0 0 0 0 289.95292361089378 143.03578289320285 0 143.03578289320285 56.876940696442034 0 0 0 0 -375.51196921974042 86.463627952502975 0 86.463627952502975 19.202246795604879 0 0 0 0 -4.780962532806754 1.28652402519144 0 1.28652402519144 -0.32870202881829869 0 0 0 0 325.40421268311911 134.24741717986035 0 134.24741717986035 -89.494798188032291 0 0 0 0 163.24495290129562 145.92280956862669 0 145.92280956862669 94.74167170268629 0 0 0 0 -148.57855593995191 127.24718193081571 0 127.24718193081571 -57.104059843293726 0 0 0 0 -152.41843100155893 108.61235103822719 0 108.61235103822719 11.824375144409714 0 0 0 0 -216.40709661177243 188.20251769629613 0 188.20251769629613 -81.04874760572784 0 0 0 0 -75.001484657943365 69.405067269703068 0 69.405067269703068 -62.789621948380955 0 0 0 0 -114.6843385910106 74.331725522702982 0 74.331725522702982 -8.5912700843909988 0 0 0 0 -235.77568546621478 228.72286421520039 0 228.72286421520039 282.19620192629372 0 0 0 0 6.4786357531431094 11.771706391075099 0 11.771706391075099 29.643667257545644 0 0 0 0 -99.688531864167089 34.144521146475654 0 34.144521146475654 8.5913896737110917 0 0 0 0 252.07199119881261 -18.315462292544908 0 -18.315462292544908 -332.61183355912362 0 0 0 0 0.5635575173469789 27.296205340056261 0 27.296205340056261 39.613627986276683 0 0 0 0 -73.094363540360064 46.26349333668395 0 46.26349333668395 -18.91395326473139 0 0 0 0 -21.074340739607578 -284.56163215277775 0 -284.56163215277775 188.25710749850259 0 0 0 0 -121.63070144156518 -494.32524238945189 0 -494.32524238945189 -229.39428315658733 0 0 0 0 -134.75343033681565 118.89823139083455 0 118.89823139083455 13.647315333226061 0 0 0 0 -108.75628465034242 117.82461798165241 0 117.82461798165241 -3.2554309377155732 0 0 0 0 -127.29404458238423 97.443134646740873 0 97.443134646740873 -13.351621187910496 0 0 0 0 -341.7734866657629 102.52326575442748 0 102.52326575442748 18.677313597541797 0 0 0 0 -156.57701866375282 51.574634263849475 0 51.574634263849475 21.431825821335224 0 0 0 0 -221.5897358659131 140.66158251794695 0 140.66158251794695 -13.364267026679521 0 0 0 0 -169.05129106737149 217.01466106064254 0 217.01466106064254 -152.79353014634398 0 0 0 0 11.923836629336421 8.8112347108639248 0 8.8112347108639248 -3.9739531700747222 0 0 0 0 -303.44874427199102 133.88127056829035 0 133.88127056829035 15.168809303133457 0 0 0 0 -40.996903638610092 167.10244377221807 0 167.10244377221807 -221.2303497935427 0 0 0 0 -88.295984810683876 -27.123852932925729 0 -27.123852932925729 49.15691711681211 0 0 0 0 -21.986730744640226 43.095484986550218 0 43.095484986550218 -219.51708043027429 0 0 0 0 -83.071342557290336 67.018153092613602 0 67.018153092613602 -57.11999412092365 0 0 0 0 -64.511681618308273 12.677056456582974 0 12.677056456582974 38.015473320573015 0 0 0 0 -28.066603038768335 -16.664092199592915 0 -16.664092199592915 -66.569250632026524 0 0 0 0 -106.87871378297132 66.822583278927596 0 66.822583278927596 10.664316313363088 0 0 0 0 -124.98072064873122 121.66519003961366 0 121.66519003961366 -63.855503088040791 0 0 0 0 -110.07055989756918 137.94054649909594 0 137.94054649909594 -46.906673041281465 0 0 0 0 -174.78398964399094 168.61991685491921 0 168.61991685491921 -37.880924347169639 0 0 0 0 -224.71336545177473 104.05985126512678 0 104.05985126512678 11.799402663848014 0 0 0 0 -175.65428108946071 166.01833267071561 0 166.01833267071561 -28.628813922974587 0 0 0 0 -141.49093199244817 104.00644433436537 0 104.00644433436537 -6.921547827685572 0 0 0 0 -175.33319808397209 38.727207548661681 0 38.727207548661681 1.122986481845146 0 0 0 0 -104.82339811057318 19.717906827696424 0 19.717906827696424 -2.8473382258434867 0 0 0 0 173.07417554667336 132.25848446561213 0 132.25848446561213 -33.455118256191781 0 0 0 0 -4.3353871725559685 1.0917632947138429 0 1.0917632947138429 0.11729368377257288 0 0 0 0 345.53733238574569 176.46685152724649 0 176.46685152724649 -22.13972952189215 0 0 0 0 -22.553442907113407 7.9801636844714352 0 7.9801636844714352 13.806275255958042 0 0 0 0 -14.775843216065979 23.143810453123841 0 23.143810453123841 -10.573519077187257 0 0 0 0 14.344033272587694 101.41680844115035 0 101.41680844115035 107.76034859033825 0 0 0 0 -45.09934242307645 22.308282329653593 0 22.308282329653593 -6.8446774286785512 0 0 0 0 -103.65462759185175 78.385729434865425 0 78.385729434865425 30.775493944714981 0 0 0 0 -27.41711274026602 46.824328400754894 0 46.824328400754894 -11.801921638929343 0 0 0 0 -89.742267590394476 66.544702562585371 0 66.544702562585371 -42.342154160200153 0 0 0 0 -82.721980383510527 126.87625865960251 0 126.87625865960251 -5.1172918084571393 0 0 0 0 24.578168998500587 127.20640796390404 0 127.20640796390404 -52.902758613914102 0 0 0 0 -2.5351588487579306 33.202711662923548 0 33.202711662923548 -18.544089895496914 0 0 0 0 3.0284777475262672 -43.372618766487676 0 -43.372618766487676 -19.109737089005648 0 0 0 0 -28.04128164771538 31.438508917955701 0 31.438508917955701 -19.995650009800851 0 0 0 0 198.29985756057431 -12.35190974728539 0 -12.35190974728539 85.890374282613266 0 0 0 0 314.6484976783031 101.02037552157071 0 101.02037552157071 -207.34850234102669 0 0 0 0 -9.5644817634505728 29.827757471884496 0 29.827757471884496 -51.300008280736101 0 0 0 0 -393.08463063215459 -116.8279352505815 0 -116.8279352505815 -50.208957054990606 0 0 0 0 70.05467586650775 239.17747865329966 0 239.17747865329966 21.441259973013075 0 0 0 0 -145.38953860472247 64.866228057278931 0 64.866228057278931 253.83396898857245 0 0 0 0 436.48483392535127 -153.49062945669721 0 -153.49062945669721 129.68859172386146 0 0 0 0 310.42805761561613 131.14845168669854 0 131.14845168669854 10.345439885972155 0 0 0 0 -5.724706348900412 9.2398885612034007 0 9.2398885612034007 -9.7736041941395086 0 0 0 0 62.32883489211963 179.207505098193 0 179.207505098193 157.31678514731175 0 0 0 0 247.06665589871409 228.17868196729614 0 228.17868196729614 42.517411461827578 0 0 0 0 352.70116222172146 -0.36470170130542101 0 -0.36470170130542101 46.346055134643393 0 0 0 0 -6.6201992236165097 58.366273822150106 0 58.366273822150106 57.989649691695377 0 0 0 0 6.8555211033317391 49.661026265962846 0 49.661026265962846 27.995216085339052 0 0 0 0 12.437315508941538 18.939623072914401 0 18.939623072914401 60.654109186660207 0 0 0 0 8.9269920268320391 43.576447789859337 0 43.576447789859337 -19.655948055115495 0 0 0 0 28.1763987753111 4.7892851754154435 0 4.7892851754154435 37.008158068507328 0 0 0 0 -1.3397398744707516 6.2110821583776428 0 6.2110821583776428 -9.1715534689770877 0 0 0 0 128.38811483881727 -51.920061766155413 0 -51.920061766155413 -486.05170902531825 0 0 0 0 -58.85388212667749 53.506288527398283 0 53.506288527398283 15.616785171187075 0 0 0 0 -12.125835846066295 11.924573120124251 0 11.924573120124251 9.5879787643279286 0 0 0 0 102.59951431679292 273.01831844729259 0 273.01831844729259 -111.40068947853433 0 0 0 0 -779.55809494519781 173.45828829349557 0 173.45828829349557 109.46574354175027 0 0 0 0 -768.0389565693331 941.27878109907033 0 941.27878109907033 -486.22803437324183 0 0 0 0 524.32981502707844 173.18344588642503 0 173.18344588642503 76.908440431994677 0 0 0 0 149.41991635642626 -148.56512961250428 0 -148.56512961250428 -95.204692446866829 0 0 0 0 888.51218434240218 150.78550065590844 0 150.78550065590844 -296.87563190118453 0 0 0 0 -2.1640598676033846 5.3190847513630217 0 5.3190847513630217 -14.541134476776833 0 0 0 0 482.96266356972774 320.12127085162138 0 320.12127085162138 -357.21359206728812 0 0 0 0 -200.29896166044637 549.77946044640339 0 549.77946044640339 -971.16134130170394 0 0 0 0 -1500.0436695106546 84.400493738172372 0 84.400493738172372 170.67365512162723 0 0 0 0 -373.10571010204694 278.17860489171244 0 278.17860489171244 1030.5297652649097 0 0 0 0 -1197.7776292884591 -343.41126431477096 0 -343.41126431477096 614.75446339225891 0 0 0 0 3.2428420727757157 12.959924481171605 0 12.959924481171605 -15.218672302150146 0 0 0 0 -5.8421836010414268 38.114815051553471 0 38.114815051553471 -21.652100977316763 0 0 0 0 389.18667222332442 599.3187415543689 0 599.3187415543689 31.887615457751963 0 0 0 0 -16.707635622101066 16.715650434163429 0 16.715650434163429 -7.4764690619716845 0 0 0 0 358.03323019618983 710.59864106590612 0 710.59864106590612 -319.89538398829745 0 0 0 0 -43.689094695437234 92.151258555156346 0 92.151258555156346 -69.422010856712291 0 0 0 0 -55.606459130773146 69.756368976180056 0 69.756368976180056 -82.99281383991638 0 0 0 0 -36.523786954472087 64.656855227458294 0 64.656855227458294 -42.516967826699783 0 0 0 0 171.98931883010664 200.63493020803435 0 200.63493020803435 -222.58925693800302 0 0 0 0 1.8597430788340716 76.726398429135315 0 76.726398429135315 -102.91399204978006 0 0 0 0 28.805261375745019 37.738232545074666 0 37.738232545074666 -39.129379765830173 0 0 0 0 -122.65103797750635 103.36319364639712 0 103.36319364639712 -54.072455711695966 0 0 0 0 -50.360819664678274 60.799216570303088 0 60.799216570303088 -75.746581623976454 0 0 0 0 -35.212554149300558 95.53399500057003 0 95.53399500057003 -30.763042904234226 0 0 0 0 13.227451081136678 43.562672982563299 0 43.562672982563299 -62.0914357217016 0 0 0 0 -32.350220389623715 68.099442582776362 0 68.099442582776362 -56.248547356948166 0 0 0 0 42.068191534897778 84.437780786328858 0 84.437780786328858 -39.228577800313019 0 0 0 0 -39.107459260860196 280.84613145471508 0 280.84613145471508 -211.56176806557414 0 0 0 0 340.32369735761313 109.18244469641149 0 109.18244469641149 -146.76277333448252 0 0 0 0 -1.8310876272851431 3.3346104492075028 0 3.3346104492075028 -4.9895543539404201 0 0 0 0 -933.40127161891724 154.655076174638 0 154.655076174638 15.580321786221702 0 0 0 0 -249.69153387749975 318.93121444249573 0 318.93121444249573 -320.20443220657398 0 0 0 0 -254.13635907133721 -85.62410668937116 0 -85.62410668937116 -148.54427918729471 0 0 0 0 -84.979264036921336 83.14664091065562 0 83.14664091065562 -17.320707907763239 0 0 0 0 -358.42182031742414 302.46478723459359 0 302.46478723459359 168.51967269326087 0 0 0 0 -578.53023719799239 59.25288130365152 0 59.25288130365152 141.6299907386292 0 0 0 0 -84.667883578840701 151.13447159978386 0 151.13447159978386 -17.350722550327191 0 0 0 0 -71.953786891036884 74.406172788656619 0 74.406172788656619 -13.566497460364456 0 0 0 0 -110.27854179414135 212.99943010543575 0 212.99943010543575 -158.1680324972549 0 0 0 0 -25.674623018174316 126.53040735670038 0 126.53040735670038 -190.67911450384418 0 0 0 0 6.7668058030103566 66.224109617411159 0 66.224109617411159 -104.49276910618755 0 0 0 0 -73.718294673177297 91.37102479589521 0 91.37102479589521 -182.15183747963101 0 0 0 0 -271.44710905890679 135.19845058362989 0 135.19845058362989 -261.81370750900533 0 0 0 0 -151.04288390959846 215.52693794700826 0 215.52693794700826 -304.1251912799562 0 0 0 0 -333.49410060707305 362.57779260198276 0 362.57779260198276 -534.62381945229572 0 0 0 0 -610.83288422185433 409.31858700112934 0 409.31858700112934 -232.82782631262671 0 0 0 0 -211.32508186947234 64.299954222620727 0 64.299954222620727 -11.444384092035762 0 0 0 0 -540.97337286701077 251.81637022606446 0 251.81637022606446 -109.44289368787577 0 0 0 0 -22.839934531977633 301.85909891905794 0 301.85909891905794 -67.058832351413002 0 0 0 0 -12.203548193128029 9.6570132423680946 0 9.6570132423680946 -16.497095646013072 0 0 0 0 -37.883014388979063 79.85969531475348 0 79.85969531475348 -115.05053510622383 0 0 0 0 -39.45718612280325 80.536442272005843 0 80.536442272005843 -84.036417895236809 0 0 0 0 -19.620662711065961 97.958615931584063 0 97.958615931584063 -120.24875263728063 0 0 0 0 -26.159068797962391 56.086207759330136 0 56.086207759330136 -58.685184546928213 0 0 0 0 -170.15799231761775 145.6242240236279 0 145.6242240236279 238.99059222794529 0 0 0 0 -52.927625104579533 75.511772650431141 0 75.511772650431141 -7.1898793556107305 0 0 0 0 -61.258095958604827 58.261994748938378 0 58.261994748938378 156.14400742357157 0 0 0 0 -91.622298658156069 135.02501916595247 0 135.02501916595247 -69.609377759607014 0 0 0 0 -63.614699301833753 -33.416665883803944 0 -33.416665883803944 -24.353893500781851 0 0 0 0 -89.773064094901201 111.23478165149845 0 111.23478165149845 -144.2356028735976 0 0 0 0 -37.625081273268734 59.026972763089816 0 59.026972763089816 3.1951471792681332 0 0 0 0 -115.85675461645587 126.18005269824107 0 126.18005269824107 -27.325473047427749 0 0 0 0 -38.256179441319546 31.004697268011114 0 31.004697268011114 24.152037323131822 0 0 0 0 6.3568518620886607 8.6571100439616657 0 8.6571100439616657 26.804168386934634 0 0 0 0 -48.135563699710474 59.418835471228931 0 59.418835471228931 19.10525284045616 0 0 0 0 0.027357535254850518 4.670271239586782 0 4.670271239586782 10.954571237769528 0 0 0 0 0.86478229070780799 5.7771175888238986 0 5.7771175888238986 11.651508788599727 0 0 0 0 4.5703174597583711 9.2497359417020562 0 9.2497359417020562 11.257560148179778 0 0 0 0 2.2127105290381621 -4.9492543944028284 0 -4.9492543944028284 17.102479430518027 0 0 0 0 0.016871752755832858 40.874038424715991 0 40.874038424715991 -24.833191985288067 0 0 0 0 3.280656803694967 12.547364378172006 0 12.547364378172006 28.279389206611945 0 0 0 0 -4.8717558926582569 25.41211350308231 0 25.41211350308231 -46.969854071479858 0 0 0 0 14.491552135732491 -33.131041841901606 0 -33.131041841901606 -81.080679351509389 0 0 0 0 -4.241968324262217 4.877186506567142 0 4.877186506567142 5.8771821493580205 0 0 0 0 -0.53715623132302426 10.600456782475703 0 10.600456782475703 11.123834710590927 0 0 0 0 6.0479898535704706 -79.209509092077496 0 -79.209509092077496 -294.7910185080691 0 0 0 0 -2.3814713340210858 0.96066835542436024 0 0.96066835542436024 1.3022565842007481 0 0 0 0 3.767229198529094 6.5536513411360602 0 6.5536513411360602 6.1229448797594159 0 0 0 0 -0.094515158489230089 6.6153607109940822 0 6.6153607109940822 -301.61528350805747 0 0 0 0 -29.80277237055634 136.84073324777842 0 136.84073324777842 -175.00685873844304 0 0 0 0 72.763754603423877 77.799229073001698 0 77.799229073001698 -347.09399043412805 0 0 0 0 61.222679700629669 73.266252119877663 0 73.266252119877663 -179.8867868553134 0 0 0 0 90.411452191852732 103.53222221900342 0 103.53222221900342 -199.23898441758502 0 0 0 0 32.038571031902393 108.32857012268892 0 108.32857012268892 -166.49888137998641 0 0 0 0 69.122553755325498 68.556257212378114 0 68.556257212378114 -196.57467881731645 0 0 0 0 95.318361745601578 127.24976398188255 0 127.24976398188255 -161.00861190327305 0 0 0 0 99.218441424382036 202.33731813599115 0 202.33731813599115 25.194353228733235 0 0 0 0 178.48598153775674 83.521734358331742 0 83.521734358331742 -92.227766942158922 0 0 0 0 63.32739768880856 103.56607932362567 0 103.56607932362567 -92.771581961555057 0 0 0 0 0.0016562375603825785 114.91056486146226 0 114.91056486146226 -9.5562037391491685 0 0 0 0 58.468648144975305 44.529448448103722 0 44.529448448103722 -151.55793169167737 0 0 0 0 0.61387572857051964 7.8835726208735313 0 7.8835726208735313 -12.302135184643738 0 0 0 0 4.1430727955752218 35.184154394297536 0 35.184154394297536 15.996425905454448 0 0 0 0 -24.284369183835224 9.1951569694547288 0 9.1951569694547288 30.99017457548257 0 0 0 0 -27.706657459828421 87.766706806797174 0 87.766706806797174 -15.480870029905418 0 0 0 0 -29.9705929136544 97.594682997531891 0 97.594682997531891 -51.922201425372123 0 0 0 0 -48.362036955804797 92.074746775558197 0 92.074746775558197 -56.722556666818491 0 0 0 0 -59.17135615526422 169.21746583191316 0 169.21746583191316 -51.36266905071534 0 0 0 0 -35.633409207628574 76.86026087508435 0 76.86026087508435 -83.625069271849497 0 0 0 0 -14.485126939718612 114.77146194934176 0 114.77146194934176 -208.66103083820053 0 0 0 0 -189.25288724034908 48.203285264738042 0 48.203285264738042 205.96207300277456 0 0 0 0 -1.3168906669525171 35.053728660724488 0 35.053728660724488 -53.15731889921652 0 0 0 0 -84.618686903588241 30.728536705430088 0 30.728536705430088 -26.575880862925942 0 0 0 0 -78.385734750976553 76.08578068560746 0 76.08578068560746 -19.69492512913348 0 0 0 0 -63.960759541034349 65.684482121288966 0 65.684482121288966 1.653327888372587 0 0 0 0 -75.802714115794515 66.415631715277414 0 66.415631715277414 10.736795898921628 0 0 0 0 -63.903245158040136 69.062032439330068 0 69.062032439330068 167.78214175654284 0 0 0 0 -82.913429736858234 42.261790607439252 0 42.261790607439252 51.384827366062382 0 0 0 0 -26.726953910590964 22.226125864342521 0 22.226125864342521 -2.7652305878837069 0 0 0 0 -49.335568652473739 -1.9913131394177981 0 -1.9913131394177981 21.359023076700396 0 0 0 0 -92.955364054322445 58.436064734472779 0 58.436064734472779 -5.940420491315308 0 0 0 0 -125.83675614424283 23.298058799448881 0 23.298058799448881 22.43991864097552 0 0 0 0 -86.833129671220377 41.840313105707537 0 41.840313105707537 -6.8591694215720054 0 0 0 0 -0.83786945698731818 31.320592276557193 0 31.320592276557193 -24.843112400641452 0 0 0 0 16.252738667069934 41.800649399757276 0 41.800649399757276 162.41469982492526 0 0 0 0 65.98062854303862 121.05260636554885 0 121.05260636554885 128.89190260991563 0 0 0 0 1.18501186851055 3.2215643526391489 0 3.2215643526391489 1.8571550917986031 0 0 0 0 137.65528556927165 85.224071181291947 0 85.224071181291947 38.43100812801822 0 0 0 0 -2.0819241128920112 -11.923984820804435 0 -11.923984820804435 41.762334445324086 0 0 0 0 84.961510271423322 43.979189013558425 0 43.979189013558425 7.0628289283213235 0 0 0 0 0.018984334972628858 67.653049609196387 0 67.653049609196387 86.987176938495395 0 0 0 0 4.3643549082480604 15.452674529215074 0 15.452674529215074 16.32122260036158 0 0 0 0 5.8315710053902876 13.240424086417079 0 13.240424086417079 19.609727863946318 0 0 0 0 0.17090402813143157 4.9664165713141131 0 4.9664165713141131 6.8116481710987529 0 0 0 0 1.502516555643524 14.375807129943496 0 14.375807129943496 24.051155326754724 0 0 0 0 0.064490490351084936 16.416656690947526 0 16.416656690947526 21.302375612001924 0 0 0 0 -74.004360675127828 1.3855795043027683 0 1.3855795043027683 7.0008395954209846 0 0 0 0 -42.989853351056809 14.795249112903548 0 14.795249112903548 -26.413739109097151 0 0 0 0 -43.427423705288675 3.371632972102816 0 3.371632972102816 9.046011066498977 0 0 0 0 -45.542280927293177 18.988016123712441 0 18.988016123712441 15.051342588305488 0 0 0 0 -9.70918245816938 2.4574952587029202 0 2.4574952587029202 -7.0412906325800577 0 0 0 0 -23.051789143415533 5.5125606109390084 0 5.5125606109390084 5.3822085519595086 0 0 0 0 -49.943028496370971 50.864822704580263 0 50.864822704580263 -0.33574504503485514 0 0 0 0 -1.3765634209786413 31.652301610396421 0 31.652301610396421 1.2284297405531959 0 0 0 0 3.2927160205984478 18.654943476961449 0 18.654943476961449 0.76679021604068609 0 0 0 0 -100.3540321381297 7.963283971119381 0 7.963283971119381 14.958545253532066 0 0 0 0 -34.548566343699349 23.717085186432087 0 23.717085186432087 8.7970198718285246 0 0 0 0 -18.460522961158858 40.833389452243864 0 40.833389452243864 28.91802350000944 0 0 0 0 -16.400223099626601 36.856911372155082 0 36.856911372155082 -12.430651158414548 0 0 0 0 -52.023321694592596 45.081171697083846 0 45.081171697083846 -4.2682812315906631 0 0 0 0 -20.604932772024767 35.188870916386804 0 35.188870916386804 -23.873936437485099 0 0 0 0 -22.156565436969686 41.876882134014522 0 41.876882134014522 -6.7203916964499513 0 0 0 0 -15.862597601626476 27.357070286616363 0 27.357070286616363 -13.025353997643833 0 0 0 0 8.7423632388527039 24.128195740224328 0 24.128195740224328 -15.112330678119179 0 0 0 0 5.9241740125289652 30.266932094182266 0 30.266932094182266 -26.818208608423447 0 0 0 0 -2.7313131561095361 37.501629794103792 0 37.501629794103792 -18.875794608913566 0 0 0 0 9.6498282551474404 31.076267970705885 0 31.076267970705885 -8.560301634541247 0 0 0 0 0.31322663530590944 31.469506118000936 0 31.469506118000936 -8.0186830772945541 0 0 0 0 -0.86596559334429912 33.184638571204232 0 33.184638571204232 44.958465373272702 0 0 0 0 3.4940744629129767 45.387081584751286 0 45.387081584751286 12.002729147069203 0 0 0 0 2.8731661488127429 36.147702441638103 0 36.147702441638103 3.9859231810009987 0 0 0 0 -6.4741516906651668 37.146174316167162 0 37.146174316167162 13.637063668043993 0 0 0 0 -7.5257597958261613 27.884150858448265 0 27.884150858448265 5.8014488661647192 0 0 0 0 18.675846530495164 52.243066253916794 0 52.243066253916794 13.990447139867683 0 0 0 0 19.934159088923479 29.510668344195437 0 29.510668344195437 13.788046253554057 0 0 0 0 -5.5141925437346799 31.761359191434167 0 31.761359191434167 136.65350049064728 0 0 0 0 -22.515353969560238 68.515759779184009 0 68.515759779184009 280.56696285525322 0 0 0 0 -24.630923071935058 11.255763331764314 0 11.255763331764314 2.9734228167595873 0 0 0 0 -40.887314892723225 -87.660945497036664 0 -87.660945497036664 -469.01684790301806 0 0 0 0 -3.6888116718037054 42.150976878299844 0 42.150976878299844 13.218484309184532 0 0 0 0 0.48050934667116962 50.169289850255154 0 50.169289850255154 16.173520068805374 0 0 0 0 7.8485523080683492 14.083562267541964 0 14.083562267541964 10.480533341869638 0 0 0 0 129.15239606055547 103.37116798893203 0 103.37116798893203 -276.20735636168683 0 0 0 0 15.078686622684472 39.126384398810842 0 39.126384398810842 0.68436200393625768 0 0 0 0 3.511027948348783 34.390177825673163 0 34.390177825673163 12.564342737341576 0 0 0 0 -10.199311958611361 25.700638589871232 0 25.700638589871232 -0.38906751935496686 0 0 0 0 8.2324437828647206 20.829454400807663 0 20.829454400807663 -23.969345019992033 0 0 0 0 18.458717063243967 357.01534432769404 0 357.01534432769404 5.0158358826447511 0 0 0 0 -4.3412287877694382 0.32648448209799596 0 0.32648448209799596 3.2808663747351972 0 0 0 0 -38.313236629939638 -155.97385244981342 0 -155.97385244981342 40.914107377262553 0 0 0 0 -339.03211885246128 -104.83030121049705 0 -104.83030121049705 -297.04272433169899 0 0 0 0 -110.09052286892256 -28.789696279450254 0 -28.789696279450254 -98.260565528325969 0 0 0 0 -87.667393287934829 63.5253008021391 0 63.5253008021391 161.3262804830847 0 0 0 0 -271.52650825427918 149.21605681966639 0 149.21605681966639 -50.391794370763819 0 0 0 0 135.41562608789536 65.929375711457396 0 65.929375711457396 -198.68868286546058 0 0 0 0 -160.47245501322323 150.19240387344689 0 150.19240387344689 -162.00876980699104 0 0 0 0 -2.8033179890771862 33.498639819346863 0 33.498639819346863 -86.814338770091126 0 0 0 0 75.65383444676263 -100.61214689644294 0 -100.61214689644294 -113.66798245358223 0 0 0 0 -93.04063677060185 -85.830160060562775 0 -85.830160060562775 14.263879365520552 0 0 0 0 -140.10549543058733 19.757193408284365 0 19.757193408284365 3.7614400355996622 0 0 0 0 -118.12082527000166 24.061142047408794 0 24.061142047408794 -78.047875534182822 0 0 0 0 -233.00487943302142 70.791093964719039 0 70.791093964719039 -26.621364380815066 0 0 0 0 -338.24061182173318 100.99060365717742 0 100.99060365717742 -22.517308788792434 0 0 0 0 -200.37012641775073 105.75244620244484 0 105.75244620244484 -28.533796830211941 0 0 0 0 -249.98017778265057 92.208004631040239 0 92.208004631040239 -106.73657528256444 0 0 0 0 -386.06200855216593 123.80354095201619 0 123.80354095201619 -76.443096049266387 0 0 0 0 -369.58311600345769 2.1371023445171886 0 2.1371023445171886 -172.37356122126948 0 0 0 0 -255.38015008962975 16.045227095926293 0 16.045227095926293 -44.432905131499865 0 0 0 0 -106.48574798498885 54.505017793206207 0 54.505017793206207 -225.34096037751442 0 0 0 0 -252.35800224320337 29.152324169182748 0 29.152324169182748 -207.54700772138312 0 0 0 0 -236.87163039254301 126.36568052693065 0 126.36568052693065 -307.68739395882585 0 0 0 0 -236.60537270049099 12.758913374731492 0 12.758913374731492 -541.31567059575502 0 0 0 0 -250.64038858519052 -12.18307168667161 0 -12.18307168667161 -213.03297123157245 0 0 0 0 103.11248335578421 82.524850411442458 0 82.524850411442458 -118.75600780927562 0 0 0 0 -90.385257819434628 114.32008550105093 0 114.32008550105093 -20.99152068973126 0 0 0 0 -4.0019195190689061 0.67611008198400668 0 0.67611008198400668 -178.70066899321682 0 0 0 0 50.703790659885271 -25.3781779013093 0 -25.3781779013093 -95.080216641963489 0 0 0 0 -2.8590741161011408 -1.7711827773271978 0 -1.7711827773271978 3.9184733901367252 0 0 0 0 43.476815594447544 344.98410679393783 0 344.98410679393783 -39.661483274387137 0 0 0 0 -1.0060978202225783 2.2714417864305858 0 2.2714417864305858 3.8957703270350947 0 0 0 0 6.0990396773122484 -44.603054736096965 0 -44.603054736096965 10.008209469495341 0 0 0 0 43.888222165958723 -24.137687400384493 0 -24.137687400384493 -247.47172574868819 0 0 0 0 -280.18623831419973 -141.59800493621879 0 -141.59800493621879 -160.96194915791557 0 0 0 0 -38.548103920664289 27.718163099852973 0 27.718163099852973 -21.536266030558636 0 0 0 0 13.133639479114208 43.747286435609567 0 43.747286435609567 -49.419048458985344 0 0 0 0 -15.784044786341838 50.875371337788238 0 50.875371337788238 -35.269641129023512 0 0 0 0 4.5967094242492692 5.9328949454833548 0 5.9328949454833548 6.6281338878426368 0 0 0 0 -0.41175393457524478 30.734267166066275 0 30.734267166066275 -26.60609159368687 0 0 0 0 19.12562007366796 14.771487066656846 0 14.771487066656846 -24.154436252621963 0 0 0 0 27.650168997934088 26.198728752899115 0 26.198728752899115 -44.235175477166194 0 0 0 0 -13.78159935047006 79.224463635197026 0 79.224463635197026 -2.7405571575864087 0 0 0 0 -13.693530395886327 43.423008823093951 0 43.423008823093951 -30.55524535869991 0 0 0 0 -8.2086143343371987 40.972629337664785 0 40.972629337664785 7.4621386649669148 0 0 0 0 98.993983370122805 -104.2658185097871 0 -104.2658185097871 79.548209680928267 0 0 0 0 -98.785286298664005 209.73078520776073 0 209.73078520776073 651.80100703447897 0 0 0 0 187.3657479630856 421.39343756354356 0 421.39343756354356 520.22800543474477 0 0 0 0 78.411625089920562 64.090446529341534 0 64.090446529341534 -15.402852669838467 0 0 0 0 -8.2437295721969974 48.795071304066667 0 48.795071304066667 -24.392668026655297 0 0 0 0 -13.455964990320354 75.392596773030164 0 75.392596773030164 -48.598964615810473 0 0 0 0 22.03975130267014 13.8919487009655 0 13.8919487009655 -8.7300439423204637 0 0 0 0 -21.571008437178534 39.910671262023243 0 39.910671262023243 -56.661158639955829 0 0 0 0 9.5928788964074556 117.95952074962497 0 117.95952074962497 -73.538492420135299 0 0 0 0 8.7945023898573709 105.50004550432459 0 105.50004550432459 105.17575602221405 0 0 0 0 -18.878975100044045 107.26808769715717 0 107.26808769715717 -32.046979982202174 0 0 0 0 -12.488201381151157 6.8715181672796461 0 6.8715181672796461 -67.009688374957591 0 0 0 0 -5.4117550585397112 67.070166922962017 0 67.070166922962017 -64.232233277250089 0 0 0 0 26.820037901541099 16.266237663667113 0 16.266237663667113 -3.8539798942130759 0 0 0 0 1.7016431390688922 46.656587289260187 0 46.656587289260187 -53.379741175944218 0 0 0 0 -3.4583654349080462 68.374624233900249 0 68.374624233900249 -79.64068552020035 0 0 0 0 -19.789143595160567 45.396124083064933 0 45.396124083064933 -76.37867276864381 0 0 0 0 -20.251914646061778 63.01476986246962 0 63.01476986246962 -125.68464105626117 0 0 0 0 21.279549529794167 88.697649606285268 0 88.697649606285268 -19.430462410789914 0 0 0 0 29.553046540524349 86.674082910397146 0 86.674082910397146 -37.494716739689466 0 0 0 0 -24.752972560691752 55.367586954958952 0 55.367586954958952 -60.397958893993774 0 0 0 0 -60.025173260270094 56.522448187579357 0 56.522448187579357 -73.431881475289629 0 0 0 0 -6.3206198883251972 28.716171140304439 0 28.716171140304439 -44.787031058474 0 0 0 0 13.544138250637729 19.117398539849319 0 19.117398539849319 -30.785906802819227 0 0 0 0 -32.934431870462049 50.307184887676158 0 50.307184887676158 -72.02816429532686 0 0 0 0 -45.367823903126919 70.734385556093912 0 70.734385556093912 -50.871003925694822 0 0 0 0 -66.741863615720149 59.082647396121615 0 59.082647396121615 -17.108258394255245 0 0 0 0 -22.376109885577534 69.453868745371437 0 69.453868745371437 -42.30387985089601 0 0 0 0 -43.434185917411014 68.117573376828659 0 68.117573376828659 -40.823507085060555 0 0 0 0 54.773478981353946 228.01690848459839 0 228.01690848459839 -40.468814416788518 0 0 0 0 74.575975718504196 278.49264461252096 0 278.49264461252096 60.394252605052316 0 0 0 0 82.328483580977803 93.68927449976141 0 93.68927449976141 74.629895822226189 0 0 0 0 104.33437848868198 -173.04043521520362 0 -173.04043521520362 -509.37504925916437 0 0 0 0 77.701988914763206 166.45373876640224 0 166.45373876640224 -49.70359690179248 0 0 0 0 35.497393549186768 62.054215409638459 0 62.054215409638459 -82.066478278035447 0 0 0 0 63.142097060969604 104.56113180774491 0 104.56113180774491 -27.526626134174876 0 0 0 0 139.30816377775045 125.54796384827932 0 125.54796384827932 -17.666811948307441 0 0 0 0 220.82721874082199 180.12343173474073 0 180.12343173474073 -55.687526893889299 0 0 0 0 324.2756058988889 253.87502783852688 0 253.87502783852688 -29.049634039052762 0 0 0 0 7.7304132347569192 23.392179300834446 0 23.392179300834446 -79.368429043782726 0 0 0 0 -27.738227901584018 75.865717894128352 0 75.865717894128352 -4.8495229323706042 0 0 0 0 -6.3142730123457937 35.713595151544702 0 35.713595151544702 -24.760112134546659 0 0 0 0 -19.348669014024381 54.696786083426559 0 54.696786083426559 -21.443827401468297 0 0 0 0 14.47017274812066 45.585947139075316 0 45.585947139075316 -43.050179839240499 0 0 0 0 58.953571600031864 89.87493659703614 0 89.87493659703614 -17.554174177188543 0 0 0 0 75.269003455209912 102.05997685451436 0 102.05997685451436 -21.413219391837117 0 0 0 0 -350.81329667149112 858.49035786819877 0 858.49035786819877 -438.08576197407729 0 0 0 0 61.604826978757046 355.21418362842815 0 355.21418362842815 -483.3276103806129 0 0 0 0 30.432450242981446 16.376158839972703 0 16.376158839972703 -0.29883955966136 0 0 0 0 416.2464644415013 538.15163209960156 0 538.15163209960156 -388.97915658388956 0 0 0 0 -336.47367195811967 1265.1448403170361 0 1265.1448403170361 -544.48158095114923 0 0 0 0 -970.74988545962697 1380.9943870023235 0 1380.9943870023235 -381.83861240788247 0 0 0 0 81.987340695261082 940.24102267389389 0 940.24102267389389 83.078825619675627 0 0 0 0 -400.68689775986422 477.67809694782045 0 477.67809694782045 -257.82987491936728 0 0 0 0 -153.71497786062537 -428.83064534909863 0 -428.83064534909863 1078.1074900640451 0 0 0 0 -107.08380973280873 64.437328267693943 0 64.437328267693943 15.900789207335023 0 0 0 0 -80.398294908535718 91.049339098612109 0 91.049339098612109 -2.1409549025338492 0 0 0 0 -89.119035833490159 73.746428669085617 0 73.746428669085617 9.0264035724867426 0 0 0 0 -39.198786874224744 40.305431885659317 0 40.305431885659317 5.9290922231172516 0 0 0 0 -30.276979662968358 49.0401458628277 0 49.0401458628277 -15.095460630792758 0 0 0 0 -314.17314155157328 192.36156992093129 0 192.36156992093129 -76.687951356789199 0 0 0 0 -11.786250690363701 9.7683348017824336 0 9.7683348017824336 6.0576912070361573 0 0 0 0 -92.948244382875799 52.649868389694547 0 52.649868389694547 2.8017391619567431 0 0 0 0 -276.92037957697175 317.79733629844941 0 317.79733629844941 -66.537532995032961 0 0 0 0 -296.13534832656387 249.61861491283616 0 249.61861491283616 -192.32254665790606 0 0 0 0 -37.598591996388677 47.576561587025935 0 47.576561587025935 -4.5359093250808655 0 0 0 0 -15.936067483653758 26.353840083563441 0 26.353840083563441 11.510936189771655 0 0 0 0 -48.999085229024502 37.583900509968998 0 37.583900509968998 6.6014897996283253 0 0 0 0 -42.120064620648918 60.787613783977577 0 60.787613783977577 -17.348357399615907 0 0 0 0 -41.956052570883912 77.13502902757682 0 77.13502902757682 12.52785416826373 0 0 0 0 -43.998419509886844 65.079198434379578 0 65.079198434379578 -13.249692814628361 0 0 0 0 -9.261461084432085 27.807461907776087 0 27.807461907776087 -84.377200995062594 0 0 0 0 -6.6515556682497845 70.685156317755172 0 70.685156317755172 10.159032040937745 0 0 0 0 0.10089533609064461 -1.4909182509906174 0 -1.4909182509906174 8.231955847213138 0 0 0 0 -99.657939444790827 23.23194774955482 0 23.23194774955482 52.058669277932495 0 0 0 0 -31.846418678638354 34.632347815717274 0 34.632347815717274 40.259465376839337 0 0 0 0 -46.316638133917877 29.596289608096413 0 29.596289608096413 73.787588996538034 0 0 0 0 -42.68114345434401 30.723092575038926 0 30.723092575038926 31.3079422595324 0 0 0 0 -62.536571317104972 72.659546919396234 0 72.659546919396234 8.0149922802911533 0 0 0 0 -27.646048757829703 125.11279243034551 0 125.11279243034551 -163.4599076245504 0 0 0 0 -1.4337573027532997 6.200848588540623 0 6.200848588540623 -10.344784489007047 0 0 0 0 -4.8521736483181712 -5.0185137817385534 0 -5.0185137817385534 10.154831978884225 0 0 0 0 -40.862920856539859 98.630839010722411 0 98.630839010722411 -180.05516767945664 0 0 0 0 -56.98854864527857 131.50097552368425 0 131.50097552368425 -154.67071732716431 0 0 0 0 -45.735365638654912 -58.973008430913069 0 -58.973008430913069 20.169244673619687 0 0 0 0 -31.205413637384481 11.132166976232838 0 11.132166976232838 -71.894549399396055 0 0 0 0 -45.590124738975646 83.187380879666307 0 83.187380879666307 33.093811551787439 0 0 0 0 -19.684779614442121 46.416804375658671 0 46.416804375658671 -22.083542382015882 0 0 0 0 -10.826157699168107 307.79251986867348 0 307.79251986867348 300.14360258700617 0 0 0 0 -29.62767845378221 305.3294957779276 0 305.3294957779276 305.16615124634336 0 0 0 0 -159.24588042175128 64.58510305850632 0 64.58510305850632 69.516480335732922 0 0 0 0 -5.1481609235561336 57.625266048045887 0 57.625266048045887 14.501659678189753 0 0 0 0 150.29284188548263 304.62349055330196 0 304.62349055330196 237.86636964877835 0 0 0 0 -34.70168236050813 130.72461902040959 0 130.72461902040959 -157.59232481019353 0 0 0 0 65.180820386355663 25.911379911527092 0 25.911379911527092 24.480695248872507 0 0 0 0 543.30553242980022 352.19104287350365 0 352.19104287350365 201.23174502451911 0 0 0 0 -26.236100870819428 332.74215813605406 0 332.74215813605406 417.76775564572927 0 0 0 0 -472.54397042205983 293.13518150197251 0 293.13518150197251 8.8697759563256113 0 0 0 0 -411.40949769545841 204.87763228391032 0 204.87763228391032 0.63526411232123792 0 0 0 0 1.10871437711684 -2.3433806963736856 0 -2.3433806963736856 2.6287736633917689 0 0 0 0 -726.82586332707979 186.80995219881243 0 186.80995219881243 89.656778817436134 0 0 0 0 -806.50437266995232 -19.199666563145911 0 -19.199666563145911 332.9883814036184 0 0 0 0 -160.70950659314985 380.45627537609471 0 380.45627537609471 402.71535052100626 0 0 0 0 -524.8930150344263 502.08082133693006 0 502.08082133693006 383.35497682839559 0 0 0 0 -316.75908324433112 411.62349800431366 0 411.62349800431366 455.58862886522729 0 0 0 0 -420.1991962736156 242.45644376558812 0 242.45644376558812 589.68131487239589 0 0 0 0 45.261172313938005 340.83139747574023 0 340.83139747574023 344.82253384705837 0 0 0 0 13.92106797193992 337.61928827120573 0 337.61928827120573 418.21814655563503 0 0 0 0 95.75088887083075 486.84259669762287 0 486.84259669762287 515.21967923729062 0 0 0 0 -168.2959017655885 330.29751183566077 0 330.29751183566077 426.9273391737679 0 0 0 0 -64.46971276543627 301.25459168483576 0 301.25459168483576 423.25898387986854 0 0 0 0 1.8043832737239427 227.46285992776211 0 227.46285992776211 326.14320653317191 0 0 0 0 -61.128928275342332 195.45723342383098 0 195.45723342383098 348.60224677336009 0 0 0 0 92.42276772949117 269.81506749179789 0 269.81506749179789 270.02006128611902 0 0 0 0 37.235641122730158 187.51713383294737 0 187.51713383294737 150.47277357423809 0 0 0 0 125.84737449033128 230.83797454884007 0 230.83797454884007 54.383423782403952 0 0 0 0 59.820688372600671 206.31167683601961 0 206.31167683601961 180.40453699065984 0 0 0 0 -0.35666065613504117 0.45471179716835763 0 0.45471179716835763 14.314576642620352 0 0 0 0 264.00551468679623 218.33995363192662 0 218.33995363192662 116.35171740168516 0 0 0 0 38.875396198756789 312.64354969930719 0 312.64354969930719 243.35589064869419 0 0 0 0 -47.784149606311985 342.85500034475081 0 342.85500034475081 490.58376613686232 0 0 0 0 198.79125814874351 465.36674635361578 0 465.36674635361578 389.18575255976612 0 0 0 0 917.65870243619247 586.54455218674502 0 586.54455218674502 275.96929162960623 0 0 0 0 286.83745523538892 629.20711577286193 0 629.20711577286193 641.13163411449023 0 0 0 0 -163.41823904241573 183.64862140878904 0 183.64862140878904 607.42979658981858 0 0 0 0 -264.81905684782396 285.60154450148366 0 285.60154450148366 750.36412419488988 0 0 0 0 0.48381584334929073 -1.1135096842254413 0 -1.1135096842254413 5.9561057901779577 0 0 0 0 -731.72651645712267 -101.03828435905825 0 -101.03828435905825 589.82690315564832 0 0 0 0 -6.218498904567241 20.321207492217582 0 20.321207492217582 25.479380119139023 0 0 0 0 340.9073996723364 542.66753778596967 0 542.66753778596967 491.14137133342956 0 0 0 0 179.00784666340769 616.55736226951012 0 616.55736226951012 296.99679862984158 0 0 0 0 -115.12025266522141 267.33318063786464 0 267.33318063786464 132.37785091554542 0 0 0 0 612.88089568026771 791.69288710775618 0 791.69288710775618 121.47425180843493 0 0 0 0 625.36509184033275 373.45077972904619 0 373.45077972904619 -319.5832331598358 0 0 0 0 369.73464781855 1059.5159989326985 0 1059.5159989326985 1375.5361456224164 0 0 0 0 2.9372536851180371 6.5810469663731013 0 6.5810469663731013 -5.0391405837004868 0 0 0 0 546.94651612147936 661.83543141862538 0 661.83543141862538 -47.904606039643113 0 0 0 0 -39.223427986922616 -524.66832788145621 0 -524.66832788145621 -1235.5528725300564 0 0 0 0 -250.07673211325891 -136.70715343074426 0 -136.70715343074426 -98.090246961852245 0 0 0 0 485.93573491828647 543.46359364190721 0 543.46359364190721 490.47342662785559 0 0 0 0 405.65811082745495 645.29984484717261 0 645.29984484717261 630.05789280483077 0 0 0 0 183.54266885144898 391.2977823558449 0 391.2977823558449 381.71868867224111 0 0 0 0 598.13143777460209 261.53339454526213 0 261.53339454526213 -563.12248286169961 0 0 0 0 173.53077749498334 -18.84376593685738 0 -18.84376593685738 -678.50526910558438 0 0 0 0 1.3147570305777379 14.513517143616234 0 14.513517143616234 -11.010027036012872 0 0 0 0 102.7372421117434 40.903478896113029 0 40.903478896113029 -79.913042312768084 0 0 0 0 -80.879042953136377 217.50659526368145 0 217.50659526368145 -230.90976168943234 0 0 0 0 115.74018192083895 -615.70547236319169 0 -615.70547236319169 -789.49523059606508 0 0 0 0 -5.434996162098912 7.126590398033116 0 7.126590398033116 -9.1680852906867187 0 0 0 0 -884.46738780359738 474.72538107149921 0 474.72538107149921 -119.87311891943409 0 0 0 0 1330.9920654389134 -54.619881979529055 0 -54.619881979529055 -944.45719714510778 0 0 0 0 -30.921189336440875 421.88144651197945 0 421.88144651197945 55.948050993967627 0 0 0 0 -5.4000675890511332 5.1707593742062414 0 5.1707593742062414 -3.2804423126306688 0 0 0 0 -7.0865914325049175 19.387977375998204 0 19.387977375998204 -10.979026988056372 0 0 0 0 377.47558670554281 150.24363576971155 0 150.24363576971155 16.594221154373372 0 0 0 0 108.56860301293091 253.93908430988768 0 253.93908430988768 631.86484252577429 0 0 0 0 181.03531882420066 393.87147519261271 0 393.87147519261271 -39.374856372420254 0 0 0 0 680.80927456916834 75.439746777094115 0 75.439746777094115 129.83757437181885 0 0 0 0 -8.8875194893189473 -233.20112960318693 0 -233.20112960318693 -69.665669529375009 0 0 0 0 318.68150073522702 48.996485244325868 0 48.996485244325868 16.782634642320772 0 0 0 0 16.986920549170463 388.60889591247724 0 388.60889591247724 474.90596941695912 0 0 0 0 46.328343744527956 168.83261792619851 0 168.83261792619851 1772.085898262374 0 0 0 0 1334.7251909430925 -45.384484677908404 0 -45.384484677908404 699.58459490533369 0 0 0 0 373.00335991868633 650.08517539944114 0 650.08517539944114 759.08553815073174 0 0 0 0 1136.4802878359842 1320.6288556729723 0 1320.6288556729723 1265.0304518343873 0 0 0 0 25.09275456409523 516.30295015922093 0 516.30295015922093 1116.4855168739978 0 0 0 0 377.16615432517574 643.4398518028047 0 643.4398518028047 570.00510286179633 0 0 0 0 437.83412577529816 676.16759729087244 0 676.16759729087244 574.56173807657979 0 0 0 0 316.72943102351564 563.40141336081797 0 563.40141336081797 489.78066372873036 0 0 0 0 505.47363455058803 651.50714983940452 0 651.50714983940452 266.1088514975736 0 0 0 0 603.97262774616729 902.28829850360023 0 902.28829850360023 571.23995410413409 0 0 0 0 -382.99928127464227 302.52194236766627 0 302.52194236766627 -85.516052920174843 0 0 0 0 -239.9765145917554 42.868638788984754 0 42.868638788984754 87.29106470804436 0 0 0 0 -170.67716999853656 206.58277325688096 0 206.58277325688096 -38.359612620814005 0 0 0 0 -784.61354582577769 300.08228636935382 0 300.08228636935382 168.63706140347495 0 0 0 0 -548.56520921081392 672.07130899763979 0 672.07130899763979 -498.18532050665453 0 0 0 0 -5.0954545518607404 -0.91716487155765947 0 -0.91716487155765947 0.18647578336516801 0 0 0 0 -286.68875544807088 167.61993727715253 0 167.61993727715253 21.181371219900029 0 0 0 0 -358.57622752524185 308.1693143847624 0 308.1693143847624 -95.76085124788915 0 0 0 0 16.679124187692651 -16.009892436231894 0 -16.009892436231894 -44.653223673596585 0 0 0 0 -332.47047038938035 101.66270843562597 0 101.66270843562597 -43.239886714323802 0 0 0 0 -12.547194153440387 -0.31204876888753574 0 -0.31204876888753574 3.1423313114079257 0 0 0 0 -13.157576024808805 206.10221394443397 0 206.10221394443397 478.73554375285539 0 0 0 0 447.43793757045933 -562.35483468560415 0 -562.35483468560415 571.48464482841109 0 0 0 0 464.28430577861218 226.07677035612414 0 226.07677035612414 0.55271756413640105 0 0 0 0 973.1941032493196 1241.6744731216677 0 1241.6744731216677 383.98073942612245 0 0 0 0 -33.868212863540975 939.37645278152195 0 939.37645278152195 -139.1683434700974 0 0 0 0 -834.09609114308842 161.12485731634297 0 161.12485731634297 -55.904938872881758 0 0 0 0 -2632.8310959903465 -561.92660573880858 0 -561.92660573880858 67.904316615211428 0 0 0 0 -15.050114356865379 6.8309330560168373 0 6.8309330560168373 -1.4706135518225096 0 0 0 0 -8.63142782211591 9.0606926610230261 0 9.0606926610230261 1.6030466233403082 0 0 0 0 26.03919499526819 32.641960806893621 0 32.641960806893621 -3.7789901662545162 0 0 0 0 -138.78678437545022 189.95014711396107 0 189.95014711396107 631.28728652752761 0 0 0 0 -559.73371086749103 491.3523896809038 0 491.3523896809038 477.57876306114849 0 0 0 0 -462.54265932177077 -30.775534869502735 0 -30.775534869502735 37.656694641009381 0 0 0 0 -5.1757588055009194 1.9210606214025434 0 1.9210606214025434 -1.0230526081811888 0 0 0 0 -135.15549964686033 175.17513000515902 0 175.17513000515902 -258.96462185612108 0 0 0 0 -334.22291548907378 360.15437162851777 0 360.15437162851777 -368.7439698297967 0 0 0 0 -665.16594655186054 295.14886170102727 0 295.14886170102727 -15.831976165270135 0 0 0 0 -306.1144073411233 232.186095169699 0 232.186095169699 253.93826820641334 0 0 0 0 -502.99987543651514 5.1794285196192504 0 5.1794285196192504 -2.8149930334584496 0 0 0 0 -126.62008781292388 40.645417641026143 0 40.645417641026143 -51.11722882315371 0 0 0 0 -118.69844864602783 175.44752710325156 0 175.44752710325156 -127.73199636538902 0 0 0 0 -88.812698560053832 62.3099637545929 0 62.3099637545929 -21.381570095825737 0 0 0 0 -258.82035506186003 157.83534615808276 0 157.83534615808276 5.7427532096517098 0 0 0 0 58.09667877600441 359.17964560895234 0 359.17964560895234 268.92915819660959 0 0 0 0 -111.09388183621923 307.70249229705769 0 307.70249229705769 270.11545028354885 0 0 0 0 83.276180742788711 220.31828745468829 0 220.31828745468829 72.562017075000767 0 0 0 0 -74.27163351096533 120.90975432311461 0 120.90975432311461 68.992373922621482 0 0 0 0 -76.353240632815869 349.75328075748439 0 349.75328075748439 249.2948468220527 0 0 0 0 -230.26955777735202 396.97469561956382 0 396.97469561956382 350.27789523720639 0 0 0 0 9.0142293989774771 523.03424550419368 0 523.03424550419368 404.70102507686079 0 0 0 0 73.828620233958645 696.83839899128543 0 696.83839899128543 423.99593409515728 0 0 0 0 -204.91427486208158 627.43794517327763 0 627.43794517327763 487.68147989091085 0 0 0 0 -230.125377516546 544.91668388922881 0 544.91668388922881 384.48575177427028 0 0 0 0 -237.05705929044484 694.17317101142874 0 694.17317101142874 974.37626037068912 0 0 0 0 -37.551953386660898 821.54177205819724 0 821.54177205819724 485.69566152856351 0 0 0 0 86.908469793390395 625.48682303431724 0 625.48682303431724 507.22411815449595 0 0 0 0 179.91904625465213 570.34169960052714 0 570.34169960052714 314.3171233472749 0 0 0 0 -6.2732134640609729 812.71573350799736 0 812.71573350799736 263.53169377530503 0 0 0 0 -43.754505500688538 558.11660138774914 0 558.11660138774914 382.15877196403744 0 0 0 0 263.02169587685785 541.75468721740617 0 541.75468721740617 375.78850319016101 0 0 0 0 108.19846576233249 354.96683389396912 0 354.96683389396912 525.69405961475059 0 0 0 0 46.322755558136123 399.82310802878965 0 399.82310802878965 397.68860577487067 0 0 0 0 864.44924229913158 35.712532434637978 0 35.712532434637978 -158.04103211122674 0 0 0 0 -27.305908557253133 19.320095803139338 0 19.320095803139338 172.62930530231824 0 0 0 0 28.472907200259414 36.002365282685538 0 36.002365282685538 17.366073404507375 0 0 0 0 46.697521075812347 241.15665132690151 0 241.15665132690151 256.10362604671718 0 0 0 0 -89.431340252449445 -71.439904417047728 0 -71.439904417047728 674.4705776563269 0 0 0 0 -63.298094494593443 229.47372147841617 0 229.47372147841617 2166.2324333083197 0 0 0 0 11.412300689636609 10.247541492208555 0 10.247541492208555 13.23764476408369 0 0 0 0 209.95112630871154 1160.1779765028805 0 1160.1779765028805 1406.4770722327034 0 0 0 0 108.994382840865 856.43541437862041 0 856.43541437862041 493.98903991181396 0 0 0 0 1100.3475806008209 899.76676808790944 0 899.76676808790944 298.45463189543807 0 0 0 0 -121.00433064275421 434.04772593510734 0 434.04772593510734 158.61335256858956 0 0 0 0 212.33273991169699 166.76120047330278 0 166.76120047330278 124.0411661175458 0 0 0 0 53.717589843654423 986.90490555353881 0 986.90490555353881 60.501930322352564 0 0 0 0 3.9123031445924425 -56.78880119869973 0 -56.78880119869973 -234.01536582846165 0 0 0 0 190.83790260881688 644.08558236932004 0 644.08558236932004 -512.19001385333104 0 0 0 0 -4.5902521708412678 164.06862309323151 0 164.06862309323151 -1195.7989706610369 0 0 0 0 -159.00987414894917 587.37978901155293 0 587.37978901155293 -858.96159083080602 0 0 0 0 -8.6153287313387636 3.6063997539892014 0 3.6063997539892014 -3.025552244713726 0 0 0 0 -46.293941678621195 -17.578277693894961 0 -17.578277693894961 -288.62410586337865 0 0 0 0 -186.25134155138221 578.14646733460904 0 578.14646733460904 -502.74371141298616 0 0 0 0 -57.402797692157037 104.70056734698028 0 104.70056734698028 25.758329365742611 0 0 0 0 -21.532182544872398 18.413265631598655 0 18.413265631598655 -3.3037959835244237 0 0 0 0 13.128484321554424 53.86376694660612 0 53.86376694660612 -210.44178604415174 0 0 0 0 62.451371907831344 24.072320164326811 0 24.072320164326811 -54.447085842402885 0 0 0 0 -2.0490460258326095 4.4758334561284059 0 4.4758334561284059 -0.65962523245958171 0 0 0 0 -218.20711745863809 515.95882945694939 0 515.95882945694939 -1149.1769854201921 0 0 0 0 -97.240705900458124 157.3142837143514 0 157.3142837143514 428.2886920326855 0 0 0 0 344.66459378428408 -126.51694422744731 0 -126.51694422744731 -834.45810031313931 0 0 0 0 -199.82126281055389 682.96544339470165 0 682.96544339470165 -672.18890571368456 0 0 0 0 220.49837616998229 -424.27183430320611 0 -424.27183430320611 368.55994746676879 0 0 0 0 242.72580773234949 -203.06845682416679 0 -203.06845682416679 -391.71839397215558 0 0 0 0 16.779927987394331 331.01281660763561 0 331.01281660763561 -414.36026803531422 0 0 0 0 -91.244122158263053 225.90462336618657 0 225.90462336618657 -510.36403089913802 0 0 0 0 -70.202720268649898 467.70063242538157 0 467.70063242538157 -707.99529268059268 0 0 0 0 -70.260954875073764 302.39822822273942 0 302.39822822273942 -400.82378860170866 0 0 0 0 96.397815778225777 106.74027292641404 0 106.74027292641404 -442.04441803608734 0 0 0 0 2.9458880061574746 -160.15736467167699 0 -160.15736467167699 -18.293033176350946 0 0 0 0 -411.85204216939201 267.94293257851905 0 267.94293257851905 -112.3777840675466 0 0 0 0 65.785580028775712 15.956026564776266 0 15.956026564776266 289.06285098406806 0 0 0 0 -95.189833346754313 135.19985308185278 0 135.19985308185278 -34.858027804835729 0 0 0 0 -31.827795054727176 -159.43423233184149 0 -159.43423233184149 482.29144078562967 0 0 0 0 99.590682430396555 -249.16522365282435 0 -249.16522365282435 174.35980129347809 0 0 0 0 190.521475761685 -71.613459779528057 0 -71.613459779528057 319.99685654498717 0 0 0 0 72.138058842268947 25.080801039248399 0 25.080801039248399 528.43571462938417 0 0 0 0 3.0406033273937112 15.350311138991785 0 15.350311138991785 8.2540370920415143 0 0 0 0 -285.64143820072059 549.46236815252632 0 549.46236815252632 -853.4165493314722 0 0 0 0 -373.70983596332371 446.98604150186384 0 446.98604150186384 -626.46599210866407 0 0 0 0 37.057836394611513 -306.07889940351015 0 -306.07889940351015 418.91596262522035 0 0 0 0 -165.43900651890726 342.71701490100531 0 342.71701490100531 -713.28397095855507 0 0 0 0 -278.71265334229975 389.86071869244734 0 389.86071869244734 -628.57025586175587 0 0 0 0 -247.96146726715961 364.58249494237316 0 364.58249494237316 -782.00276845417284 0 0 0 0 -120.12764894655265 257.56577449466567 0 257.56577449466567 -676.59283425130889 0 0 0 0 -273.61165834259009 617.9424336254533 0 617.9424336254533 -1066.2776214094556 0 0 0 0 -385.21557027960444 485.89884930870539 0 485.89884930870539 -749.96507997596927 0 0 0 0 -136.68027878158318 310.20728894517015 0 310.20728894517015 -817.95691101226294 0 0 0 0 -8.4256823404356851 -10.063873542653994 0 -10.063873542653994 -16.917379823007821 0 0 0 0 -222.5029750738322 316.64841005509879 0 316.64841005509879 -996.15287856908253 0 0 0 0 -44.552798980701482 -81.838617939050891 0 -81.838617939050891 55.390831883662031 0 0 0 0 -13.004518685324001 49.989062948385254 0 49.989062948385254 -89.860884781948698 0 0 0 0 46.782384987323894 -29.002624051823659 0 -29.002624051823659 70.049903604996871 0 0 0 0 49.045764661590511 40.917686990826041 0 40.917686990826041 24.839386156192631 0 0 0 0 14.108495121491131 42.125412114550265 0 42.125412114550265 -6.9316765236023716 0 0 0 0 -1175.6318922985556 307.39123038068192 0 307.39123038068192 1410.3025751811983 0 0 0 0 82.857232940397807 -77.045979859456565 0 -77.045979859456565 -356.6572112134163 0 0 0 0 -137.47911591324373 -231.6552214234689 0 -231.6552214234689 1000.8436753426345 0 0 0 0 14.283064472825657 35.523716821583164 0 35.523716821583164 -4.1489367605296508 0 0 0 0 6.48121043156425 -62.622364190159715 0 -62.622364190159715 -102.25831602944891 0 0 0 0 60.983977819290885 389.31755934647299 0 389.31755934647299 538.90655846328809 0 0 0 0 109.19322975051182 677.86324060320476 0 677.86324060320476 -325.22616616632513 0 0 0 0 97.486458191395286 606.89298252995241 0 606.89298252995241 -726.64632189588156 0 0 0 0 -22.282979625961161 283.01500254994608 0 283.01500254994608 -167.05502811688075 0 0 0 0 109.36989722905855 -137.90180776800662 0 -137.90180776800662 833.53954719722697 0 0 0 0 -330.09666658123751 263.8970468432799 0 263.8970468432799 -535.11193670687862 0 0 0 0 1.8395161928710877 355.32538737878713 0 355.32538737878713 -547.77189904704574 0 0 0 0 1.4565675871841677 3.3024881927147334 0 3.3024881927147334 3.2541478041471095 0 0 0 0 38.780338641736307 105.93377840485573 0 105.93377840485573 161.41521230771468 0 0 0 0 1.7226860766801906 8.9509640075048793 0 8.9509640075048793 11.067313585172229 0 0 0 0 -317.67582654906437 577.94936891032921 0 577.94936891032921 -716.93121191564569 0 0 0 0 103.55476351339212 -337.1477715325351 0 -337.1477715325351 347.17632422983297 0 0 0 0 -244.59101206660853 343.74312561225452 0 343.74312561225452 -666.3127829025716 0 0 0 0 -167.9831569048838 397.08737429422035 0 397.08737429422035 -629.17359416185718 0 0 0 0 -74.937395009910688 223.11856933654781 0 223.11856933654781 -586.89646882095622 0 0 0 0 -246.08858268930635 280.33078173473677 0 280.33078173473677 -507.58166177687963 0 0 0 0 -15.869230292679276 81.29565679118241 0 81.29565679118241 -383.93996463957592 0 0 0 0 -129.79583688248385 193.27260023450981 0 193.27260023450981 -360.26483359134363 0 0 0 0 17.589597714300908 227.93488861988044 0 227.93488861988044 -483.65987851068894 0 0 0 0 -208.94890776635111 199.36106564684178 0 199.36106564684178 -441.60696688924145 0 0 0 0 37.345571040697905 136.63376315420282 0 136.63376315420282 -307.5103923012648 0 0 0 0 91.682616393576609 73.380557143029364 0 73.380557143029364 -297.1608196590787 0 0 0 0 155.07290355880104 163.3051403212994 0 163.3051403212994 -353.9980165083598 0 0 0 0 171.29812405314442 132.00699373680618 0 132.00699373680618 -331.21444992990291 0 0 0 0 252.41075864332379 262.40656109215706 0 262.40656109215706 -289.21134714304935 0 0 0 0 195.76752005315939 167.86479818742737 0 167.86479818742737 -390.84228547731982 0 0 0 0 89.929440571751911 86.630592566165433 0 86.630592566165433 -110.34390403170983 0 0 0 0 73.536016148995259 83.165979408489875 0 83.165979408489875 7.6344099975358404 0 0 0 0 135.57310621786746 113.86235698895052 0 113.86235698895052 -262.72205683984794 0 0 0 0 135.4295362951525 110.98984910899708 0 110.98984910899708 -208.16148186874125 0 0 0 0 64.709139004065946 139.22155214412123 0 139.22155214412123 -344.96353791058937 0 0 0 0 25.503751305193873 42.544907084986335 0 42.544907084986335 -253.88873576904007 0 0 0 0 68.48051309112634 50.602906251067907 0 50.602906251067907 -139.36671108427981 0 0 0 0 86.320846733935468 73.135004802992626 0 73.135004802992626 -238.51750924705993 0 0 0 0 2.5728600502625341 76.422067589708604 0 76.422067589708604 -80.464803248991302 0 0 0 0 10.06516953688697 14.428294752317015 0 14.428294752317015 -231.34956991911167 0 0 0 0 -2.071904745134816 71.636213947527722 0 71.636213947527722 -391.25130421899667 0 0 0 0 -3.6850562597119279 119.94514199850619 0 119.94514199850619 -233.29158212838229 0 0 0 0 -187.38419476869603 216.11801221399583 0 216.11801221399583 -411.36082474488649 0 0 0 0 -40.595144014590915 129.12798495764946 0 129.12798495764946 -456.10558021972975 0 0 0 0 -96.929870328662219 103.86666906368737 0 103.86666906368737 -238.71123523300776 0 0 0 0 -98.565797854374978 44.026418638195537 0 44.026418638195537 -87.05027733985844 0 0 0 0 11.341475543250908 106.6538352909302 0 106.6538352909302 -243.22716420699726 0 0 0 0 25.849245904268173 75.520738848332257 0 75.520738848332257 -79.404392738837487 0 0 0 0 36.768651125545148 56.067655655651834 0 56.067655655651834 91.997448857029667 0 0 0 0 21.441300727070058 114.43279817228395 0 114.43279817228395 29.213004531593764 0 0 0 0 12.773245604978001 95.726928642676285 0 95.726928642676285 136.59331983040465 0 0 0 0 -34.179743506538216 130.87120220993893 0 130.87120220993893 310.91760546789737 0 0 0 0 -51.868053414204041 25.746096824637789 0 25.746096824637789 372.12093684991123 0 0 0 0 -67.338875553250546 41.189096441914444 0 41.189096441914444 258.25759354071488 0 0 0 0 69.403509817704617 137.75165030923745 0 137.75165030923745 190.73403495505772 0 0 0 0 84.490011895905809 19.397285409533197 0 19.397285409533197 90.172002517792862 0 0 0 0 -31.087384148377168 86.524099832708089 0 86.524099832708089 87.397441106171755 0 0 0 0 46.548268037629896 12.106305461107695 0 12.106305461107695 -85.314892045269289 0 0 0 0 35.769288585295726 78.753117298008874 0 78.753117298008874 88.278478209111199 0 0 0 0 40.052679147037679 10.664393555063953 0 10.664393555063953 -8.1823768212852883 0 0 0 0 29.52548717186275 115.01487982106592 0 115.01487982106592 28.028356952607897 0 0 0 0 10.749564467230812 40.260913229312791 0 40.260913229312791 240.22519307195762 0 0 0 0 71.475226248505351 64.506999774102951 0 64.506999774102951 10.598008806075086 0 0 0 0 59.573635739834572 102.52578736248506 0 102.52578736248506 114.02225993494721 0 0 0 0 -46.595767432721914 179.2942630375228 0 179.2942630375228 -603.16406607304816 0 0 0 0 -170.3419015545096 -11.709585037689067 0 -11.709585037689067 -219.02266750264971 0 0 0 0 -26.576823695701023 269.81347585253388 0 269.81347585253388 -54.70448124790164 0 0 0 0 -18.93199016849394 -294.5765029483664 0 -294.5765029483664 -742.52461800672609 0 0 0 0 -13.760660151715911 -206.37043014058258 0 -206.37043014058258 -1641.5895017724542 0 0 0 0 -335.35977145568177 104.39968250808306 0 104.39968250808306 362.48839435802438 0 0 0 0 -145.30355418995896 945.21010983234555 0 945.21010983234555 -1727.4364857011096 0 0 0 0 1.3860220280002977 423.81743197077049 0 423.81743197077049 -1420.1036729777697 0 0 0 0 -5.4011989210330285 -1.8748903045789689 0 -1.8748903045789689 -1.6026769886579189 0 0 0 0 -189.05687892032438 132.2945791612583 0 132.2945791612583 -612.3244082381525 0 0 0 0 79.14263815630693 309.42646901122862 0 309.42646901122862 -1597.6960327202178 0 0 0 0 -217.48159656793723 307.95951544544187 0 307.95951544544187 -527.17601537150404 0 0 0 0 -580.55759900087651 536.87786674699237 0 536.87786674699237 -909.51584138406906 0 0 0 0 -9.7283596589259105 229.82348461564652 0 229.82348461564652 -1018.7051939057055 0 0 0 0 -103.86947652516392 117.44958373030204 0 117.44958373030204 -685.73986918019614 0 0 0 0 -279.69446974692983 379.23352956978488 0 379.23352956978488 -677.60178219265799 0 0 0 0 -160.65791907683888 109.96619419234958 0 109.96619419234958 -246.06465981086512 0 0 0 0 -216.76996733208944 288.28170926186431 0 288.28170926186431 -537.33432545047253 0 0 0 0 -88.687640161006129 123.67524714785759 0 123.67524714785759 -536.06954956593404 0 0 0 0 -163.44558624091587 62.233798072124955 0 62.233798072124955 -11.302536621835316 0 0 0 0 -10.097011023448431 109.22239584362978 0 109.22239584362978 -252.65924765097589 0 0 0 0 -208.37228543050514 164.52931022729899 0 164.52931022729899 -247.32082010245358 0 0 0 0 -57.555232528437045 113.2026368703755 0 113.2026368703755 -256.17182456614182 0 0 0 0 8.3421669662784552 185.22265988682193 0 185.22265988682193 105.63042064868205 0 0 0 0 -196.18441098157564 116.38491580472692 0 116.38491580472692 105.91492836562247 0 0 0 0 -99.680453981010942 82.287433903000419 0 82.287433903000419 160.87441873053103 0 0 0 0 -27.595675861470227 152.97134925691716 0 152.97134925691716 35.536616884621253 0 0 0 0 -114.65292138121731 62.289313662355198 0 62.289313662355198 127.82380140794703 0 0 0 0 -1.850989548904181 180.81390825560629 0 180.81390825560629 238.90246685257625 0 0 0 0 46.786239235727408 28.812948414402854 0 28.812948414402854 212.62862363400563 0 0 0 0 -30.746674839036132 160.17671353518745 0 160.17671353518745 276.76310619122341 0 0 0 0 101.53701244131662 198.52188876117361 0 198.52188876117361 224.88445340527869 0 0 0 0 -96.890807713716185 212.28204429057828 0 212.28204429057828 233.90036706605315 0 0 0 0 -46.887293601510464 40.445611376981105 0 40.445611376981105 65.355046078242594 0 0 0 0 117.11867574130883 384.02606202516836 0 384.02606202516836 296.72664821276612 0 0 0 0 -3.6496344695973164 48.524607138706401 0 48.524607138706401 -48.986310005291642 0 0 0 0 -61.734710454193191 278.18103165292587 0 278.18103165292587 344.72704156477994 0 0 0 0 34.44193181074661 139.71118213349655 0 139.71118213349655 177.47540057137303 0 0 0 0 342.5961209717716 527.57396399218669 0 527.57396399218669 109.02945219616868 0 0 0 0 -87.493665019643231 1175.1745632245065 0 1175.1745632245065 1161.5387299549184 0 0 0 0 -8.8784543820901263 43.409566247129206 0 43.409566247129206 -92.644595934838776 0 0 0 0 -42.905465995361737 177.43959687656024 0 177.43959687656024 11.431514241477998 0 0 0 0 92.65761555280551 38.552429640978517 0 38.552429640978517 -226.43782368902612 0 0 0 0 -494.04579327571264 148.13223863794701 0 148.13223863794701 156.29878490696865 0 0 0 0 155.97715014539426 367.01612465112703 0 367.01612465112703 -129.97920958261238 0 0 0 0 1.4856146140840707 5.3396211221478396 0 5.3396211221478396 -10.037185490454377 0 0 0 0 53.026160155815887 208.9947973828821 0 208.9947973828821 -785.19556398943678 0 0 0 0 -1016.2173945011209 951.21453361296335 0 951.21453361296335 192.47647589045664 0 0 0 0 -286.90771561129804 605.75126946089949 0 605.75126946089949 -518.09140015848971 0 0 0 0 -570.74583751066893 455.57294069211639 0 455.57294069211639 4.7124191185430391 0 0 0 0 -137.77239153182745 101.63012220685778 0 101.63012220685778 38.711392561460343 0 0 0 0 -47.628751270996872 281.33322756823691 0 281.33322756823691 -286.86524651521268 0 0 0 0 -47.075276096045855 287.56944079041932 0 287.56944079041932 -241.39235060251303 0 0 0 0 49.725750904134202 472.42443423084478 0 472.42443423084478 255.43421237545408 0 0 0 0 -30.591309817732242 54.783558870787857 0 54.783558870787857 -66.280899499644022 0 0 0 0 -484.73375893820958 1024.7244890834954 0 1024.7244890834954 -315.08035924870637 0 0 0 0 569.47501847813328 -629.79957393514633 0 -629.79957393514633 -858.3361054978559 0 0 0 0 2.0246563757593492 6.6059385033458682 0 6.6059385033458682 -8.1786163461993908 0 0 0 0 -347.81848407096732 135.58207536396003 0 135.58207536396003 370.7716623776796 0 0 0 0 101.51056238916499 -118.65203478479816 0 -118.65203478479816 137.64664889265987 0 0 0 0 -101.87735821339243 426.54022084717599 0 426.54022084717599 -188.24495170418959 0 0 0 0 245.04599407722981 145.19933881958423 0 145.19933881958423 26.944053754639754 0 0 0 0 43.540309899377462 -342.59035751790361 0 -342.59035751790361 -89.762348112199106 0 0 0 0 -6.0815153201629926 13.029576118949407 0 13.029576118949407 -11.651519229787894 0 0 0 0 52.208793813173543 80.382504428367611 0 80.382504428367611 21.498112789180595 0 0 0 0 38.106163956159435 27.252544457769545 0 27.252544457769545 -42.675977634873561 0 0 0 0 109.94948967818709 75.02658012273605 0 75.02658012273605 -77.316506222356111 0 0 0 0 -172.89086871727341 60.306543731698184 0 60.306543731698184 24.312841373393894 0 0 0 0 29.41916080453484 -16.184432478941744 0 -16.184432478941744 -36.249736094992841 0 0 0 0 26.719025198191957 65.076614815552603 0 65.076614815552603 -129.00209660417022 0 0 0 0 64.408283973247308 31.609172918200784 0 31.609172918200784 -103.17307447439089 0 0 0 0 42.359672772674458 33.566139237882453 0 33.566139237882453 -107.57801798775836 0 0 0 0 85.234178227268785 73.254260923979018 0 73.254260923979018 -73.169937149970792 0 0 0 0 -705.22881290210353 -799.58276730234502 0 -799.58276730234502 870.91557618007164 0 0 0 0 -63.007218507289508 134.7834575752604 0 134.7834575752604 -114.83968515273972 0 0 0 0 -270.38880742934634 277.25839146663202 0 277.25839146663202 -117.18495110902586 0 0 0 0 -1776.7741551560612 -640.59017090457928 0 -640.59017090457928 756.85354223050672 0 0 0 0 -5.0447196592483152 44.764895648724419 0 44.764895648724419 -93.144163926297381 0 0 0 0 -86.559342899905459 56.512858385813161 0 56.512858385813161 -55.717221012790105 0 0 0 0 1231.5376583917823 1484.0064066646664 0 1484.0064066646664 -1805.386344720755 0 0 0 0 193.18922652069159 761.08421760025522 0 761.08421760025522 269.40704439902038 0 0 0 0 1.225805997660089 7.8928765550210862 0 7.8928765550210862 -15.270729330235554 0 0 0 0 -68.358695561852073 430.50704336367926 0 430.50704336367926 -1686.0035198143546 0 0 0 0 150.87659226222604 147.93454649238629 0 147.93454649238629 212.0778109173516 0 0 0 0 260.87667733419221 1021.6871449383325 0 1021.6871449383325 -1470.7779021626338 0 0 0 0 27.106860807733028 -11.439874218071054 0 -11.439874218071054 105.85784651142239 0 0 0 0 102.27794620513305 91.405762801361561 0 91.405762801361561 121.30745630791353 0 0 0 0 153.75435502106848 -51.344860440003686 0 -51.344860440003686 433.41558497680671 0 0 0 0 37.122389024283621 -58.963967687144759 0 -58.963967687144759 92.230141883110264 0 0 0 0 -56.946857684406609 59.938416134980343 0 59.938416134980343 -57.763020008904277 0 0 0 0 -57.811344021931291 -123.81922960669181 0 -123.81922960669181 -96.098599436350923 0 0 0 0 215.20310285690357 91.450659139673007 0 91.450659139673007 -541.4227783011338 0 0 0 0 213.51990834034223 -121.19356427402818 0 -121.19356427402818 -262.56402561488358 0 0 0 0 32.228836511203212 46.238536403611491 0 46.238536403611491 -4.5902023490561259 0 0 0 0 -128.27212191723811 49.114391168222937 0 49.114391168222937 145.88179865445272 0 0 0 0 -12.204529254710309 26.571244987082423 0 26.571244987082423 -39.666781573935552 0 0 0 0 371.3531677683095 359.90596628043568 0 359.90596628043568 106.96255215208657 0 0 0 0 1688.6421576097728 -755.51472193919108 0 -755.51472193919108 -1602.2902729601738 0 0 0 0 278.89240495074409 335.33962965165028 0 335.33962965165028 143.66166398201312 0 0 0 0 223.47632840934239 146.67972749176988 0 146.67972749176988 -184.0019865246868 0 0 0 0 133.69989057201019 81.2335483539282 0 81.2335483539282 57.378834228122287 0 0 0 0 553.65839291761222 109.31983531158039 0 109.31983531158039 29.086038061112049 0 0 0 0 -131.48965062728348 564.80555215340428 0 564.80555215340428 -261.93186886311742 0 0 0 0 63.628780624976571 35.598978183879808 0 35.598978183879808 -130.11098284048421 0 0 0 0 25.521925891195536 22.276267095667883 0 22.276267095667883 -85.689512534104395 0 0 0 0 -66.233397447967945 294.65484783037391 0 294.65484783037391 -281.24640159607043 0 0 0 0 64.759774183053167 19.132773956091668 0 19.132773956091668 -37.511693489844788 0 0 0 0 63.073163593426443 34.709809885994218 0 34.709809885994218 -108.5397658099464 0 0 0 0 -59.480696784642532 158.3328750631008 0 158.3328750631008 -169.61730296359747 0 0 0 0 -15.138028520013009 58.725290697621489 0 58.725290697621489 -61.722064395899793 0 0 0 0 -43.416211110577024 174.81263637296433 0 174.81263637296433 -303.50809547804238 0 0 0 0 -240.62108802988951 99.885918057829258 0 99.885918057829258 -244.73272695689957 0 0 0 0 18.082221042379224 80.780252468406758 0 80.780252468406758 -220.96031019986054 0 0 0 0 -27.862125499784778 56.204062142377396 0 56.204062142377396 -61.237437859137586 0 0 0 0 189.10950762703396 208.03555331224561 0 208.03555331224561 -262.58945254623177 0 0 0 0 -528.33062352611523 307.6753833390685 0 307.6753833390685 625.17951529332095 0 0 0 0 70.148847920021538 51.619079780402444 0 51.619079780402444 -46.010159092701642 0 0 0 0 334.91805145035323 -317.52784309934941 0 -317.52784309934941 -78.871941218560096 0 0 0 0 1365.678515574793 -1079.4213640788221 0 -1079.4213640788221 445.23938861227361 0 0 0 0 -177.21163307327515 80.072183559183031 0 80.072183559183031 -328.60313273314387 0 0 0 0 7.1744217816414917 2.883412171682906 0 2.883412171682906 -16.602831576813287 0 0 0 0 -75.273166519072134 34.569130199623714 0 34.569130199623714 -19.509498929728935 0 0 0 0 -329.30359130484067 755.5447995916511 0 755.5447995916511 -4.9469697698768869 0 0 0 0 57.68764267951542 706.46134555191566 0 706.46134555191566 -1160.2853109705757 0 0 0 0 493.56694353133935 60.032058742999652 0 60.032058742999652 -1725.4733463469747 0 0 0 0 79.668331829103863 125.29571737526567 0 125.29571737526567 70.3409368091543 0 0 0 0 5.5728632507941036 39.667534319121856 0 39.667534319121856 -43.648602552141483 0 0 0 0 570.96991064197255 541.96422384009747 0 541.96422384009747 -725.15467156366503 0 0 0 0 30.796386472793529 45.600853971824435 0 45.600853971824435 -86.297470370179354 0 0 0 0 217.97413089264273 -260.81008306820877 0 -260.81008306820877 -250.2018711205601 0 0 0 0 -55.848337604405415 -3.2366520479105816 0 -3.2366520479105816 -78.51966020938309 0 0 0 0 -721.31759413833788 364.57246709243918 0 364.57246709243918 -727.81219168021926 0 0 0 0 244.1301817514468 681.40745471892296 0 681.40745471892296 -1573.442889800499 0 0 0 0 -18.557485389979689 40.777405155752952 0 40.777405155752952 -6.8155176788576659 0 0 0 0 -40.365508054647762 54.821661958492768 0 54.821661958492768 -94.612445726335864 0 0 0 0 9.5998334573095363 11.074711443753799 0 11.074711443753799 -38.429566547698556 0 0 0 0 -60.282332206712454 168.24203829284306 0 168.24203829284306 -24.669189913574883 0 0 0 0 -15.306893914787551 15.36076171889983 0 15.36076171889983 -7.4307296417089432 0 0 0 0 89.586082135067045 79.556315283104595 0 79.556315283104595 -341.12111219454891 0 0 0 0 -151.18531967146919 259.22932730582215 0 259.22932730582215 272.70904010198137 0 0 0 0 -7.4308031979586531 6.4621155007017848 0 6.4621155007017848 -0.4804509826221337 0 0 0 0 217.44826540156646 80.496718670314294 0 80.496718670314294 -675.81944574204283 0 0 0 0 990.56383856081084 -224.20413286299663 0 -224.20413286299663 -2830.7793359390926 0 0 0 0 -8.9819040757532349 10.329645341049677 0 10.329645341049677 -3.9716233356273989 0 0 0 0 -318.68441883007108 228.63333558688646 0 228.63333558688646 561.37473572228555 0 0 0 0 -715.34850348447799 488.06068767509169 0 488.06068767509169 844.31156311814993 0 0 0 0 -35.711288587649491 22.976449583391549 0 22.976449583391549 -6.1376398001194339 0 0 0 0 689.73022337821203 -173.02096119740781 0 -173.02096119740781 -2064.8245320925125 0 0 0 0 -471.78500088697388 859.88068462923729 0 859.88068462923729 837.70850480262015 0 0 0 0 545.44969269689682 589.94205170163332 0 589.94205170163332 -1441.2017954953044 0 0 0 0 -79.990832369303462 -286.5265049794325 0 -286.5265049794325 -208.17589515020518 0 0 0 0 41.70658900966373 195.56622075309133 0 195.56622075309133 -765.93900082450273 0 0 0 0 -66.349404297361616 223.25217706588228 0 223.25217706588228 460.61277971600066 0 0 0 0 -126.56047810512064 72.386319967677991 0 72.386319967677991 85.743410699782544 0 0 0 0 162.83205175252806 360.64795355658862 0 360.64795355658862 73.391039789828938 0 0 0 0 4.573824928102681 2.5916955360714553 0 2.5916955360714553 -0.57144513994289525 0 0 0 0 419.53340595458212 -16.635028183736722 0 -16.635028183736722 -856.17490043884027 0 0 0 0 158.44839356037255 288.83322467833204 0 288.83322467833204 -299.78888943049242 0 0 0 0 246.61917462006386 -181.84494910641661 0 -181.84494910641661 -432.16216288253781 0 0 0 0 91.898895377493318 234.08690883024974 0 234.08690883024974 68.954400754126254 0 0 0 0 45.032870764118343 145.10045628424268 0 145.10045628424268 -363.30192403077672 0 0 0 0 -171.86931656995876 767.19723287483794 0 767.19723287483794 712.52057922337553 0 0 0 0 -12.519048763983626 42.868513099567565 0 42.868513099567565 -48.82015780900683 0 0 0 0 -217.0320721376047 98.790526503173169 0 98.790526503173169 83.739593398622674 0 0 0 0 16.415436512580886 6.0609358791560339 0 6.0609358791560339 -38.212291964118052 0 0 0 0 14.169794147899125 52.215646868531906 0 52.215646868531906 -121.32319245798291 0 0 0 0 1.8988868629267017 87.173930049153569 0 87.173930049153569 13.080131663385373 0 0 0 0 -27.090379751308006 57.832196571211739 0 57.832196571211739 -56.240622272750102 0 0 0 0 -41.636520251953698 33.89036997535004 0 33.89036997535004 -67.956484329389241 0 0 0 0 -31.588433231178033 36.54084732790264 0 36.54084732790264 -23.154406989606457 0 0 0 0 -23.761489894441418 39.878985346464965 0 39.878985346464965 -32.097332312629931 0 0 0 0 10.5950338129187 78.373021611114382 0 78.373021611114382 18.56427341181552 0 0 0 0 10.797321276430187 39.585663175730588 0 39.585663175730588 -164.52167232658641 0 0 0 0 -20.069486252683419 29.362295769404227 0 29.362295769404227 -99.356104846054222 0 0 0 0 -20.258961066895992 29.679258252708763 0 29.679258252708763 -55.29908695852675 0 0 0 0 -3.8914319141813394 435.89144129372289 0 435.89144129372289 -741.91306467288086 0 0 0 0 223.63053828948068 595.90102858018508 0 595.90102858018508 -631.94269973076007 0 0 0 0 -163.92676897393903 283.56744355651972 0 283.56744355651972 -844.04410018683848 0 0 0 0 -12.660405160624123 21.416439450906182 0 21.416439450906182 -83.77598977715752 0 0 0 0 7.546422562087935 29.026669221793512 0 29.026669221793512 -101.39860470380415 0 0 0 0 -7.4047970311337412 9.1341589773951597 0 9.1341589773951597 -39.788750586793185 0 0 0 0 22.124622240569131 61.543728361648348 0 61.543728361648348 -113.46410912202975 0 0 0 0 0.2906492003535277 15.215882429140038 0 15.215882429140038 -39.032625060634018 0 0 0 0 -247.0527600123005 -83.698294710920891 0 -83.698294710920891 -294.70007166403229 0 0 0 0 629.29015801131936 -171.68532738662179 0 -171.68532738662179 -2106.8770820708887 0 0 0 0 -9.8583670442456679 6.8622525661492375 0 6.8622525661492375 0.53383942052994726 0 0 0 0 -86.308165964386717 86.380392875740654 0 86.380392875740654 505.51363114230116 0 0 0 0 -34.91768149561949 15.051845327813254 0 15.051845327813254 -26.336799610604292 0 0 0 0 -73.435606073397139 239.22932738305099 0 239.22932738305099 -14.234636917763055 0 0 0 0 29.976330820064959 224.16720256238477 0 224.16720256238477 -177.44277665321715 0 0 0 0 -91.038736541378967 282.04308637320355 0 282.04308637320355 -196.84089440422395 0 0 0 0 -32.51975107342696 168.79400911858102 0 168.79400911858102 -318.57507907375111 0 0 0 0 81.013564680624086 129.16095515438792 0 129.16095515438792 -220.91419613105245 0 0 0 0 57.474715809923509 277.09229343246989 0 277.09229343246989 -192.42358125256214 0 0 0 0 -0.96986393700717599 269.01088880098541 0 269.01088880098541 -367.64443531256984 0 0 0 0 -36.79689271841653 186.20210559549196 0 186.20210559549196 -228.80878405022668 0 0 0 0 -4.1955741457204567 343.12069393104321 0 343.12069393104321 -504.56460803377558 0 0 0 0 -136.30029456359989 385.08935636649403 0 385.08935636649403 108.38097551937972 0 0 0 0 -125.36515827364565 450.38940044318224 0 450.38940044318224 -230.29651252750773 0 0 0 0 -94.702220389764989 459.69800325632241 0 459.69800325632241 -460.96041110007354 0 0 0 0 -91.907800980794491 411.056149101747 0 411.056149101747 -266.51181981648551 0 0 0 0 -1.3023884643902477 456.77700818775099 0 456.77700818775099 -326.4025684602384 0 0 0 0 -134.84085940580553 440.49745206439547 0 440.49745206439547 -282.23392505692755 0 0 0 0 302.73741002739689 565.98909561280288 0 565.98909561280288 -437.85235791707237 0 0 0 0 270.98215886304388 386.66395547852153 0 386.66395547852153 204.11007330944994 0 0 0 0 294.23563881341579 553.70249427935778 0 553.70249427935778 -106.09656732242729 0 0 0 0 102.33428591347547 38.062170732780942 0 38.062170732780942 -760.63451380789775 0 0 0 0 6.5879327232950828 3.5547324823409667 0 3.5547324823409667 -15.857627432114697 0 0 0 0 579.02985068082671 -147.80827738078369 0 -147.80827738078369 6.9297719321621116 0 0 0 0 945.33275920834421 446.67633895478502 0 446.67633895478502 -208.79939236013524 0 0 0 0 10.4625731938035 2.7808451985800673 0 2.7808451985800673 -16.554282401261872 0 0 0 0 1.1289868605645026 11.136174238365413 0 11.136174238365413 -7.0570891229877191 0 0 0 0 21.490835613429226 96.538811543854536 0 96.538811543854536 -83.648362831430859 0 0 0 0 52.059019109040321 1.6594970791654333 0 1.6594970791654333 -41.179453103724228 0 0 0 0 28.661993263714976 128.81247951654586 0 128.81247951654586 -300.07718562153605 0 0 0 0 3.4257025615170278 44.940539647803234 0 44.940539647803234 -468.01500723746358 0 0 0 0 8.2759117952409724 -25.005814259820909 0 -25.005814259820909 -82.16804811770271 0 0 0 0 32.869424054355477 25.619151825056178 0 25.619151825056178 319.37358677334123 0 0 0 0 11.407444578634724 2.2849810303036264 0 2.2849810303036264 -56.627957718948693 0 0 0 0 -8.3808522462958912 23.540421476662303 0 23.540421476662303 -32.565999740164528 0 0 0 0 62.968081486898882 66.793749271215347 0 66.793749271215347 -93.49990065521888 0 0 0 0 34.504360042226836 169.00096226203459 0 169.00096226203459 -197.7500916671197 0 0 0 0 -13.285299279531223 44.577997544060366 0 44.577997544060366 -52.55306626705142 0 0 0 0 32.376522556231066 327.4528151016566 0 327.4528151016566 350.87088867942657 0 0 0 0 71.803167144990766 264.68036432404188 0 264.68036432404188 322.40338449641968 0 0 0 0 273.81824245804228 387.95582217304036 0 387.95582217304036 -458.05768643885676 0 0 0 0 225.41236560623292 282.371901285067 0 282.371901285067 -94.154722958919592 0 0 0 0 21.025882209894917 79.270935994256433 0 79.270935994256433 -291.65847942783148 0 0 0 0 451.54602832345699 -374.76039028460946 0 -374.76039028460946 -73.158687110182655 0 0 0 0 139.3166099735372 445.23916876403018 0 445.23916876403018 752.97968808555743 0 0 0 0 905.69953175133014 483.56361196275247 0 483.56361196275247 52.829409307872993 0 0 0 0 30.914149852892137 322.26884884929996 0 322.26884884929996 1078.8625796587003 0 0 0 0 -105.93354592385549 65.641843408622663 0 65.641843408622663 -95.194377858115331 0 0 0 0 387.82787030756845 -110.53108668296045 0 -110.53108668296045 -635.52491610718425 0 0 0 0 64.06859093152525 -250.28050546494342 0 -250.28050546494342 -113.13767025538982 0 0 0 0 -10.929774208607341 -117.0916895051123 0 -117.0916895051123 -349.25206403872289 0 0 0 0 -22.394104455118224 37.551590418730541 0 37.551590418730541 -25.116975387823061 0 0 0 0 120.48333098606236 147.09918751724763 0 147.09918751724763 -14.92826052478631 0 0 0 0 25.030151815074532 -7.5961915611587756 0 -7.5961915611587756 -288.37502126158506 0 0 0 0 -41.655440900151007 229.19214635704702 0 229.19214635704702 -627.36786918158759 0 0 0 0 63.83572326302783 -64.694742402984957 0 -64.694742402984957 -200.78002318281506 0 0 0 0 -1.8749414500583761 8.1615958588722393 0 8.1615958588722393 -16.80431654205762 0 0 0 0 9.4593790616906865 11.440358627043281 0 11.440358627043281 22.612429596512527 0 0 0 0 27.109599309025725 2.4345477851529722 0 2.4345477851529722 -268.94960052342503 0 0 0 0 32.098100967973892 63.485955520613061 0 63.485955520613061 152.14090885533369 0 0 0 0 37.984578915336243 95.666850367138665 0 95.666850367138665 10.048364498453459 0 0 0 0 -2.2901354358764365 121.2379791590356 0 121.2379791590356 -44.326410217414377 0 0 0 0 32.179824976395139 58.247078322376183 0 58.247078322376183 43.832252004358452 0 0 0 0 0.5735263039059646 38.77066593692507 0 38.77066593692507 13.060433851307607 0 0 0 0 14.834577526547946 47.920771586708724 0 47.920771586708724 -1.596479382715188 0 0 0 0 32.805040566266726 45.823116353007123 0 45.823116353007123 10.087953128808266 0 0 0 0 33.59417662871131 91.518807827185057 0 91.518807827185057 19.326232396477394 0 0 0 0 36.487338767836846 75.71270551267223 0 75.71270551267223 -30.274236690745568 0 0 0 0 31.253471489167168 39.297076554736122 0 39.297076554736122 -106.25427232361108 0 0 0 0 -24.459093179929368 51.206243429573078 0 51.206243429573078 64.822354661358986 0 0 0 0 3.117389117450557 159.08070879033585 0 159.08070879033585 85.205511241365457 0 0 0 0 83.814189438344329 230.68112269043922 0 230.68112269043922 304.55377016961575 0 0 0 0 17.72651452473297 23.606102620157912 0 23.606102620157912 25.251710229709602 0 0 0 0 103.69574381673328 147.25288322776396 0 147.25288322776396 35.581564605934545 0 0 0 0 61.071664838789729 70.408612618950428 0 70.408612618950428 180.9919077459781 0 0 0 0 59.626605521143802 115.23047175195916 0 115.23047175195916 107.14891660347348 0 0 0 0 65.434964042322434 5.3022318100352095 0 5.3022318100352095 107.0187690933235 0 0 0 0 63.904214939323253 4.7037197957506578 0 4.7037197957506578 82.431072050560033 0 0 0 0 71.048796884843455 81.846373516047606 0 81.846373516047606 90.879833511600737 0 0 0 0 48.059822612597031 72.867399062663026 0 72.867399062663026 245.44400693038187 0 0 0 0 -18.010699279483561 117.42561008551274 0 117.42561008551274 549.29578556497654 0 0 0 0 64.920394451528409 -85.604782409995096 0 -85.604782409995096 444.09962196515698 0 0 0 0 164.27711470514396 60.156673410641815 0 60.156673410641815 47.028049503191141 0 0 0 0 194.46348103984201 -15.080332808051025 0 -15.080332808051025 107.11009131501487 0 0 0 0 2.6035248984710151 0.12770583335935726 0 0.12770583335935726 -0.82422244095045016 0 0 0 0 14.093524170839146 153.01960429648898 0 153.01960429648898 393.04986676723183 0 0 0 0 3.2598756689182213 -1.9819727804228364 0 -1.9819727804228364 -2.3194142706589105 0 0 0 0 27.474730328344492 70.62962750873703 0 70.62962750873703 382.56497665017378 0 0 0 0 -19.68624962897502 37.733908583322773 0 37.733908583322773 104.24945010841475 0 0 0 0 2.120425884893848 88.015144130475164 0 88.015144130475164 127.81853026410681 0 0 0 0 6.8827733034339644 66.899825896118273 0 66.899825896118273 166.93277199975273 0 0 0 0 31.552929483856399 95.612844935366411 0 95.612844935366411 23.789068860650048 0 0 0 0 45.279995197171729 83.213922002643812 0 83.213922002643812 118.90180710334607 0 0 0 0 66.370667272960418 18.867264710890595 0 18.867264710890595 -294.94987331816083 0 0 0 0 66.523821210077131 -61.315782009652139 0 -61.315782009652139 -404.39777185620915 0 0 0 0 -9.3982190232406992 70.880855929342033 0 70.880855929342033 -124.94747033521708 0 0 0 0 180.32084104633668 168.46815254943795 0 168.46815254943795 -473.56186026915566 0 0 0 0 23.790212068688508 94.296048861302666 0 94.296048861302666 24.240510594694058 0 0 0 0 72.489170987487341 56.059941531551885 0 56.059941531551885 9.8982230639157933 0 0 0 0 103.5734002827711 294.35213740338713 0 294.35213740338713 -374.50673092564102 0 0 0 0 15.959152197911521 355.82890481103277 0 355.82890481103277 -1.085170980746625 0 0 0 0 1.5908352342985381 117.45966061556101 0 117.45966061556101 144.39335312442563 0 0 0 0 -4.6919377969752531 111.23493668183801 0 111.23493668183801 139.78646912506156 0 0 0 0 30.850687316316908 98.879666995493608 0 98.879666995493608 133.94827783387154 0 0 0 0 43.812927596070949 191.03943124213401 0 191.03943124213401 156.96378102441304 0 0 0 0 88.351706593608469 2.332694419514155 0 2.332694419514155 306.8676461446812 0 0 0 0 19.107848090007451 120.98239411146389 0 120.98239411146389 0.97542640468946473 0 0 0 0 -34.99384820341983 72.275325769639124 0 72.275325769639124 -28.298485258551636 0 0 0 0 -466.27735062458669 767.10370494384551 0 767.10370494384551 243.99942355610074 0 0 0 0 10.332974406841164 105.37639726928259 0 105.37639726928259 5.790092717544816 0 0 0 0 227.7477524435235 64.316517427534563 0 64.316517427534563 140.03981792194372 0 0 0 0 -4.5745835541383713 146.53319723482855 0 146.53319723482855 60.024827260158418 0 0 0 0 -29.709176796141037 157.33417763400212 0 157.33417763400212 150.14220698853023 0 0 0 0 -54.484102897400803 53.123082697098766 0 53.123082697098766 5.3526719200218622 0 0 0 0 -20.00104847883631 135.33006126839427 0 135.33006126839427 148.64605861222662 0 0 0 0 8.6381578330001503 147.25029644291499 0 147.25029644291499 153.59830081676773 0 0 0 0 -26.064331286375818 147.16521604368609 0 147.16521604368609 206.6859769361763 0 0 0 0 -30.198889634208172 132.35956847678608 0 132.35956847678608 159.69382347074134 0 0 0 0 -64.036426072909308 176.65491304257012 0 176.65491304257012 215.73640608018286 0 0 0 0 -12.840075197107581 89.603340681358532 0 89.603340681358532 132.0784835217637 0 0 0 0 -20.628029902920389 116.29999585117912 0 116.29999585117912 145.18367408770064 0 0 0 0 -37.099957033165538 132.42902438922465 0 132.42902438922465 190.10950164691894 0 0 0 0 -45.283375260070898 102.96165938168997 0 102.96165938168997 204.66326702442166 0 0 0 0 -70.95471094432969 73.012427089648554 0 73.012427089648554 364.92704758388572 0 0 0 0 -113.37390548254098 -37.120779605655116 0 -37.120779605655116 80.010264061354974 0 0 0 0 -56.744744736190114 220.93538704296952 0 220.93538704296952 382.21670163485305 0 0 0 0 -5.0496342900487434 248.61043847625115 0 248.61043847625115 280.25576072509284 0 0 0 0 -114.80382129273858 171.5254200267882 0 171.5254200267882 267.25096520808438 0 0 0 0 -74.020156757938821 162.09335934634146 0 162.09335934634146 254.84538441196491 0 0 0 0 -74.334418139122135 151.40387285723409 0 151.40387285723409 305.30196055206761 0 0 0 0 -60.833420235253925 179.89561537200962 0 179.89561537200962 258.34551077461219 0 0 0 0 -58.812920138794652 200.04667086112022 0 200.04667086112022 279.13796706288849 0 0 0 0 -60.099381421157091 181.72979243869213 0 181.72979243869213 204.25429253178299 0 0 0 0 -112.59115164578498 181.36505262801074 0 181.36505262801074 305.96425919103785 0 0 0 0 -40.477204334378257 121.90385878902998 0 121.90385878902998 47.558539753605146 0 0 0 0 -19.563078309343837 180.16739889670862 0 180.16739889670862 195.61368680377927 0 0 0 0 -11.881814155263783 170.75130636429822 0 170.75130636429822 70.084734331292566 0 0 0 0 5.9825332565114877 205.17360053639277 0 205.17360053639277 79.611492881827871 0 0 0 0 9.6009096065172344 248.82844978521462 0 248.82844978521462 179.52947084228072 0 0 0 0 69.740082996213005 256.69385757423879 0 256.69385757423879 88.015484774834476 0 0 0 0 132.12541110561324 291.88727447330166 0 291.88727447330166 -9.8881638855091296 0 0 0 0 38.048878973325372 184.40782176209177 0 184.40782176209177 -47.027213256427785 0 0 0 0 44.380082967778435 274.32869835064048 0 274.32869835064048 -20.383204590594687 0 0 0 0 21.549740095275411 372.74019267502445 0 372.74019267502445 154.95370269371051 0 0 0 0 0.96630224785803875 278.4765800375244 0 278.4765800375244 302.53331312271621 0 0 0 0 112.88573830870473 388.23560010660003 0 388.23560010660003 157.36255538486876 0 0 0 0 111.34949060025974 350.03540421229991 0 350.03540421229991 48.134024921353557 0 0 0 0 41.759882403767733 439.91451792404405 0 439.91451792404405 106.58196905177829 0 0 0 0 -42.14056215745893 520.48026268864487 0 520.48026268864487 176.4099338622982 0 0 0 0 12.804683143977797 349.92742611556696 0 349.92742611556696 390.99347538025177 0 0 0 0 94.787705651908368 350.15903322816303 0 350.15903322816303 422.76402548240731 0 0 0 0 -144.27842885550632 358.83418097996582 0 358.83418097996582 467.5923053570732 0 0 0 0 318.28661563341871 445.00032538610685 0 445.00032538610685 144.80260624751099 0 0 0 0 469.35684313407228 695.85026701210154 0 695.85026701210154 501.41090014112706 0 0 0 0 421.26930116708809 545.67576009352342 0 545.67576009352342 398.29830445948755 0 0 0 0 115.88526656313672 418.85634558953461 0 418.85634558953461 626.15620800669421 0 0 0 0 -85.43897205577241 251.68870800067089 0 251.68870800067089 929.98779555285728 0 0 0 0 218.91765508599565 492.62151467482181 0 492.62151467482181 670.76499374717241 0 0 0 0 -108.34452339494629 62.291225533967008 0 62.291225533967008 740.82026568599395 0 0 0 0 -45.947679691761323 100.0760574416272 0 100.0760574416272 629.61268556317373 0 0 0 0 -31.908205643841939 221.10529191606474 0 221.10529191606474 586.67457416275283 0 0 0 0 -16.974164933665094 194.04875886873515 0 194.04875886873515 549.05041153154161 0 0 0 0 79.654684218370903 299.96971296242555 0 299.96971296242555 611.6319314757784 0 0 0 0 -45.173992884162772 318.77252405265608 0 318.77252405265608 374.8270505632463 0 0 0 0 -40.873218548762225 239.51000243224553 0 239.51000243224553 619.95645686430362 0 0 0 0 14.603754259980633 53.948058731846686 0 53.948058731846686 -65.399231718736701 0 0 0 0 -4.3731117698480375 49.49818829560536 0 49.49818829560536 -40.720897612394765 0 0 0 0 -23.209843679549522 81.909313921107241 0 81.909313921107241 -66.231354110845132 0 0 0 0 -2.2743414193220133 0.5410242273893715 0 0.5410242273893715 7.5279622547244003 0 0 0 0 -85.4098213031466 45.315261099822237 0 45.315261099822237 11.757148198987124 0 0 0 0 -15.813500704104626 23.738773772416721 0 23.738773772416721 14.683318938465476 0 0 0 0 -4.4684615050937282 38.515114530047867 0 38.515114530047867 8.0529070292395772 0 0 0 0 1.8638757568696747 47.419216977417818 0 47.419216977417818 -172.37674663218786 0 0 0 0 -9.8186511901767517 36.14908319566166 0 36.14908319566166 50.088239744742168 0 0 0 0 -12.960324680636404 6.001393234662828 0 6.001393234662828 27.715774731208512 0 0 0 0 -16.314576037773804 3.1767730775973178 0 3.1767730775973178 84.038709534070222 0 0 0 0 -18.703412092916551 9.9335708219005028 0 9.9335708219005028 65.587553017918253 0 0 0 0 0.61859322358213831 40.533930049015908 0 40.533930049015908 11.670083886114298 0 0 0 0 -19.149779028445494 20.958846094259656 0 20.958846094259656 21.710170434177911 0 0 0 0 -24.065216089496971 1.0126340110000456 0 1.0126340110000456 64.440366825292585 0 0 0 0 -25.189972942851909 32.679306058363863 0 32.679306058363863 43.197293267934583 0 0 0 0 11.230601529940031 3.8592523064580746 0 3.8592523064580746 58.0640542149049 0 0 0 0 -7.340306560654426 43.686940750107169 0 43.686940750107169 57.649337909504538 0 0 0 0 28.208994532411452 39.064679511357099 0 39.064679511357099 57.959991400215586 0 0 0 0 -19.65409961478872 5.5659152725929744 0 5.5659152725929744 109.12093421305326 0 0 0 0 14.583250436804519 -3.4792313380512496 0 -3.4792313380512496 28.825112188176718 0 0 0 0 31.884970180748496 2.4123806310526561 0 2.4123806310526561 56.299400576506741 0 0 0 0 273.77039092460655 294.8970613577535 0 294.8970613577535 431.23735373371164 0 0 0 0 -11.819989181152778 109.80888751601742 0 109.80888751601742 890.42611021637458 0 0 0 0 288.13336610625265 95.071804008635809 0 95.071804008635809 545.26339020050364 0 0 0 0 -122.86112977114681 216.52383219992771 0 216.52383219992771 346.92407079480472 0 0 0 0 13.687909886371926 -19.219777229409374 0 -19.219777229409374 126.33410605136305 0 0 0 0 44.304092310921988 187.49676092567097 0 187.49676092567097 516.71758372656768 0 0 0 0 172.14960983387573 358.167629581043 0 358.167629581043 397.97595721622929 0 0 0 0 67.429407910894952 414.40568792742852 0 414.40568792742852 -43.756228253972949 0 0 0 0 158.00240257027326 83.431201700888778 0 83.431201700888778 343.82119678250456 0 0 0 0 -16.361143466318026 43.185380925991922 0 43.185380925991922 29.945133764718776 0 0 0 0 -7.1951663299601307 2.7714790742154491 0 2.7714790742154491 -0.20231181454727221 0 0 0 0 -2.7161530619640928 1.3321705749884813 0 1.3321705749884813 -0.43724887335993401 0 0 0 0 -53.541573799535399 464.55414926733647 0 464.55414926733647 507.02427972877922 0 0 0 0 -14.294206418999238 25.116387049682089 0 25.116387049682089 77.77891776546312 0 0 0 0 3.4600967318401672 10.93054593904526 0 10.93054593904526 63.806981399553479 0 0 0 0 -0.68969003905380077 0.92869841874312442 0 0.92869841874312442 -0.30457998686966903 0 0 0 0 -4.7011185953178938 -11.220176067705324 0 -11.220176067705324 53.284000276413281 0 0 0 0 -71.820920630838373 -59.115113508341892 0 -59.115113508341892 22.760583397976006 0 0 0 0 39.956289093697706 -27.839884767827243 0 -27.839884767827243 -12.484439722218667 0 0 0 0 -296.07464850934048 -34.007262956074555 0 -34.007262956074555 4.2198403046932071 0 0 0 0 -2.3053015635080101 1.8400679925219663 0 1.8400679925219663 -0.72329996035831812 0 0 0 0 68.777954026772932 208.88871239457512 0 208.88871239457512 192.43942063827126 0 0 0 0 -479.20470171602938 86.675114556848712 0 86.675114556848712 280.13685752624588 0 0 0 0 -426.16773812122847 131.77516718062543 0 131.77516718062543 92.658903157236637 0 0 0 0 68.489616814200417 316.71061748645297 0 316.71061748645297 39.520930634287652 0 0 0 0 -335.14688725965243 94.072136580012739 0 94.072136580012739 99.461731565141235 0 0 0 0 -33.641139048486366 202.43217224870023 0 202.43217224870023 42.602156055101659 0 0 0 0 -43.024841642269166 223.23994036049953 0 223.23994036049953 101.19911391740607 0 0 0 0 34.010731492962805 69.903502258683147 0 69.903502258683147 96.422291559047153 0 0 0 0 -111.22745875288092 15.073921021736169 0 15.073921021736169 126.87871519899636 0 0 0 0 -51.473489296840853 63.004878442443442 0 63.004878442443442 140.41442723486398 0 0 0 0 -49.136322693695547 -20.972171313173021 0 -20.972171313173021 66.362178437062539 0 0 0 0 -9.7409721173462458 61.469842451137083 0 61.469842451137083 -14.798325163385016 0 0 0 0 8.8539360553401139 16.463293648371177 0 16.463293648371177 -19.157536664215797 0 0 0 0 1.311468991174479 43.971094260530663 0 43.971094260530663 -58.897451708558947 0 0 0 0 -28.13407503664979 34.60713126695012 0 34.60713126695012 -22.506041724771023 0 0 0 0 -29.050217487620216 44.732332323964194 0 44.732332323964194 -45.020771227845444 0 0 0 0 -0.17769559844964533 43.466782791932928 0 43.466782791932928 -9.6009919669959345 0 0 0 0 528.24395209409295 391.03032397858397 0 391.03032397858397 -192.19528246874688 0 0 0 0 -431.39247728149712 370.87490991642699 0 370.87490991642699 394.63116769102635 0 0 0 0 538.61996739986216 314.003907343018 0 314.003907343018 -891.67077888044878 0 0 0 0 -11.361511868577878 8.2775500102172543 0 8.2775500102172543 -5.1672686990017098 0 0 0 0 230.46367307900073 59.822152209650085 0 59.822152209650085 -694.36182652409479 0 0 0 0 -212.54363811712119 -1.9522172757006047 0 -1.9522172757006047 175.38387842668453 0 0 0 0 60.183504109213231 121.59954801023309 0 121.59954801023309 160.44377501077543 0 0 0 0 -26.120974470023214 40.906888908785106 0 40.906888908785106 -35.349464537536477 0 0 0 0 42.770454705194425 487.89062556237332 0 487.89062556237332 338.31546032708502 0 0 0 0 -39.522891441139812 37.976150953611253 0 37.976150953611253 -19.948352332976867 0 0 0 0 -3.6193040281468711 101.95687015402655 0 101.95687015402655 47.385147563552891 0 0 0 0 -12.428195756845525 168.94220407048124 0 168.94220407048124 95.441662053517575 0 0 0 0 94.392612573195947 166.35253613715031 0 166.35253613715031 15.199446594691835 0 0 0 0 236.7659675693576 65.016261990000203 0 65.016261990000203 57.253309798808914 0 0 0 0 60.868979539667635 28.220657609690534 0 28.220657609690534 245.36683433784492 0 0 0 0 18.9923881794723 116.0059702744702 0 116.0059702744702 24.508502645693056 0 0 0 0 10.976963294837333 131.31187526641588 0 131.31187526641588 174.09236404101102 0 0 0 0 -41.199047973798798 35.201643525226459 0 35.201643525226459 55.760510608415416 0 0 0 0 1.8707916765561095 83.669436949428928 0 83.669436949428928 118.44724564168246 0 0 0 0 -10.343086137654126 47.155198403850534 0 47.155198403850534 -48.097721913065669 0 0 0 0 55.194687991031969 155.56698149941803 0 155.56698149941803 135.43887707401882 0 0 0 0 25.907656426614267 142.11275365833717 0 142.11275365833717 209.98779275722336 0 0 0 0 -50.063143073524387 34.150836131033515 0 34.150836131033515 16.521475562887844 0 0 0 0 90.681004354019478 62.767838460669509 0 62.767838460669509 110.13530587847345 0 0 0 0 25.772745987113012 171.91264153604425 0 171.91264153604425 195.03859782606014 0 0 0 0 5.5766168649458621 70.372072998527031 0 70.372072998527031 -7.6393678331888992 0 0 0 0 -34.729200495949215 60.672645855170003 0 60.672645855170003 -3.4377447793031024 0 0 0 0 -4.8648352850323135 134.97733884615673 0 134.97733884615673 107.25765991695516 0 0 0 0 -4.9997810382614176 21.079692322180399 0 21.079692322180399 26.843364519277756 0 0 0 0 12.571047281086067 120.43616976375051 0 120.43616976375051 158.11435077070928 0 0 0 0 26.756556772052136 183.54717336150497 0 183.54717336150497 156.65094242502528 0 0 0 0 35.044264898777328 196.19167016040592 0 196.19167016040592 53.973040148004657 0 0 0 0 -33.041982525637479 23.25398402736198 0 23.25398402736198 -22.645292421569877 0 0 0 0 98.341191023522697 269.03144776292174 0 269.03144776292174 121.70938587062847 0 0 0 0 12.318496114752634 286.59464115362607 0 286.59464115362607 143.00595119206992 0 0 0 0 -46.448399950062594 226.09425983442452 0 226.09425983442452 259.06166895797651 0 0 0 0 -2.6219423876791552 245.33959860126197 0 245.33959860126197 146.34984996689673 0 0 0 0 -172.62450115836691 232.26205722687882 0 232.26205722687882 264.60338834275171 0 0 0 0 -72.012485362254665 504.11601274408895 0 504.11601274408895 187.46118688969 0 0 0 0 -146.41837221780224 326.06043938879884 0 326.06043938879884 587.78140141055337 0 0 0 0 -96.871129987579479 72.91212832805104 0 72.91212832805104 225.42115570294845 0 0 0 0 -263.47566377469229 13.051197761604271 0 13.051197761604271 507.36808337240655 0 0 0 0 -137.22630567893611 102.42153249317198 0 102.42153249317198 216.7872928098077 0 0 0 0 -144.89206357207513 82.531664062524214 0 82.531664062524214 250.05016663517745 0 0 0 0 -67.693542437371434 155.11192012649917 0 155.11192012649917 -156.88049819841399 0 0 0 0 -29.654843549637008 102.39429796865443 0 102.39429796865443 -139.69726730603725 0 0 0 0 -55.137982991585886 230.70121378613112 0 230.70121378613112 -340.88036692820606 0 0 0 0 -59.411337866640679 239.11462641986145 0 239.11462641986145 -64.570105172300828 0 0 0 0 -125.87682929131552 115.03882931510452 0 115.03882931510452 -184.46489020969602 0 0 0 0 -126.33792481623652 165.04323993119687 0 165.04323993119687 -792.38351692890865 0 0 0 0 -295.75611223061514 155.09146703049191 0 155.09146703049191 196.40006287459983 0 0 0 0 -204.14810418510388 -77.782124545279657 0 -77.782124545279657 29.563128034031251 0 0 0 0 -545.75002946053064 -147.82755933816952 0 -147.82755933816952 -111.8251805674081 0 0 0 0 -412.40645957025845 607.2163483160839 0 607.2163483160839 -372.72634203432244 0 0 0 0 -402.76282788535173 455.62305389123503 0 455.62305389123503 16.110313836485147 0 0 0 0 -711.53155297952253 610.45463363909221 0 610.45463363909221 -278.49063646073773 0 0 0 0 -25.496161656883487 372.1661850673554 0 372.1661850673554 -910.63842378443223 0 0 0 0 -1.2775209403172738 3.5637854838633842 0 3.5637854838633842 -5.1440026530299292 0 0 0 0 -4.3180962687348687 5.5468615913193631 0 5.5468615913193631 -4.5181335778643756 0 0 0 0 11.453663094809599 96.269782699484495 0 96.269782699484495 -377.47110210227038 0 0 0 0 -150.95236204214109 109.8741154084853 0 109.8741154084853 -62.408186632150318 0 0 0 0 -1420.8841077791367 685.32943649398658 0 685.32943649398658 485.23940549859253 0 0 0 0 0.69919064919831042 -1.7411973944467576 0 -1.7411973944467576 -1.0968030002720752 0 0 0 0 -453.13333325691929 305.66022797413461 0 305.66022797413461 -410.83449131029738 0 0 0 0 -98.38989325797229 1517.4831502693414 0 1517.4831502693414 690.45604148891289 0 0 0 0 -81.613670225866372 333.14444245751656 0 333.14444245751656 1463.2492208911572 0 0 0 0 596.12869660578872 312.84956454322673 0 312.84956454322673 -16.278168109201943 0 0 0 0 -91.922126291126915 -164.62319320756069 0 -164.62319320756069 1129.3192330367165 0 0 0 0 38.076580744018429 822.06841174139117 0 822.06841174139117 1104.836751652344 0 0 0 0 1043.86503033177 549.81744488143886 0 549.81744488143886 -117.1121457121917 0 0 0 0 -9.3393425921094604 848.15162443467125 0 848.15162443467125 -198.04340331801359 0 0 0 0 9.3312150037127992 7.3551593023485111 0 7.3551593023485111 6.8107213544204797 0 0 0 0 158.47274802173342 -391.18835896062956 0 -391.18835896062956 502.78440817346564 0 0 0 0 240.75236922111799 -419.61147312083631 0 -419.61147312083631 -644.85262835150206 0 0 0 0 -548.5370798789445 -243.40791609455846 0 -243.40791609455846 472.12944511618116 0 0 0 0 277.63386855848057 -243.20060380950417 0 -243.20060380950417 166.9710308490321 0 0 0 0 144.62566351423447 284.52362503476616 0 284.52362503476616 -34.026546211869572 0 0 0 0 26.469799590269901 30.146008239583011 0 30.146008239583011 -8.4248092690452836 0 0 0 0 17.122177570047825 -26.507459976535756 0 -26.507459976535756 103.50909164102632 0 0 0 0 -3.924912073647846 32.433249473953268 0 32.433249473953268 -52.329516254596911 0 0 0 0 9.2487866187657346 71.824607107664633 0 71.824607107664633 -69.162297402115655 0 0 0 0 425.49541382814641 194.06291408840389 0 194.06291408840389 -17.606467489778879 0 0 0 0 257.57517110068147 654.8340254752402 0 654.8340254752402 631.04343554915977 0 0 0 0 -137.23948163271052 77.869761505615315 0 77.869761505615315 384.69780328057823 0 0 0 0 1612.8265272668259 529.89050639080335 0 529.89050639080335 26.965391354926396 0 0 0 0 568.23167765388644 281.85506948729744 0 281.85506948729744 106.65128045633537 0 0 0 0 541.56647346001409 318.97396370083152 0 318.97396370083152 91.727344138704211 0 0 0 0 583.25452321703051 321.07746138231596 0 321.07746138231596 62.227441287381225 0 0 0 0 539.02662061310548 366.02165501263516 0 366.02165501263516 40.615704319556244 0 0 0 0 466.78877773322529 408.76264864573022 0 408.76264864573022 110.33640163758537 0 0 0 0 87.952128010074375 289.79706785366579 0 289.79706785366579 242.52620835862763 0 0 0 0 65.847522265808948 -5.6787997189894668 0 -5.6787997189894668 38.391367087820981 0 0 0 0 7.2752966586418637 8.2689494234688894 0 8.2689494234688894 -35.871777576095838 0 0 0 0 326.98612279465306 170.09394293697551 0 170.09394293697551 -21.417535495012999 0 0 0 0 234.35295691111241 224.66896655460732 0 224.66896655460732 58.736332627828233 0 0 0 0 359.43475616924115 91.922979699244024 0 91.922979699244024 15.447159182775067 0 0 0 0 431.30477167204663 322.36290013455437 0 322.36290013455437 67.607486215287281 0 0 0 0 188.12047334526142 181.28189255612233 0 181.28189255612233 43.338680697292148 0 0 0 0 6.6090731571363932 -0.028211974908231241 0 -0.028211974908231241 -34.449942870266682 0 0 0 0 -1008.1326701789803 303.74198194137716 0 303.74198194137716 -119.00236874926486 0 0 0 0 -1114.372415438691 447.64281685607784 0 447.64281685607784 -151.39453241636511 0 0 0 0 -780.87966640719969 216.61810041996068 0 216.61810041996068 -120.1144698758726 0 0 0 0 2.9676716085287147 18.08061902978001 0 18.08061902978001 -24.32806160521767 0 0 0 0 -574.57395712037396 253.04664134772611 0 253.04664134772611 -116.98274660682 0 0 0 0 26.894364722575119 16.970185141711227 0 16.970185141711227 -12.656569932616549 0 0 0 0 -1.7967448927010992 24.528934737143572 0 24.528934737143572 -12.326276447849523 0 0 0 0 6.0751213506214299 16.815034294437055 0 16.815034294437055 -34.805706316590658 0 0 0 0 -78.178047047687869 65.522846775922517 0 65.522846775922517 -57.820954908791464 0 0 0 0 -3.8381627240160014 8.284789097335306 0 8.284789097335306 -106.46990465794079 0 0 0 0 5.131250282171063 13.794586665494904 0 13.794586665494904 -24.714550988394706 0 0 0 0 48.045260290506121 -3.5634582743168721 0 -3.5634582743168721 -53.947195988759631 0 0 0 0 -8.4955216473899782 11.0594836714954 0 11.0594836714954 0.6609278025716776 0 0 0 0 -28.009868839780182 42.631035523212518 0 42.631035523212518 -2.6875553843092987 0 0 0 0 53.040096529672155 2.5450874668167671 0 2.5450874668167671 217.73745063046408 0 0 0 0 13.171873879357008 48.27693584653025 0 48.27693584653025 -21.029926875055025 0 0 0 0 -26.145931476574333 50.356110252178041 0 50.356110252178041 5.5995353007401718 0 0 0 0 -10.0804282568497 77.720934413700888 0 77.720934413700888 -21.246694643312367 0 0 0 0 75.538839799759444 124.01865130917577 0 124.01865130917577 57.941187932214234 0 0 0 0 -5.2562246829911601 -1.4076221691793762 0 -1.4076221691793762 -60.617788714589551 0 0 0 0 -216.5470190940614 12.060889208099979 0 12.060889208099979 55.395026068435982 0 0 0 0 2.6193219899965214 4.4529909879750846 0 4.4529909879750846 -3.1380677047254721 0 0 0 0 28.080222619894016 37.281746325614591 0 37.281746325614591 -25.864790726743358 0 0 0 0 53.24845629452102 70.667227751662722 0 70.667227751662722 65.008702800667379 0 0 0 0 6.9462882804509718 103.5128064272576 0 103.5128064272576 46.163230661433772 0 0 0 0 -76.318134449968056 413.79019270095341 0 413.79019270095341 805.4368029118632 0 0 0 0 -31.214338814333416 32.801187672100497 0 32.801187672100497 -19.270291744584796 0 0 0 0 -0.37207358430168824 164.74635877591936 0 164.74635877591936 930.90859083860414 0 0 0 0 50.405049303502892 104.70753066125326 0 104.70753066125326 -9.8572947591310367 0 0 0 0 -365.67697079698883 662.50201223255499 0 662.50201223255499 767.41404504688398 0 0 0 0 -373.32043812258053 576.62463298528746 0 576.62463298528746 1722.2215885331971 0 0 0 0 -520.6376951332968 -1808.3337663652965 0 -1808.3337663652965 288.55368096232996 0 0 0 0 -5.3940591664467625 3.3164993529498332 0 3.3164993529498332 18.402719889163336 0 0 0 0 -727.35225693775283 50.607315623652539 0 50.607315623652539 1073.4735373907024 0 0 0 0 850.54485147916421 -530.18661938475998 0 -530.18661938475998 244.18143727500865 0 0 0 0 1013.9508935738922 979.12067774029856 0 979.12067774029856 873.51201409159694 0 0 0 0 -1023.2525014246494 432.09689290384995 0 432.09689290384995 -454.51045546612295 0 0 0 0 -3.5840680844191013 2.2166993471311685 0 2.2166993471311685 5.6824637423299862 0 0 0 0 -179.30824724109698 1122.9515898104582 0 1122.9515898104582 -1607.3385993174161 0 0 0 0 1807.3920822889777 1011.1765240348177 0 1011.1765240348177 2603.1972106633475 0 0 0 0 -748.47339722721517 1848.0008180779041 0 1848.0008180779041 1126.8486153326812 0 0 0 0 -2260.0788968623456 999.75679747293179 0 999.75679747293179 -217.68583024534746 0 0 0 0 1141.5726986743703 215.26415727870335 0 215.26415727870335 -224.80655779273366 0 0 0 0 -1.3025334960291559 -0.54450791655050068 0 -0.54450791655050068 -10.75741445708428 0 0 0 0 -1324.3532159631795 214.12049035584641 0 214.12049035584641 -278.92535983430571 0 0 0 0 491.87420272803865 314.00108017597813 0 314.00108017597813 39.146029238123447 0 0 0 0 621.07868257600057 131.93292331362318 0 131.93292331362318 13.435897247993125 0 0 0 0 568.91233897357779 357.79718617686922 0 357.79718617686922 63.62756684582564 0 0 0 0 526.37643806630513 451.84322600567975 0 451.84322600567975 11.785056547261775 0 0 0 0 792.05040123316576 549.92790283200156 0 549.92790283200156 -472.05379490877385 0 0 0 0 27.285192899260437 1393.9624103943352 0 1393.9624103943352 -399.96776516259706 0 0 0 0 481.1463982487694 659.53344264175394 0 659.53344264175394 476.37372980435612 0 0 0 0 455.34091074531898 602.21557500307972 0 602.21557500307972 389.43310664036835 0 0 0 0 -28.162168954698359 28.259041784161965 0 28.259041784161965 -26.549417267141706 0 0 0 0 483.05976177935372 592.6183550803762 0 592.6183550803762 132.25193932743423 0 0 0 0 418.6779517446048 397.08574487875012 0 397.08574487875012 238.58799695898779 0 0 0 0 502.74674485283322 452.52444284284138 0 452.52444284284138 250.77494533768913 0 0 0 0 469.13505255345808 369.8134402638334 0 369.8134402638334 98.753301575081423 0 0 0 0 489.38366608314027 391.18885510765904 0 391.18885510765904 79.235102865684894 0 0 0 0 593.47876593547699 291.75574779343151 0 291.75574779343151 88.937645382306073 0 0 0 0 407.06109182705632 257.93940030173144 0 257.93940030173144 93.318599665391957 0 0 0 0 -21.490056001283946 26.250156462282987 0 26.250156462282987 -23.25373063189906 0 0 0 0 -60.368623795049643 -24.610057021738612 0 -24.610057021738612 32.158549810803379 0 0 0 0 -49.049281542669632 60.273231096507516 0 60.273231096507516 53.269321100464367 0 0 0 0 -106.9642575594371 34.428710650536232 0 34.428710650536232 -35.027880650806765 0 0 0 0 241.47597711524577 43.191390652951668 0 43.191390652951668 -435.03775123506784 0 0 0 0 -57.542409484776726 -4.3303371215224615 0 -4.3303371215224615 -149.86164884627215 0 0 0 0 -50.892447310136049 -23.751381133915856 0 -23.751381133915856 -97.146015676262323 0 0 0 0 -166.28827072877903 -115.15786451578606 0 -115.15786451578606 -159.00417288905373 0 0 0 0 -152.74542060020758 23.235474064713344 0 23.235474064713344 -19.903704183816444 0 0 0 0 -33.583923586862511 -27.237651462899521 0 -27.237651462899521 -144.2741495679802 0 0 0 0 -263.2991929678974 -13.481456916691968 0 -13.481456916691968 -36.293633371402393 0 0 0 0 -122.55528819473693 10.958428013313096 0 10.958428013313096 -56.041163807793055 0 0 0 0 29.906615784319001 73.797246159621864 0 73.797246159621864 -53.034080901008565 0 0 0 0 -26.803301537496736 93.265632057882613 0 93.265632057882613 -102.10433599881071 0 0 0 0 -31.047644044423578 177.18888950534529 0 177.18888950534529 67.806258818862261 0 0 0 0 113.28194898978109 64.40418327608495 0 64.40418327608495 -81.175666346040089 0 0 0 0 120.12500262513458 28.392366494903399 0 28.392366494903399 -75.336270140309352 0 0 0 0 -56.252688689986826 57.661692587018479 0 57.661692587018479 52.119602625916741 0 0 0 0 -89.095210323081119 116.94768308763742 0 116.94768308763742 -42.183086293691304 0 0 0 0 -202.10637588922691 79.806391285848804 0 79.806391285848804 -34.750742842898035 0 0 0 0 -11.575727587989661 12.737141420416776 0 12.737141420416776 2.6278831651726833 0 0 0 0 211.26199315965641 182.20574951611343 0 182.20574951611343 192.05492507437884 0 0 0 0 1388.9111713388993 -312.64726496185176 0 -312.64726496185176 399.1957943055022 0 0 0 0 60.801658589683939 40.829142383721774 0 40.829142383721774 -113.89059570402605 0 0 0 0 -11.28617333767761 354.44968707558291 0 354.44968707558291 197.39240190794226 0 0 0 0 0.21419279105612077 440.30371547536924 0 440.30371547536924 -17.697059801022988 0 0 0 0 60.674627492830041 188.43698322746786 0 188.43698322746786 197.25635287184559 0 0 0 0 104.57331885321764 221.10217803969863 0 221.10217803969863 -8.1622491488815285 0 0 0 0 72.352703763725003 119.68871474318439 0 119.68871474318439 -43.505362923213397 0 0 0 0 97.049033266172046 245.55519485255354 0 245.55519485255354 -67.349308056058362 0 0 0 0 91.388148267578799 192.76029083161848 0 192.76029083161848 43.919940140622202 0 0 0 0 110.35966575192288 241.50881856575143 0 241.50881856575143 -110.61218153411755 0 0 0 0 77.391716249920137 116.61329922646109 0 116.61329922646109 -229.65354963611026 0 0 0 0 50.771441447272082 155.31814084017969 0 155.31814084017969 -276.11426543738344 0 0 0 0 140.04398358581238 179.07763697586779 0 179.07763697586779 -673.84052315159352 0 0 0 0 -1.6041072039745359 4.9352402757702407 0 4.9352402757702407 -0.53107739654799957 0 0 0 0 -557.3814649713695 303.31525814231645 0 303.31525814231645 1704.9218534847896 0 0 0 0 4.891478371215058 5.5313540281082965 0 5.5313540281082965 1.8862616639279324 0 0 0 0 69.113848509638046 329.84246849376359 0 329.84246849376359 -299.50811060273554 0 0 0 0 77.448418420957751 112.8670075591217 0 112.8670075591217 -459.10423097873718 0 0 0 0 61.318281293351902 121.9371787810087 0 121.9371787810087 -410.55197002130444 0 0 0 0 103.36221964290598 377.77575124385476 0 377.77575124385476 -512.38031763440813 0 0 0 0 2.9318331387366925 459.12096180590379 0 459.12096180590379 -199.64323021669406 0 0 0 0 77.629111029113119 194.32456208569056 0 194.32456208569056 1617.0405251046905 0 0 0 0 56.734122083937109 19.038871938057127 0 19.038871938057127 164.97259604450664 0 0 0 0 43.040842180460459 -7.4847524660290219 0 -7.4847524660290219 -625.06703794059285 0 0 0 0 -48.41021186519356 -51.303237262036419 0 -51.303237262036419 -538.24933435613639 0 0 0 0 55.216372632712591 67.389171556365909 0 67.389171556365909 -569.77110892895143 0 0 0 0 -29.636298556652036 11.904612843733048 0 11.904612843733048 -401.54061220461153 0 0 0 0 -149.2291189422067 8.7411913780888426 0 8.7411913780888426 -387.38605824043043 0 0 0 0 13.799268294613483 11.154196404871982 0 11.154196404871982 2.1478563320959694 0 0 0 0 -12.688187576484779 118.03065925300325 0 118.03065925300325 -556.82946565783641 0 0 0 0 -72.154482743648259 105.42598057349824 0 105.42598057349824 110.55814607561479 0 0 0 0 -112.01982892544947 120.52085549096955 0 120.52085549096955 178.59630462076166 0 0 0 0 -33.381100039416197 169.4106564931717 0 169.4106564931717 182.8380801629246 0 0 0 0 -198.30868200819168 414.86861951630272 0 414.86861951630272 164.99602971761487 0 0 0 0 708.8437860320264 427.12346729746787 0 427.12346729746787 -279.03199928690447 0 0 0 0 -113.53283509028915 53.804750818679167 0 53.804750818679167 -88.728945646849752 0 0 0 0 -0.24423263998089295 -2.9510475972569026 0 -2.9510475972569026 2.5738581539772554 0 0 0 0 477.97555009606731 226.03645237137971 0 226.03645237137971 51.249184749656706 0 0 0 0 5.6316409855644451 69.956024680075643 0 69.956024680075643 71.910839308300638 0 0 0 0 123.36210079398006 80.3430936463119 0 80.3430936463119 -5.8190415034623584 0 0 0 0 -7.9479568578119784 2.7418018567608868 0 2.7418018567608868 7.4240185687044118 0 0 0 0 -31.198241169742687 73.002942943698145 0 73.002942943698145 35.764696295867907 0 0 0 0 -3.5711843683513393 10.138920617539767 0 10.138920617539767 -10.915129158979568 0 0 0 0 -677.73877040842126 -54.770407089257787 0 -54.770407089257787 96.24650086008478 0 0 0 0 -31.300213160775002 69.851121085011755 0 69.851121085011755 -8.3230771358939819 0 0 0 0 -324.06054794442389 124.827597595322 0 124.827597595322 105.53250710794237 0 0 0 0 -13.694283420632928 186.72032252564804 0 186.72032252564804 81.697776578541379 0 0 0 0 -279.51528936182513 282.20243543192919 0 282.20243543192919 104.80994384270161 0 0 0 0 -187.54441380293792 242.71551113290479 0 242.71551113290479 113.88920851272997 0 0 0 0 -226.43828204091369 348.75756101758452 0 348.75756101758452 31.523130830668379 0 0 0 0 -254.71666355418438 288.09056304281148 0 288.09056304281148 27.994124492804985 0 0 0 0 -314.90205643207082 442.8244374234082 0 442.8244374234082 -134.64188529542298 0 0 0 0 -340.01751750960466 273.94424440797593 0 273.94424440797593 26.113753035970149 0 0 0 0 36.476347488423926 241.45223276328761 0 241.45223276328761 -116.54162420939247 0 0 0 0 -126.64809347703704 294.24724207809049 0 294.24724207809049 -26.894591370393755 0 0 0 0 -116.7009283255702 320.23267100015619 0 320.23267100015619 -31.255525216867682 0 0 0 0 -159.69431626222286 283.73206004035819 0 283.73206004035819 68.419204208505107 0 0 0 0 -200.88565937743624 292.54281896245811 0 292.54281896245811 69.884730984675116 0 0 0 0 -153.15594607728053 299.22799369793211 0 299.22799369793211 64.800816071074223 0 0 0 0 -168.99284713622001 339.66334307146008 0 339.66334307146008 14.599794692083378 0 0 0 0 -153.45017273242775 226.2247935676387 0 226.2247935676387 48.47785626006953 0 0 0 0 -89.946057700813981 117.03091807835153 0 117.03091807835153 141.43680590347503 0 0 0 0 -152.3950573627917 428.26906292005151 0 428.26906292005151 -355.24864073523349 0 0 0 0 19.794392291032793 13.47774102509257 0 13.47774102509257 2.0138009587573364 0 0 0 0 -113.92397802434789 196.44503938879643 0 196.44503938879643 -108.13907676351664 0 0 0 0 50.674211750821996 -111.84003137771651 0 -111.84003137771651 -726.24165173340589 0 0 0 0 103.30897628035018 202.79767229413119 0 202.79767229413119 -327.45948418164335 0 0 0 0 17.319944069091434 191.38983741285483 0 191.38983741285483 -242.1032657908363 0 0 0 0 -66.048877233505664 62.827604212503502 0 62.827604212503502 -223.02961515619245 0 0 0 0 247.96192265884019 90.237530649814289 0 90.237530649814289 -220.75707352502832 0 0 0 0 26.537002129491157 -48.441188518532726 0 -48.441188518532726 -22.17002039635554 0 0 0 0 502.05832962288696 209.75920457487518 0 209.75920457487518 -242.10238976887194 0 0 0 0 182.92794775917355 134.15189165557604 0 134.15189165557604 -130.40528215306404 0 0 0 0 952.9247751820003 60.130180165819183 0 60.130180165819183 -125.28266129126132 0 0 0 0 724.02395559335218 161.88749287778046 0 161.88749287778046 -0.15002795244799927 0 0 0 0 59.690363018900825 11.234128169384348 0 11.234128169384348 0.29717742015782278 0 0 0 0 479.74490286108085 332.2413554515806 0 332.2413554515806 205.46091436631104 0 0 0 0 76.661186902802001 -35.91078988135996 0 -35.91078988135996 154.68030108931998 0 0 0 0 38.548274484470312 32.238837464072276 0 32.238837464072276 38.61353530260385 0 0 0 0 7.3128999822486378 0.76118917854915935 0 0.76118917854915935 -0.66099216506165703 0 0 0 0 -8.2784590207666042 34.287167656293605 0 34.287167656293605 43.457683846761938 0 0 0 0 -6.5338449058981496 4.3525659024526249 0 4.3525659024526249 75.334633324178867 0 0 0 0 -17.244705765537219 29.261086592188803 0 29.261086592188803 48.733180364535656 0 0 0 0 -25.147455410326074 -13.521462749617058 0 -13.521462749617058 17.716261119901901 0 0 0 0 18.141901881255365 -2.0398782063332703 0 -2.0398782063332703 -0.0049953102548556672 0 0 0 0 -8.206566178239882 36.036696176597616 0 36.036696176597616 95.487487690486887 0 0 0 0 37.866521693176765 10.684572747370112 0 10.684572747370112 14.54660719264939 0 0 0 0 9.7403466786381614 -19.639200087847712 0 -19.639200087847712 55.870703388063703 0 0 0 0 21.041130214845907 -5.1604159968410386 0 -5.1604159968410386 -0.083527910530392546 0 0 0 0 35.325558687909506 3.540484662851668 0 3.540484662851668 52.606075151095865 0 0 0 0 12.211725811557699 -24.899056593625573 0 -24.899056593625573 34.028984055999899 0 0 0 0 -16.208899540521088 3.0974074700498022 0 3.0974074700498022 55.493333138547314 0 0 0 0 -10.16007309807901 1.4458376625698293 0 1.4458376625698293 7.4644338569050888 0 0 0 0 -22.043065966819995 -13.608707841648538 0 -13.608707841648538 38.657011374860303 0 0 0 0 -28.368525885611234 -21.956463477556099 0 -21.956463477556099 34.690616069448879 0 0 0 0 -28.383767949761022 15.461750532234873 0 15.461750532234873 -72.42109555870411 0 0 0 0 -41.247193930616049 -33.639218939715647 0 -33.639218939715647 -21.057298568193801 0 0 0 0 -21.339244335766125 -30.242857172488584 0 -30.242857172488584 -133.55816319334554 0 0 0 0 -43.616414747011731 -26.280501976187224 0 -26.280501976187224 -7.2463559413008625 0 0 0 0 -21.006829546116933 19.261205276136025 0 19.261205276136025 -42.335583586624125 0 0 0 0 20.963043552190356 11.879491423940635 0 11.879491423940635 -180.25135278026573 0 0 0 0 -67.544059951862437 -1.7537291892367648 0 -1.7537291892367648 -47.976121502899332 0 0 0 0 2.2466083981926204 7.0162797777011292 0 7.0162797777011292 -297.82426410427433 0 0 0 0 57.544526153680636 18.819251548979082 0 18.819251548979082 -518.97357117750653 0 0 0 0 14.83029668663039 -52.586929282089841 0 -52.586929282089841 -385.85776150631136 0 0 0 0 -61.52670714155829 30.58697189380473 0 30.58697189380473 -181.7712034483684 0 0 0 0 -103.67566673885449 73.680123024052591 0 73.680123024052591 -309.8945910751936 0 0 0 0 -36.10654370130942 17.791872808491462 0 17.791872808491462 -387.7567767107812 0 0 0 0 -74.673659805514035 19.73584857134847 0 19.73584857134847 -257.34091367016663 0 0 0 0 -2.3527023548376746 24.374935142346658 0 24.374935142346658 -398.29408290289575 0 0 0 0 -15.164837372769398 17.03242895884614 0 17.03242895884614 -259.92486077349167 0 0 0 0 -33.060834101208457 -28.609870828793646 0 -28.609870828793646 -191.40934657811886 0 0 0 0 -85.112065456283744 19.950832137255929 0 19.950832137255929 -144.85089647543282 0 0 0 0 -5.5958667429949855 -9.6461254939204082 0 -9.6461254939204082 -69.436797556525562 0 0 0 0 67.302214619558072 23.24221524001041 0 23.24221524001041 -186.11175385650131 0 0 0 0 -6.2192224528698716 25.435100195449195 0 25.435100195449195 -115.90915357432095 0 0 0 0 27.038989998298348 60.753149181473418 0 60.753149181473418 -280.3180182732176 0 0 0 0 -12.387459336085158 7.5077639191622438 0 7.5077639191622438 -331.81442703088396 0 0 0 0 10.045018440977401 11.43313725103144 0 11.43313725103144 -183.61195924505591 0 0 0 0 103.93817669357668 87.242252573560108 0 87.242252573560108 -134.55614812225394 0 0 0 0 81.462437153793871 85.253628739104897 0 85.253628739104897 -12.738089337754218 0 0 0 0 66.96433486189926 -12.356482725692331 0 -12.356482725692331 -6.449338377424283 0 0 0 0 11.458001278575253 18.328955928190879 0 18.328955928190879 7.1775367825908347 0 0 0 0 162.88078178706201 -65.910412865356193 0 -65.910412865356193 -72.066839831015386 0 0 0 0 106.45519424200393 4.5424477097622002 0 4.5424477097622002 -24.094482025378966 0 0 0 0 26.790424527913274 -52.549296337194392 0 -52.549296337194392 -64.192149105294448 0 0 0 0 19.495877946559631 -15.413855192135088 0 -15.413855192135088 -109.07695142488592 0 0 0 0 37.873409444452591 -52.887338113463557 0 -52.887338113463557 44.903305911095231 0 0 0 0 20.806897228816524 -24.244009403613745 0 -24.244009403613745 -20.360016328180791 0 0 0 0 14.980972364888657 -23.167297656238588 0 -23.167297656238588 48.938532665852108 0 0 0 0 15.47354839820764 -14.699276332714362 0 -14.699276332714362 51.274509379290976 0 0 0 0 27.644032384895013 -5.6355622229635287 0 -5.6355622229635287 -0.27135327412966603 0 0 0 0 37.005408955490566 -18.253645880249678 0 -18.253645880249678 53.96489306246076 0 0 0 0 71.985038132288537 -43.523219652786793 0 -43.523219652786793 36.657947739819065 0 0 0 0 -114.67201887055853 99.659115758207918 0 99.659115758207918 -0.13007008183922153 0 0 0 0 -178.56216192332067 102.18711160068051 0 102.18711160068051 37.723774311918532 0 0 0 0 9.9670643442162756 14.024943286958802 0 14.024943286958802 -1.7397697557358924 0 0 0 0 -120.67486142800772 17.264234350257539 0 17.264234350257539 4.7144729256251594 0 0 0 0 15.941764069284545 58.426471665770805 0 58.426471665770805 -24.214651229063747 0 0 0 0 32.772648667811154 115.42558690216174 0 115.42558690216174 0.15208342359983362 0 0 0 0 12.650336381819216 115.22840761206317 0 115.22840761206317 -16.31506207090024 0 0 0 0 236.72384304111029 18.536870846171041 0 18.536870846171041 -21.017977493320359 0 0 0 0 -1.9504693751880051 5.6232299051209225 0 5.6232299051209225 -11.664345715194827 0 0 0 0 155.75022334782261 40.557162738288753 0 40.557162738288753 -32.273226847217302 0 0 0 0 -91.590582364886359 113.36235127741566 0 113.36235127741566 -11.748260717402445 0 0 0 0 -11.490878297252493 27.819162844367384 0 27.819162844367384 -2.9477562566462439 0 0 0 0 3.6638219133674284 59.190965447342023 0 59.190965447342023 -16.396965714404359 0 0 0 0 -47.094612555974891 86.065390922696679 0 86.065390922696679 -6.1265858176047914 0 0 0 0 12.866633021626662 24.303589349541994 0 24.303589349541994 15.086648987251124 0 0 0 0 -5.7815923352536629 85.412460328239831 0 85.412460328239831 -44.000709676314727 0 0 0 0 -4.7758635169135495 14.439131936677143 0 14.439131936677143 -22.364219141166359 0 0 0 0 46.545484013462556 67.788783646478805 0 67.788783646478805 -33.387896535481559 0 0 0 0 13.061778613046044 74.564755880579469 0 74.564755880579469 -7.5244054916001915 0 0 0 0 1.402664909066146 -0.17241733614628174 0 -0.17241733614628174 -3.8403869188968542 0 0 0 0 68.011494262876113 -52.551885085020331 0 -52.551885085020331 2.9189782436933456 0 0 0 0 -280.33957301184654 659.10232393363731 0 659.10232393363731 -687.51339825399918 0 0 0 0 64.029079587538035 41.441184280905873 0 41.441184280905873 7.3850543312291848 0 0 0 0 67.479590626308891 42.830500873904384 0 42.830500873904384 0.087906085074791918 0 0 0 0 12.635211457962118 14.33228350920399 0 14.33228350920399 2.5930941827472935 0 0 0 0 61.41365584014693 18.900303777103545 0 18.900303777103545 -159.27961584905279 0 0 0 0 -16.385007140275547 -39.024800090621284 0 -39.024800090621284 -41.638062467391137 0 0 0 0 -21.009240310516361 25.475915611663368 0 25.475915611663368 -7.1453905579110142 0 0 0 0 -148.27621709868117 297.08928756450769 0 297.08928756450769 -515.33821122071458 0 0 0 0 36.474880772809001 -15.273326610255026 0 -15.273326610255026 -72.356456779903965 0 0 0 0 3.311219872034612 -3.7470155413143686 0 -3.7470155413143686 -12.170142595448425 0 0 0 0 -133.21034525061447 160.21176144221999 0 160.21176144221999 -385.59777035083971 0 0 0 0 81.940793860057056 115.56187006449909 0 115.56187006449909 -480.37390135845635 0 0 0 0 -50.424040939630231 139.12514382215159 0 139.12514382215159 -474.34163410973997 0 0 0 0 90.795085747943631 102.50934547747602 0 102.50934547747602 -620.61354342549748 0 0 0 0 -42.61217896875587 193.55087207524048 0 193.55087207524048 -540.96897904427897 0 0 0 0 -8.6586751981155885 212.93273672802025 0 212.93273672802025 -580.20286369649693 0 0 0 0 80.666434657737767 678.84972527438003 0 678.84972527438003 -181.58364000193251 0 0 0 0 573.07872870190522 376.89302132744342 0 376.89302132744342 -834.29989929449948 0 0 0 0 62.712902221966488 162.7397443925729 0 162.7397443925729 -738.53172557713697 0 0 0 0 96.418309271174621 96.795049354615912 0 96.795049354615912 -619.11283414944774 0 0 0 0 321.48868619765699 -32.149083125812467 0 -32.149083125812467 -1491.8280585605389 0 0 0 0 -238.43618884147463 297.02313276176574 0 297.02313276176574 110.31720111030154 0 0 0 0 26.10243902903801 718.04892941409162 0 718.04892941409162 -273.98598728362413 0 0 0 0 -43.938397826859841 359.51311623993388 0 359.51311623993388 -600.44680416904521 0 0 0 0 592.65652066380062 40.24228991286509 0 40.24228991286509 1.6673050463141408 0 0 0 0 -0.45241441894796708 0.80959487979259848 0 0.80959487979259848 0.46929031405176147 0 0 0 0 -777.96624914842118 773.71494294945296 0 773.71494294945296 -253.18931060339673 0 0 0 0 205.03887704582667 483.2444463225911 0 483.2444463225911 -5.3669920326065039 0 0 0 0 48.712523347543538 472.01964086428052 0 472.01964086428052 73.120869388891151 0 0 0 0 201.37268957257828 383.00829321062338 0 383.00829321062338 12.787441995489644 0 0 0 0 248.50399829864546 411.53552236741234 0 411.53552236741234 29.459132493662764 0 0 0 0 233.51435178942938 384.3455217938681 0 384.3455217938681 105.1209734834556 0 0 0 0 312.95203752617545 425.75786649758811 0 425.75786649758811 5.5481152025568008 0 0 0 0 137.69416474113495 252.56336323085998 0 252.56336323085998 -59.093314820202067 0 0 0 0 35.883918280771468 240.77592553115392 0 240.77592553115392 6.7339397249161266 0 0 0 0 40.6674177135028 275.97211582657474 0 275.97211582657474 1.1679536132724024 0 0 0 0 148.40771322596629 329.12037024427991 0 329.12037024427991 27.994041850950452 0 0 0 0 209.92288548801662 361.23186228563281 0 361.23186228563281 52.287701273868151 0 0 0 0 217.43998206395509 312.67594032110537 0 312.67594032110537 -14.07648277367116 0 0 0 0 37.61870926989468 173.48217503336491 0 173.48217503336491 84.820246736548143 0 0 0 0 260.82482391739904 273.30882420959097 0 273.30882420959097 -18.657972520020849 0 0 0 0 -194.74419707818333 234.33063288348421 0 234.33063288348421 99.72774001727521 0 0 0 0 403.78995008499805 142.98828676147241 0 142.98828676147241 -110.33855516547192 0 0 0 0 348.55426863522007 371.49194467096822 0 371.49194467096822 33.598071483596868 0 0 0 0 536.87510511831897 685.44933780180145 0 685.44933780180145 338.36160766582907 0 0 0 0 5.4133849886997822 6.2645921895050378 0 6.2645921895050378 0.67965636324360901 0 0 0 0 834.08142118435171 687.47935125504591 0 687.47935125504591 -1595.5756506969192 0 0 0 0 949.21781127213762 647.25305168108025 0 647.25305168108025 -1791.3678933597512 0 0 0 0 62.907655869666996 445.33616592703038 0 445.33616592703038 948.92297453297215 0 0 0 0 -467.81656006572302 -46.257283001439646 0 -46.257283001439646 -138.65778958641749 0 0 0 0 202.10820778469974 294.41710903735657 0 294.41710903735657 196.42937839453225 0 0 0 0 224.91936161980266 124.35171037029068 0 124.35171037029068 2.7813772490771953 0 0 0 0 261.31263633128447 531.99867002017891 0 531.99867002017891 371.5505875616218 0 0 0 0 161.91281421825261 368.24635777811636 0 368.24635777811636 101.79018256354902 0 0 0 0 5.0674285507011518 168.80860164815385 0 168.80860164815385 350.6635397848313 0 0 0 0 52.458851600800699 73.104960882163141 0 73.104960882163141 39.671411885152338 0 0 0 0 142.86381607232761 129.18268870184693 0 129.18268870184693 -68.307942972693127 0 0 0 0 12.210609018312738 12.441739035479486 0 12.441739035479486 1.8753061183755548 0 0 0 0 69.884208928227963 132.45060093128996 0 132.45060093128996 -992.35124993680256 0 0 0 0 -36.044320075885025 81.298302782805877 0 81.298302782805877 26.637682760279858 0 0 0 0 11.137901561136744 11.013081028932845 0 11.013081028932845 1.2090947097701985 0 0 0 0 -21.04815827112543 278.28552192590723 0 278.28552192590723 -562.73493497031814 0 0 0 0 -545.96089115611903 -37.338569717132486 0 -37.338569717132486 -737.72859064298973 0 0 0 0 -869.39235170922257 -284.31898530127364 0 -284.31898530127364 956.06823811645154 0 0 0 0 -221.48395441004686 286.73238797485101 0 286.73238797485101 -325.47732673627615 0 0 0 0 -86.364594843311352 243.41792969088419 0 243.41792969088419 -315.84148273077153 0 0 0 0 -143.14710637998724 304.57560312484566 0 304.57560312484566 -91.904932022211142 0 0 0 0 -44.805618847432925 122.02569232122914 0 122.02569232122914 -363.9687565487402 0 0 0 0 -60.59184175714563 153.84580140052094 0 153.84580140052094 -29.981430343555985 0 0 0 0 -134.01589946168588 309.32933499238425 0 309.32933499238425 -95.043060841970146 0 0 0 0 582.95105472458818 1011.0201754833179 0 1011.0201754833179 1728.827732331687 0 0 0 0 596.67007523981738 933.17574608472933 0 933.17574608472933 36.743007408396807 0 0 0 0 414.69958968022547 488.2822181207157 0 488.2822181207157 -238.51189790562785 0 0 0 0 -936.80251643351949 -38.133005332172615 0 -38.133005332172615 1320.3746808978904 0 0 0 0 569.79949959591431 684.89202712171118 0 684.89202712171118 -681.32387187995482 0 0 0 0 412.25798834895249 247.48169670331117 0 247.48169670331117 -702.56372451024527 0 0 0 0 879.1047699940973 1258.551055369695 0 1258.551055369695 1693.1123994302397 0 0 0 0 6.7642178967622471 7.6193509696387309 0 7.6193509696387309 1.5972602376561653 0 0 0 0 480.50411935561715 328.67580969912524 0 328.67580969912524 -1187.2539613815024 0 0 0 0 10.710235335483624 8.5694589784281447 0 8.5694589784281447 1.6483492193660751 0 0 0 0 -151.4859480162645 -35.87109145532213 0 -35.87109145532213 -703.8547179219895 0 0 0 0 153.06347309712146 295.86091871540702 0 295.86091871540702 -424.23919640830718 0 0 0 0 -5.0618033452992677 160.65745186260028 0 160.65745186260028 -321.36253667972051 0 0 0 0 236.2651196432198 264.79716948967689 0 264.79716948967689 -356.9887425514753 0 0 0 0 75.573760393810517 290.07782114204747 0 290.07782114204747 -113.6469008459535 0 0 0 0 137.9563055877752 267.7416580973877 0 267.7416580973877 -347.92349533952074 0 0 0 0 280.42311292381964 372.21830260226488 0 372.21830260226488 -96.009296125645051 0 0 0 0 514.23430948764508 405.30919302545954 0 405.30919302545954 -393.08334549615392 0 0 0 0 560.976081779183 475.15682610500517 0 475.15682610500517 -357.86654054059181 0 0 0 0 280.49823943565934 431.48590872438217 0 431.48590872438217 253.58484371450322 0 0 0 0 226.28472860788315 233.86755526192428 0 233.86755526192428 -87.206190207562031 0 0 0 0 -24.455280695827241 269.92286382757447 0 269.92286382757447 71.009835700882832 0 0 0 0 201.4210335922071 304.18128277500546 0 304.18128277500546 -112.89195354835829 0 0 0 0 17.405660143325804 295.38480304078257 0 295.38480304078257 0.24785567713843193 0 0 0 0 240.53803574551807 192.24433300735564 0 192.24433300735564 15.332922419853276 0 0 0 0 249.75268243856772 28.511792160730693 0 28.511792160730693 259.94812272707566 0 0 0 0 -64.515927612145958 348.8297981602127 0 348.8297981602127 23.646403615566669 0 0 0 0 -65.353254131614449 272.93126466724061 0 272.93126466724061 -78.207940867112484 0 0 0 0 -123.71018568780528 324.4670535768746 0 324.4670535768746 36.605304360527953 0 0 0 0 -11.73723069506741 259.64525712149771 0 259.64525712149771 -84.854641796840951 0 0 0 0 -9.022521784008859 291.60638649507018 0 291.60638649507018 43.723448691605881 0 0 0 0 -35.937383638092797 326.12950844761872 0 326.12950844761872 0.03786996169219492 0 0 0 0 75.20195074505682 416.57406884920056 0 416.57406884920056 57.553701814525994 0 0 0 0 268.75224363246889 449.85611631502979 0 449.85611631502979 49.614587279695115 0 0 0 0 126.98841069324294 361.47403496194238 0 361.47403496194238 0.059402979532023892 0 0 0 0 70.328744180637386 345.64057757860064 0 345.64057757860064 174.97692751721479 0 0 0 0 66.088697070676062 367.01680708710774 0 367.01680708710774 67.9758182328369 0 0 0 0 -14.727290021479348 311.78123310177762 0 311.78123310177762 49.902901084298719 0 0 0 0 -12.767426153437555 235.97930157241353 0 235.97930157241353 -88.834670274780365 0 0 0 0 -18.634771512936823 249.91982478187674 0 249.91982478187674 152.85071205315762 0 0 0 0 217.47974545729176 465.38567580352537 0 465.38567580352537 272.41916339315503 0 0 0 0 25.711003746584083 129.56401028952041 0 129.56401028952041 370.86941735025903 0 0 0 0 33.877458877128447 114.27503924340272 0 114.27503924340272 11.974099398961698 0 0 0 0 12.127337120174161 78.744637093968777 0 78.744637093968777 -893.82993111746327 0 0 0 0 -46.35565704003784 151.44334989081835 0 151.44334989081835 -861.08854930277448 0 0 0 0 -39.460849909748958 194.50114880993351 0 194.50114880993351 -790.818812227546 0 0 0 0 5.9660846654768349 9.786373059902985 0 9.786373059902985 1.2100799780207083 0 0 0 0 13.697563696558063 177.42793940249976 0 177.42793940249976 -59.703368424234213 0 0 0 0 12.053357388744644 -2.6489741842306103 0 -2.6489741842306103 665.20150248482241 0 0 0 0 54.183162581437543 745.62749172915983 0 745.62749172915983 369.94107864334364 0 0 0 0 -56.000561342233141 233.56638443942938 0 233.56638443942938 -253.78482803495717 0 0 0 0 5.421729702011425 0.33132542621311245 0 0.33132542621311245 -6.9210548932276197 0 0 0 0 -215.54465620910287 406.55934931700176 0 406.55934931700176 -398.36331359791802 0 0 0 0 6.7331961228283035 173.21996847528499 0 173.21996847528499 -767.67593736673007 0 0 0 0 164.72655698804965 190.18693523458933 0 190.18693523458933 -799.99804548616521 0 0 0 0 11.170900518590573 16.163341876552124 0 16.163341876552124 1.8554565858158298 0 0 0 0 1.7679441587120905 5.6618169600054671 0 5.6618169600054671 0.93036000780172401 0 0 0 0 91.077991288300836 257.84282758936752 0 257.84282758936752 -1032.8151887383065 0 0 0 0 31.725566123621405 391.82338857969853 0 391.82338857969853 -715.42198116210056 0 0 0 0 275.92471370494854 552.98170027961896 0 552.98170027961896 353.25848748230055 0 0 0 0 17.637668680111346 353.77931156908744 0 353.77931156908744 817.83625577593557 0 0 0 0 236.9331322046703 484.42027397843049 0 484.42027397843049 401.0965348429072 0 0 0 0 200.35260047647193 572.45689665108148 0 572.45689665108148 252.97413578559645 0 0 0 0 271.38317195128093 468.84319119627253 0 468.84319119627253 153.46250952792798 0 0 0 0 253.78979609638918 377.21923729819537 0 377.21923729819537 190.44798458070727 0 0 0 0 327.97498403754662 440.09342973011371 0 440.09342973011371 0.030463740084087476 0 0 0 0 334.35919933162268 410.45981300725543 0 410.45981300725543 -27.760028116259491 0 0 0 0 174.86736056357859 465.17561942066823 0 465.17561942066823 -0.098672265514323954 0 0 0 0 143.05995254937352 426.8695238799919 0 426.8695238799919 75.144175305773388 0 0 0 0 317.30972283525966 462.20099667385512 0 462.20099667385512 109.74792181697558 0 0 0 0 -188.62685946490365 467.16472163636354 0 467.16472163636354 0.0782128356731846 0 0 0 0 4.3913924391436012 311.80764731391355 0 311.80764731391355 2.9926018026308157 0 0 0 0 175.21983346075194 394.53166552040784 0 394.53166552040784 -93.335809875665291 0 0 0 0 -70.118693452523985 513.26183225600107 0 513.26183225600107 -947.46138957035146 0 0 0 0 3.7934806176340317 454.83964672709772 0 454.83964672709772 251.92900605729665 0 0 0 0 -136.22366035770983 636.84979177453715 0 636.84979177453715 41.868992608651752 0 0 0 0 -124.30337412237714 403.15950071559564 0 403.15950071559564 1632.4483888110699 0 0 0 0 -0.50964356605126682 5.7311080082500041 0 5.7311080082500041 0.42892037353888401 0 0 0 0 377.37242784546288 582.72136879531899 0 582.72136879531899 121.26118544795008 0 0 0 0 321.18500722054819 526.75057316178209 0 526.75057316178209 167.90892485689255 0 0 0 0 456.92594210867264 464.76995720512059 0 464.76995720512059 21.272695794141327 0 0 0 0 348.65943250408554 352.96664385433542 0 352.96664385433542 262.89704360799078 0 0 0 0 34.315571402041314 641.85894706905674 0 641.85894706905674 303.16612906491719 0 0 0 0 6.6608129130684821 4.7597023252248505 0 4.7597023252248505 -2.6086784607420483 0 0 0 0 170.39197924353448 103.34539237787249 0 103.34539237787249 -431.71887522147154 0 0 0 0 390.57831999837799 798.65603489501518 0 798.65603489501518 474.18384689390223 0 0 0 0 634.48006676913565 671.62616777649964 0 671.62616777649964 126.82820556852494 0 0 0 0 118.59878656544902 645.07622471195828 0 645.07622471195828 699.17903743621719 0 0 0 0 443.1107883898203 206.60913696856733 0 206.60913696856733 -518.51041549874935 0 0 0 0 153.1317721895964 250.9667197186136 0 250.9667197186136 -383.70648937344959 0 0 0 0 110.91184773329405 23.944820504715608 0 23.944820504715608 -611.95311122640851 0 0 0 0 63.938576384335647 89.747045852956944 0 89.747045852956944 -404.72642370825997 0 0 0 0 61.634803635294702 262.49574625609966 0 262.49574625609966 -315.1867494880571 0 0 0 0 60.643841211769541 273.88570153633918 0 273.88570153633918 -325.47832233909867 0 0 0 0 426.41218474283789 693.02370535405578 0 693.02370535405578 -6.277521172320121 0 0 0 0 59.585107951456848 633.41084643447903 0 633.41084643447903 227.37934672270785 0 0 0 0 128.21376441159373 85.020187973634165 0 85.020187973634165 -195.65184370178758 0 0 0 0 3.1688504099556667 482.66428400928999 0 482.66428400928999 296.62142063914507 0 0 0 0 95.784833579354313 314.55629993855564 0 314.55629993855564 -465.4180000785127 0 0 0 0 169.19318152157848 24.335414204037079 0 24.335414204037079 -917.44609178027895 0 0 0 0 9.1932458607859857 11.952577132132461 0 11.952577132132461 -3.3374228984281729 0 0 0 0 -90.794020026286489 10.175076584317139 0 10.175076584317139 -562.99501329123086 0 0 0 0 124.74091172989074 -52.79955817319933 0 -52.79955817319933 -1240.8160905086552 0 0 0 0 12.494581976627465 9.4099901405701587 0 9.4099901405701587 -2.8591445101760513 0 0 0 0 259.27046432064344 659.65134061766003 0 659.65134061766003 920.80233459924057 0 0 0 0 6.080168168690177 4.7649703444246256 0 4.7649703444246256 -1.3059293114610995 0 0 0 0 145.62315544514831 113.56416825186898 0 113.56416825186898 -740.54321860864002 0 0 0 0 -101.21184164275428 -112.06862200055184 0 -112.06862200055184 -818.29768980333756 0 0 0 0 -31.259148674572316 189.4662945797827 0 189.4662945797827 -797.52105514738651 0 0 0 0 24.862253237675077 -6.0941649444002906 0 -6.0941649444002906 -637.66793270602648 0 0 0 0 2.7946303993853689 196.15274181408677 0 196.15274181408677 -152.80672986221907 0 0 0 0 -38.889229636828532 276.77786569560703 0 276.77786569560703 98.021087947927299 0 0 0 0 -51.864030464930693 110.40360131053603 0 110.40360131053603 -17.923984000983182 0 0 0 0 -29.049973922275967 174.09467586490064 0 174.09467586490064 -143.20431556551557 0 0 0 0 24.511577547284105 100.68697926696768 0 100.68697926696768 -298.64732206208282 0 0 0 0 -2.6800331041520167 13.754032467062018 0 13.754032467062018 -3.3147723399154785 0 0 0 0 80.529894999752287 34.238412153623358 0 34.238412153623358 -619.67235384264495 0 0 0 0 -64.948803159268209 157.78606394785857 0 157.78606394785857 -329.08118449225731 0 0 0 0 210.83269492284489 172.78401218196814 0 172.78401218196814 -342.58262033878782 0 0 0 0 -65.870045785906768 325.97847277947585 0 325.97847277947585 56.208049823355395 0 0 0 0 38.154527758653785 164.36031920131063 0 164.36031920131063 363.45188250968931 0 0 0 0 108.02961320148415 446.69292285713118 0 446.69292285713118 -2.2641193309827941 0 0 0 0 172.90480905583718 382.19187254513963 0 382.19187254513963 477.5575414358791 0 0 0 0 50.312158442866178 427.63337236229586 0 427.63337236229586 365.99953733664006 0 0 0 0 95.571168337668496 140.29711708441027 0 140.29711708441027 422.78534604539163 0 0 0 0 40.607187737685308 230.27557638353028 0 230.27557638353028 81.505125214025611 0 0 0 0 -31.888117852619871 375.94168017995435 0 375.94168017995435 229.13246365499799 0 0 0 0 -71.160452054864436 288.58075897910749 0 288.58075897910749 93.70711958980246 0 0 0 0 154.94187820332445 261.63614381819207 0 261.63614381819207 267.20329501776723 0 0 0 0 -34.124219298544631 129.70718620455591 0 129.70718620455591 190.15109901300457 0 0 0 0 4.333892317576101 16.121408138642437 0 16.121408138642437 24.037950000769342 0 0 0 0 8.8746878045680404 14.542653565394943 0 14.542653565394943 2.0600204308557761 0 0 0 0 232.49927469980685 108.60222844575765 0 108.60222844575765 30.605462314895703 0 0 0 0 3.8916869611478973 13.133101633116439 0 13.133101633116439 0.031197416446508974 0 0 0 0 -44.127762558515315 215.78650904299502 0 215.78650904299502 476.84705913194921 0 0 0 0 -66.952256113443582 78.601958243831177 0 78.601958243831177 -23.321307198508293 0 0 0 0 -1.6381386971734173 0.74447777887689881 0 0.74447777887689881 1.9524156634142855 0 0 0 0 15.452816365428589 23.742069079293287 0 23.742069079293287 -20.71173418143735 0 0 0 0 -129.516715399026 270.87850230894401 0 270.87850230894401 -392.65463244644457 0 0 0 0 -58.650113290343143 293.4306801721832 0 293.4306801721832 1057.0328088434908 0 0 0 0 0.13729605655565535 11.0958425414928 0 11.0958425414928 0.49721412787788122 0 0 0 0 -22.104365492003126 85.239198517461773 0 85.239198517461773 -76.795130634913221 0 0 0 0 -303.10880970483231 216.19845068229188 0 216.19845068229188 -39.95420132280924 0 0 0 0 -116.31502102893865 385.39368082674628 0 385.39368082674628 -144.39256011377438 0 0 0 0 -245.54553322576794 384.60527563125652 0 384.60527563125652 -55.671887866334146 0 0 0 0 -226.78333738399306 343.08444963232614 0 343.08444963232614 -79.404744715575362 0 0 0 0 -374.80454483541143 429.69779583346826 0 429.69779583346826 -0.11203113152441802 0 0 0 0 -125.23702161493566 63.994257175632811 0 63.994257175632811 17.279792479916068 0 0 0 0 19.542223609001667 30.863232875999529 0 30.863232875999529 9.1659400217904476 0 0 0 0 -0.85015803400339252 3.0373933008912957 0 3.0373933008912957 -6.2208649154705995 0 0 0 0 -111.95980288408828 88.458960657440912 0 88.458960657440912 34.977979311996023 0 0 0 0 -734.25603465066524 95.669426031294279 0 95.669426031294279 64.003251922025811 0 0 0 0 24.152038411510148 18.799220573753701 0 18.799220573753701 0.021068413681758207 0 0 0 0 1.2375224310936019 1.0986990710578084 0 1.0986990710578084 -3.9733481150529997 0 0 0 0 19.198438800738586 16.270038312457473 0 16.270038312457473 6.8712795390165411 0 0 0 0 12.188237379472412 23.419203658821061 0 23.419203658821061 -0.0069021609524497762 0 0 0 0 12.003739619121916 16.313314925058876 0 16.313314925058876 0.85469459749583621 0 0 0 0 -23.162151244165216 28.10318923433806 0 28.10318923433806 0.0021354801428969949 0 0 0 0 -11.266580790732405 13.438960383027734 0 13.438960383027734 6.9580509689403698 0 0 0 0 1488.9584656044972 185.29789582602825 0 185.29789582602825 -733.23097765825514 0 0 0 0 1.7211214573793114 2.4284036995677027 0 2.4284036995677027 6.7834807574795946 0 0 0 0 513.73711430960248 809.86708723375705 0 809.86708723375705 0.78562910189793911 0 0 0 0 630.66969781959415 584.70308964720607 0 584.70308964720607 -402.0207391949516 0 0 0 0 1.5899590360501961 1.3088526077823701 0 1.3088526077823701 -6.377297700789029 0 0 0 0 487.12384202396788 616.3544417678022 0 616.3544417678022 16.470361265732208 0 0 0 0 1163.1042658632887 399.91978635350642 0 399.91978635350642 -339.20940237920149 0 0 0 0 357.43508957691665 394.91373278539686 0 394.91373278539686 -133.06236558866658 0 0 0 0 326.62221166527161 204.63249396727042 0 204.63249396727042 336.48982429238822 0 0 0 0 268.95137685424743 396.13578511620472 0 396.13578511620472 -73.117575581069104 0 0 0 0 -266.5699397887438 377.05890531641489 0 377.05890531641489 143.14703423267929 0 0 0 0 -100.51813283406955 371.41767919240374 0 371.41767919240374 67.713477693505411 0 0 0 0 593.82900319337705 403.66746554607653 0 403.66746554607653 48.275229059290723 0 0 0 0 1213.1568311319315 344.72577159045977 0 344.72577159045977 -226.40126154634345 0 0 0 0 1.8302273308617387 2.8787174414920145 0 2.8787174414920145 -11.746823145469932 0 0 0 0 537.71996549767209 136.42865564041131 0 136.42865564041131 -359.98172519297805 0 0 0 0 77.215389509947272 288.54922916881333 0 288.54922916881333 -147.63800756871933 0 0 0 0 -1019.7017870518175 146.76178385411913 0 146.76178385411913 -68.938938393461285 0 0 0 0 -173.92849530418971 -69.588435468773241 0 -69.588435468773241 -586.46863472444238 0 0 0 0 -206.0848035175004 624.40300719686638 0 624.40300719686638 -462.82331464994058 0 0 0 0 -32.625215854939597 267.94688082710491 0 267.94688082710491 -765.85703078217921 0 0 0 0 2.6358728367571018 6.6242946865846761 0 6.6242946865846761 1.6133252842149659 0 0 0 0 -831.92834023141768 742.46256423003433 0 742.46256423003433 -419.20728470722679 0 0 0 0 -403.43002538613655 420.41862687870162 0 420.41862687870162 -181.96587927159271 0 0 0 0 17.052153257634927 15.960595761942386 0 15.960595761942386 14.195781274655019 0 0 0 0 -400.1411943872954 405.4226322020404 0 405.4226322020404 -621.0046534306864 0 0 0 0 0.14001127792674595 5.9826659021678097 0 5.9826659021678097 2.1533333770212284 0 0 0 0 -33.963550074236991 19.049918868331588 0 19.049918868331588 19.325182209030118 0 0 0 0 2.8732075066387566 14.535038417014924 0 14.535038417014924 17.37431852576276 0 0 0 0 -1.7151995034218999 30.43634817757993 0 30.43634817757993 9.7725290839989611 0 0 0 0 15.588556121882903 26.398259410190803 0 26.398259410190803 13.667013634636533 0 0 0 0 0.71696514241270393 7.7558647962179066 0 7.7558647962179066 -3.7385867259392853 0 0 0 0 -254.98361916060458 331.31778225913149 0 331.31778225913149 61.957541059615323 0 0 0 0 2.78738518083874 9.7363594584091828 0 9.7363594584091828 16.377144976155762 0 0 0 0 -881.47965800051315 85.609839189302875 0 85.609839189302875 -30.697159225062933 0 0 0 0 -292.85126944506192 123.74816607911634 0 123.74816607911634 -20.37330353273137 0 0 0 0 -308.10370256809256 412.2393551599198 0 412.2393551599198 -0.0024408493991359137 0 0 0 0 136.27770887474981 282.08071750506497 0 282.08071750506497 -158.09856928569207 0 0 0 0 -0.34640740696927175 -1.4537053711468531 0 -1.4537053711468531 -0.41943073596041813 0 0 0 0 83.957586572054424 494.16310790611897 0 494.16310790611897 -0.10190545281511731 0 0 0 0 -578.89539218517234 216.15356122915932 0 216.15356122915932 90.149989958765218 0 0 0 0 215.55981191475439 224.79017169804865 0 224.79017169804865 -29.989753123823903 0 0 0 0 305.06794133224685 450.47173365802155 0 450.47173365802155 -16.259764901614062 0 0 0 0 155.39655056075026 245.08917504734109 0 245.08917504734109 -17.847876502361032 0 0 0 0 646.18462491699756 505.68742080643278 0 505.68742080643278 -0.5881256045168155 0 0 0 0 591.09635770978457 177.76763314029813 0 177.76763314029813 161.46179307119019 0 0 0 0 282.99759409368198 290.38049403589685 0 290.38049403589685 194.39525841488648 0 0 0 0 863.62264082361435 398.01156053081831 0 398.01156053081831 16.198196510405978 0 0 0 0 287.54473268823494 305.5714802306502 0 305.5714802306502 -39.227698917355156 0 0 0 0 86.464248677046271 283.44038397159602 0 283.44038397159602 106.9080373441102 0 0 0 0 51.703761366938124 496.9113794350269 0 496.9113794350269 -49.540667849520105 0 0 0 0 -594.83826854027029 584.07066657999712 0 584.07066657999712 -60.543947179656243 0 0 0 0 -638.05132718499999 341.05495506024818 0 341.05495506024818 -154.45136605890002 0 0 0 0 -0.35617557445428982 -0.81186791029337257 0 -0.81186791029337257 -0.38128859106194568 0 0 0 0 -646.63407481796457 414.79662231310795 0 414.79662231310795 242.46201598354673 0 0 0 0 -411.06272959595299 324.51181451670345 0 324.51181451670345 70.242382573909708 0 0 0 0 -42.494011553124437 398.50315443189174 0 398.50315443189174 -50.252987888055941 0 0 0 0 -612.9702496739701 493.27139661752881 0 493.27139661752881 218.14800294672023 0 0 0 0 261.10160438468665 301.63192368418095 0 301.63192368418095 -52.1816059750563 0 0 0 0 334.8310710256701 93.875093565351563 0 93.875093565351563 10.473172938785865 0 0 0 0 1.2954081331317866 503.44912507163281 0 503.44912507163281 32.532543294451898 0 0 0 0 515.29619060864206 483.16697755727364 0 483.16697755727364 -25.50268067097204 0 0 0 0 1.8329908382794429 0.40954571420731156 0 0.40954571420731156 -6.2091690794355827 0 0 0 0 587.31005940488467 933.7786459659219 0 933.7786459659219 1060.1694024392928 0 0 0 0 409.7536811994014 493.96333709334067 0 493.96333709334067 312.57441253834986 0 0 0 0 265.82963334083433 42.818420735184191 0 42.818420735184191 959.55433217994869 0 0 0 0 153.35115650518128 459.16382888922817 0 459.16382888922817 362.72627672940143 0 0 0 0 140.83535959964865 496.66095067996503 0 496.66095067996503 252.75838838968775 0 0 0 0 0.6877442381446599 461.84011643430858 0 461.84011643430858 532.25315601621696 0 0 0 0 -126.93485623078595 269.77155427578327 0 269.77155427578327 369.55192412321048 0 0 0 0 -282.87007566778266 487.29204196792125 0 487.29204196792125 175.84850678923249 0 0 0 0 -457.65432968855021 274.84392883136024 0 274.84392883136024 395.00092784351727 0 0 0 0 -559.54355030827719 496.54808806440087 0 496.54808806440087 291.09210153471213 0 0 0 0 -722.33075301420831 323.79317185511172 0 323.79317185511172 416.94652691108058 0 0 0 0 -118.0955628866941 314.16962722043536 0 314.16962722043536 417.96938287584635 0 0 0 0 -323.97074901400629 329.83886038498895 0 329.83886038498895 253.55368177088485 0 0 0 0 -179.32386242525536 214.0646346231224 0 214.0646346231224 257.76699019758689 0 0 0 0 -135.78262500474011 376.1835733614862 0 376.1835733614862 174.99518512573923 0 0 0 0 205.7714960327894 117.44668641245153 0 117.44668641245153 49.894688535146997 0 0 0 0 -489.81856726005935 403.75099974079058 0 403.75099974079058 -8.6345846672775224 0 0 0 0 -0.24752909952675139 -0.021187750700399022 0 -0.021187750700399022 1.3209448108675588 0 0 0 0 -402.75363114946231 520.25035257718264 0 520.25035257718264 105.78645326246624 0 0 0 0 -357.22670216664119 254.16737275126798 0 254.16737275126798 105.81704762740992 0 0 0 0 -590.72630996030784 470.73293415553053 0 470.73293415553053 -25.412301808231859 0 0 0 0 -146.57508229645828 86.860572680492623 0 86.860572680492623 122.4750537420623 0 0 0 0 -226.90742842807231 243.27488974466542 0 243.27488974466542 71.817670357006136 0 0 0 0 -371.75910370857309 89.199636518358602 0 89.199636518358602 -65.397303181704046 0 0 0 0 506.76741681072235 292.9188024624309 0 292.9188024624309 -39.6104637033568 0 0 0 0 89.730888171754486 -11.810439113964094 0 -11.810439113964094 -122.81197849810724 0 0 0 0 680.64556368541525 5.5696758880076231 0 5.5696758880076231 23.176450391906656 0 0 0 0 955.13918382260999 136.42838039988783 0 136.42838039988783 -174.47421376884449 0 0 0 0 1342.5554335942361 338.61582928158168 0 338.61582928158168 -277.60738217172548 0 0 0 0 37.645176099074888 262.36144980952304 0 262.36144980952304 233.54461764411826 0 0 0 0 145.7917393733369 203.95564710869803 0 203.95564710869803 228.02115899530872 0 0 0 0 -4.3652051316785219 -54.531416450297911 0 -54.531416450297911 333.99068617753801 0 0 0 0 553.93600338778197 777.69233542109214 0 777.69233542109214 795.9014309286722 0 0 0 0 -128.90356027158123 -97.817211904271971 0 -97.817211904271971 941.77950472781413 0 0 0 0 1.0783101203007774 3.0885676334545877 0 3.0885676334545877 10.413152128263505 0 0 0 0 1524.6012827799714 596.06198636630143 0 596.06198636630143 73.173273909356794 0 0 0 0 194.12940100902051 176.3944280449432 0 176.3944280449432 104.37898369429149 0 0 0 0 -3.775068810682896 16.740998990503364 0 16.740998990503364 21.204341513105419 0 0 0 0 38.213005125908239 52.258282004142529 0 52.258282004142529 130.1427666600357 0 0 0 0 -78.340605708624935 59.071235128169064 0 59.071235128169064 134.16590100478061 0 0 0 0 -52.486991909379867 75.698878651186533 0 75.698878651186533 89.972080960011226 0 0 0 0 -95.107217586391926 55.848700417103828 0 55.848700417103828 235.15330197552976 0 0 0 0 -133.68056937951042 56.471894743677694 0 56.471894743677694 526.27175962933688 0 0 0 0 -165.17467812330142 183.72548928633478 0 183.72548928633478 184.64959711706615 0 0 0 0 -238.26879771037784 271.25658595292771 0 271.25658595292771 298.58687183655275 0 0 0 0 -80.574951324953872 90.72823713926482 0 90.72823713926482 0.094281316502019763 0 0 0 0 -43.577496792592086 16.133274031256235 0 16.133274031256235 -3.3119091437739812 0 0 0 0 -25.573288249997859 -74.085519733474939 0 -74.085519733474939 11.502836301744537 0 0 0 0 -176.9928834160346 -61.915857225851141 0 -61.915857225851141 77.316742437149514 0 0 0 0 -102.42622751430372 38.157686583806935 0 38.157686583806935 10.471781948785065 0 0 0 0 -64.245818277727125 27.374214809194171 0 27.374214809194171 3.4119486945462825 0 0 0 0 -176.51383345978138 86.950017462753749 0 86.950017462753749 60.58251984470462 0 0 0 0 -0.74234421682194807 21.982034235705214 0 21.982034235705214 6.2792888249387033 0 0 0 0 18.224482737856164 12.038231706650976 0 12.038231706650976 1.6503114733688449 0 0 0 0 10.492203471949324 101.00264734680968 0 101.00264734680968 -67.694525585884548 0 0 0 0 199.52570623545762 170.97370661639798 0 170.97370661639798 107.4900486930419 0 0 0 0 47.403425756263459 114.86735488411796 0 114.86735488411796 -103.3582922325877 0 0 0 0 -38.551694890326871 193.20739732202492 0 193.20739732202492 -134.41256203468947 0 0 0 0 47.684428976693454 57.948790085045651 0 57.948790085045651 6.8307779165738225 0 0 0 0 -21.687805584369926 115.20934876557294 0 115.20934876557294 -26.784192762861494 0 0 0 0 34.119430033308163 75.838300542662182 0 75.838300542662182 -65.875613313954091 0 0 0 0 -62.584529244762962 163.53745310938757 0 163.53745310938757 -37.507265292369993 0 0 0 0 -104.38264804504433 215.89747143102431 0 215.89747143102431 -89.240878578646516 0 0 0 0 -21.425092653447791 279.19206805909562 0 279.19206805909562 -248.62336811570276 0 0 0 0 -164.65091850692261 424.36709837980743 0 424.36709837980743 -106.11732940956426 0 0 0 0 -193.5211488535715 224.39627924056549 0 224.39627924056549 -42.863110408375178 0 0 0 0 -245.81347972552066 44.22573424613438 0 44.22573424613438 2.3491487938590581 0 0 0 0 54.892121978493492 61.262353826917455 0 61.262353826917455 16.030885155058115 0 0 0 0 -424.12663208108006 150.58764471493851 0 150.58764471493851 56.572982693978702 0 0 0 0 -667.71226380683584 1078.9947133812384 0 1078.9947133812384 -636.83306657880894 0 0 0 0 -436.10552442332755 530.68013846131294 0 530.68013846131294 -772.32414809003239 0 0 0 0 -1096.2400186720515 110.87130106966652 0 110.87130106966652 14.145734649551741 0 0 0 0 -97.085531736092889 548.04295534015364 0 548.04295534015364 57.766903144438402 0 0 0 0 47.280199564382201 665.75286591189069 0 665.75286591189069 -396.20203750440851 0 0 0 0 -436.89960720996169 525.66751210688381 0 525.66751210688381 149.06341557755513 0 0 0 0 120.98623824264359 868.97121688869811 0 868.97121688869811 144.82804508556728 0 0 0 0 877.72680439437681 583.71183374771499 0 583.71183374771499 209.13826746877021 0 0 0 0 3.9579001249530847 294.55053932350711 0 294.55053932350711 506.05559338087915 0 0 0 0 112.07546905121853 22.061269894293218 0 22.061269894293218 -246.40724032908838 0 0 0 0 5.5398493023917013 -2.3456597466243352 0 -2.3456597466243352 0.65048330533088006 0 0 0 0 595.21797808261181 723.44946091403108 0 723.44946091403108 713.566516284729 0 0 0 0 586.19532197542139 296.49844469058371 0 296.49844469058371 -332.76475731386745 0 0 0 0 25.608174690103624 198.5890689409789 0 198.5890689409789 -170.99564103643934 0 0 0 0 9.9689855319877552 437.7115882254202 0 437.7115882254202 -366.97179232708004 0 0 0 0 -125.60958621728787 573.2330310099278 0 573.2330310099278 -499.720321603294 0 0 0 0 -177.24795458478911 409.72365005852043 0 409.72365005852043 -312.1649274297888 0 0 0 0 -245.35857676263504 864.81246160522642 0 864.81246160522642 -484.20661140956508 0 0 0 0 -402.94815453855699 779.49385834603163 0 779.49385834603163 -300.42475987720536 0 0 0 0 -402.17912172896467 731.63135560595401 0 731.63135560595401 -597.09459901701484 0 0 0 0 -429.74591452458299 817.15317354107356 0 817.15317354107356 -363.25315600968315 0 0 0 0 -485.43401809205534 664.44577393564396 0 664.44577393564396 -515.35214084203471 0 0 0 0 -514.87015286918904 601.66638150171275 0 601.66638150171275 -309.9637229386426 0 0 0 0 -643.38986497408769 907.70156890978251 0 907.70156890978251 -399.77327990396589 0 0 0 0 -367.70223627461201 859.15902415117671 0 859.15902415117671 -484.85055388802721 0 0 0 0 -15.007377837944659 413.91162765568151 0 413.91162765568151 955.06798722632084 0 0 0 0 -2.8001756116645993 220.79843079582497 0 220.79843079582497 1052.1475589344482 0 0 0 0 25.348729118646588 136.16105800455261 0 136.16105800455261 1037.6042157441552 0 0 0 0 33.141305717319483 178.54810099441966 0 178.54810099441966 862.48143125879869 0 0 0 0 10.29886322668608 195.62110108909837 0 195.62110108909837 1067.2548701020278 0 0 0 0 -294.28621062581078 662.30085310977302 0 662.30085310977302 -849.23555332138494 0 0 0 0 -446.09085416124435 725.61123642984603 0 725.61123642984603 -565.62658714931604 0 0 0 0 100.70525947029819 279.5740988337202 0 279.5740988337202 1142.5323371356935 0 0 0 0 1.926847587357031 13.856445519313553 0 13.856445519313553 6.4946054486794793 0 0 0 0 -99.145417210442247 382.67295173670573 0 382.67295173670573 -568.59417398997175 0 0 0 0 -462.00854216176958 647.54613044849975 0 647.54613044849975 -586.82201020810771 0 0 0 0 0.4435975812632762 5.0006133614962778 0 5.0006133614962778 2.7160153618710865 0 0 0 0 -389.7882088489423 -23.443113426361379 0 -23.443113426361379 2791.0922351406625 0 0 0 0 114.09496749368918 67.666375983593753 0 67.666375983593753 1165.0409640963189 0 0 0 0 -397.5903165134514 859.97657243294088 0 859.97657243294088 1759.3985459966934 0 0 0 0 -321.79841449171727 887.90272891823406 0 887.90272891823406 671.44690540494048 0 0 0 0 -296.12050748911133 1138.408926250755 0 1138.408926250755 -1788.9002653440039 0 0 0 0 -496.9372712034201 963.5343424826242 0 963.5343424826242 -117.88797784256167 0 0 0 0 -627.26408804513267 497.64475670241882 0 497.64475670241882 289.41571479955746 0 0 0 0 -513.13908867405917 633.78765953846596 0 633.78765953846596 366.38844747973053 0 0 0 0 -837.52291503844208 558.20474736224969 0 558.20474736224969 222.44606744212797 0 0 0 0 -1030.1072207363932 14.083878475227721 0 14.083878475227721 110.08044501776749 0 0 0 0 -353.78763609443558 552.79502453600435 0 552.79502453600435 51.854045993939508 0 0 0 0 -299.90004142188991 322.29383384640823 0 322.29383384640823 -136.66732119828521 0 0 0 0 -190.12460822552475 653.51225466558481 0 653.51225466558481 487.25381935958285 0 0 0 0 -314.47505535028176 224.43033606690733 0 224.43033606690733 403.19885868865822 0 0 0 0 141.91282578652317 419.81657647073007 0 419.81657647073007 617.41565222851932 0 0 0 0 -48.171589330282586 581.95244387959247 0 581.95244387959247 1196.9532709727932 0 0 0 0 39.994937404662778 379.3361451887904 0 379.3361451887904 118.09467067823425 0 0 0 0 48.057750099232408 587.57443982544487 0 587.57443982544487 293.2190873989166 0 0 0 0 133.6219141490219 425.68296617954911 0 425.68296617954911 -19.887358804866381 0 0 0 0 -8.5289261075595277 410.17332083294605 0 410.17332083294605 321.23825589074841 0 0 0 0 60.885752644247987 490.78941555741039 0 490.78941555741039 559.21309839651803 0 0 0 0 52.689219081370538 542.23034978631404 0 542.23034978631404 407.13228193621035 0 0 0 0 -8.0688878685323289 428.82989295731386 0 428.82989295731386 535.20994241375593 0 0 0 0 27.129198455193546 442.32358465816287 0 442.32358465816287 571.94877728211577 0 0 0 0 -254.64529979154759 148.9601829576859 0 148.9601829576859 16.980832605702744 0 0 0 0 -96.216684371567681 111.46225363356643 0 111.46225363356643 2.0943052198417718 0 0 0 0 44.525063153772138 74.2186955940671 0 74.2186955940671 26.567439792961011 0 0 0 0 -102.28443926869659 118.43456415340552 0 118.43456415340552 29.387137343277573 0 0 0 0 -383.55979302611377 144.66776002811093 0 144.66776002811093 185.72031548394807 0 0 0 0 -653.92562628560881 406.06501595607915 0 406.06501595607915 122.17097048164578 0 0 0 0 59.362035564542992 66.120113850301294 0 66.120113850301294 22.580548647861292 0 0 0 0 -106.09299880569961 135.22756611639852 0 135.22756611639852 -0.86694737782818265 0 0 0 0 -229.90513411160646 233.90074693207862 0 233.90074693207862 25.30126370031212 0 0 0 0 -252.88830450930982 388.83255107889272 0 388.83255107889272 -19.32779648900032 0 0 0 0 -613.17791183757072 437.95576025268383 0 437.95576025268383 91.530727048360859 0 0 0 0 -397.95045514700178 238.75199516732391 0 238.75199516732391 236.75288935242861 0 0 0 0 -274.28986287621228 229.77420147087105 0 229.77420147087105 29.535886715319066 0 0 0 0 -283.99374170367082 -62.048620728455717 0 -62.048620728455717 97.084886291471776 0 0 0 0 -708.97499522751605 490.41781382471527 0 490.41781382471527 363.89215769968723 0 0 0 0 -908.10106109979824 126.60660431783617 0 126.60660431783617 217.3689340236815 0 0 0 0 -1860.326588966811 366.03924658995675 0 366.03924658995675 182.86576845396485 0 0 0 0 -0.90086092876025958 -0.13835246799646939 0 -0.13835246799646939 -2.6548714880404418 0 0 0 0 -132.64832459227273 0.8956925970278462 0 0.8956925970278462 26.871710155886831 0 0 0 0 -53.952781898951798 -67.282374793641793 0 -67.282374793641793 85.927434916306083 0 0 0 0 -106.92680311492586 86.931709784679697 0 86.931709784679697 86.125620364200586 0 0 0 0 -89.761129639928512 39.947083104987172 0 39.947083104987172 5.512568213415733 0 0 0 0 -248.9258902590127 139.83075501440089 0 139.83075501440089 51.878569964232156 0 0 0 0 -86.859394622719265 61.611915463370678 0 61.611915463370678 75.413329648668878 0 0 0 0 -60.664177252183435 175.17299219498818 0 175.17299219498818 1320.056220018083 0 0 0 0 -56.689273796250745 166.13372296652597 0 166.13372296652597 36.249031928848126 0 0 0 0 -80.134714814321143 56.511903359336557 0 56.511903359336557 5.6890034361245796 0 0 0 0 835.02030410725274 1372.560647120903 0 1372.560647120903 1090.4234386692151 0 0 0 0 1801.4999361984464 637.22257656256625 0 637.22257656256625 60.275629510026192 0 0 0 0 1135.0474606980824 -43.747491346995957 0 -43.747491346995957 622.93830671734759 0 0 0 0 658.74251455607373 1896.506051972261 0 1896.506051972261 1995.3113427400313 0 0 0 0 144.06736615026239 198.51141689403448 0 198.51141689403448 -40.373118157847784 0 0 0 0 112.32920089213076 292.23818758052948 0 292.23818758052948 603.24207042636408 0 0 0 0 -374.20641704354421 733.30145037411421 0 733.30145037411421 346.56456396490103 0 0 0 0 76.386414163695008 1584.4813366452872 0 1584.4813366452872 -352.27252501520707 0 0 0 0 86.166762908505916 2446.1409887915361 0 2446.1409887915361 719.2019163727964 0 0 0 0 266.26279333096409 1068.1166048141968 0 1068.1166048141968 296.70727993309265 0 0 0 0 -14.292942019951344 12.720994949460668 0 12.720994949460668 7.4751713038251069 0 0 0 0 2547.6012244405911 611.43997028350714 0 611.43997028350714 75.173578793299384 0 0 0 0 115.19721380639021 2349.9340662377945 0 2349.9340662377945 461.18275016401822 0 0 0 0 9.1638355995851128 15.679889792609032 0 15.679889792609032 1.5019192799973098 0 0 0 0 39.908143592871056 665.1339707635052 0 665.1339707635052 187.23934639558502 0 0 0 0 -802.81212923038584 344.28218103433028 0 344.28218103433028 1019.4193558650295 0 0 0 0 -552.51657326064742 818.14559844843461 0 818.14559844843461 -101.92606513352075 0 0 0 0 -159.41744274597113 435.67986368393395 0 435.67986368393395 -651.94972857377434 0 0 0 0 633.95440317019893 -109.42283882838092 0 -109.42283882838092 660.66764194495636 0 0 0 0 2347.8645792735551 907.97978231538582 0 907.97978231538582 666.13115477486281 0 0 0 0 386.70914305865699 312.2674276352991 0 312.2674276352991 798.08656013513973 0 0 0 0 324.43476026550525 -60.282007256013458 0 -60.282007256013458 353.8981362707782 0 0 0 0 862.31696401239606 270.8088915456683 0 270.8088915456683 366.83177093609993 0 0 0 0 846.99496439608993 107.91937025415245 0 107.91937025415245 771.37279340429814 0 0 0 0 -352.80471336358733 234.15428076350872 0 234.15428076350872 420.74030074177426 0 0 0 0 216.5594274452742 714.16366051742079 0 714.16366051742079 1310.0091862203553 0 0 0 0 221.03279417691738 702.95477927481261 0 702.95477927481261 1099.3353527853324 0 0 0 0 638.38920035601768 963.09337591106305 0 963.09337591106305 1440.879092881165 0 0 0 0 712.64443486533492 712.04909051334107 0 712.04909051334107 780.30146371824958 0 0 0 0 506.09806314198067 441.89208997314563 0 441.89208997314563 857.50255941606156 0 0 0 0 1447.6475554126009 927.05431186329224 0 927.05431186329224 948.06978663837799 0 0 0 0 540.79636306482644 774.63828319465028 0 774.63828319465028 1740.878622996679 0 0 0 0 1237.2789579653836 1846.8948026124272 0 1846.8948026124272 2401.3671678748506 0 0 0 0 50.523839502733608 681.4255404338619 0 681.4255404338619 3574.8998256882478 0 0 0 0 18.754715049518623 4.343445107765092 0 4.343445107765092 3.2092323729423171 0 0 0 0 64.066418049114873 -37.792141924408497 0 -37.792141924408497 1793.6624606275582 0 0 0 0 -21.918669360253261 467.69521385477856 0 467.69521385477856 2005.3013861130166 0 0 0 0 67.882616720306032 480.22724578098132 0 480.22724578098132 1331.0333935997623 0 0 0 0 110.41278047000287 -95.504239088109898 0 -95.504239088109898 1118.7009877032542 0 0 0 0 -215.65844654600187 346.27211275555965 0 346.27211275555965 213.23758479466778 0 0 0 0 -168.84831443869916 13.772400890527933 0 13.772400890527933 -533.68194738807506 0 0 0 0 213.84275425067244 1307.8385846008241 0 1307.8385846008241 -1306.0143833472976 0 0 0 0 1212.8367959219322 1333.8829929838612 0 1333.8829929838612 885.4722271214705 0 0 0 0 229.39952769290539 287.02668086967606 0 287.02668086967606 -2006.4313920030108 0 0 0 0 539.93607569714368 -203.1794423412648 0 -203.1794423412648 -420.53533168752256 0 0 0 0 -9.8049710269877508 0.69255534783070516 0 0.69255534783070516 -1.8766237906812648 0 0 0 0 -371.51411308958996 500.28743887823657 0 500.28743887823657 -413.33765445310564 0 0 0 0 -265.45828494292437 420.46197119250428 0 420.46197119250428 -740.88361797724065 0 0 0 0 -239.0939338310418 319.38145332831482 0 319.38145332831482 -285.17913276402396 0 0 0 0 -231.87606138494084 369.02857490781753 0 369.02857490781753 -327.36939918730059 0 0 0 0 -140.51418682757503 312.87554857405485 0 312.87554857405485 -658.27360599119856 0 0 0 0 -120.29002521219627 210.71447273876038 0 210.71447273876038 -314.8836542556237 0 0 0 0 -161.20149785593745 199.70765165272206 0 199.70765165272206 -138.06187058515206 0 0 0 0 -163.47013205992698 337.19738031909947 0 337.19738031909947 -383.29311111999414 0 0 0 0 -225.77470263749274 307.43507565737673 0 307.43507565737673 -219.56244240057276 0 0 0 0 0.25020136175226071 28.793398378616985 0 28.793398378616985 -110.79315065727133 0 0 0 0 7.8795659457817067 7.1078661017456284 0 7.1078661017456284 8.8411438579594446 0 0 0 0 46.276903390222287 34.818155823901179 0 34.818155823901179 -222.97016093135971 0 0 0 0 33.979389138574234 28.828174599575618 0 28.828174599575618 2.9348767480711189 0 0 0 0 50.257044897657266 16.215878428412481 0 16.215878428412481 0.9336051334882427 0 0 0 0 -23.830307514396679 15.462427162636828 0 15.462427162636828 5.8857714593763006 0 0 0 0 -144.30850263439061 166.5025416111821 0 166.5025416111821 -303.70181451031385 0 0 0 0 -67.313965869430831 184.09406482337363 0 184.09406482337363 -349.95498868021241 0 0 0 0 136.03655420577343 243.96265663659142 0 243.96265663659142 159.80172408370709 0 0 0 0 132.93074380544567 93.654249802748382 0 93.654249802748382 -31.342192079435335 0 0 0 0 39.526285885185644 -16.940941677356022 0 -16.940941677356022 -58.436188327814307 0 0 0 0 205.7389987746501 135.03398077651946 0 135.03398077651946 -101.05899936488277 0 0 0 0 149.35135573559819 133.31456004938809 0 133.31456004938809 30.564852968876949 0 0 0 0 47.273915389650455 34.43823661403016 0 34.43823661403016 13.59444612339982 0 0 0 0 127.96525247536192 117.89381167190732 0 117.89381167190732 -81.760221401236777 0 0 0 0 282.09630531942366 209.73014136283746 0 209.73014136283746 -106.72030387728591 0 0 0 0 62.848809105280907 125.39372873843149 0 125.39372873843149 -45.075766850175569 0 0 0 0 2.1718420022863754 -1.0868220195503682 0 -1.0868220195503682 -0.70172695910966354 0 0 0 0 199.92008288138823 -196.17767007643124 0 -196.17767007643124 -120.36393624900666 0 0 0 0 -284.80708878512451 -208.9960079238881 0 -208.9960079238881 -30.973028159176465 0 0 0 0 -269.65326136013755 -38.837839982006699 0 -38.837839982006699 320.32567218581971 0 0 0 0 117.79155003169217 -213.82487165364728 0 -213.82487165364728 -79.278090954256186 0 0 0 0 101.71613944456658 491.47233237069304 0 491.47233237069304 666.34428957712953 0 0 0 0 739.49840093298553 242.02178407284373 0 242.02178407284373 87.745638371498899 0 0 0 0 -188.92843054471632 -97.008722474005481 0 -97.008722474005481 65.052541773766279 0 0 0 0 835.96899510095682 286.0938897803353 0 286.0938897803353 89.072703482561337 0 0 0 0 584.05706488147553 1106.2068356756936 0 1106.2068356756936 1361.2973029621789 0 0 0 0 52.341594546037413 -408.68929741967804 0 -408.68929741967804 944.33545296271768 0 0 0 0 1.8008342013698169 5.6975149101570537 0 5.6975149101570537 16.396795003909119 0 0 0 0 145.00274172202626 221.68601263896562 0 221.68601263896562 685.8325956267654 0 0 0 0 -9.8003990860452177 327.14333041245118 0 327.14333041245118 1036.3853244309576 0 0 0 0 -23.508457808875391 391.8930660154183 0 391.8930660154183 971.38305830740137 0 0 0 0 309.27374072809107 286.03661107755033 0 286.03661107755033 -14.918948010938038 0 0 0 0 115.48526890556968 154.37712556647602 0 154.37712556647602 254.66713680692192 0 0 0 0 -92.989154814978974 283.79951843801609 0 283.79951843801609 910.77232529610046 0 0 0 0 165.00518281788391 808.09116658976563 0 808.09116658976563 1083.6132881486701 0 0 0 0 185.05879478317729 537.90493511571549 0 537.90493511571549 651.89255938049064 0 0 0 0 64.828153049222237 518.25611717041465 0 518.25611717041465 728.45421999311657 0 0 0 0 100.44578586014904 685.37241276439454 0 685.37241276439454 1212.8227178184243 0 0 0 0 53.415836980142558 611.23184870782825 0 611.23184870782825 1292.1583437989902 0 0 0 0 49.091093687220564 573.31799220293397 0 573.31799220293397 1022.8697157680726 0 0 0 0 105.38552952592909 330.10585750994505 0 330.10585750994505 925.45648585761955 0 0 0 0 104.46615718419525 246.01710780588337 0 246.01710780588337 1737.5910911805695 0 0 0 0 163.04360730844746 440.94816553901182 0 440.94816553901182 761.76577479929256 0 0 0 0 -31.629152136576749 348.38680641111841 0 348.38680641111841 1555.6689574632328 0 0 0 0 1018.645816285476 238.30447412747162 0 238.30447412747162 717.91069162890199 0 0 0 0 226.22409057632535 530.84633978009515 0 530.84633978009515 831.36573574766226 0 0 0 0 644.40308713174454 851.72278083410492 0 851.72278083410492 1053.5903325388717 0 0 0 0 418.43679885713243 530.56436253583661 0 530.56436253583661 436.15459090877266 0 0 0 0 590.97414693354222 666.83216632925178 0 666.83216632925178 519.45728312191204 0 0 0 0 281.63559946086116 273.27048440819635 0 273.27048440819635 716.78081038391679 0 0 0 0 313.69241315974432 187.03881615996215 0 187.03881615996215 -26.783145224352666 0 0 0 0 65.819796816763301 394.59001479730068 0 394.59001479730068 602.17450448306772 0 0 0 0 58.350375037971389 15.945709153944335 0 15.945709153944335 439.96452715586929 0 0 0 0 379.38120599400099 372.43797254730453 0 372.43797254730453 329.70328925701324 0 0 0 0 -65.344506947578338 136.22936500009382 0 136.22936500009382 310.98049332865048 0 0 0 0 21.625987209854429 219.58400121122395 0 219.58400121122395 177.08828145239386 0 0 0 0 193.83126343936783 11.31692111792654 0 11.31692111792654 -351.38717756604819 0 0 0 0 5.5044145254769319 -84.844223172342481 0 -84.844223172342481 -24.269631777060567 0 0 0 0 -4.907298931870173 145.45408190699527 0 145.45408190699527 294.82790301330169 0 0 0 0 84.612799533904308 -103.25802801509599 0 -103.25802801509599 103.81876440440828 0 0 0 0 -71.353789272859103 22.180084513849579 0 22.180084513849579 7.6162997793144314 0 0 0 0 142.02480160849518 9.203499937968445 0 9.203499937968445 -407.82329782750458 0 0 0 0 -25.88774534967888 -37.014159112004563 0 -37.014159112004563 -182.5575274651892 0 0 0 0 -21.308728891300561 16.070803134469998 0 16.070803134469998 -2.9451328325476567 0 0 0 0 26.618615954053894 -167.73108726545615 0 -167.73108726545615 -16.120957555118366 0 0 0 0 -9.1721902766712446 -20.669573137245607 0 -20.669573137245607 80.40387857384485 0 0 0 0 91.541624680497989 -128.20475599877682 0 -128.20475599877682 194.83041915480862 0 0 0 0 -273.57832613529717 46.770881289681711 0 46.770881289681711 205.66182350945019 0 0 0 0 -66.913933079471462 -123.00728773300216 0 -123.00728773300216 98.442266115904204 0 0 0 0 3.1620522664179589 -156.53705037461259 0 -156.53705037461259 273.54678582759516 0 0 0 0 226.96897738437474 30.449516914442938 0 30.449516914442938 452.87171266864243 0 0 0 0 197.92166948665908 112.27483092162583 0 112.27483092162583 276.29849687729438 0 0 0 0 511.35673726549794 293.60725512276258 0 293.60725512276258 368.83377082261723 0 0 0 0 224.42223088086757 414.51757199574058 0 414.51757199574058 699.44422732913154 0 0 0 0 329.65877511951112 566.46113943705132 0 566.46113943705132 777.60646217160684 0 0 0 0 264.61436533605956 201.01627247910073 0 201.01627247910073 261.10750966068008 0 0 0 0 42.115926699241754 234.30082709189446 0 234.30082709189446 616.66487825801596 0 0 0 0 213.19254528527927 84.486147336363501 0 84.486147336363501 182.01059814590917 0 0 0 0 115.60331290737122 76.230409915424389 0 76.230409915424389 390.2417975194694 0 0 0 0 1569.7823959105735 1565.4980771487826 0 1565.4980771487826 960.95903662739875 0 0 0 0 1320.8837119636592 2472.8420540166462 0 2472.8420540166462 580.53654502263817 0 0 0 0 7.1625153222557856 2302.4116407300353 0 2302.4116407300353 1311.6193027006448 0 0 0 0 691.37639012969157 1957.2029931371617 0 1957.2029931371617 1478.2904823728495 0 0 0 0 1305.4347686399997 1610.8419472583919 0 1610.8419472583919 969.06583113983652 0 0 0 0 636.88695302711858 1699.5525365258582 0 1699.5525365258582 1366.660931414146 0 0 0 0 1345.5315053676604 1335.3988145548428 0 1335.3988145548428 1090.1830956880149 0 0 0 0 1379.8631065931404 1414.2682430171917 0 1414.2682430171917 1050.8077756086968 0 0 0 0 1577.6331124272838 1437.1828153412516 0 1437.1828153412516 640.59509087124025 0 0 0 0 1533.8106588485243 1368.0129307862589 0 1368.0129307862589 957.54429930180777 0 0 0 0 1490.866213076456 1490.6257250741769 0 1490.6257250741769 833.92514998042316 0 0 0 0 1485.4950061348263 1536.4842630071789 0 1536.4842630071789 963.80569405159622 0 0 0 0 1449.9259222134715 1569.843344284498 0 1569.843344284498 910.17541112567415 0 0 0 0 1499.7000781306488 1683.2391832382727 0 1683.2391832382727 667.31662933483312 0 0 0 0 1512.1019268503005 1944.4044742786209 0 1944.4044742786209 624.02120260267839 0 0 0 0 1418.7690763693572 1879.8338792104496 0 1879.8338792104496 582.90619779859844 0 0 0 0 995.93727525984286 1959.9637193209855 0 1959.9637193209855 837.73504448565654 0 0 0 0 1401.2505786097354 1521.9485912562286 0 1521.9485912562286 1049.1452841224964 0 0 0 0 1337.081074527312 1773.7196343233009 0 1773.7196343233009 939.08230470829585 0 0 0 0 1423.5889613461623 1646.6292735717871 0 1646.6292735717871 832.83248166350677 0 0 0 0 1622.2849293625623 1621.7174625946645 0 1621.7174625946645 899.5190668553405 0 0 0 0 1617.4418539869223 1403.6996927601417 0 1403.6996927601417 1170.4602087508392 0 0 0 0 1784.7567048520432 1570.6463915020431 0 1570.6463915020431 916.40219246152992 0 0 0 0 2065.762137976315 1227.3920437440502 0 1227.3920437440502 978.33940155628079 0 0 0 0 -3.3708290746255329 9.5319903590477395 0 9.5319903590477395 0.96803027750308956 0 0 0 0 3200.8373982716585 2237.3416351862907 0 2237.3416351862907 601.83269603761437 0 0 0 0 0.66118162314523943 193.53896376634657 0 193.53896376634657 363.2364006886055 0 0 0 0 873.5739766505576 552.72991370172531 0 552.72991370172531 474.63496591764851 0 0 0 0 1.0690433286363259 954.88349089991971 0 954.88349089991971 1296.2055233192223 0 0 0 0 440.47360065230168 1290.7909776265224 0 1290.7909776265224 1291.9739535951812 0 0 0 0 1142.8490522459324 1381.2302081837006 0 1381.2302081837006 915.02912002726225 0 0 0 0 1661.9017615884477 1456.6357001284778 0 1456.6357001284778 621.69894243536692 0 0 0 0 -9.8600293022001892 17.208224199212083 0 17.208224199212083 -0.86586714493637373 0 0 0 0 1765.3034627242305 1678.7471039215307 0 1678.7471039215307 898.43961065785697 0 0 0 0 -2165.909165992387 1147.7123533056583 0 1147.7123533056583 1257.0328890017699 0 0 0 0 2839.3851372340869 2604.2980919248039 0 2604.2980919248039 -113.05821431179356 0 0 0 0 -4.8054629451274025 9.262228370841342 0 9.262228370841342 -0.73186348797383971 0 0 0 0 1076.1718159048469 721.04651160194771 0 721.04651160194771 1028.4794776282433 0 0 0 0 1609.8892716522678 1317.8815010562757 0 1317.8815010562757 -2214.8849404291832 0 0 0 0 -1.0434901633519413 1840.2487513807034 0 1840.2487513807034 -115.58708282731823 0 0 0 0 -129.24497723615787 1826.0622701131288 0 1826.0622701131288 663.39679493072617 0 0 0 0 -172.87432259888737 845.98865620847209 0 845.98865620847209 -179.25965478962462 0 0 0 0 -5.2020926084693997 8.1687170814830665 0 8.1687170814830665 2.1510581301601803 0 0 0 0 -135.15398335751524 797.5899822334577 0 797.5899822334577 -148.71541410811187 0 0 0 0 4.48175004445784 12.330693559378233 0 12.330693559378233 0.014551920481608249 0 0 0 0 4.4811442330765203 12.323733121784244 0 12.323733121784244 -0.016013699350878596 0 0 0 0 14.408505088429706 19.702659384301143 0 19.702659384301143 5.2636231285224824 0 0 0 0 7.5410485755563172 7.0482442975749819 0 7.0482442975749819 -1.7633165842833591 0 0 0 0 -3.3496891554555077 9.6741907250682573 0 9.6741907250682573 -3.2064098826350573 0 0 0 0 4.5322446129722547 3475.0717218339082 0 3475.0717218339082 4.3383061889908276 0 0 0 0 1953.9427857091505 767.03129130202433 0 767.03129130202433 272.34459022606461 0 0 0 0 387.35427262596204 -424.40168207805982 0 -424.40168207805982 -2495.4805087450914 0 0 0 0 129.66605959690787 2870.8637856212226 0 2870.8637856212226 -0.46795924809703138 0 0 0 0 1307.4130396080836 3443.8656316359065 0 3443.8656316359065 -739.97717390276375 0 0 0 0 -1439.4058322830388 -109.85358879674459 0 -109.85358879674459 -0.62571384531474905 0 0 0 0 -1884.6269288234616 1723.4396850107441 0 1723.4396850107441 -506.8731113737158 0 0 0 0 749.46244985719386 2182.9539962356212 0 2182.9539962356212 -1451.3020204023051 0 0 0 0 4.2983932631486823 7.1382092807399857 0 7.1382092807399857 4.6401742861591799 0 0 0 0 -265.66436148039793 1332.6584117641942 0 1332.6584117641942 3829.7382341421908 0 0 0 0 -205.39211555088696 807.3927588044171 0 807.3927588044171 148.22773719014367 0 0 0 0 -843.08502716146177 3223.0526012466871 0 3223.0526012466871 1151.3399247726047 0 0 0 0 1265.9868156903685 2927.4788230727718 0 2927.4788230727718 967.35439956527262 0 0 0 0 1516.03778990926 2260.4354151736043 0 2260.4354151736043 515.88957123136788 0 0 0 0 1530.0386173440202 2513.5814750855607 0 2513.5814750855607 438.55753250050475 0 0 0 0 134.98920929414453 986.12916955654509 0 986.12916955654509 477.00543636725342 0 0 0 0 552.6203103595617 2541.1641819802171 0 2541.1641819802171 541.24896855570751 0 0 0 0 326.8478134154866 2059.6028673878318 0 2059.6028673878318 584.28332296252484 0 0 0 0 1098.5253272058326 1491.2656590120314 0 1491.2656590120314 986.81877230453392 0 0 0 0 1326.7905216998333 2067.639585492936 0 2067.639585492936 617.75607091969869 0 0 0 0 1054.5367809406816 2114.9948060516872 0 2114.9948060516872 618.66677664508461 0 0 0 0 1661.0560038546973 2040.9175185843123 0 2040.9175185843123 329.83755003536589 0 0 0 0 2037.6246852522017 1697.5293621714591 0 1697.5293621714591 15.161848206364084 0 0 0 0 2679.5049846360489 1830.1288737783034 0 1830.1288737783034 -268.46866489823378 0 0 0 0 2638.9162179795312 1864.7598894188668 0 1864.7598894188668 -103.91512071408215 0 0 0 0 1884.6026719966758 2130.0804384907606 0 2130.0804384907606 317.64071125256123 0 0 0 0 2186.5928984807615 2353.252530604841 0 2353.252530604841 289.37316664110404 0 0 0 0 2336.642564728274 2325.2215652207451 0 2325.2215652207451 293.18703277249733 0 0 0 0 1847.6750998127172 2547.3116171077381 0 2547.3116171077381 742.83093005992123 0 0 0 0 2811.6377165477752 2860.8598990264145 0 2860.8598990264145 477.01935146137839 0 0 0 0 4212.565130049974 2063.6289956642358 0 2063.6289956642358 -287.06593952547701 0 0 0 0 3831.5355426635215 2117.2625255335734 0 2117.2625255335734 455.6856704625493 0 0 0 0 2629.6220080530547 2906.1315650609959 0 2906.1315650609959 1.8091513551553362 0 0 0 0 1962.0603871420899 2430.758437309174 0 2430.758437309174 762.17320709694286 0 0 0 0 1545.1613881874073 1858.2648986488275 0 1858.2648986488275 1372.7696874009634 0 0 0 0 32.546168967914355 8.6461302062695182 0 8.6461302062695182 2.8207918335936597 0 0 0 0 7512.0596193589154 1081.4761570247938 0 1081.4761570247938 -0.28851591364844748 0 0 0 0 3990.8890595350294 1357.4135721751218 0 1357.4135721751218 2020.6815705948538 0 0 0 0 3549.0102104997204 1199.5904083668211 0 1199.5904083668211 -453.1785249721579 0 0 0 0 6710.9658374182036 2482.0771416479038 0 2482.0771416479038 40.442170650421758 0 0 0 0 4440.0674129032486 -1280.0332958141025 0 -1280.0332958141025 -256.33452992280945 0 0 0 0 3541.8235300481647 -181.26838929665519 0 -181.26838929665519 -346.40980877455149 0 0 0 0 1080.1886283969507 -157.0826909649586 0 -157.0826909649586 -163.93218553186307 0 0 0 0 3203.7181414985389 1102.9380947792524 0 1102.9380947792524 -466.06128598627402 0 0 0 0 3207.0855332917308 1205.238110431751 0 1205.238110431751 -347.35094868690067 0 0 0 0 2164.8835876669618 1077.0173836822723 0 1077.0173836822723 -250.41892491826729 0 0 0 0 2233.9035901811076 1159.0859914821594 0 1159.0859914821594 -159.4619702799755 0 0 0 0 2483.7838587413171 562.9442901343009 0 562.9442901343009 -230.49825008823245 0 0 0 0 930.26878808609035 467.11576742431498 0 467.11576742431498 182.7003225455046 0 0 0 0 1475.9630368504149 391.36101831778797 0 391.36101831778797 -222.22358875100326 0 0 0 0 1011.7057867578114 446.52876885481965 0 446.52876885481965 160.66775037298794 0 0 0 0 553.73393704430782 387.77699584724178 0 387.77699584724178 390.87245230739063 0 0 0 0 1212.1483963337669 898.33346154948777 0 898.33346154948777 425.14592648268444 0 0 0 0 1401.517922303392 955.66895464859044 0 955.66895464859044 80.980568888226117 0 0 0 0 1903.321626313842 1103.5634023769126 0 1103.5634023769126 119.70707572845276 0 0 0 0 1524.3934332965146 1499.4557493572865 0 1499.4557493572865 325.37281359922417 0 0 0 0 1956.0146787594713 1738.4557338660525 0 1738.4557338660525 254.42471496388316 0 0 0 0 1531.8278603547224 1549.8223514761994 0 1549.8223514761994 394.80476512782479 0 0 0 0 1550.3647402421557 1631.0445222515882 0 1631.0445222515882 709.3590744445537 0 0 0 0 1664.8769908632166 1358.7349878223577 0 1358.7349878223577 411.97653646708932 0 0 0 0 1184.8884055396193 1134.9802004877347 0 1134.9802004877347 321.45048926220625 0 0 0 0 1284.5017134855771 1458.1258979217746 0 1458.1258979217746 712.23971025952778 0 0 0 0 1454.5056692395738 1520.5877018086467 0 1520.5877018086467 715.06694324208365 0 0 0 0 1062.0564170308353 1281.0871090904402 0 1281.0871090904402 892.82924994505447 0 0 0 0 1923.7408690099401 1574.4765380882272 0 1574.4765380882272 989.23847848259174 0 0 0 0 962.6748744677534 1305.6347230325446 0 1305.6347230325446 1079.9485523877083 0 0 0 0 471.90730503256782 720.65752037021593 0 720.65752037021593 569.30267548189295 0 0 0 0 417.23643898987939 682.43210845127396 0 682.43210845127396 700.49455673026387 0 0 0 0 279.74002661024861 263.68023270939739 0 263.68023270939739 326.59215976643827 0 0 0 0 442.83721635235997 556.8113802048174 0 556.8113802048174 539.16594976632769 0 0 0 0 779.73554727908049 526.34032990861124 0 526.34032990861124 473.59543992027466 0 0 0 0 681.40311391744763 723.00997799146717 0 723.00997799146717 405.50584437752332 0 0 0 0 1033.1519624861685 1084.5040045991045 0 1084.5040045991045 675.66697267958079 0 0 0 0 144.28110884706257 -230.06828282658262 0 -230.06828282658262 94.370343484115438 0 0 0 0 0.63963150100852317 -1.5038055928859535 0 -1.5038055928859535 4.3449924967470963 0 0 0 0 346.89729589216586 309.77059861886664 0 309.77059861886664 555.85519691912759 0 0 0 0 31.789540192243294 11.5016603873446 0 11.5016603873446 -34.500955842006078 0 0 0 0 176.3815789817163 -29.407218004744209 0 -29.407218004744209 -38.500160807423526 0 0 0 0 -241.55809432223032 -29.017811589415942 0 -29.017811589415942 60.215923993881006 0 0 0 0 -251.94223691913066 59.328172087036364 0 59.328172087036364 -145.7887908607081 0 0 0 0 -507.28160163055873 -66.404382114735199 0 -66.404382114735199 135.33175179654063 0 0 0 0 -861.24465485362452 238.35382937079339 0 238.35382937079339 402.55101690664014 0 0 0 0 -1078.0173095993587 188.17567706225782 0 188.17567706225782 359.0271902155946 0 0 0 0 15.437888386649476 79.620690583473802 0 79.620690583473802 81.580739388077006 0 0 0 0 33.395526224951027 441.5518064689677 0 441.5518064689677 401.58385288913269 0 0 0 0 -267.641568625324 -10.813405635293748 0 -10.813405635293748 -67.077296604482399 0 0 0 0 14.367684793437341 77.714919662198071 0 77.714919662198071 68.051507851596682 0 0 0 0 -696.97323051293461 11.167133571024351 0 11.167133571024351 148.47794018645072 0 0 0 0 -654.67510483517981 296.39039791525283 0 296.39039791525283 296.57899481182903 0 0 0 0 284.98149012449721 -18.982866190612185 0 -18.982866190612185 238.19935948139755 0 0 0 0 582.59954353417561 289.30883082575747 0 289.30883082575747 557.46965833300965 0 0 0 0 879.87366637925152 272.74864955218436 0 272.74864955218436 6.2784375258343061 0 0 0 0 131.27611794661789 185.98212361088008 0 185.98212361088008 188.54916550764028 0 0 0 0 -40.345250746060628 88.197171827843704 0 88.197171827843704 29.653353219619021 0 0 0 0 939.78164982859744 259.63755656237481 0 259.63755656237481 -81.360686491789238 0 0 0 0 487.95160228107125 562.70080011484242 0 562.70080011484242 -758.07987818033143 0 0 0 0 257.49345384849585 -603.37875349156093 0 -603.37875349156093 131.82182639431994 0 0 0 0 113.89658454112941 -108.05430472940498 0 -108.05430472940498 -466.76884629245615 0 0 0 0 79.763558131767013 21.183844641482253 0 21.183844641482253 4.9840954351276991 0 0 0 0 42.231826526092846 -53.653962858516479 0 -53.653962858516479 -259.5615105018951 0 0 0 0 13.481589858827647 -315.55001835633084 0 -315.55001835633084 -198.49048648122698 0 0 0 0 -66.029406216272037 -165.99928932293551 0 -165.99928932293551 1.9143404363339698 0 0 0 0 -895.5676361552396 508.49592231227871 0 508.49592231227871 -169.611085741235 0 0 0 0 -310.00050994477351 175.85783109565091 0 175.85783109565091 -1.0306255991546447 0 0 0 0 34.669462091895184 61.038768471167259 0 61.038768471167259 -160.50326933016186 0 0 0 0 89.77760980399762 -3.6291641238058219 0 -3.6291641238058219 -94.679326654273609 0 0 0 0 98.566719570228884 41.645511020232576 0 41.645511020232576 10.190116595524671 0 0 0 0 12.703541489382559 2.7054328315373652 0 2.7054328315373652 -1.3053842278573597 0 0 0 0 -1027.7153989147628 803.8290267069824 0 803.8290267069824 -595.39043048906751 0 0 0 0 -425.51704423839783 406.58923861403218 0 406.58923861403218 -337.88729102846992 0 0 0 0 -17.072440864955183 8.7026671918084162 0 8.7026671918084162 8.5886037781054938 0 0 0 0 -281.61125300963977 -155.71280284782642 0 -155.71280284782642 -101.582107919181 0 0 0 0 26.330626899269276 75.934749657898152 0 75.934749657898152 47.479462131405683 0 0 0 0 -14.069967432479189 390.74871994022692 0 390.74871994022692 -248.74987085360044 0 0 0 0 -276.10131639105384 305.52571795499171 0 305.52571795499171 83.460666875595052 0 0 0 0 138.25399937076327 224.03931628599548 0 224.03931628599548 -91.759350964872283 0 0 0 0 -1002.1731237611675 -9.4578926606700406 0 -9.4578926606700406 200.89786609519069 0 0 0 0 -897.5264909506659 702.09064213780221 0 702.09064213780221 -243.19374974304446 0 0 0 0 -1033.0262363972306 711.10782132018903 0 711.10782132018903 -50.305282675253693 0 0 0 0 -1010.1409314730336 327.83130179037107 0 327.83130179037107 -540.92625641448103 0 0 0 0 -1614.9051886951165 352.39517479189453 0 352.39517479189453 -47.991091175223119 0 0 0 0 -1141.6124880171483 371.32749072947627 0 371.32749072947627 -57.365949920211278 0 0 0 0 -1141.74715259609 335.30358098233773 0 335.30358098233773 0.16548021152266301 0 0 0 0 -749.79332593366416 270.3297463930212 0 270.3297463930212 134.26465379515139 0 0 0 0 -1141.9498988611322 380.19086593189968 0 380.19086593189968 0.092354835753212683 0 0 0 0 -748.3375077790588 291.39962280249165 0 291.39962280249165 -186.18575165409857 0 0 0 0 -962.0405029647809 491.95841123585706 0 491.95841123585706 -57.967466049511131 0 0 0 0 -768.6550660907742 343.01801190596598 0 343.01801190596598 -7.335817954558479 0 0 0 0 -726.21019695687937 427.39904152650706 0 427.39904152650706 -186.05186234989378 0 0 0 0 -1159.8239127810884 521.21359485833091 0 521.21359485833091 -103.48772017442388 0 0 0 0 -720.51518492345713 391.94471895210881 0 391.94471895210881 -328.59667539033398 0 0 0 0 -1203.2157588303526 833.6414047880462 0 833.6414047880462 39.76084899450143 0 0 0 0 -1874.1236552472619 58.574653448114987 0 58.574653448114987 316.58839324845758 0 0 0 0 -3.7925775507808623 4.4948759632555664 0 4.4948759632555664 -4.1890388133360261 0 0 0 0 485.91401372505061 644.46386006247485 0 644.46386006247485 -50.971222327286341 0 0 0 0 -481.10684408270754 60.922398726113897 0 60.922398726113897 -30.466441657998075 0 0 0 0 -458.78512701158616 -33.71787133322141 0 -33.71787133322141 360.56681851136091 0 0 0 0 -7.8146060604868239 10.469776483300791 0 10.469776483300791 -7.9404750797397696 0 0 0 0 -49.776061262680741 474.70459944850154 0 474.70459944850154 177.16935018056574 0 0 0 0 -361.90784787501252 -118.21900297392858 0 -118.21900297392858 -52.030492153819068 0 0 0 0 -1298.0829710975377 135.05740386604157 0 135.05740386604157 116.98663944248256 0 0 0 0 -273.99145729689917 593.58061599398206 0 593.58061599398206 375.48261461973016 0 0 0 0 -870.13027226849954 476.79956451778708 0 476.79956451778708 411.98616990289156 0 0 0 0 -857.3163003478985 409.27472108165239 0 409.27472108165239 367.39398016681662 0 0 0 0 -956.86070142848257 576.58124432121622 0 576.58124432121622 298.70760193714523 0 0 0 0 -1018.2437071165841 526.54905003030581 0 526.54905003030581 459.49740920305339 0 0 0 0 -710.80203034049555 228.04611971231498 0 228.04611971231498 340.02053071479895 0 0 0 0 -296.86991555994518 479.03260812856388 0 479.03260812856388 265.93201583376504 0 0 0 0 -3.8055035418219632 126.92855177833553 0 126.92855177833553 -178.85378078058056 0 0 0 0 -204.21595161387449 627.21581334572329 0 627.21581334572329 -1367.839458686889 0 0 0 0 -10.545097602071635 6.7037780610823745 0 6.7037780610823745 -6.1389119733615303 0 0 0 0 -1424.926651447744 691.66773031780394 0 691.66773031780394 276.61836619491805 0 0 0 0 -92.705496718532231 694.42400364152127 0 694.42400364152127 -482.70368496861192 0 0 0 0 700.19333919904602 414.02039347497339 0 414.02039347497339 -322.0567390602082 0 0 0 0 206.72778633675625 48.552026077573828 0 48.552026077573828 242.18970780927157 0 0 0 0 680.30027687308757 871.29009072707413 0 871.29009072707413 71.241477040020982 0 0 0 0 -1570.2231583573666 153.61077833104355 0 153.61077833104355 306.08449523473973 0 0 0 0 -3.7020193430393533 5.1453245174359381 0 5.1453245174359381 -4.6617421933786432 0 0 0 0 -1611.6535630422495 770.68863097413669 0 770.68863097413669 811.54456263466273 0 0 0 0 10.013198472322198 80.649347758689089 0 80.649347758689089 81.751798311355799 0 0 0 0 -589.55255296573159 -287.20447842967405 0 -287.20447842967405 -536.31171177583747 0 0 0 0 -60.259424605101231 447.02711024761084 0 447.02711024761084 -2.0096224767148669 0 0 0 0 132.06452904315665 354.63718399433128 0 354.63718399433128 -98.760457517229952 0 0 0 0 -24.76527255376277 309.84120452456409 0 309.84120452456409 -90.912798817298608 0 0 0 0 -170.70136386693048 400.79275684422464 0 400.79275684422464 18.198725138383452 0 0 0 0 79.47454393195585 266.53981960214878 0 266.53981960214878 -112.0394596819242 0 0 0 0 83.35752817701723 223.57594556223194 0 223.57594556223194 28.784519196211477 0 0 0 0 30.008658782940984 149.04522012902817 0 149.04522012902817 -193.86705545280711 0 0 0 0 59.063296804546553 139.37183054197521 0 139.37183054197521 -29.346423843483535 0 0 0 0 -26.216312544919177 23.067527786301895 0 23.067527786301895 -7.3392218712403974 0 0 0 0 -109.36070226343145 87.553839676147618 0 87.553839676147618 154.47646677232115 0 0 0 0 -13.38961349127203 232.83842731465847 0 232.83842731465847 -79.566437793745536 0 0 0 0 -168.08936975433971 211.67174572035583 0 211.67174572035583 -83.368876191671006 0 0 0 0 -0.80560982877068454 29.91789619946212 0 29.91789619946212 -8.2492120926326606 0 0 0 0 -15.736198696715292 28.25814183530747 0 28.25814183530747 -42.012854965389124 0 0 0 0 -9.2450787220622033 15.154567060459897 0 15.154567060459897 3.768508180070711 0 0 0 0 -71.665002631896641 22.737376682867762 0 22.737376682867762 38.157366689643823 0 0 0 0 -16.735996136622134 52.506084499694708 0 52.506084499694708 38.59373877612137 0 0 0 0 -56.534253080331837 49.937421969894785 0 49.937421969894785 35.820352095091948 0 0 0 0 -47.316450236323632 22.681051593671043 0 22.681051593671043 23.912938733769465 0 0 0 0 -15.478022528733845 27.576938670792572 0 27.576938670792572 21.193011015414726 0 0 0 0 -31.986855566465238 15.200321978052671 0 15.200321978052671 -35.944124703368288 0 0 0 0 -7.2503902744606989 55.831685916832896 0 55.831685916832896 8.8634208116320679 0 0 0 0 73.603090254713607 1.1315139853104483 0 1.1315139853104483 -36.07207729106949 0 0 0 0 0.10629057214501358 13.368418024219181 0 13.368418024219181 8.8300991040380126 0 0 0 0 -4.18650875815365 20.420178380329162 0 20.420178380329162 -24.080045651819091 0 0 0 0 14.102573450834655 18.220109429810137 0 18.220109429810137 1.7764122042082704 0 0 0 0 -9.1428014605044154 150.48989712267939 0 150.48989712267939 -115.16999315048452 0 0 0 0 -20.102634567927453 41.664672347600572 0 41.664672347600572 -116.86781396051811 0 0 0 0 -1056.9074949846072 56.159107200495782 0 56.159107200495782 178.31404749875946 0 0 0 0 -1147.8559408828878 959.81785555571696 0 959.81785555571696 -238.68092649013852 0 0 0 0 -701.44707309663227 676.61110498186372 0 676.61110498186372 -61.034656721079955 0 0 0 0 -380.99216907944356 483.06565287878038 0 483.06565287878038 -207.34546304392279 0 0 0 0 -562.73880007390835 346.10105003082208 0 346.10105003082208 -160.04225107395905 0 0 0 0 -397.89078949281247 32.947236231062561 0 32.947236231062561 -68.063527305275784 0 0 0 0 -104.86988575619762 92.385353763165767 0 92.385353763165767 -152.95857794405902 0 0 0 0 -271.92309972790827 65.912532458045462 0 65.912532458045462 0.38535512708767783 0 0 0 0 2.2285936935065251 1.5483732266500994 0 1.5483732266500994 -4.6419902051246424 0 0 0 0 -22.934896611288423 126.70208411027852 0 126.70208411027852 638.28947037973558 0 0 0 0 6.628574431796153 17.080864394968216 0 17.080864394968216 10.301930765789109 0 0 0 0 10.559134114446351 -54.109032851903976 0 -54.109032851903976 -78.544939522907953 0 0 0 0 -4.1192184474430178 38.321961216508498 0 38.321961216508498 154.24569207246532 0 0 0 0 -13.535343531462786 102.63681879810611 0 102.63681879810611 522.72823340655304 0 0 0 0 24.250609505485045 270.61273674406402 0 270.61273674406402 372.9010301642702 0 0 0 0 25.555909348564455 353.51104442008364 0 353.51104442008364 476.73682140029268 0 0 0 0 15.617974451990449 314.67592708639859 0 314.67592708639859 356.77990922762547 0 0 0 0 32.512079222215107 248.36381939133571 0 248.36381939133571 595.21403473086684 0 0 0 0 69.903934638787177 180.64700683152842 0 180.64700683152842 712.73934298116365 0 0 0 0 23.410084854139313 268.71941821798555 0 268.71941821798555 629.45522407413227 0 0 0 0 12.566681070937193 390.48787026373611 0 390.48787026373611 519.43566505833587 0 0 0 0 1.6925778165023075 382.52507106952544 0 382.52507106952544 752.78260600182693 0 0 0 0 17.971872183967207 442.85408725395973 0 442.85408725395973 573.88536382216262 0 0 0 0 45.157276250109135 457.66664464888163 0 457.66664464888163 405.53197819662455 0 0 0 0 22.010305993200745 490.23087546452098 0 490.23087546452098 451.17258823625161 0 0 0 0 23.148350124902208 412.25390675310337 0 412.25390675310337 540.04384073476831 0 0 0 0 23.303979904310836 414.94946923294629 0 414.94946923294629 421.0082404867062 0 0 0 0 59.375400912547775 433.38480782394618 0 433.38480782394618 425.55000251208548 0 0 0 0 75.788141789034853 398.35969880140692 0 398.35969880140692 384.8732492828567 0 0 0 0 41.368730584086734 471.86229995323083 0 471.86229995323083 410.60527704645938 0 0 0 0 44.598004263403709 414.45562371490087 0 414.45562371490087 390.8768364466514 0 0 0 0 89.329714689549292 500.88136623069295 0 500.88136623069295 398.50564849411603 0 0 0 0 29.08085130956897 499.72917830701772 0 499.72917830701772 356.89242188172648 0 0 0 0 300.21152122344211 289.53597721863571 0 289.53597721863571 159.01915981806815 0 0 0 0 564.67292586101394 468.9662246319931 0 468.9662246319931 186.40040697318909 0 0 0 0 428.75458335333678 424.41395212893258 0 424.41395212893258 357.52856158738723 0 0 0 0 417.38210419334064 603.220493313107 0 603.220493313107 432.57121611130424 0 0 0 0 223.8720723512597 442.25621538903943 0 442.25621538903943 313.52754084108892 0 0 0 0 64.149810369694023 470.06609533863229 0 470.06609533863229 502.13398909825628 0 0 0 0 188.36927133802965 524.37196526562184 0 524.37196526562184 385.17264360646368 0 0 0 0 147.67665030096396 315.21907246360206 0 315.21907246360206 209.08539471693439 0 0 0 0 119.13640705394209 458.44404152562856 0 458.44404152562856 346.08851561398478 0 0 0 0 102.45391882211698 416.42211459518876 0 416.42211459518876 357.21555975818774 0 0 0 0 156.94898288345576 346.96486572414506 0 346.96486572414506 303.69033826290979 0 0 0 0 329.19753155575017 451.85697062479449 0 451.85697062479449 250.87861578521552 0 0 0 0 -69.325806096989254 103.99754430950998 0 103.99754430950998 72.485737893366604 0 0 0 0 1.2592414308728728 0.077040899077843505 0 0.077040899077843505 0.5442236529269735 0 0 0 0 292.11960988940609 255.95940359742781 0 255.95940359742781 150.7026753918035 0 0 0 0 -158.08659913483643 55.107097075137062 0 55.107097075137062 66.373755603970494 0 0 0 0 160.00841579551343 133.13561321592715 0 133.13561321592715 36.633617140265414 0 0 0 0 29.396698761767766 224.71772603474528 0 224.71772603474528 270.29805011109784 0 0 0 0 50.623529024946038 277.03312246688438 0 277.03312246688438 392.48887338866189 0 0 0 0 56.523349368384515 77.826405445870478 0 77.826405445870478 -6.3159610385155247 0 0 0 0 17.911296653923273 -14.89181627545986 0 -14.89181627545986 -0.16697690446744673 0 0 0 0 -12.415684656797961 3.4874511004598716 0 3.4874511004598716 -0.25850192990134246 0 0 0 0 -42.156147772133409 3.7482531371570076 0 3.7482531371570076 67.979739522406817 0 0 0 0 -48.744310709631463 22.79897206264468 0 22.79897206264468 12.963830581546063 0 0 0 0 -78.698806193035125 34.529013489162026 0 34.529013489162026 -6.4590126837138087 0 0 0 0 -24.434072230651509 0.47370537835377036 0 0.47370537835377036 -15.752144309182768 0 0 0 0 -65.955637531809771 20.099484641148592 0 20.099484641148592 -1.5330126525368541 0 0 0 0 -41.186242978581078 11.054643607312897 0 11.054643607312897 0.66481531465512944 0 0 0 0 -402.00712436543472 -178.39740207139403 0 -178.39740207139403 7.1966161018426646 0 0 0 0 -390.86385848178543 -53.868593377337675 0 -53.868593377337675 -17.040182644304878 0 0 0 0 10.241241351541248 -35.779531868451159 0 -35.779531868451159 30.965120885775832 0 0 0 0 -9.413599407948908 -5.1509245709539186 0 -5.1509245709539186 6.9218964668047533 0 0 0 0 -173.44300833697343 8.5383071065698459 0 8.5383071065698459 -106.35248281731037 0 0 0 0 -456.32281385713213 7.8278667842896539 0 7.8278667842896539 47.309386569249909 0 0 0 0 -145.03313427540979 -144.28798578397345 0 -144.28798578397345 -0.017050181893864647 0 0 0 0 -53.344505735381972 40.913786592893302 0 40.913786592893302 58.250566026388697 0 0 0 0 -242.24389989220072 -161.54232278790732 0 -161.54232278790732 -71.507084267679602 0 0 0 0 -85.251504788189777 -6.8372675966093084 0 -6.8372675966093084 -0.26632227720256196 0 0 0 0 -41.820722515498346 23.148207141486637 0 23.148207141486637 -33.452081242998247 0 0 0 0 -8.5760851090778516 1.8306563837857652 0 1.8306563837857652 -1.9274664160991506 0 0 0 0 144.57028943660043 -31.747271857479063 0 -31.747271857479063 -109.26843178173294 0 0 0 0 14.966031828516861 26.202839247940574 0 26.202839247940574 3.2549347568565281 0 0 0 0 0.12171668038828898 -0.26049565664927599 0 -0.26049565664927599 -0.79837031196075259 0 0 0 0 317.0810194510268 342.92523968251771 0 342.92523968251771 25.752215232414528 0 0 0 0 209.7539164792106 20.729309563947027 0 20.729309563947027 -65.973438865948992 0 0 0 0 14.720739126394619 -40.411825939721894 0 -40.411825939721894 -55.546980294180685 0 0 0 0 14.019460088733467 -31.995579179711058 0 -31.995579179711058 -87.727951719110933 0 0 0 0 -267.10296081633714 -127.33110561387002 0 -127.33110561387002 -31.977390035492135 0 0 0 0 -250.33172965663834 -75.90071472467389 0 -75.90071472467389 2.4686681890452746 0 0 0 0 -110.20095485831553 -23.244610451656627 0 -23.244610451656627 -29.001502779057773 0 0 0 0 203.5480434584606 -94.530680514391861 0 -94.530680514391861 34.649926530895755 0 0 0 0 6.4803678092430346 -147.56273081633117 0 -147.56273081633117 61.064967425627401 0 0 0 0 -565.30902332853293 -105.17181216212339 0 -105.17181216212339 190.96208641130943 0 0 0 0 -299.13591854873448 -197.58257315240917 0 -197.58257315240917 181.51690050060279 0 0 0 0 -123.54288999166511 -300.74902484826725 0 -300.74902484826725 186.30541403507232 0 0 0 0 -143.72479737010144 -149.23332764183397 0 -149.23332764183397 216.80872023943812 0 0 0 0 229.28488650968939 -269.34266109719465 0 -269.34266109719465 183.47407619532896 0 0 0 0 270.69930980729987 -6.5026462642126717 0 -6.5026462642126717 172.07013827088667 0 0 0 0 757.11878592021822 194.22213552986796 0 194.22213552986796 131.55796533002285 0 0 0 0 256.81883554210071 -162.66607549155015 0 -162.66607549155015 121.54820596623904 0 0 0 0 424.02100521384273 201.63839054667915 0 201.63839054667915 252.32952310697874 0 0 0 0 572.43820066053013 74.985336543541052 0 74.985336543541052 82.382373387139523 0 0 0 0 167.90316447758596 -13.760689736118366 0 -13.760689736118366 62.123031268565683 0 0 0 0 322.45946784553234 128.01779209847155 0 128.01779209847155 107.31137783356826 0 0 0 0 -189.99251542381535 238.06397343058416 0 238.06397343058416 219.12566919352685 0 0 0 0 -3.4480770541565136 4.3998048023742768 0 4.3998048023742768 5.0621457692507761 0 0 0 0 -289.61720628471812 -72.446076184551202 0 -72.446076184551202 376.20100619126606 0 0 0 0 122.80390908466006 612.48337004527912 0 612.48337004527912 1306.7853821289318 0 0 0 0 -84.287222977696388 80.461526984216846 0 80.461526984216846 88.946558281764851 0 0 0 0 -2017.108676976346 -321.24251679866211 0 -321.24251679866211 703.52130269331974 0 0 0 0 -844.32057182815333 -341.94313747197884 0 -341.94313747197884 388.21377177032991 0 0 0 0 -990.04455141660583 -87.269068877591053 0 -87.269068877591053 363.65521984093357 0 0 0 0 -1093.4019701607176 -76.24090047829668 0 -76.24090047829668 408.36819511777139 0 0 0 0 -566.71450632151391 156.24862363233115 0 156.24862363233115 283.79527020207024 0 0 0 0 -1407.9785954884283 495.44009646018094 0 495.44009646018094 523.95777741598431 0 0 0 0 106.16276311830734 830.66137802763842 0 830.66137802763842 276.8036727919316 0 0 0 0 -342.05667487975734 330.68378097363166 0 330.68378097363166 -276.27856212819461 0 0 0 0 -265.48507506003079 -6.9317953934805701 0 -6.9317953934805701 -411.76446404137823 0 0 0 0 -581.65791411937971 8.0857108820346184 0 8.0857108820346184 58.920760064851493 0 0 0 0 -33.982024332522997 291.12086152559641 0 291.12086152559641 114.42728956017527 0 0 0 0 12.070575318823103 113.39802595199581 0 113.39802595199581 -17.651973458123393 0 0 0 0 70.592326105543179 195.75113699774511 0 195.75113699774511 46.220737290306715 0 0 0 0 103.71848016683361 212.08077613772639 0 212.08077613772639 33.835382078934344 0 0 0 0 92.970455071044853 240.08795816047677 0 240.08795816047677 81.185454778926214 0 0 0 0 0.8242934409645386 220.01957143558684 0 220.01957143558684 76.82614002659102 0 0 0 0 66.778202522700667 171.58718199016494 0 171.58718199016494 90.064491415425437 0 0 0 0 -79.200144582271008 78.56138864161548 0 78.56138864161548 94.53406821313888 0 0 0 0 -614.88776053446054 -297.71680837588792 0 -297.71680837588792 -97.37437709623191 0 0 0 0 -68.521278924188664 189.81701953204265 0 189.81701953204265 130.88181784775225 0 0 0 0 6.6069877337722573 160.13614312172285 0 160.13614312172285 126.33995497639989 0 0 0 0 78.911647176617407 104.137369129945 0 104.137369129945 112.31511394938389 0 0 0 0 44.952939651760971 142.90937155898973 0 142.90937155898973 68.125291544347419 0 0 0 0 33.345177828276064 137.09005046194216 0 137.09005046194216 84.856052104512855 0 0 0 0 49.37463987814408 124.73843248604317 0 124.73843248604317 25.713147675720393 0 0 0 0 26.869690347586584 77.821651588401437 0 77.821651588401437 -2.1152328411699273 0 0 0 0 50.288496128909173 116.97367155473694 0 116.97367155473694 31.399666267607245 0 0 0 0 12.832209579617484 50.108714513509767 0 50.108714513509767 4.3597844395553693 0 0 0 0 25.565675889729846 34.221269463372082 0 34.221269463372082 15.602350913060974 0 0 0 0 34.5188378682451 31.036526302440052 0 31.036526302440052 29.054607199228485 0 0 0 0 40.494573223986663 84.302250705473853 0 84.302250705473853 -63.5371074641007 0 0 0 0 -78.942974469639012 75.383833942098136 0 75.383833942098136 20.92640314502205 0 0 0 0 14.569151971426265 54.151848477447004 0 54.151848477447004 30.226387477396543 0 0 0 0 36.415656085824594 55.963419824031007 0 55.963419824031007 -27.77647224527027 0 0 0 0 15.911332839298666 108.44773071710927 0 108.44773071710927 100.91892774797452 0 0 0 0 82.822177748434115 145.93353371219609 0 145.93353371219609 66.720320316278958 0 0 0 0 10.838116011582315 121.03177598681941 0 121.03177598681941 77.972913372592302 0 0 0 0 80.089738150098128 141.66376180185398 0 141.66376180185398 77.930975325543841 0 0 0 0 -86.96314840525713 78.884725801240222 0 78.884725801240222 93.63154355311346 0 0 0 0 -68.710747114699345 -37.361388956388367 0 -37.361388956388367 -1.219371730949149 0 0 0 0 -70.018170182942413 28.973017216252629 0 28.973017216252629 41.210810905584367 0 0 0 0 -84.564860417551245 12.653201885877934 0 12.653201885877934 37.999240027558699 0 0 0 0 -55.38781488197759 19.998940418316849 0 19.998940418316849 22.298750839400682 0 0 0 0 -68.331054838938144 27.840544539385519 0 27.840544539385519 38.0358053027594 0 0 0 0 -434.30427823567879 24.839024718821747 0 24.839024718821747 118.23609447019408 0 0 0 0 -258.37114970289986 73.859396089974325 0 73.859396089974325 -31.603196775889955 0 0 0 0 -92.068451447565735 -2.9599932532818798 0 -2.9599932532818798 26.800661016402103 0 0 0 0 -68.875799887973699 31.325693699036492 0 31.325693699036492 37.616827243041371 0 0 0 0 -59.284169267179095 12.393692484729399 0 12.393692484729399 -0.40434431917674374 0 0 0 0 -101.23657984854071 61.82532274404366 0 61.82532274404366 17.250186630873941 0 0 0 0 -11.39931036474465 18.279181790147021 0 18.279181790147021 -6.831727814492865 0 0 0 0 -33.481381679395724 7.9774042336709385 0 7.9774042336709385 9.2317464857307527 0 0 0 0 -70.058064804048627 31.659313280601054 0 31.659313280601054 40.274553817860578 0 0 0 0 -29.893664961309298 3.982883215882012 0 3.982883215882012 6.2227447850378894 0 0 0 0 -41.944569174127537 -98.780637092797406 0 -98.780637092797406 159.14488564731437 0 0 0 0 -15.927515755669447 49.440142839968757 0 49.440142839968757 95.009254715550924 0 0 0 0 117.1036643229163 -230.40343999649485 0 -230.40343999649485 187.58959036117449 0 0 0 0 -13.163572664336868 2.0331824158020027 0 2.0331824158020027 6.2993956393997337 0 0 0 0 -41.711200787030975 52.23934003731847 0 52.23934003731847 256.85039507973124 0 0 0 0 -62.822685281542363 -170.44289938519796 0 -170.44289938519796 244.09733535665146 0 0 0 0 -57.665616329817567 -109.93369274363067 0 -109.93369274363067 328.26927398747648 0 0 0 0 -530.95147270392044 -48.479277348742471 0 -48.479277348742471 288.77593525024713 0 0 0 0 -240.90481005908805 -225.79339274203812 0 -225.79339274203812 382.09683930140454 0 0 0 0 53.448203626525356 -85.289918001217302 0 -85.289918001217302 33.095338898638147 0 0 0 0 -370.09218848485034 -33.478588654121268 0 -33.478588654121268 579.20852519522305 0 0 0 0 -121.39090112730628 169.60781923722971 0 169.60781923722971 -4.869208924981649 0 0 0 0 -399.70221490517724 -158.68172555297861 0 -158.68172555297861 49.944360016670544 0 0 0 0 -119.32196091019432 123.22064261301421 0 123.22064261301421 -191.33695879228617 0 0 0 0 -1181.7405883304455 260.04142799715919 0 260.04142799715919 131.92161517875502 0 0 0 0 -727.34333563466134 262.34778865501539 0 262.34778865501539 149.98733272225945 0 0 0 0 16.440362070394904 80.073419537793228 0 80.073419537793228 83.259772872760095 0 0 0 0 -127.0869141964522 -104.80907842174838 0 -104.80907842174838 331.81737659939972 0 0 0 0 -165.61590644468743 77.898950743751811 0 77.898950743751811 20.672755232313648 0 0 0 0 175.08282937477634 -9.4708268974209204 0 -9.4708268974209204 11.127159462594136 0 0 0 0 165.72796546063273 -143.6297584599713 0 -143.6297584599713 144.80183113699604 0 0 0 0 -34.73543864270323 84.235302029395825 0 84.235302029395825 262.78006820276642 0 0 0 0 -5.1896589861826214 38.753976209909524 0 38.753976209909524 34.102461157555808 0 0 0 0 -32.691795926060877 -71.333281178545803 0 -71.333281178545803 80.505649228551192 0 0 0 0 14.932341609455761 60.374240107325022 0 60.374240107325022 10.257477070343157 0 0 0 0 -19.821084287439589 50.853755859159719 0 50.853755859159719 82.083481793815736 0 0 0 0 36.386839855229482 98.25831805748021 0 98.25831805748021 63.019325756089529 0 0 0 0 -3.6925997062516274 2.7931394384278008 0 2.7931394384278008 1.3493218702325862 0 0 0 0 43.613738863961771 75.802973661498982 0 75.802973661498982 -56.690782746496552 0 0 0 0 -68.573563591460697 34.253342120209709 0 34.253342120209709 -23.718320768763078 0 0 0 0 -26.210258314124076 14.573942494593211 0 14.573942494593211 -5.4385119900107384 0 0 0 0 -93.528181830188259 99.995974049306824 0 99.995974049306824 -102.68346748535987 0 0 0 0 -2.7498736088383566 2.3220330103012401 0 2.3220330103012401 0.62567614440447983 0 0 0 0 21.53231332978612 155.27982050389983 0 155.27982050389983 63.230124495661585 0 0 0 0 21.62048193938972 -45.603410258023359 0 -45.603410258023359 342.47456780873472 0 0 0 0 3.4929057526564407 -2.0157796064490014 0 -2.0157796064490014 14.491533317782569 0 0 0 0 78.313711096168845 55.058022007815453 0 55.058022007815453 -156.47409063726082 0 0 0 0 14.98199444488273 49.704801059022429 0 49.704801059022429 40.036634624419094 0 0 0 0 1.3589676499614143 15.720963308413047 0 15.720963308413047 44.27540766189486 0 0 0 0 1.645147954023372 -4.822269062267651 0 -4.822269062267651 8.8668226224125135 0 0 0 0 257.63769148985011 255.30161833663669 0 255.30161833663669 195.78701499494491 0 0 0 0 286.60880724194521 652.92847217174813 0 652.92847217174813 1097.1501865173195 0 0 0 0 258.71230673330138 800.0858001726665 0 800.0858001726665 887.94919563274379 0 0 0 0 184.75267794285901 175.85323479406361 0 175.85323479406361 501.29355511664471 0 0 0 0 -152.10297631522553 690.87789025232451 0 690.87789025232451 2076.2989215809066 0 0 0 0 990.49265126312821 1702.0155826826067 0 1702.0155826826067 1754.2263341476282 0 0 0 0 4.8490385331295727 8.1596769445246906 0 8.1596769445246906 18.150934668716047 0 0 0 0 -196.93488718489243 -164.79463879882678 0 -164.79463879882678 1105.956988658967 0 0 0 0 -59.376119412452681 149.32430149453285 0 149.32430149453285 540.88805526238139 0 0 0 0 288.40182395874581 315.93672866706038 0 315.93672866706038 476.17254735759343 0 0 0 0 234.83979460450064 -136.68016985714348 0 -136.68016985714348 -33.924469770208816 0 0 0 0 57.620946332463063 293.11578144053055 0 293.11578144053055 521.11484891685541 0 0 0 0 19.194619993666151 15.412969767216339 0 15.412969767216339 -38.424574306822308 0 0 0 0 68.694405165530043 5.5502304628826096 0 5.5502304628826096 -152.78142822066729 0 0 0 0 62.774054843408521 4.8950932483057841 0 4.8950932483057841 -25.935335129266605 0 0 0 0 -39.925520454140496 224.23908678864973 0 224.23908678864973 -142.5224617999811 0 0 0 0 10.098410407260928 25.538542764911568 0 25.538542764911568 41.172149612372152 0 0 0 0 312.07845669176822 75.536116072016739 0 75.536116072016739 -249.16454607959895 0 0 0 0 -220.95301698133699 240.88054987912983 0 240.88054987912983 119.88761809669086 0 0 0 0 -444.7394545603529 368.94900388365204 0 368.94900388365204 63.661254269405617 0 0 0 0 -751.19931190929492 -156.37280022581399 0 -156.37280022581399 -1.2561619193511433 0 0 0 0 8.5512254909845069 62.411694249414722 0 62.411694249414722 3.0690394838384236 0 0 0 0 16.993064258869794 16.514263135668159 0 16.514263135668159 -44.416038160855464 0 0 0 0 31.986253024879261 3.0638878860117984 0 3.0638878860117984 -29.589018160128035 0 0 0 0 67.056531858848757 16.868560016097035 0 16.868560016097035 -31.616961171719595 0 0 0 0 65.356663711718284 63.7041268000321 0 63.7041268000321 -19.984541735364473 0 0 0 0 44.132943100667035 33.146773728975859 0 33.146773728975859 -43.006139114731923 0 0 0 0 37.921586394455517 31.048491850116989 0 31.048491850116989 -43.640407953811518 0 0 0 0 50.935674532280245 53.56316104169764 0 53.56316104169764 -78.562663340562722 0 0 0 0 1.5214364694047049 -4.0052196126840869 0 -4.0052196126840869 -5.1856030742429766 0 0 0 0 24.399234152995689 36.865518977729693 0 36.865518977729693 10.10365540888003 0 0 0 0 38.622896064291126 32.339782135175483 0 32.339782135175483 -47.929182968560781 0 0 0 0 18.017450196814025 85.839710698070121 0 85.839710698070121 -6.7750980543642072 0 0 0 0 65.947746538546198 56.881985144749706 0 56.881985144749706 -12.577238792189746 0 0 0 0 81.030397924259887 118.65008626940835 0 118.65008626940835 23.10141290503816 0 0 0 0 101.82923673869209 12.519213638121414 0 12.519213638121414 -11.32526972208143 0 0 0 0 103.46655659405224 88.064838310026971 0 88.064838310026971 8.4178324107197113 0 0 0 0 137.38661621301435 68.330796472346265 0 68.330796472346265 -1.3626783304353012 0 0 0 0 161.24796179076657 80.928727485497802 0 80.928727485497802 3.5404116703321051 0 0 0 0 142.31603934014856 158.40619110682383 0 158.40619110682383 34.066476960539148 0 0 0 0 357.90169598855641 26.403911967157057 0 26.403911967157057 -6.358549573138589 0 0 0 0 365.92641751006886 332.81100282572879 0 332.81100282572879 82.569765103471582 0 0 0 0 -7.7885473308633664 233.62144309830182 0 233.62144309830182 552.93845219044306 0 0 0 0 142.79051635084033 128.98447248627781 0 128.98447248627781 -15.591933477735438 0 0 0 0 -1213.1665247678029 814.96973183282171 0 814.96973183282171 1005.2331774672348 0 0 0 0 7.0234183660285794 -0.49381935461468629 0 -0.49381935461468629 -0.063121096899735107 0 0 0 0 158.14529614709318 622.98305969446665 0 622.98305969446665 375.87281774742587 0 0 0 0 78.938799332856433 59.126710116033792 0 59.126710116033792 46.658983175104368 0 0 0 0 503.29538224456337 426.5723874967789 0 426.5723874967789 132.49518071659259 0 0 0 0 238.46643174049677 -90.319279796196497 0 -90.319279796196497 390.77715306253231 0 0 0 0 19.294461932600825 -66.521233062223473 0 -66.521233062223473 138.62580810001236 0 0 0 0 -23.045178758737165 27.605956095412694 0 27.605956095412694 133.01357360385737 0 0 0 0 1755.9773662227672 -909.99091873337602 0 -909.99091873337602 240.16657225969539 0 0 0 0 -44.336038334236946 29.915971774069476 0 29.915971774069476 149.80880469229669 0 0 0 0 8.5576241669767228 -3.2903279710924949 0 -3.2903279710924949 3.2913858898255626 0 0 0 0 -60.404276898741955 18.943999173367047 0 18.943999173367047 144.76757669001017 0 0 0 0 -41.320563472778304 63.495558866663487 0 63.495558866663487 77.725772553761317 0 0 0 0 -39.253809523055679 12.653170596495329 0 12.653170596495329 119.32186641385488 0 0 0 0 -40.242657686278108 101.68594071088592 0 101.68594071088592 -56.108660706144292 0 0 0 0 25.517369305583998 85.998590909039194 0 85.998590909039194 77.174472896600491 0 0 0 0 -164.33827894135902 71.222563702867774 0 71.222563702867774 101.25092739703541 0 0 0 0 -111.54091880064516 -63.693555272675439 0 -63.693555272675439 114.82061322592926 0 0 0 0 -41.732814267379581 -19.655507282233884 0 -19.655507282233884 120.38472621846449 0 0 0 0 -68.563227280566934 -34.829735346320376 0 -34.829735346320376 55.268786753018503 0 0 0 0 -402.20346762656118 -8.6816375098351273 0 -8.6816375098351273 80.634577308141161 0 0 0 0 -194.62961178272235 142.51224947851006 0 142.51224947851006 -23.196512086047733 0 0 0 0 202.08842911486863 28.731068515589868 0 28.731068515589868 -8.977188980243227 0 0 0 0 -0.32327518886049234 -0.28655349475334901 0 -0.28655349475334901 -0.39629440751093625 0 0 0 0 -282.06460876720666 198.10024442563008 0 198.10024442563008 -3.0520895352037769 0 0 0 0 63.669010286626872 14.115653751669015 0 14.115653751669015 -29.346141025635575 0 0 0 0 51.790908457303885 28.956612341033178 0 28.956612341033178 -12.541309138865472 0 0 0 0 4.6042590281761591 4.7989321379186975 0 4.7989321379186975 -6.5050756202843161 0 0 0 0 -32.848656905589451 120.58307045431866 0 120.58307045431866 -223.05112588781049 0 0 0 0 -491.24552130096708 238.05961056074739 0 238.05961056074739 -49.820591948242509 0 0 0 0 -516.71216670805643 -184.89078988056758 0 -184.89078988056758 -35.453748301704763 0 0 0 0 0.80354648685130314 7.1119207839593059 0 7.1119207839593059 4.8567384473355446 0 0 0 0 11.871400486590574 29.839807238968206 0 29.839807238968206 -319.87085067573935 0 0 0 0 45.107048003705131 158.1544658439725 0 158.1544658439725 150.13105915034248 0 0 0 0 81.13392325892346 -143.63233941809449 0 -143.63233941809449 25.475189609613153 0 0 0 0 254.2963877117727 282.50423286650039 0 282.50423286650039 507.85948107798322 0 0 0 0 148.27209014580876 71.546765942657657 0 71.546765942657657 222.7171290127153 0 0 0 0 179.22460356909141 -69.985026946074868 0 -69.985026946074868 46.460710481391288 0 0 0 0 161.43974444147898 -38.017749805963831 0 -38.017749805963831 200.98676850205811 0 0 0 0 153.30161528571625 -194.37997622591502 0 -194.37997622591502 420.25465783377877 0 0 0 0 307.61195602989756 -228.0474779021024 0 -228.0474779021024 121.33458819559746 0 0 0 0 165.44998289793148 27.750211455841054 0 27.750211455841054 -45.351676927806693 0 0 0 0 220.15957277973939 -65.231284136345494 0 -65.231284136345494 69.157438862603158 0 0 0 0 253.13766600587405 -140.44338176669407 0 -140.44338176669407 58.062240877217846 0 0 0 0 153.7320425802609 -78.921315875020809 0 -78.921315875020809 23.871140913237468 0 0 0 0 173.34742600382015 -115.27389158345977 0 -115.27389158345977 22.685098930844106 0 0 0 0 102.70349036625703 -183.4728120643922 0 -183.4728120643922 91.368993161362596 0 0 0 0 120.79791051644133 -117.55233235993364 0 -117.55233235993364 26.501590819039848 0 0 0 0 202.04143602016848 -83.518302313779714 0 -83.518302313779714 40.813578283472452 0 0 0 0 156.27510058094049 -86.155018449600902 0 -86.155018449600902 51.19887818719144 0 0 0 0 81.363308570667868 -95.673345528375648 0 -95.673345528375648 63.693109178289887 0 0 0 0 -91.088509317603894 -111.6702261669343 0 -111.6702261669343 89.251189820512081 0 0 0 0 -76.792512538697338 -63.943569647657569 0 -63.943569647657569 -11.972947019312414 0 0 0 0 51.433639115079131 -87.122503701108144 0 -87.122503701108144 32.391831264088978 0 0 0 0 82.629700879595475 -150.44002208465827 0 -150.44002208465827 62.074499523874692 0 0 0 0 73.383509521314409 -95.618343847127107 0 -95.618343847127107 90.723934615001781 0 0 0 0 38.122822776611429 -146.67502207003417 0 -146.67502207003417 38.044081918341362 0 0 0 0 -113.14447816659231 -75.13773929432864 0 -75.13773929432864 104.90301370921952 0 0 0 0 84.017790100886486 -91.760068567753478 0 -91.760068567753478 86.578976693253935 0 0 0 0 72.242674779015942 -162.70574429436965 0 -162.70574429436965 124.55050173690051 0 0 0 0 103.11816320358776 -71.36919615539955 0 -71.36919615539955 107.24214157985989 0 0 0 0 161.00416773709003 -108.53234784507003 0 -108.53234784507003 119.98768080246373 0 0 0 0 283.64133680929081 -333.0492237616636 0 -333.0492237616636 77.824905956164002 0 0 0 0 -0.16725227899212314 1.3410473860456591 0 1.3410473860456591 4.144562477400882 0 0 0 0 -4.3298530414509173 3.2521455481566477 0 3.2521455481566477 14.632617681546819 0 0 0 0 2.0713052765631801 7.1930227385057606 0 7.1930227385057606 16.706639328302117 0 0 0 0 1.8944040270844198 9.3417004649663795 0 9.3417004649663795 17.939691123377997 0 0 0 0 3.852724181895212 9.853177857680123 0 9.853177857680123 16.886641443767815 0 0 0 0 3.3307028525450733 10.065698418480679 0 10.065698418480679 18.181534196497523 0 0 0 0 1.8564918196789222 9.0805086357722757 0 9.0805086357722757 19.430036080095306 0 0 0 0 3.8672708644169234 7.3742483003470909 0 7.3742483003470909 13.925186861016499 0 0 0 0 4.0322849678959756 8.0735955360005391 0 8.0735955360005391 17.016638097600662 0 0 0 0 1.4383640232335893 8.2063917892301106 0 8.2063917892301106 27.486596127753728 0 0 0 0 2.2319208137976716 7.1903892671263634 0 7.1903892671263634 15.117333939287136 0 0 0 0 -4.7990507058275398 -2.2561863027221989 0 -2.2561863027221989 7.1210402052674908 0 0 0 0 -0.22418198325613048 -4.8693118316441542 0 -4.8693118316441542 4.1940127366906381 0 0 0 0 -3.3719361837162296 -0.79612914944183899 0 -0.79612914944183899 3.1172738400964448 0 0 0 0 11.536674339018646 0.68224463690057746 0 0.68224463690057746 0.37421212396293413 0 0 0 0 3.0963970581360627 22.486158481246093 0 22.486158481246093 15.749384942675533 0 0 0 0 -3.6583169046392641 0.24950837832741968 0 0.24950837832741968 5.0011638510016212 0 0 0 0 2.344387885271658 0.59516819617870453 0 0.59516819617870453 -1.9147482581974202 0 0 0 0 -31.280786057846854 1.4039957685308764 0 1.4039957685308764 3.3700759470739285 0 0 0 0 -8.8248699731339002 9.4383829958169372 0 9.4383829958169372 6.2007252194089233 0 0 0 0 42.667415953837917 30.745489487657323 0 30.745489487657323 6.94096552994597 0 0 0 0 -9.8192049043864245 -12.240227862221218 0 -12.240227862221218 -0.17932984916842543 0 0 0 0 -33.364012335470761 -17.490715943036776 0 -17.490715943036776 -0.71832511781076391 0 0 0 0 0.58167410358146299 -33.99251158242987 0 -33.99251158242987 -22.560959628870478 0 0 0 0 13.007014634320853 15.248450416796764 0 15.248450416796764 15.30844976633017 0 0 0 0 -72.155137775203912 39.414453778619645 0 39.414453778619645 35.658214524657524 0 0 0 0 -3.1725988387188409 -90.313786375620111 0 -90.313786375620111 49.471161689027213 0 0 0 0 -174.2759238932631 -109.71490693457599 0 -109.71490693457599 106.90725783312519 0 0 0 0 308.59219689649763 -56.016087560667074 0 -56.016087560667074 -91.97427617428184 0 0 0 0 41.851583989704523 -346.08288338618058 0 -346.08288338618058 764.42211370255973 0 0 0 0 311.73362709523644 -158.90640206303215 0 -158.90640206303215 -30.772345940524247 0 0 0 0 149.42748077961733 575.53622905406519 0 575.53622905406519 1566.2343974575415 0 0 0 0 171.99125232094957 172.21925041435316 0 172.21925041435316 -48.34112827948411 0 0 0 0 84.845916091810068 -101.54167232224336 0 -101.54167232224336 2077.7618204889877 0 0 0 0 401.59759118065995 590.08302342306706 0 590.08302342306706 636.77584026707336 0 0 0 0 6.5420814847553004 5.5260972858620931 0 5.5260972858620931 6.1704325041109485 0 0 0 0 0.61128784483298659 577.27818361692334 0 577.27818361692334 2961.4615619041288 0 0 0 0 500.26907918509824 1250.6487304818329 0 1250.6487304818329 1666.1273524256248 0 0 0 0 196.76451776651083 1054.3109985891861 0 1054.3109985891861 2362.9964453479188 0 0 0 0 1.0917055228492245 1591.2293157135573 0 1591.2293157135573 1626.2433883432241 0 0 0 0 375.44098368844425 1350.1292939482883 0 1350.1292939482883 1749.5156657244479 0 0 0 0 577.47243103462097 1652.204100468658 0 1652.204100468658 1459.3923038794965 0 0 0 0 370.43156406199978 1427.7110978628225 0 1427.7110978628225 1232.4563913928141 0 0 0 0 285.7387752981158 1168.1326934089302 0 1168.1326934089302 1613.6357180759369 0 0 0 0 111.07162052064086 736.67068803114671 0 736.67068803114671 1277.3061545810779 0 0 0 0 759.01871208060766 696.57048533103807 0 696.57048533103807 165.63839671145251 0 0 0 0 32.372550380350731 287.56893976016181 0 287.56893976016181 916.91266378581349 0 0 0 0 361.29388780137015 978.34607122838679 0 978.34607122838679 892.15426841350563 0 0 0 0 74.464985023398185 180.266314498469 0 180.266314498469 58.23471970333776 0 0 0 0 111.19253748928895 516.76086757036683 0 516.76086757036683 545.09952509169671 0 0 0 0 -291.70926404378042 396.57101420603067 0 396.57101420603067 385.95862488141574 0 0 0 0 199.63049942861835 217.58513482709532 0 217.58513482709532 233.27425086857693 0 0 0 0 717.43210757363704 1407.6413531395483 0 1407.6413531395483 776.10423543012803 0 0 0 0 422.00384782713809 1088.9290100150247 0 1088.9290100150247 1078.0513603019717 0 0 0 0 940.71615429834492 1914.2040012515754 0 1914.2040012515754 1690.0134921013378 0 0 0 0 2194.5764733124233 1149.9509461049201 0 1149.9509461049201 81.775501567300125 0 0 0 0 1864.268695950715 781.05512222474454 0 781.05512222474454 1662.5755982461706 0 0 0 0 993.67633256473346 1347.3882044846468 0 1347.3882044846468 1710.3103353974075 0 0 0 0 876.55464532182668 1355.3033722875989 0 1355.3033722875989 2102.4322242520793 0 0 0 0 538.26628525459091 1748.6506909914533 0 1748.6506909914533 1687.9363698668021 0 0 0 0 -1.5032367876556236 1872.7477418686285 0 1872.7477418686285 1656.5252314831123 0 0 0 0 399.3297927381609 1750.3347567767214 0 1750.3347567767214 1642.8732322282594 0 0 0 0 445.88551306027512 1629.5482431706951 0 1629.5482431706951 1543.0605244493563 0 0 0 0 -172.28733890384319 184.38708711726031 0 184.38708711726031 1429.0560425233889 0 0 0 0 2.4617676162891939 0.27274174399896012 0 0.27274174399896012 0.78558950169882991 0 0 0 0 26.579341952841787 159.76355975795195 0 159.76355975795195 -363.95618414396813 0 0 0 0 -72.384621157762012 14.156612536629837 0 14.156612536629837 1165.4895283261831 0 0 0 0 100.97197577240877 410.3514669589058 0 410.3514669589058 1059.2369204622155 0 0 0 0 248.0804621836287 100.83950390268001 0 100.83950390268001 551.65173902052356 0 0 0 0 -27.640212898884783 366.52044173203103 0 366.52044173203103 503.46240778680976 0 0 0 0 -33.924021013732272 63.068146374213939 0 63.068146374213939 63.261315859221213 0 0 0 0 0.20317390879063169 73.33609531950151 0 73.33609531950151 14.105767008624753 0 0 0 0 -1.4889175186108332 91.157046959931904 0 91.157046959931904 -59.603439600403362 0 0 0 0 -48.57779245065467 -22.026983062285581 0 -22.026983062285581 -125.74689866301924 0 0 0 0 -7.082713017181959 118.79892429739994 0 118.79892429739994 2.3683542704748106 0 0 0 0 61.000886234396603 49.008274004405393 0 49.008274004405393 -45.383764583350057 0 0 0 0 -64.71348955394933 121.65316451921899 0 121.65316451921899 -84.228288590345983 0 0 0 0 -35.409476621549402 152.33703748067182 0 152.33703748067182 99.58578793970446 0 0 0 0 113.66121813093196 194.89203530064333 0 194.89203530064333 39.276828525402379 0 0 0 0 -81.646175235451665 -125.32047076190429 0 -125.32047076190429 24.094037348548227 0 0 0 0 -113.26910752723779 412.64803977401357 0 412.64803977401357 657.41972377197089 0 0 0 0 83.93339094996918 65.309679933729058 0 65.309679933729058 -243.92515107227518 0 0 0 0 -431.91216938027355 419.03994039585814 0 419.03994039585814 670.13862652795797 0 0 0 0 9.2089757464547688 2.7019541541924355 0 2.7019541541924355 0.38254435022919253 0 0 0 0 105.92660434107529 -12.035511167408913 0 -12.035511167408913 302.93939350987785 0 0 0 0 0.61731413507487076 6.1177360925993582 0 6.1177360925993582 6.411906204475784 0 0 0 0 -1102.2425242905592 94.724606061878148 0 94.724606061878148 565.35322048263333 0 0 0 0 -475.365199720487 356.85123200003363 0 356.85123200003363 -1.5717258963632048 0 0 0 0 -243.46822094814343 299.81676888663878 0 299.81676888663878 407.51524532920303 0 0 0 0 -283.12394250631041 146.60742699045295 0 146.60742699045295 -177.99874817329692 0 0 0 0 106.1556791998737 243.4797990454208 0 243.4797990454208 -47.473501695825689 0 0 0 0 14.669892580219312 -42.352790478014867 0 -42.352790478014867 708.91452661503718 0 0 0 0 -0.10759570817026542 185.48374787921239 0 185.48374787921239 667.82074375539742 0 0 0 0 184.33842355154047 219.05264401207933 0 219.05264401207933 287.1285650193131 0 0 0 0 -9.9333480734057957 158.6487986272441 0 158.6487986272441 268.4188915142131 0 0 0 0 0.185878737610436 299.15060216861156 0 299.15060216861156 -2.2059031416065409 0 0 0 0 72.722258595298626 255.5196200690898 0 255.5196200690898 -146.49610815753476 0 0 0 0 -75.182923898362787 319.48435064886507 0 319.48435064886507 -24.73809203568635 0 0 0 0 -12.050275328088901 279.11804533297072 0 279.11804533297072 -208.38965782210289 0 0 0 0 -0.072401087316393387 310.07501480988685 0 310.07501480988685 -295.62508016527499 0 0 0 0 -50.849557341600303 253.57063332821417 0 253.57063332821417 -146.36428919980847 0 0 0 0 52.067701166743063 123.3713210165588 0 123.3713210165588 -567.31729534800616 0 0 0 0 -3.205419435318845 -1.9399401531905767 0 -1.9399401531905767 0.30685164558037314 0 0 0 0 21.346508252594504 111.13475876664052 0 111.13475876664052 -208.60357658467547 0 0 0 0 19.992049574675548 7.104196463393464 0 7.104196463393464 5.6870009922058671 0 0 0 0 11.9835395342634 40.66008969484983 0 40.66008969484983 49.542096189696167 0 0 0 0 -0.059162273813853972 61.658380712910002 0 61.658380712910002 73.911683365886347 0 0 0 0 -88.066932662361069 37.650744967504579 0 37.650744967504579 98.671948819377576 0 0 0 0 -24.651068529405165 4.3127531556601753 0 4.3127531556601753 81.639053061859158 0 0 0 0 -14.206725777272482 -2.8519866630591082 0 -2.8519866630591082 16.679465426492982 0 0 0 0 22.922362777077069 -28.619876985215342 0 -28.619876985215342 38.400126685315627 0 0 0 0 17.070338340456971 30.045096457911882 0 30.045096457911882 34.929852070958276 0 0 0 0 11.54052573419176 57.438408428861294 0 57.438408428861294 49.921481945551932 0 0 0 0 -28.739279209374217 66.424566327958019 0 66.424566327958019 59.060249658323301 0 0 0 0 -5.5137287732504774 76.646039236940851 0 76.646039236940851 -64.918207807164436 0 0 0 0 4.173157250217173 13.740787219997159 0 13.740787219997159 21.741892275538333 0 0 0 0 -3.4381835988352805 3.9761097739520608 0 3.9761097739520608 8.8320215374651667 0 0 0 0 -5.240929341816809 9.7086709436625824 0 9.7086709436625824 30.342753519911639 0 0 0 0 30.257420498277497 23.426657846768194 0 23.426657846768194 3.9033127811853774 0 0 0 0 -48.337513525300892 114.92223120947165 0 114.92223120947165 -38.493245249754182 0 0 0 0 -54.226404356013518 99.841062100604177 0 99.841062100604177 -24.651649503426597 0 0 0 0 -38.958855854536523 100.20096125504642 0 100.20096125504642 -35.735417133262672 0 0 0 0 -58.465658645607618 146.31683084800443 0 146.31683084800443 -92.954371352541784 0 0 0 0 10.129245563546988 11.505428522794716 0 11.505428522794716 11.365875678169402 0 0 0 0 -89.867211444565328 84.78795883370185 0 84.78795883370185 23.107605642908311 0 0 0 0 -45.126503813757154 24.369766636031727 0 24.369766636031727 75.992526127069141 0 0 0 0 7.267876425287124 13.79380253508694 0 13.79380253508694 -1.6269590783990964 0 0 0 0 7.6920559728750959 85.073032404106925 0 85.073032404106925 -19.078878777050704 0 0 0 0 -246.3975703013748 5.3322929895507514 0 5.3322929895507514 46.379214763030177 0 0 0 0 -107.4078493121342 121.06368751353511 0 121.06368751353511 -51.908838914736407 0 0 0 0 -0.93831699097790988 -10.054843603562176 0 -10.054843603562176 -41.324428463238291 0 0 0 0 6.2312610011011422 14.982151449252711 0 14.982151449252711 17.639860801328126 0 0 0 0 -104.51482596082496 124.45374215948323 0 124.45374215948323 -48.352291004885046 0 0 0 0 -64.502107380016241 277.85691801545181 0 277.85691801545181 -108.51038663175132 0 0 0 0 -152.65852166744298 184.09914285927152 0 184.09914285927152 -87.230367937413121 0 0 0 0 -115.98032298934413 261.58326667559231 0 261.58326667559231 -106.77971360829542 0 0 0 0 -162.8089450602929 335.46870599786234 0 335.46870599786234 -75.081422939925687 0 0 0 0 76.232011042657177 150.76987417784039 0 150.76987417784039 305.07825442726607 0 0 0 0 0.035260814649294758 10.211454003062698 0 10.211454003062698 15.146847308697346 0 0 0 0 -653.11737761268341 252.27314662613981 0 252.27314662613981 86.592302795485011 0 0 0 0 -421.7098619111639 124.18801758479458 0 124.18801758479458 -47.240912260909681 0 0 0 0 792.05905666064791 -65.67833368359959 0 -65.67833368359959 -64.495783640231821 0 0 0 0 32.009478094027145 133.08785648877165 0 133.08785648877165 295.62996767803816 0 0 0 0 42.078374628719757 -21.355683347544982 0 -21.355683347544982 -40.654069316711684 0 0 0 0 8.049040447638788 5.7274889197623935 0 5.7274889197623935 0.14159114139209805 0 0 0 0 811.37208515922248 269.7593858136679 0 269.7593858136679 -78.192256271933729 0 0 0 0 244.58486131000973 506.2243513039557 0 506.2243513039557 409.37103165520602 0 0 0 0 422.56430164625635 250.47825628273858 0 250.47825628273858 -74.266514965644092 0 0 0 0 355.42111071763793 -62.965013459332113 0 -62.965013459332113 -63.369247648988221 0 0 0 0 30.429959971339485 76.155181257417553 0 76.155181257417553 -0.69862710162124131 0 0 0 0 195.53608279769833 161.21887471896844 0 161.21887471896844 58.487781911200727 0 0 0 0 35.992866349319229 129.84104649564688 0 129.84104649564688 16.761156823878991 0 0 0 0 -15.763962528668344 22.506798201648053 0 22.506798201648053 67.199676556341728 0 0 0 0 60.129469341773074 159.81289239491161 0 159.81289239491161 86.181706954346737 0 0 0 0 123.21958249832824 97.07792251396495 0 97.07792251396495 3.9127205013646744 0 0 0 0 388.97957896434309 222.97889419642524 0 222.97889419642524 -95.274969867488835 0 0 0 0 202.52434514004563 312.97263121964352 0 312.97263121964352 -121.01630052561086 0 0 0 0 1143.6304326406535 330.30526336542607 0 330.30526336542607 -615.27013939748576 0 0 0 0 873.61986281599093 -299.12134073111156 0 -299.12134073111156 13.699851387660601 0 0 0 0 -391.62297071168723 1216.1427663478571 0 1216.1427663478571 201.15514724713285 0 0 0 0 3.3895471628784435 -58.960164358737529 0 -58.960164358737529 223.34531646224787 0 0 0 0 1.6568807182546834 -3.2073512278369236 0 -3.2073512278369236 -2.0319623631946513 0 0 0 0 36.17468597694824 125.33489979970909 0 125.33489979970909 235.52033848099381 0 0 0 0 -142.15896301130124 -55.063344118100758 0 -55.063344118100758 -8.7656469555950025 0 0 0 0 149.61454341129865 77.011001352831954 0 77.011001352831954 -135.99482355589862 0 0 0 0 23.555544964583532 268.86420091661057 0 268.86420091661057 243.68889573810156 0 0 0 0 19.043371190143034 7.6588555592438254 0 7.6588555592438254 2.6870522326599371 0 0 0 0 -42.698481022569467 -107.63976843804267 0 -107.63976843804267 983.30239957232277 0 0 0 0 -92.632010256842477 108.14005199100211 0 108.14005199100211 50.846088848767977 0 0 0 0 114.7714513373503 43.083917438238132 0 43.083917438238132 -134.28627844702351 0 0 0 0 128.43932300026063 199.96905179253372 0 199.96905179253372 55.207960717496462 0 0 0 0 3.5753959879135095 38.772290378756537 0 38.772290378756537 33.964160028128262 0 0 0 0 -97.691013667688821 91.664913986591273 0 91.664913986591273 67.145978059026675 0 0 0 0 -38.849030560721985 74.712057947554655 0 74.712057947554655 50.06813980384004 0 0 0 0 240.67169744372404 -25.099132294782066 0 -25.099132294782066 -100.75202142320632 0 0 0 0 -51.463416053651599 114.22140855548423 0 114.22140855548423 62.799805152578756 0 0 0 0 368.7744219898741 573.58445551183559 0 573.58445551183559 158.31719637702918 0 0 0 0 -2.5194020257011545 3.4126977927265898 0 3.4126977927265898 1.9745410698242836 0 0 0 0 778.46135356707964 271.08752190426458 0 271.08752190426458 120.22851461725077 0 0 0 0 -340.60136619098921 -7.1871611332180692 0 -7.1871611332180692 141.78509450200363 0 0 0 0 -324.90553469036422 -128.88700144358245 0 -128.88700144358245 77.833388309256407 0 0 0 0 -133.98969482933171 51.706581651233137 0 51.706581651233137 100.39395028546278 0 0 0 0 383.78028651216664 205.90497905767279 0 205.90497905767279 -48.6196162054257 0 0 0 0 83.930078669363866 270.44871012930525 0 270.44871012930525 184.34768583554978 0 0 0 0 -146.56899093564425 85.545285725856957 0 85.545285725856957 111.71848818380931 0 0 0 0 825.242044245344 490.38690217660132 0 490.38690217660132 227.09032372102956 0 0 0 0 -64.418091610690169 53.082842942596727 0 53.082842942596727 51.134597539091345 0 0 0 0 -102.27379022187961 52.452296432544244 0 52.452296432544244 79.864185668702703 0 0 0 0 0.52213634125655517 78.098822400628706 0 78.098822400628706 31.997139816216077 0 0 0 0 -69.760885529423831 93.44926988867519 0 93.44926988867519 51.729576135054231 0 0 0 0 -68.294682415551506 35.839888027650886 0 35.839888027650886 38.526457645377377 0 0 0 0 -120.35382786247646 2.3145381877402542 0 2.3145381877402542 29.59155021267361 0 0 0 0 -156.10351468253066 -108.76571599737144 0 -108.76571599737144 -51.404041668341961 0 0 0 0 -210.98166004687664 3.0257453899248503 0 3.0257453899248503 77.870814105932368 0 0 0 0 -73.240782876615413 19.007217829741421 0 19.007217829741421 -89.532871150244318 0 0 0 0 -71.875867203620146 70.236631617393869 0 70.236631617393869 44.375047906971304 0 0 0 0 23.529649900738534 19.01409665295202 0 19.01409665295202 5.9848299890512919 0 0 0 0 -81.096997749962611 20.579930640371458 0 20.579930640371458 37.069224857594236 0 0 0 0 -77.948607590908068 72.399120647256495 0 72.399120647256495 102.17711411530036 0 0 0 0 -53.532932583024376 79.006484403878858 0 79.006484403878858 15.822550024546217 0 0 0 0 -56.271621207764838 83.318561481886718 0 83.318561481886718 90.003474326047581 0 0 0 0 1.400182040175423 83.072090947243851 0 83.072090947243851 61.054814413262648 0 0 0 0 -9.1535085673967842 76.776961395567923 0 76.776961395567923 65.741612642537802 0 0 0 0 -2.886773934638768 125.60176548396703 0 125.60176548396703 90.779438249766827 0 0 0 0 -7.7903350520064123 77.859484366079414 0 77.859484366079414 43.851685426969198 0 0 0 0 -15.699451059117564 75.596043960053066 0 75.596043960053066 33.260020776448073 0 0 0 0 27.460026014676259 86.645514873205684 0 86.645514873205684 50.688680571853183 0 0 0 0 1.1682526804943336 108.26506551867351 0 108.26506551867351 74.247848343555233 0 0 0 0 -60.569659399317715 53.294284249159759 0 53.294284249159759 64.953987688803011 0 0 0 0 33.896257148619043 104.07721808780843 0 104.07721808780843 63.057619913164672 0 0 0 0 40.035553128342144 91.441477451997343 0 91.441477451997343 46.566725888071232 0 0 0 0 9.3121571162233465 29.98075865610727 0 29.98075865610727 -8.8314603433297378 0 0 0 0 27.971484828856774 63.029782779001835 0 63.029782779001835 41.586190809488471 0 0 0 0 -19.226644257520093 55.130091854542115 0 55.130091854542115 58.798190738245466 0 0 0 0 218.48479470329767 96.056032838296233 0 96.056032838296233 57.2075935160874 0 0 0 0 -16.576449450191291 37.217987051564961 0 37.217987051564961 33.193540739728405 0 0 0 0 -39.554823834987957 27.928506148911595 0 27.928506148911595 27.767576352743873 0 0 0 0 -8.0979669554290012 -180.97545051023826 0 -180.97545051023826 181.89168984273056 0 0 0 0 609.26602503258619 382.04732079721725 0 382.04732079721725 22.329544001171598 0 0 0 0 270.20466769739869 148.23616851963925 0 148.23616851963925 -41.926226149771537 0 0 0 0 417.55990159967041 492.81932174288522 0 492.81932174288522 370.34237782869604 0 0 0 0 527.86990786030947 710.59460434586617 0 710.59460434586617 347.91142377715005 0 0 0 0 1092.1646409621653 408.19746217710076 0 408.19746217710076 27.315649693831801 0 0 0 0 425.49228895432316 156.81740331359106 0 156.81740331359106 -120.07859657988047 0 0 0 0 -26.883472236057443 32.551304773501755 0 32.551304773501755 37.18012952625817 0 0 0 0 -221.52916417623055 -100.0651656362752 0 -100.0651656362752 184.13995925435847 0 0 0 0 47.145351517188828 110.14136192230399 0 110.14136192230399 62.477374422816865 0 0 0 0 64.480993731674971 84.235703051301243 0 84.235703051301243 51.129395438416395 0 0 0 0 -34.222733002064416 30.660867439735568 0 30.660867439735568 23.560063264596224 0 0 0 0 10.164598092109998 12.50712448549185 0 12.50712448549185 6.6634114043799144 0 0 0 0 264.49150732903217 164.00785071629616 0 164.00785071629616 -89.837914535644813 0 0 0 0 2.3767759355396265 -320.47925549113438 0 -320.47925549113438 748.86887302311516 0 0 0 0 52.222674548778741 148.41437326268397 0 148.41437326268397 -38.120923102542292 0 0 0 0 -6.9916731088160304 58.911161759164315 0 58.911161759164315 11.304412322724602 0 0 0 0 -37.813677698402714 40.250930754138437 0 40.250930754138437 25.414053168016508 0 0 0 0 58.035970552256913 82.870600850481424 0 82.870600850481424 47.362835432172233 0 0 0 0 -95.867072905668465 -7.14974685497873 0 -7.14974685497873 19.5920751472745 0 0 0 0 -27.098865028948552 26.267877468094753 0 26.267877468094753 25.009363933788478 0 0 0 0 3.5414964885567315 86.970508603383067 0 86.970508603383067 46.563270276140678 0 0 0 0 -4.5412451573635337 3.6430912201516321 0 3.6430912201516321 4.2471360950292194 0 0 0 0 214.82244188617187 319.94043306221374 0 319.94043306221374 39.257464945443644 0 0 0 0 -9.1599988301874191 23.989833676029214 0 23.989833676029214 11.029051569812809 0 0 0 0 51.05377603728266 242.04470688031506 0 242.04470688031506 505.13389749797807 0 0 0 0 0.5245668301930948 0.61753679972967745 0 0.61753679972967745 -2.5442285972878871 0 0 0 0 108.97063980574057 238.88565688845119 0 238.88565688845119 114.76842666661105 0 0 0 0 -50.229621262319796 58.986277790174441 0 58.986277790174441 53.599249957017861 0 0 0 0 39.219870261735878 242.1349441273544 0 242.1349441273544 129.67988081461226 0 0 0 0 126.80132038527518 29.668016741103202 0 29.668016741103202 383.80622058313747 0 0 0 0 66.343447196355555 182.70037377795961 0 182.70037377795961 146.03441238199593 0 0 0 0 288.42003583186306 18.772076966619352 0 18.772076966619352 32.905352764351846 0 0 0 0 163.48795682103082 170.49144725280712 0 170.49144725280712 197.56653868631111 0 0 0 0 -120.32785969487668 90.56361629118328 0 90.56361629118328 158.53372987749754 0 0 0 0 244.64384409252671 183.21101075553452 0 183.21101075553452 -148.631967473244 0 0 0 0 -73.376931833823619 112.58366086755996 0 112.58366086755996 111.36815429114358 0 0 0 0 24.817786483952659 64.394149081068463 0 64.394149081068463 44.20976355705352 0 0 0 0 24.021891713651712 62.357815125542402 0 62.357815125542402 42.057321837011841 0 0 0 0 21.748886645771563 63.094257906370331 0 63.094257906370331 47.525146115580355 0 0 0 0 20.798155206692172 60.437309457360243 0 60.437309457360243 43.900891875746311 0 0 0 0 -16.189439389151687 14.956431932599855 0 14.956431932599855 -11.530002686694388 0 0 0 0 47.265447520177986 277.59790939499362 0 277.59790939499362 205.70700732598198 0 0 0 0 -63.477602452301653 177.84204034828872 0 177.84204034828872 231.34811681456631 0 0 0 0 -59.323849055115716 244.68801571454242 0 244.68801571454242 275.08256970678485 0 0 0 0 -78.323252603178844 172.80957776171272 0 172.80957776171272 183.46872873530447 0 0 0 0 -156.82939884572988 132.89918604955892 0 132.89918604955892 199.69306362994394 0 0 0 0 -40.921041661807976 202.08806237068347 0 202.08806237068347 205.92762534358189 0 0 0 0 -17.711941303568892 225.75757168648124 0 225.75757168648124 170.70355090274097 0 0 0 0 40.155904401675798 223.02918421504 0 223.02918421504 122.99005683918222 0 0 0 0 -25.464936155090982 224.50760342972353 0 224.50760342972353 145.74013353243208 0 0 0 0 -31.6501877871342 214.79085955343908 0 214.79085955343908 162.6110239066038 0 0 0 0 57.311679582996476 240.59398722622791 0 240.59398722622791 152.60720686227432 0 0 0 0 53.216957574280968 252.39952283047387 0 252.39952283047387 159.62100076890238 0 0 0 0 53.222256788641971 249.20348530132105 0 249.20348530132105 131.33122745022774 0 0 0 0 23.813238210059353 215.69157069332869 0 215.69157069332869 94.62461362456088 0 0 0 0 -17.133227848282331 229.20312170369016 0 229.20312170369016 169.61129650735529 0 0 0 0 251.31921573404543 227.49694722643835 0 227.49694722643835 97.091353015290224 0 0 0 0 120.46907814201404 123.73767805510579 0 123.73767805510579 152.82412698251028 0 0 0 0 447.25739502780698 113.00402955317213 0 113.00402955317213 148.46455397354293 0 0 0 0 410.56948261775688 386.31463947028169 0 386.31463947028169 277.71417743177153 0 0 0 0 156.76574763340977 350.17640262556233 0 350.17640262556233 248.30024183233036 0 0 0 0 212.05866486336163 208.22010492891422 0 208.22010492891422 138.32241117500234 0 0 0 0 149.13435160658992 375.62853134644683 0 375.62853134644683 557.96449937659781 0 0 0 0 6.5624386497511296 202.05686413008516 0 202.05686413008516 349.50912724655791 0 0 0 0 404.35261725388273 466.17566401580143 0 466.17566401580143 -403.42218241251248 0 0 0 0 66.817443164276483 -83.797171263307973 0 -83.797171263307973 563.91177497647004 0 0 0 0 413.31123931992124 515.43543527899783 0 515.43543527899783 -691.98671271203057 0 0 0 0 9.9633396289994494 3.1656510907916697 0 3.1656510907916697 -1.7085775771954843 0 0 0 0 -55.201097273245978 64.405539528081135 0 64.405539528081135 36.672125240031164 0 0 0 0 58.934189196799707 0.53545887184372987 0 0.53545887184372987 50.792774171684869 0 0 0 0 -119.7033337363755 72.057163929661328 0 72.057163929661328 78.172026747197378 0 0 0 0 -1.1958837210804631 230.82594552700721 0 230.82594552700721 244.23806940381473 0 0 0 0 -142.28212786560835 102.94555622396365 0 102.94555622396365 196.81961955878069 0 0 0 0 -83.780847393885779 -13.089020829873334 0 -13.089020829873334 276.41177402898029 0 0 0 0 -108.4743370598153 186.49798634216131 0 186.49798634216131 335.97160704094131 0 0 0 0 -115.66862346693233 104.27468634523757 0 104.27468634523757 135.47158494620817 0 0 0 0 -136.74926300908555 139.09354893268028 0 139.09354893268028 149.76884874778625 0 0 0 0 -104.77697905688547 196.27597161337326 0 196.27597161337326 232.70458215104009 0 0 0 0 -145.36923496765667 114.91440333382343 0 114.91440333382343 179.84426061983686 0 0 0 0 -232.6684222228505 -10.712547783085029 0 -10.712547783085029 143.462254279013 0 0 0 0 -156.52424692068598 123.51455321525282 0 123.51455321525282 169.80925905480399 0 0 0 0 -225.95010725432076 24.666783792898059 0 24.666783792898059 92.889155588549329 0 0 0 0 -161.48871125854203 -25.745694589029881 0 -25.745694589029881 -18.88761723828793 0 0 0 0 -184.22659284653491 24.180331051262328 0 24.180331051262328 69.788253156351857 0 0 0 0 -17.346398060078521 -2.7323816167580759 0 -2.7323816167580759 -0.49996891100727225 0 0 0 0 -185.95527025987576 26.478942399020525 0 26.478942399020525 73.360421278572176 0 0 0 0 12.425401756844082 55.129684093670008 0 55.129684093670008 42.471903770954981 0 0 0 0 -59.529830797001452 25.499708607512119 0 25.499708607512119 25.442372596596698 0 0 0 0 -23.273898434859689 42.916364572397868 0 42.916364572397868 26.423743482911448 0 0 0 0 48.948166599751858 123.26254631067786 0 123.26254631067786 55.045624674603459 0 0 0 0 41.995738582103513 43.863395196865895 0 43.863395196865895 26.216966601728927 0 0 0 0 -339.59305455474532 -149.29675378564571 0 -149.29675378564571 28.247025393378863 0 0 0 0 -185.946350091559 -23.118394059405546 0 -23.118394059405546 -38.007794410412316 0 0 0 0 10.058810451617859 9.2000438953829189 0 9.2000438953829189 6.3464359939202097 0 0 0 0 82.270747271351865 126.82012308125559 0 126.82012308125559 -3.7223978096735664 0 0 0 0 -317.84699651600386 3.4345940285274992 0 3.4345940285274992 101.67933285983236 0 0 0 0 -24.889893588212111 71.313993943223778 0 71.313993943223778 49.770079837399294 0 0 0 0 107.92289971088758 62.165601480563055 0 62.165601480563055 37.433626422542147 0 0 0 0 131.76017130279797 144.72463234210591 0 144.72463234210591 70.286725223704707 0 0 0 0 26.450218301295536 104.12081447320816 0 104.12081447320816 74.061975050673936 0 0 0 0 -50.932145518716425 94.651795255878824 0 94.651795255878824 64.336450302856974 0 0 0 0 5.9354915068567138 84.95798003904406 0 84.95798003904406 54.921172817523313 0 0 0 0 0.26590096049767453 77.657073166927148 0 77.657073166927148 93.439403522352222 0 0 0 0 172.69567782874219 160.98240621017612 0 160.98240621017612 20.838607548561413 0 0 0 0 20.238223212581943 139.36680054135468 0 139.36680054135468 120.35728885099525 0 0 0 0 -591.07638115237751 720.33924386720355 0 720.33924386720355 -323.39277800948184 0 0 0 0 0.94327877525519455 11.990269893736482 0 11.990269893736482 11.092261669889723 0 0 0 0 -97.858634575102769 -55.26338790551381 0 -55.26338790551381 59.949294563999501 0 0 0 0 -650.05883665061265 675.1526019452358 0 675.1526019452358 -53.829158483247738 0 0 0 0 -150.14443435904104 764.52276993323903 0 764.52276993323903 -145.82615589744091 0 0 0 0 -978.93313280550501 137.32674699935887 0 137.32674699935887 -250.82492484764043 0 0 0 0 -613.54686710673559 395.86080745381332 0 395.86080745381332 240.34710883445223 0 0 0 0 -722.25162109499433 582.19582069883472 0 582.19582069883472 277.34400218873634 0 0 0 0 -65.999334042796363 199.3635831779942 0 199.3635831779942 135.82299476308981 0 0 0 0 -228.94347138381272 109.81365117813766 0 109.81365117813766 168.86269421961333 0 0 0 0 37.851041930840964 93.109676173149126 0 93.109676173149126 63.059682414091867 0 0 0 0 -1446.1410474049262 222.17856946399843 0 222.17856946399843 311.25669380833278 0 0 0 0 254.56279041775269 197.14408853015993 0 197.14408853015993 64.830669953866163 0 0 0 0 -63.592112322368102 97.190975606191785 0 97.190975606191785 75.187129385557427 0 0 0 0 308.93509533010729 60.426950678094727 0 60.426950678094727 274.46826120183687 0 0 0 0 1.8446509353514173 18.583503026626744 0 18.583503026626744 9.3770373915860432 0 0 0 0 -1055.8826627208036 165.40645368881815 0 165.40645368881815 359.0085505218176 0 0 0 0 -830.0157868260867 -222.2397304399783 0 -222.2397304399783 196.82800215922452 0 0 0 0 -712.68702573543487 444.78856656854259 0 444.78856656854259 239.26097033574479 0 0 0 0 -1181.011998758273 458.04343689770758 0 458.04343689770758 -12.89862238621572 0 0 0 0 -948.411118363485 -128.82876710453274 0 -128.82876710453274 309.91571717604529 0 0 0 0 -1605.8196731512717 -756.52915228773963 0 -756.52915228773963 228.24602439603768 0 0 0 0 -995.33090267086118 -360.80199620695203 0 -360.80199620695203 -760.78152928187046 0 0 0 0 -868.24545715277782 -339.60180282805231 0 -339.60180282805231 -116.91036241891561 0 0 0 0 -538.04716152054971 2.3248562805592883 0 2.3248562805592883 297.48015904880594 0 0 0 0 -832.24493554669607 -143.76815565067227 0 -143.76815565067227 271.65455080691027 0 0 0 0 -545.24963284247497 -286.35930407105479 0 -286.35930407105479 262.07564870992974 0 0 0 0 -563.4738584116003 -278.48219752125624 0 -278.48219752125624 205.61517200968228 0 0 0 0 -1104.8883465169783 -502.24167206314451 0 -502.24167206314451 330.29341517996363 0 0 0 0 -1098.2907497563283 -652.44629198389885 0 -652.44629198389885 87.880928189260885 0 0 0 0 -1581.445854377881 -323.46694722627308 0 -323.46694722627308 548.13856581924483 0 0 0 0 944.6340836757372 343.70020884496626 0 343.70020884496626 -333.21537665084179 0 0 0 0 778.47144292265875 148.23685826151632 0 148.23685826151632 565.70927204122199 0 0 0 0 690.36532367419568 29.158770518348319 0 29.158770518348319 633.62618941627443 0 0 0 0 1179.7796124628512 -146.57867851480842 0 -146.57867851480842 650.73832204734208 0 0 0 0 1126.7339494791813 112.69295261264779 0 112.69295261264779 912.23474081029417 0 0 0 0 1547.0586426034279 181.82535138919775 0 181.82535138919775 553.25680525886128 0 0 0 0 1166.4956302527571 558.60586040801718 0 558.60586040801718 874.06123555584418 0 0 0 0 1950.7942371582612 593.70989271719009 0 593.70989271719009 873.28904031205275 0 0 0 0 1095.1466947391455 374.91479166052886 0 374.91479166052886 587.68746164190816 0 0 0 0 612.1682129597757 332.77523062023101 0 332.77523062023101 326.48328194141504 0 0 0 0 733.99458600479829 276.14657827372957 0 276.14657827372957 352.39501360993017 0 0 0 0 1102.6449433034577 502.48134304015548 0 502.48134304015548 471.84522611866123 0 0 0 0 523.00399721815484 38.227460607784451 0 38.227460607784451 325.18609240304795 0 0 0 0 468.58666165963223 -121.64036695935647 0 -121.64036695935647 213.07989054574864 0 0 0 0 982.91288060976512 -84.62527209957625 0 -84.62527209957625 338.07871871336829 0 0 0 0 24.356039250618778 -108.68198989366647 0 -108.68198989366647 268.67138913087547 0 0 0 0 336.42406455706805 -350.33125996003218 0 -350.33125996003218 390.02269736744347 0 0 0 0 -107.16469987966411 -426.6567163017462 0 -426.6567163017462 309.97373092715861 0 0 0 0 -573.36740551778348 -206.5771120457066 0 -206.5771120457066 349.12182387274515 0 0 0 0 -144.43976579193259 -95.823242913553258 0 -95.823242913553258 312.97443939324148 0 0 0 0 -547.50433280633843 -264.83195235194398 0 -264.83195235194398 519.79437749990029 0 0 0 0 76.477691694453824 94.165105998137733 0 94.165105998137733 632.50488307684464 0 0 0 0 -540.47620068309789 23.458372489196336 0 23.458372489196336 553.24956022202969 0 0 0 0 535.68233694770606 -313.84307174913556 0 -313.84307174913556 716.72728784603532 0 0 0 0 338.93035672341648 -72.629314581732615 0 -72.629314581732615 463.16086492973409 0 0 0 0 61.494449708698085 -350.07121957966592 0 -350.07121957966592 582.88360258413013 0 0 0 0 736.33405451633735 -22.209174929768778 0 -22.209174929768778 702.13665531548031 0 0 0 0 271.1978118672414 -188.3313400138868 0 -188.3313400138868 1034.470337377832 0 0 0 0 270.73044316680171 332.3869207961834 0 332.3869207961834 997.92808240972772 0 0 0 0 -70.765055019495776 125.72786537435604 0 125.72786537435604 1068.443476715649 0 0 0 0 662.94862462507444 22.746172643412137 0 22.746172643412137 1219.9577723553521 0 0 0 0 -195.12588088698976 375.04413569290773 0 375.04413569290773 591.91680333132126 0 0 0 0 -219.34141131307115 -159.99610854900675 0 -159.99610854900675 592.06894878821913 0 0 0 0 -218.50162993921549 689.75191395361617 0 689.75191395361617 342.95081964285782 0 0 0 0 -617.97874295563088 188.35381403064093 0 188.35381403064093 724.12642413581489 0 0 0 0 812.52317542216042 623.68107067872188 0 623.68107067872188 916.31612056637096 0 0 0 0 246.71429450790674 529.5959386651266 0 529.5959386651266 1363.8593963552266 0 0 0 0 261.00470429300913 472.07454115341534 0 472.07454115341534 628.27632152740262 0 0 0 0 171.44888293271651 804.98496477137087 0 804.98496477137087 841.55332744229236 0 0 0 0 299.26852321772822 517.60666766096983 0 517.60666766096983 529.6380339062307 0 0 0 0 720.17475011534407 936.52844347272185 0 936.52844347272185 946.58092856025542 0 0 0 0 714.45517878615647 866.15405764619936 0 866.15405764619936 1237.7035827934319 0 0 0 0 1577.3244229273259 716.84286624788365 0 716.84286624788365 336.18805774266366 0 0 0 0 1571.7384503460198 882.46352587276488 0 882.46352587276488 889.21290690347087 0 0 0 0 2460.6781755905831 1034.8867103856173 0 1034.8867103856173 914.05332269812061 0 0 0 0 2748.9414998492575 1699.5888446478057 0 1699.5888446478057 2421.4846328946296 0 0 0 0 1209.4898132985109 625.93223958087037 0 625.93223958087037 2099.1838980261236 0 0 0 0 2197.8361905680795 876.72015714613372 0 876.72015714613372 2056.3896091366769 0 0 0 0 2521.4115555370954 305.01135746401269 0 305.01135746401269 2849.0980609378312 0 0 0 0 1130.1311475004404 902.69551535332721 0 902.69551535332721 1790.9107173587545 0 0 0 0 851.37414161575725 506.05226715808385 0 506.05226715808385 1235.1898091712715 0 0 0 0 1004.8722955853445 -55.16058878050535 0 -55.16058878050535 1939.0339104540762 0 0 0 0 756.07805104432191 312.89312190024793 0 312.89312190024793 1443.103647868149 0 0 0 0 1388.6843063656706 320.8693717768183 0 320.8693717768183 1489.5803609944414 0 0 0 0 1965.4805164759455 -221.06379822903546 0 -221.06379822903546 2043.8158271202119 0 0 0 0 1336.7464968173153 419.05058915273548 0 419.05058915273548 2566.4014324485906 0 0 0 0 2434.6139130493539 676.13510068184405 0 676.13510068184405 1956.2157599598868 0 0 0 0 1522.8499183533422 302.96543344299425 0 302.96543344299425 1434.2486678914283 0 0 0 0 1150.1621183563548 -45.871812452678569 0 -45.871812452678569 1492.5471936531831 0 0 0 0 1759.1684907519229 -2.6418898529082071 0 -2.6418898529082071 918.62218015640974 0 0 0 0 1508.6937542589294 421.92858845554292 0 421.92858845554292 1257.9736149527598 0 0 0 0 737.86239235225366 -58.553714839083113 0 -58.553714839083113 1160.9822546497453 0 0 0 0 1237.157081788464 -220.5111907098908 0 -220.5111907098908 1158.7837509886594 0 0 0 0 1009.4447082054394 1021.4326172952715 0 1021.4326172952715 1630.1043932583416 0 0 0 0 1380.2406081530498 562.1641105554736 0 562.1641105554736 1213.4289205220412 0 0 0 0 2432.3608857443905 115.31150463043014 0 115.31150463043014 1353.4499913490436 0 0 0 0 2322.1939983060001 1081.1415059256542 0 1081.1415059256542 1499.2705368545139 0 0 0 0 2525.4199910585594 775.15641116601182 0 775.15641116601182 1773.7975596291944 0 0 0 0 2908.1078856815002 33.667652791598812 0 33.667652791598812 2803.784546478535 0 0 0 0 3070.9340591318614 2379.3592614688096 0 2379.3592614688096 2848.0056706428295 0 0 0 0 4025.1121969193337 1274.8018799324636 0 1274.8018799324636 1939.2891638035362 0 0 0 0 -212.33875300350337 -282.84158287798346 0 -282.84158287798346 2330.7747865942074 0 0 0 0 -1594.9801561267814 1775.5760708583402 0 1775.5760708583402 5391.9208960278193 0 0 0 0 719.32055871706689 685.82378329178755 0 685.82378329178755 1584.2944933112594 0 0 0 0 1481.0447480422154 1877.3504884458089 0 1877.3504884458089 2692.406837398652 0 0 0 0 158.59914530492824 -212.65644900585903 0 -212.65644900585903 684.13742170971818 0 0 0 0 942.41586059884867 -1778.7995302423369 0 -1778.7995302423369 522.53853844065452 0 0 0 0 5181.1422963010264 2043.5336456221994 0 2043.5336456221994 3359.4485358711972 0 0 0 0 4882.8643003446632 2802.6223127110279 0 2802.6223127110279 1615.4520870832494 0 0 0 0 3.819715276638675 1.8292852576204268 0 1.8292852576204268 1.3528905505640161 0 0 0 0 0.6533911207398404 1.5510446447996458 0 1.5510446447996458 2.9452584921124014 0 0 0 0 3472.0446942927083 -2136.691496521933 0 -2136.691496521933 -1039.0183333238019 0 0 0 0 5246.3681292157853 455.05079303990351 0 455.05079303990351 -569.75732524890918 0 0 0 0 2335.8030901091406 -95.216066632216098 0 -95.216066632216098 149.77569138916442 0 0 0 0 2464.9989879903733 208.37124672334176 0 208.37124672334176 372.4551446956757 0 0 0 0 1085.1242074102956 -1.9724852793442551 0 -1.9724852793442551 -44.688222634023987 0 0 0 0 870.70736843535269 -103.92712765682518 0 -103.92712765682518 -86.797219144005794 0 0 0 0 1114.4527567113983 28.35491634850041 0 28.35491634850041 -27.669569945544936 0 0 0 0 1064.6891093982995 132.05893927330908 0 132.05893927330908 -198.10033920506248 0 0 0 0 1135.0320676684569 213.51524056355629 0 213.51524056355629 171.03170428815065 0 0 0 0 1404.3437364168894 499.25118963788555 0 499.25118963788555 -132.92993644322269 0 0 0 0 800.91732408294047 536.3754220046394 0 536.3754220046394 319.27114485054699 0 0 0 0 727.43841202784824 366.48206745858624 0 366.48206745858624 -153.69243919721339 0 0 0 0 1060.2648640087282 186.3775670043251 0 186.3775670043251 -390.90324409438472 0 0 0 0 860.50033793892362 58.922743506373081 0 58.922743506373081 -343.41742539999541 0 0 0 0 830.718611728822 61.642428391307476 0 61.642428391307476 -212.96856100700097 0 0 0 0 -163.45234360376344 470.11578644485417 0 470.11578644485417 613.58441619842779 0 0 0 0 473.40494932283764 577.83926403467194 0 577.83926403467194 52.18067501616315 0 0 0 0 781.27374551686808 912.21621578939084 0 912.21621578939084 414.83330590519836 0 0 0 0 795.88438254639186 372.90625028270733 0 372.90625028270733 -316.71023038370186 0 0 0 0 255.19276399107184 727.0473307709035 0 727.0473307709035 77.897912088805242 0 0 0 0 -163.26907270740776 411.3992774270082 0 411.3992774270082 -89.270683578593889 0 0 0 0 371.2394756564172 253.21031771754497 0 253.21031771754497 -727.90042442324375 0 0 0 0 341.1560295199597 418.7413556639076 0 418.7413556639076 -317.51679435099368 0 0 0 0 415.74306650149811 519.10090357462468 0 519.10090357462468 -293.55159899659338 0 0 0 0 -353.2208047351487 231.62908848322695 0 231.62908848322695 -395.72014192413189 0 0 0 0 570.63878364723132 219.09103907040844 0 219.09103907040844 -416.34243032284576 0 0 0 0 715.58476473578776 272.86390054527146 0 272.86390054527146 -410.75782297926344 0 0 0 0 707.68974016054335 26.466669589311095 0 26.466669589311095 -345.4643114701903 0 0 0 0 749.45174389147724 230.27235040693631 0 230.27235040693631 -526.25975632271729 0 0 0 0 432.43174753998028 363.14427908924699 0 363.14427908924699 -531.90285263332771 0 0 0 0 370.92852996944566 135.72247908372083 0 135.72247908372083 -404.04777179110897 0 0 0 0 173.2124188733651 258.63201437993848 0 258.63201437993848 -313.42197905650391 0 0 0 0 332.82550565875135 38.954681484268804 0 38.954681484268804 -330.32424241261577 0 0 0 0 -106.93453726642474 -85.334251818523626 0 -85.334251818523626 -117.46599019406131 0 0 0 0 310.12147913087392 61.196817879594164 0 61.196817879594164 -330.15537256142818 0 0 0 0 640.38506867674005 92.881181283693877 0 92.881181283693877 -397.2376764908513 0 0 0 0 381.66769216393004 -75.764653466379968 0 -75.764653466379968 -264.40150415641256 0 0 0 0 -112.02129283356771 368.3422617611468 0 368.3422617611468 -315.46874203045445 0 0 0 0 42.686825872753303 34.811756905158887 0 34.811756905158887 24.78794545865793 0 0 0 0 633.74868728744332 1279.3936399201921 0 1279.3936399201921 605.94478726724628 0 0 0 0 -242.56327843046165 205.44033332889376 0 205.44033332889376 -118.66163309829426 0 0 0 0 287.48785685047187 92.599009544726869 0 92.599009544726869 -96.995693899720209 0 0 0 0 1027.7987171225886 1161.0508556016921 0 1161.0508556016921 649.57183028126019 0 0 0 0 1548.2208058869983 3.0162671423749998 0 3.0162671423749998 -1631.6007223897614 0 0 0 0 517.49919594642415 -30.161995692877099 0 -30.161995692877099 -133.76285301259486 0 0 0 0 -448.00568134737114 -877.45381402548082 0 -877.45381402548082 -598.03495561445015 0 0 0 0 178.56876316701437 93.605668301903279 0 93.605668301903279 -18.896008718380472 0 0 0 0 -585.32218497854774 -123.24438017580542 0 -123.24438017580542 -14.819534870606731 0 0 0 0 27.918250334198603 20.744230098087108 0 20.744230098087108 14.902333936855058 0 0 0 0 509.38815961932414 30.940616858380963 0 30.940616858380963 19.777876226435183 0 0 0 0 638.16538621972722 0.12194627620920073 0 0.12194627620920073 -248.64617582419669 0 0 0 0 637.57197067835659 18.236554640243412 0 18.236554640243412 -144.14815559299313 0 0 0 0 354.46748811249563 -156.38868635227846 0 -156.38868635227846 -118.92684700880636 0 0 0 0 -309.78959910884441 -121.2692344479874 0 -121.2692344479874 -50.591640696089598 0 0 0 0 -1.7932477911918454 0.055833491207096131 0 0.055833491207096131 2.4646031145774074 0 0 0 0 207.43292383835069 565.38112138352881 0 565.38112138352881 1242.0644825284762 0 0 0 0 320.72119743532676 302.41901543952554 0 302.41901543952554 1142.6538738068484 0 0 0 0 463.24124809505884 463.41172810652643 0 463.41172810652643 1075.3918692468433 0 0 0 0 125.7334305789409 -239.32917609711876 0 -239.32917609711876 -227.43381944941211 0 0 0 0 17.775310906094091 350.58758202448007 0 350.58758202448007 1052.4758651365846 0 0 0 0 -45.847242476513202 185.03163641868014 0 185.03163641868014 623.38455804692057 0 0 0 0 162.34609987973545 535.26665798543127 0 535.26665798543127 545.31393176590791 0 0 0 0 176.46554342619675 478.51962275061123 0 478.51962275061123 598.94027998301317 0 0 0 0 788.31433807858775 674.56171783458103 0 674.56171783458103 492.61551460335613 0 0 0 0 811.92997802230093 834.25166039616306 0 834.25166039616306 986.95903789511067 0 0 0 0 465.48248627713474 513.9469346050173 0 513.9469346050173 711.03932702557358 0 0 0 0 441.25898029372911 678.84051877923775 0 678.84051877923775 737.699050354262 0 0 0 0 76.002720404052525 425.5876578579846 0 425.5876578579846 253.33819783278159 0 0 0 0 -30.894414474365476 255.11112729073648 0 255.11112729073648 335.5051808114622 0 0 0 0 3.2237960328899078 0.96203780117480164 0 0.96203780117480164 -0.21460384679039279 0 0 0 0 320.47175574702123 55.76826772664208 0 55.76826772664208 -260.26311435364096 0 0 0 0 47.462553561039385 231.05891795763091 0 231.05891795763091 248.74573454866186 0 0 0 0 22.898357206559012 -14.707707076857332 0 -14.707707076857332 139.22816859494196 0 0 0 0 -22.006617542372624 101.46894345736473 0 101.46894345736473 222.36697733287292 0 0 0 0 460.8479461500101 271.23663177086564 0 271.23663177086564 22.612667255285487 0 0 0 0 141.14558147845673 152.7586264127749 0 152.7586264127749 298.35854604211636 0 0 0 0 122.45983417147363 188.21008059773158 0 188.21008059773158 713.6220864924544 0 0 0 0 -0.79692362822243012 59.892992774162849 0 59.892992774162849 1252.9122294026747 0 0 0 0 -906.91568141129392 93.401810490322532 0 93.401810490322532 -138.59813016740372 0 0 0 0 11.563974683675781 5.2896369391757645 0 5.2896369391757645 2.915374530495825 0 0 0 0 117.61481693467067 -151.47365997757879 0 -151.47365997757879 603.29770990678298 0 0 0 0 131.61419953782752 -141.82842321803037 0 -141.82842321803037 413.09238533388634 0 0 0 0 70.973529426988534 -42.746428307851602 0 -42.746428307851602 270.49353681322827 0 0 0 0 104.7970394675358 -122.57037719976506 0 -122.57037719976506 302.34591644513057 0 0 0 0 108.35934389477916 -44.206369404448196 0 -44.206369404448196 216.98124142848246 0 0 0 0 -227.83718759512703 -156.83893926963356 0 -156.83893926963356 -625.20870187363471 0 0 0 0 37.276488386568815 19.797348395807276 0 19.797348395807276 10.379497332011425 0 0 0 0 -436.51886382664088 -7.280890390262357 0 -7.280890390262357 223.22369819573942 0 0 0 0 -421.33161053266667 -606.80177468345209 0 -606.80177468345209 -651.86369920153811 0 0 0 0 169.69530645471968 113.53949850783829 0 113.53949850783829 -217.64648682889674 0 0 0 0 35.145568179583336 29.837280051791893 0 29.837280051791893 21.488382875881655 0 0 0 0 -512.14488885677747 1259.8285342896233 0 1259.8285342896233 467.88412658774905 0 0 0 0 267.44012914702762 -393.2249458745282 0 -393.2249458745282 -723.07489578297054 0 0 0 0 -140.67007155658484 17.702533714573747 0 17.702533714573747 590.85540652120835 0 0 0 0 685.35123717987153 485.49323366710451 0 485.49323366710451 -597.755329889922 0 0 0 0 -161.14383113234362 648.28136280380568 0 648.28136280380568 -634.43223324438441 0 0 0 0 -339.71744668403699 380.56143773139047 0 380.56143773139047 -509.64250407720101 0 0 0 0 45.172877314598679 37.509031162363009 0 37.509031162363009 26.55861920131909 0 0 0 0 95.67374055252003 80.241983799696754 0 80.241983799696754 -293.10289823037601 0 0 0 0 -226.28292303766011 132.62727937065665 0 132.62727937065665 -253.46771553743747 0 0 0 0 2.8908097276726039 170.6317536751958 0 170.6317536751958 -450.89361363698845 0 0 0 0 9.6476726336259162 219.04098529932708 0 219.04098529932708 -187.00495202287857 0 0 0 0 129.30569182423642 254.48811402653155 0 254.48811402653155 277.52251552902453 0 0 0 0 168.842051500651 -38.073370191243157 0 -38.073370191243157 201.30227969652969 0 0 0 0 -125.74795339777029 -165.43952760017305 0 -165.43952760017305 150.14899700613751 0 0 0 0 17.197785508789821 233.91612192200409 0 233.91612192200409 -247.38016366167722 0 0 0 0 -6.9754978026176104 122.33859421779925 0 122.33859421779925 353.25119142800759 0 0 0 0 65.083470625220798 144.19139605970122 0 144.19139605970122 309.16339441243917 0 0 0 0 -30.233765522789326 88.225519438201445 0 88.225519438201445 304.2413649701557 0 0 0 0 122.42336162466381 118.41184400384736 0 118.41184400384736 167.33184604564303 0 0 0 0 100.43552112946054 122.2061891282865 0 122.2061891282865 146.9989553404962 0 0 0 0 85.15610267950251 205.64923842738062 0 205.64923842738062 155.10408891073894 0 0 0 0 446.92082874246989 209.37153039002078 0 209.37153039002078 44.642085331751332 0 0 0 0 10.482585649238899 25.21255263670173 0 25.21255263670173 63.386943636226988 0 0 0 0 -230.34307258718763 -25.263099047569995 0 -25.263099047569995 183.17346394713968 0 0 0 0 -134.64834632254497 -168.77162623128243 0 -168.77162623128243 -53.121724896118394 0 0 0 0 -36.282486746909854 -112.03675822363584 0 -112.03675822363584 -41.528627943320316 0 0 0 0 3.6145286833661885 4.4795795595524481 0 4.4795795595524481 12.127194368436363 0 0 0 0 199.71836036953391 377.42029026109049 0 377.42029026109049 395.06443019145809 0 0 0 0 -107.0588296667629 249.60832931991536 0 249.60832931991536 654.67868277123489 0 0 0 0 29.216889098592219 40.409568328022942 0 40.409568328022942 11.497437215461105 0 0 0 0 -24.040443049845635 71.999539195261605 0 71.999539195261605 80.977054353214044 0 0 0 0 -30.957400605846658 17.606782468759306 0 17.606782468759306 -1.1538796404853571 0 0 0 0 10.309739255098975 57.023495924529925 0 57.023495924529925 65.724720617872663 0 0 0 0 -42.052309820319351 56.104028362124154 0 56.104028362124154 68.591568278789055 0 0 0 0 -0.19548736436357572 36.000111758252345 0 36.000111758252345 44.348054278124067 0 0 0 0 -72.163935513983233 27.629127014574806 0 27.629127014574806 19.199341054089018 0 0 0 0 -11.71145411831094 30.547791843702726 0 30.547791843702726 58.710733494488522 0 0 0 0 -22.838246939039607 37.40509698607849 0 37.40509698607849 8.8938901041965153 0 0 0 0 -147.80159180776172 78.609429289265336 0 78.609429289265336 71.098085242956586 0 0 0 0 -18.006136402245048 15.039142041802265 0 15.039142041802265 35.745182542320379 0 0 0 0 -31.423016199016274 71.070305327266396 0 71.070305327266396 79.715935293977964 0 0 0 0 -28.838069595527486 26.219239939993713 0 26.219239939993713 -21.280176543961716 0 0 0 0 117.16474706347071 98.140760148711706 0 98.140760148711706 51.084235517788329 0 0 0 0 26.397106194999651 60.304411899800471 0 60.304411899800471 57.434773400425911 0 0 0 0 -1.6700293611502275 81.926951960427687 0 81.926951960427687 44.663122487458168 0 0 0 0 76.6187082369579 111.73763643387429 0 111.73763643387429 68.311820133007132 0 0 0 0 94.644231121917983 153.40725036206368 0 153.40725036206368 102.33370512752299 0 0 0 0 112.95995642392518 129.06598934762951 0 129.06598934762951 78.424504401256854 0 0 0 0 66.65582569988328 108.65308056987124 0 108.65308056987124 93.153190623495902 0 0 0 0 98.101656599836133 138.9233839137396 0 138.9233839137396 112.97589401998266 0 0 0 0 90.201779294744483 131.35096093397442 0 131.35096093397442 105.92137750168877 0 0 0 0 113.72690825422433 166.92752439195601 0 166.92752439195601 123.67264666096889 0 0 0 0 89.860456012076611 115.90614554586637 0 115.90614554586637 113.48353711107484 0 0 0 0 88.785651215999678 121.47251741100263 0 121.47251741100263 101.92258735710675 0 0 0 0 50.211394177695183 107.98166517158825 0 107.98166517158825 97.411753255910298 0 0 0 0 -10.988641193325748 103.78003472582168 0 103.78003472582168 -37.690962431301159 0 0 0 0 -22.509200127049382 9.1677148107860376 0 9.1677148107860376 -3.3649374250760502 0 0 0 0 -4.2137583637304488 84.241772330784443 0 84.241772330784443 -45.006860948516987 0 0 0 0 -79.20085382949037 91.86282654513343 0 91.86282654513343 201.80930454145982 0 0 0 0 -267.20687879879551 183.93535044357122 0 183.93535044357122 222.72370476699143 0 0 0 0 -9.7166748270865924 1.9506124042004558 0 1.9506124042004558 0.40691149205586186 0 0 0 0 26.868307879731219 90.420118711666873 0 90.420118711666873 -152.87419610518555 0 0 0 0 31.381726073752361 135.64342377082266 0 135.64342377082266 -731.32018884891295 0 0 0 0 -55.834062647103565 262.20716445648213 0 262.20716445648213 -229.12158321668358 0 0 0 0 28.42907425694284 186.23741379178682 0 186.23741379178682 -46.443820380198304 0 0 0 0 1.8763331208538148 149.68174830152566 0 149.68174830152566 -91.720365012006368 0 0 0 0 200.26444528513821 249.1100136420464 0 249.1100136420464 -62.014998934324467 0 0 0 0 -8.9170485863339195 2.5461542064799829 0 2.5461542064799829 4.4553705304144557 0 0 0 0 29.3090960469126 169.14087089971872 0 169.14087089971872 10.745269650524278 0 0 0 0 45.887287310775719 104.60408494830335 0 104.60408494830335 -92.362117058415606 0 0 0 0 -112.95865874255833 84.292264522069672 0 84.292264522069672 29.136736663087504 0 0 0 0 -16.700916851419606 37.214860435698938 0 37.214860435698938 71.113911048495538 0 0 0 0 -14.525189742140356 53.918012343965529 0 53.918012343965529 34.636166565309395 0 0 0 0 -251.19076827271783 82.339191220729845 0 82.339191220729845 56.710583336349373 0 0 0 0 -35.55439092652523 73.781535063017145 0 73.781535063017145 -20.074326306934381 0 0 0 0 -5.2288412937463491 46.105944278344595 0 46.105944278344595 50.898288230511056 0 0 0 0 -133.06351793136128 133.21227458680551 0 133.21227458680551 -68.267779436802812 0 0 0 0 -77.297816082689337 49.45073964753319 0 49.45073964753319 -13.11681941591695 0 0 0 0 -207.34520989016164 238.70523221489202 0 238.70523221489202 -90.549580371651246 0 0 0 0 -32.632500182211515 34.115683329410786 0 34.115683329410786 29.276673882277464 0 0 0 0 -131.45483417499781 251.64326126059859 0 251.64326126059859 172.66441931573354 0 0 0 0 -107.91423481632955 76.02331772884645 0 76.02331772884645 53.25855240720557 0 0 0 0 -225.70862951481831 213.20921820148578 0 213.20921820148578 -64.443308334399262 0 0 0 0 148.7424206438991 120.56468464156023 0 120.56468464156023 -89.100468815930071 0 0 0 0 -202.7704649920779 183.48994939659497 0 183.48994939659497 -90.503351802333782 0 0 0 0 20.115279238147195 470.20048126332767 0 470.20048126332767 -153.33397954239626 0 0 0 0 -48.44353693395729 19.088765121394005 0 19.088765121394005 32.104526229261296 0 0 0 0 0.045707487246545497 40.598925758126825 0 40.598925758126825 -18.847851446136019 0 0 0 0 -171.51352348998262 403.8380705099471 0 403.8380705099471 -410.04472041534973 0 0 0 0 24.821893418011598 30.510785751072728 0 30.510785751072728 12.416861452429302 0 0 0 0 -33.872011009829293 190.05101764394567 0 190.05101764394567 -359.01824894758647 0 0 0 0 -38.922021026807919 73.832278489354024 0 73.832278489354024 -39.572893800546929 0 0 0 0 -198.59585576581594 198.51758309999968 0 198.51758309999968 -172.29856687667052 0 0 0 0 99.235140290125855 357.91197193036578 0 357.91197193036578 -200.06016116184401 0 0 0 0 37.641505321735167 260.14848435941167 0 260.14848435941167 -280.19126644919015 0 0 0 0 -181.89952575045754 278.74492316254327 0 278.74492316254327 -241.94155730731291 0 0 0 0 -129.17242811058532 190.36798727383575 0 190.36798727383575 -124.18190086765753 0 0 0 0 -247.08551695529604 238.23621980328244 0 238.23621980328244 -97.818637462554761 0 0 0 0 -328.27347981416096 304.2460557892482 0 304.2460557892482 -205.21007031958106 0 0 0 0 -226.71835099349119 117.45778229488496 0 117.45778229488496 -353.1057152374342 0 0 0 0 177.58821993996389 187.28234676530974 0 187.28234676530974 -563.8713839740758 0 0 0 0 0.18769882365674562 3.5803554402287618 0 3.5803554402287618 1.4762646999765949 0 0 0 0 180.41551527882257 -125.3419250428185 0 -125.3419250428185 94.973727196131222 0 0 0 0 13.741595593090324 6.3184459404850912 0 6.3184459404850912 4.1541984884169247 0 0 0 0 -274.88059855520987 262.62538097313882 0 262.62538097313882 1602.3080983535056 0 0 0 0 489.67592276653158 330.44160790325805 0 330.44160790325805 -551.46340089365003 0 0 0 0 3.077808673006075 15.52608185836209 0 15.52608185836209 -15.611860897199222 0 0 0 0 -180.02579159211746 344.85364443840308 0 344.85364443840308 775.77037307226396 0 0 0 0 73.741668557478988 293.84858035129298 0 293.84858035129298 744.92767877295455 0 0 0 0 26.272299421012576 483.71451061910057 0 483.71451061910057 737.63851690903607 0 0 0 0 237.79110761022457 428.85021486056485 0 428.85021486056485 749.34021311407196 0 0 0 0 -253.31366775114293 311.07607807500744 0 311.07607807500744 1798.1425100555907 0 0 0 0 0.3673942391095153 -4.7204563202299425 0 -4.7204563202299425 10.00473408183611 0 0 0 0 -212.62013510498218 158.49141547073123 0 158.49141547073123 98.528338978728982 0 0 0 0 -768.73129697097465 -109.16719912023427 0 -109.16719912023427 179.7544377235854 0 0 0 0 237.23768654416199 386.93778566508598 0 386.93778566508598 557.13660235349994 0 0 0 0 222.34560367856466 498.33868346849431 0 498.33868346849431 518.85399322676449 0 0 0 0 38.70332400425832 626.03384792566771 0 626.03384792566771 535.96577991192862 0 0 0 0 40.19962451243191 309.13032339005429 0 309.13032339005429 749.92236403944241 0 0 0 0 -8.4690721618389944 25.688973509449625 0 25.688973509449625 18.110862158207055 0 0 0 0 1.4517685142147627 9.2737786744892148 0 9.2737786744892148 9.229648278221708 0 0 0 0 -2.8722919932333753 35.47700605951843 0 35.47700605951843 6.4733228275899819 0 0 0 0 -207.28386840726671 115.60693740480428 0 115.60693740480428 -44.544099604575422 0 0 0 0 -18.996858158468967 7.2780026483568179 0 7.2780026483568179 5.8936745420403787 0 0 0 0 -11.160793387571175 47.984709494127173 0 47.984709494127173 129.12944397004594 0 0 0 0 1.4945867306541913 61.945775973946354 0 61.945775973946354 100.1949623388482 0 0 0 0 -19.397633584216237 64.862027668577866 0 64.862027668577866 103.89081515650219 0 0 0 0 -10.97247135616476 14.576096466547213 0 14.576096466547213 30.244371170886751 0 0 0 0 -7.5067023608353338 41.590613927302911 0 41.590613927302911 94.742003027876308 0 0 0 0 0.94337923762213904 56.443389712801945 0 56.443389712801945 86.009419729573438 0 0 0 0 -3.2703047151377973 69.537327416737696 0 69.537327416737696 59.880155458089945 0 0 0 0 -106.52057352602969 389.54599965654415 0 389.54599965654415 -264.63679862381105 0 0 0 0 -75.457824856464867 282.12339481088748 0 282.12339481088748 -240.31851358436325 0 0 0 0 -162.89703740765981 263.59217373650608 0 263.59217373650608 -161.00821969278331 0 0 0 0 -13.577630519168451 169.80662617889175 0 169.80662617889175 43.263053573049547 0 0 0 0 -95.270746537105879 315.83768679300556 0 315.83768679300556 -128.74941154522821 0 0 0 0 -163.26491059655382 280.30919056889616 0 280.30919056889616 -165.3415765629361 0 0 0 0 19.934840054870932 72.399490207856815 0 72.399490207856815 75.09794280669206 0 0 0 0 -169.492521877728 258.55606831048135 0 258.55606831048135 7.3998516416249913 0 0 0 0 -18.343121067962784 90.409615773447058 0 90.409615773447058 107.7995906512142 0 0 0 0 -18.414833809547417 88.712933648391754 0 88.712933648391754 77.85711536701092 0 0 0 0 -15.658304096526081 214.90514317717651 0 214.90514317717651 139.91060937329894 0 0 0 0 153.73736797967285 277.59053086662243 0 277.59053086662243 110.12178129466247 0 0 0 0 109.45333092220244 159.26294407155274 0 159.26294407155274 17.256182215914123 0 0 0 0 -1.5725374870116866 125.61131985226024 0 125.61131985226024 153.47255336143644 0 0 0 0 -280.73296289380232 152.90721632125451 0 152.90721632125451 150.8509268921174 0 0 0 0 -153.77112623708672 482.96046644584453 0 482.96046644584453 -103.19943078770848 0 0 0 0 -156.75880159583176 645.60198929829903 0 645.60198929829903 -638.628490524173 0 0 0 0 -6.6498701287865458 3.6854389632636781 0 3.6854389632636781 0.18701399731328827 0 0 0 0 -80.758673184849613 0.61244035866172908 0 0.61244035866172908 235.78961581501972 0 0 0 0 520.84958105911937 268.02450027504165 0 268.02450027504165 -507.31054057239908 0 0 0 0 -449.33051649642584 195.51779605069191 0 195.51779605069191 77.216497802723097 0 0 0 0 167.36708315600481 152.63125484741101 0 152.63125484741101 29.057118748207358 0 0 0 0 519.17437165036972 576.96237396229799 0 576.96237396229799 492.61240632725713 0 0 0 0 -258.06329790191376 265.95015797161147 0 265.95015797161147 -106.48638317376771 0 0 0 0 -301.47904202915379 551.69659947613184 0 551.69659947613184 421.62261973572669 0 0 0 0 351.21645199767954 404.73804055419714 0 404.73804055419714 -534.54860412087692 0 0 0 0 -328.21831349428976 169.74490427004366 0 169.74490427004366 -14.909492446311106 0 0 0 0 816.66447775614506 -225.83316252706754 0 -225.83316252706754 82.748987032525747 0 0 0 0 458.69541443609342 75.470780411768828 0 75.470780411768828 7.0718581489372809 0 0 0 0 725.74531271812157 48.764858874174934 0 48.764858874174934 -179.16121501497355 0 0 0 0 10.505415278371316 41.67154112660856 0 41.67154112660856 -46.872241463430711 0 0 0 0 21.966611857755197 307.56727823993128 0 307.56727823993128 -556.89692710654708 0 0 0 0 15.65282061766608 21.341882320825079 0 21.341882320825079 27.485586420050577 0 0 0 0 178.1950399602938 233.20433304639118 0 233.20433304639118 8.5611546191030357 0 0 0 0 159.41227186738251 114.98128055666632 0 114.98128055666632 23.956137315616616 0 0 0 0 49.634309709664379 107.14502446574301 0 107.14502446574301 47.579661796458566 0 0 0 0 412.70052533550188 331.05911452456985 0 331.05911452456985 -74.035898154013694 0 0 0 0 375.96165611886681 242.48412192055548 0 242.48412192055548 1.3700921960089545 0 0 0 0 68.581009091902118 -1.5844571866076507 0 -1.5844571866076507 -83.895105658211733 0 0 0 0 38.808399522727143 24.599885753260708 0 24.599885753260708 -108.11116475348051 0 0 0 0 345.40306552179391 197.99574021610533 0 197.99574021610533 -43.155367011977432 0 0 0 0 50.867762322879173 100.89703847261379 0 100.89703847261379 72.791196772550464 0 0 0 0 -265.0349832576976 387.93489527291786 0 387.93489527291786 139.75103392430174 0 0 0 0 -173.49205746523512 224.4197564666365 0 224.4197564666365 61.69811794700945 0 0 0 0 -417.11388810628341 -59.156746194661537 0 -59.156746194661537 24.343680755671812 0 0 0 0 -540.4075743330759 138.21823236956698 0 138.21823236956698 15.305028897564625 0 0 0 0 33.476949539766792 58.39226101285567 0 58.39226101285567 315.13049137072085 0 0 0 0 -142.83483807576522 264.69368179955654 0 264.69368179955654 -191.2096148259734 0 0 0 0 -127.69770468550269 320.49189746237153 0 320.49189746237153 -53.161594515506295 0 0 0 0 -220.37599178098026 108.57791604115482 0 108.57791604115482 83.902212350658374 0 0 0 0 -234.97385879302601 26.714728110185206 0 26.714728110185206 -242.02265079045901 0 0 0 0 644.9473340741024 115.18229301599786 0 115.18229301599786 -117.60256563106668 0 0 0 0 530.54666879101751 554.84476557539983 0 554.84476557539983 58.127591422453406 0 0 0 0 754.80563014452491 59.533688557245114 0 59.533688557245114 -97.846497717429884 0 0 0 0 301.54134205645278 113.10260403132088 0 113.10260403132088 -96.942443238585838 0 0 0 0 15.721911190926278 -1.333668163243285 0 -1.333668163243285 -29.065353508414745 0 0 0 0 364.43185573893425 454.48916937843023 0 454.48916937843023 127.55675868817343 0 0 0 0 87.575405165174743 -6.1380883736273972 0 -6.1380883736273972 138.51289991040539 0 0 0 0 44.981939370070705 85.07777067153711 0 85.07777067153711 59.134842754793539 0 0 0 0 41.984378992099664 521.4644463385157 0 521.4644463385157 -106.04265665982706 0 0 0 0 59.197072545663104 28.360863139652793 0 28.360863139652793 -168.66072167704988 0 0 0 0 150.61667936245794 327.18475087373372 0 327.18475087373372 337.7175562143093 0 0 0 0 -4.9985616544682188 11.600890263343075 0 11.600890263343075 18.28686303580119 0 0 0 0 -278.88453416046104 -308.86805890168034 0 -308.86805890168034 -111.33265501300048 0 0 0 0 -155.89086839959782 595.35583550071169 0 595.35583550071169 -244.33095005436917 0 0 0 0 -306.89950444218994 -403.43790143030856 0 -403.43790143030856 -370.2132616223389 0 0 0 0 1.7077363150892779 345.61397571439738 0 345.61397571439738 -855.22190988144575 0 0 0 0 -105.35628617036855 349.29351396353013 0 349.29351396353013 147.61229832427307 0 0 0 0 -477.51446364090225 518.58500306984024 0 518.58500306984024 86.663483640899358 0 0 0 0 251.80769181058713 288.70890479354966 0 288.70890479354966 66.791761743828829 0 0 0 0 190.35203785594058 545.38698717840089 0 545.38698717840089 -44.996217446780065 0 0 0 0 291.94608014702681 372.07306805528424 0 372.07306805528424 -55.498674142021628 0 0 0 0 227.27382154755469 366.25427580565156 0 366.25427580565156 -45.291488006547297 0 0 0 0 108.57991827762635 322.70041165881412 0 322.70041165881412 -19.752226882468676 0 0 0 0 115.96004120257567 288.21202815865399 0 288.21202815865399 102.75216810235906 0 0 0 0 -67.581514013618289 355.15241860941023 0 355.15241860941023 81.848955406036112 0 0 0 0 60.969663571831916 253.51271142928363 0 253.51271142928363 80.910322603034729 0 0 0 0 134.135224453923 212.18157139198229 0 212.18157139198229 104.08834297161593 0 0 0 0 160.1861264280451 261.6867094954714 0 261.6867094954714 42.237314811776741 0 0 0 0 143.57775192184636 258.65533417956613 0 258.65533417956613 43.247585898247053 0 0 0 0 109.88847420374077 190.39222956193771 0 190.39222956193771 -73.527023838469177 0 0 0 0 44.455345191003289 229.81743852349609 0 229.81743852349609 47.586029658228654 0 0 0 0 5.1719927690573968 197.64591159281554 0 197.64591159281554 86.941970280124224 0 0 0 0 -17.085547021764796 162.76422059308607 0 162.76422059308607 34.690206384228077 0 0 0 0 -122.61153089528671 245.94375371509523 0 245.94375371509523 121.98305560443259 0 0 0 0 33.517873340751976 207.58476479816454 0 207.58476479816454 14.575036216143417 0 0 0 0 134.59985596057231 57.55721803594497 0 57.55721803594497 -101.6835863263077 0 0 0 0 -176.68801275027545 137.13360229561385 0 137.13360229561385 7.5945969370586681 0 0 0 0 -209.92275069817879 218.70631474504808 0 218.70631474504808 -27.319954240185325 0 0 0 0 110.59928792415303 143.48047670533924 0 143.48047670533924 -63.816421114654077 0 0 0 0 281.44173182695886 254.60114013295879 0 254.60114013295879 -73.987085469358135 0 0 0 0 352.95186336006736 203.80092305472863 0 203.80092305472863 122.10558098424372 0 0 0 0 531.08253323382087 53.670386333000351 0 53.670386333000351 -214.95130518152291 0 0 0 0 676.08836386699295 65.651904203162303 0 65.651904203162303 -200.13217896959395 0 0 0 0 -633.16252429939777 299.03720701706698 0 299.03720701706698 113.15334367549804 0 0 0 0 699.86751374839514 223.26157765908283 0 223.26157765908283 -53.118238718670909 0 0 0 0 8.2007853601455238 4.881002261949682 0 4.881002261949682 -2.590895707561657 0 0 0 0 454.38523403174258 368.5190848406819 0 368.5190848406819 174.11459096969338 0 0 0 0 73.870915077481186 300.76021791175299 0 300.76021791175299 -31.347534706850865 0 0 0 0 -224.86217713228098 433.84943673871794 0 433.84943673871794 -34.185012760106474 0 0 0 0 217.21924420784126 159.95707558844151 0 159.95707558844151 82.779934708894871 0 0 0 0 432.78610548602956 261.74588582435535 0 261.74588582435535 100.77022690145623 0 0 0 0 71.195444921315357 60.656732357601868 0 60.656732357601868 161.69153950473265 0 0 0 0 -54.348258941388892 62.204274259828523 0 62.204274259828523 39.456273745232238 0 0 0 0 275.31609468584065 184.1521146393352 0 184.1521146393352 14.880459653868456 0 0 0 0 -95.276836006869416 -7.5339550024314121 0 -7.5339550024314121 -75.49510500785982 0 0 0 0 -2.1616844569871887 1.1291321504737937 0 1.1291321504737937 1.170795587381221 0 0 0 0 -99.048515885180677 -227.51214633565542 0 -227.51214633565542 209.89145381045091 0 0 0 0 258.6722403223248 291.86252725904706 0 291.86252725904706 84.760130679482245 0 0 0 0 68.111548776185373 73.620711581243086 0 73.620711581243086 54.270598396047717 0 0 0 0 76.242006082742591 90.27334743820802 0 90.27334743820802 32.525496541697066 0 0 0 0 -159.57593366599758 28.998523253636449 0 28.998523253636449 72.218752350396244 0 0 0 0 -30.717071858940955 24.950124336087839 0 24.950124336087839 18.970444232962009 0 0 0 0 -14.804263059981167 72.600587833872851 0 72.600587833872851 17.887938598576511 0 0 0 0 -24.374883419135585 146.78221639934236 0 146.78221639934236 100.21372598644302 0 0 0 0 74.624754030024633 79.135760692706754 0 79.135760692706754 49.428958859376507 0 0 0 0 -20.334848302132997 46.044476052413188 0 46.044476052413188 39.29596008079956 0 0 0 0 -114.74931544361652 272.46784250666377 0 272.46784250666377 -69.014705843495904 0 0 0 0 110.78743914917868 215.8850365803919 0 215.8850365803919 116.73102479682711 0 0 0 0 165.99601756408811 95.631281453450356 0 95.631281453450356 -14.300600465498064 0 0 0 0 30.208081049611792 92.038436125028966 0 92.038436125028966 38.330965803401341 0 0 0 0 71.871072934474796 84.966192614720057 0 84.966192614720057 50.353224549472543 0 0 0 0 38.746712485958369 53.990634518011419 0 53.990634518011419 34.713148329938186 0 0 0 0 48.211444506461703 122.59103240489458 0 122.59103240489458 83.528822586660681 0 0 0 0 67.981865263922373 81.547719657166454 0 81.547719657166454 140.99932992941467 0 0 0 0 129.38735350291032 71.957987557258349 0 71.957987557258349 -0.49598063036349105 0 0 0 0 180.23016611693311 44.169751664627256 0 44.169751664627256 28.312400777397897 0 0 0 0 29.225872728289687 63.0133681266243 0 63.0133681266243 66.054456075187773 0 0 0 0 12.725534634493748 52.067533117646292 0 52.067533117646292 36.445095360809695 0 0 0 0 112.09791388864687 92.218586654392311 0 92.218586654392311 57.20630664631517 0 0 0 0 148.64461555800517 111.78679655859696 0 111.78679655859696 25.868210450174956 0 0 0 0 9.5736544886184731 36.448703299046784 0 36.448703299046784 22.930731632238718 0 0 0 0 137.62843540719768 53.609362780964148 0 53.609362780964148 50.840770151662582 0 0 0 0 114.65759922815778 79.754566760828311 0 79.754566760828311 35.585357918043883 0 0 0 0 71.58720637166698 38.530488448655888 0 38.530488448655888 45.98138655773073 0 0 0 0 226.28529281017109 92.44245226209614 0 92.44245226209614 46.363750368063847 0 0 0 0 136.46590683035856 105.68027364910046 0 105.68027364910046 38.493696347803052 0 0 0 0 61.174433018034165 14.180977962333785 0 14.180977962333785 -9.6856330222877958 0 0 0 0 238.84621951198642 -58.303614845179254 0 -58.303614845179254 -86.809834608604433 0 0 0 0 141.91497891801092 53.676558452540981 0 53.676558452540981 4.9476394396120149 0 0 0 0 -32.200966019871174 77.166434358511538 0 77.166434358511538 28.542651086481015 0 0 0 0 350.77770147289266 162.61909145393292 0 162.61909145393292 -41.063539892304107 0 0 0 0 178.91798349098099 161.96409458481867 0 161.96409458481867 74.237292601039371 0 0 0 0 32.131834253369924 22.121222613610442 0 22.121222613610442 13.429854459955365 0 0 0 0 562.46707307316683 19.655396290829231 0 19.655396290829231 50.986304554520757 0 0 0 0 232.3384285193024 107.95981421854958 0 107.95981421854958 29.773558627275634 0 0 0 0 71.51395431520065 25.901618420523015 0 25.901618420523015 -17.276112701265632 0 0 0 0 208.59583871900395 73.793636063714075 0 73.793636063714075 52.039567705294758 0 0 0 0 183.81241273902788 53.550263053340551 0 53.550263053340551 3.7439855534990745 0 0 0 0 201.37385916247149 72.265907478718418 0 72.265907478718418 62.774805325661873 0 0 0 0 201.17731465777615 98.538070972925198 0 98.538070972925198 20.507452862621903 0 0 0 0 191.87672544493398 81.691934712482634 0 81.691934712482634 58.002716975893691 0 0 0 0 186.69623122262419 96.491656485085514 0 96.491656485085514 46.712243924783934 0 0 0 0 182.47143231984228 84.888130009921952 0 84.888130009921952 27.90863519170307 0 0 0 0 197.93967660256135 94.49909758013095 0 94.49909758013095 16.505079161799586 0 0 0 0 182.62473386430065 82.50150807812679 0 82.50150807812679 7.1693965583986028 0 0 0 0 197.85544849528287 90.216407889342037 0 90.216407889342037 11.935128400940812 0 0 0 0 204.6911387295404 90.130235616066784 0 90.130235616066784 -4.8579974122230851 0 0 0 0 200.81928598317609 92.580565428843784 0 92.580565428843784 0.78677309075828816 0 0 0 0 203.37314520624204 112.57277528650116 0 112.57277528650116 -3.1694026824957291 0 0 0 0 210.05485296397819 97.299664739475929 0 97.299664739475929 3.5789875856601157 0 0 0 0 210.52905734413071 103.55706838311426 0 103.55706838311426 0.27053980736832273 0 0 0 0 218.42624814415467 118.67610206011477 0 118.67610206011477 23.862896909506617 0 0 0 0 202.97431614273228 95.271138071591849 0 95.271138071591849 -1.4361019620882871 0 0 0 0 223.11448569297499 91.701926069264346 0 91.701926069264346 -2.7680569952967744 0 0 0 0 214.39242095121153 107.76384953247759 0 107.76384953247759 13.219480446856778 0 0 0 0 303.33108985265426 154.20226714900173 0 154.20226714900173 -118.82699031885249 0 0 0 0 215.69052745679801 104.30908639163559 0 104.30908639163559 -14.650618486183248 0 0 0 0 -5.7251195712759682 7.091715243059511 0 7.091715243059511 -19.070493265098076 0 0 0 0 310.3181195462239 224.00416768839136 0 224.00416768839136 24.971609402579173 0 0 0 0 -381.34863836313525 -1511.0480851226869 0 -1511.0480851226869 -415.4674425134599 0 0 0 0 -10.642889662844254 6.9449284264115931 0 6.9449284264115931 5.2094645528351649 0 0 0 0 -93.475061283272225 1099.6548968733987 0 1099.6548968733987 -2295.3930977136206 0 0 0 0 -117.92976022778021 -83.051480831729521 0 -83.051480831729521 193.83205454972395 0 0 0 0 127.33177400831482 6.8912758530273095 0 6.8912758530273095 18.880927607018748 0 0 0 0 -211.31306527991546 779.1573385461752 0 779.1573385461752 -2169.7251130994746 0 0 0 0 278.77799479587702 0.21683875975998035 0 0.21683875975998035 -5.4562501773020244 0 0 0 0 354.0058739703527 129.14406511788241 0 129.14406511788241 -10.333079739936011 0 0 0 0 246.93402883631643 85.00641807064585 0 85.00641807064585 -12.901497389164433 0 0 0 0 166.70219573192298 1.5380226403140114 0 1.5380226403140114 -2.1323795602800146 0 0 0 0 233.11290324680158 20.74225011791259 0 20.74225011791259 -13.352897136300271 0 0 0 0 181.17205235504662 49.534268852798505 0 49.534268852798505 -0.50711602531100652 0 0 0 0 158.42631227556558 48.968332594098683 0 48.968332594098683 1.7504662924175136 0 0 0 0 184.7695744658995 80.120388603706942 0 80.120388603706942 -8.1448731319842409 0 0 0 0 205.37310959970273 87.522293617675246 0 87.522293617675246 -10.5314650851642 0 0 0 0 131.06575552647701 83.86938517435533 0 83.86938517435533 4.0254037345766847 0 0 0 0 150.11265465791803 62.694641999842872 0 62.694641999842872 -0.72488245255135553 0 0 0 0 4.0318506103928637 48.487928390639297 0 48.487928390639297 9.2970979171767034 0 0 0 0 -163.70656150284049 120.15081864038251 0 120.15081864038251 49.768315824687761 0 0 0 0 21.12182835571727 6.9484057244145276 0 6.9484057244145276 0.70333036274757665 0 0 0 0 96.251275007591175 43.297693124632815 0 43.297693124632815 31.802338522898935 0 0 0 0 -20.735044073720928 103.79673850445181 0 103.79673850445181 -31.673092704486635 0 0 0 0 -38.009597708791262 112.92289957295043 0 112.92289957295043 -9.3799664759715142 0 0 0 0 17.381413012597804 27.154109209166137 0 27.154109209166137 3.4872626630295969 0 0 0 0 -53.298214621085208 39.481021137156404 0 39.481021137156404 19.383103004343866 0 0 0 0 118.47976095069237 58.414111771213001 0 58.414111771213001 19.204646293164842 0 0 0 0 22.898287789023414 11.518648817844166 0 11.518648817844166 3.5846775502249688 0 0 0 0 -45.478530664269783 98.523234296572866 0 98.523234296572866 -31.51925589903567 0 0 0 0 134.6968512791791 46.236505978413788 0 46.236505978413788 -0.32792790240091563 0 0 0 0 1.6920315669744406 39.581408328706232 0 39.581408328706232 16.329743008833876 0 0 0 0 56.325927693998892 16.034902980840101 0 16.034902980840101 -3.0858610519557956 0 0 0 0 -6.8104502186179161 36.286485131884092 0 36.286485131884092 19.144423239483331 0 0 0 0 -22.456401706280303 74.466848601554943 0 74.466848601554943 47.136851919114633 0 0 0 0 -0.7517420484800823 58.266477832449027 0 58.266477832449027 1.4935791901534685 0 0 0 0 129.34891300497111 64.905551755370652 0 64.905551755370652 13.081689395933608 0 0 0 0 178.64603250173968 78.230137347532036 0 78.230137347532036 -6.7174998052787487 0 0 0 0 164.74192134688201 87.686944889399001 0 87.686944889399001 4.680220317459316 0 0 0 0 159.87338458094746 74.161480000234405 0 74.161480000234405 -10.783919259790309 0 0 0 0 146.13990668754559 90.658361000128025 0 90.658361000128025 27.782546533568166 0 0 0 0 181.90606110062799 85.510443519609908 0 85.510443519609908 1.6341122049398109 0 0 0 0 198.17358839011285 148.52404765600295 0 148.52404765600295 76.847169619522901 0 0 0 0 123.9332545139041 85.269662866194267 0 85.269662866194267 21.777962642772764 0 0 0 0 183.19694770050182 97.931239854444073 0 97.931239854444073 28.580529777076663 0 0 0 0 -6.8063246175704535 25.254322128084041 0 25.254322128084041 22.503950085578893 0 0 0 0 30.90375589907336 -0.51175646017503595 0 -0.51175646017503595 -23.946099417473299 0 0 0 0 0.13996813280959519 48.002954763960872 0 48.002954763960872 33.035420143320991 0 0 0 0 102.08803706341132 63.609879486780301 0 63.609879486780301 35.224056849860062 0 0 0 0 5.1462213721097214 56.401833581836399 0 56.401833581836399 50.541366084315996 0 0 0 0 18.974985290988116 62.270480986306211 0 62.270480986306211 43.995917712275514 0 0 0 0 72.607209550216794 62.261561583170987 0 62.261561583170987 25.405480975277897 0 0 0 0 0.042483127341256477 58.837985123619092 0 58.837985123619092 69.31076164913793 0 0 0 0 42.487798124187975 133.0886831859101 0 133.0886831859101 107.00817196121352 0 0 0 0 25.653496726416051 104.16304220783331 0 104.16304220783331 78.968571418342435 0 0 0 0 230.46664048379171 -5.6966997878980692 0 -5.6966997878980692 14.376336684793387 0 0 0 0 50.580535716202576 70.012070124832917 0 70.012070124832917 86.501918917068224 0 0 0 0 32.611978670378448 121.49307050606103 0 121.49307050606103 99.136439760084613 0 0 0 0 8.6650490254687611 98.769260771025984 0 98.769260771025984 92.18227605893162 0 0 0 0 379.79915501517826 130.25452762000623 0 130.25452762000623 -32.345770650428676 0 0 0 0 -2.9566453752686286 10.476861039963723 0 10.476861039963723 -5.0259310163456163 0 0 0 0 -1.7926939423635417 4.6919845743867938 0 4.6919845743867938 -12.400480821899709 0 0 0 0 14.821275367685303 58.798980788390054 0 58.798980788390054 -29.402044847636716 0 0 0 0 17.188317637366708 60.504668270792536 0 60.504668270792536 -108.69955665970338 0 0 0 0 378.45909723300429 358.07733664365469 0 358.07733664365469 43.828477341853613 0 0 0 0 85.103268739516352 87.303478732218764 0 87.303478732218764 -18.531327005712228 0 0 0 0 42.710040078411112 242.25789523618187 0 242.25789523618187 256.08999019224484 0 0 0 0 40.032963105622912 95.555105624594034 0 95.555105624594034 27.069852095603892 0 0 0 0 -26.2483641312283 101.04615046988329 0 101.04615046988329 29.805619483872078 0 0 0 0 109.67793284560321 215.33753998288785 0 215.33753998288785 112.74756287582522 0 0 0 0 19.432381694496144 198.82411103596121 0 198.82411103596121 -171.04345101290642 0 0 0 0 -0.71849373838631436 65.817253449937425 0 65.817253449937425 -30.221653620210645 0 0 0 0 -1.9352087247389136 124.65884672595109 0 124.65884672595109 -152.3283866619995 0 0 0 0 2.9402614516729955 303.089657894678 0 303.089657894678 -8.4509892234311792 0 0 0 0 -129.88545770780183 208.67541627804312 0 208.67541627804312 272.20954425571455 0 0 0 0 56.528651766368057 523.05673819642698 0 523.05673819642698 -965.0896163045586 0 0 0 0 274.70281105433241 32.771179604760846 0 32.771179604760846 -306.68152056373611 0 0 0 0 623.76328171083878 -103.63043824790122 0 -103.63043824790122 -484.96081766047655 0 0 0 0 245.19167690185441 522.17041577575367 0 522.17041577575367 -1323.0468462644842 0 0 0 0 -36.224567505470077 951.63027335020979 0 951.63027335020979 -1289.6560655002202 0 0 0 0 -622.14380254453863 806.28525174776382 0 806.28525174776382 -957.43964291367206 0 0 0 0 -14.647921679221326 560.0452164800522 0 560.0452164800522 -944.15395626984423 0 0 0 0 -403.69724308792502 759.43829593027908 0 759.43829593027908 -1024.966659177313 0 0 0 0 -298.88951195248228 1154.2851983576609 0 1154.2851983576609 -1950.1187358444945 0 0 0 0 81.739428484608652 189.07852831136518 0 189.07852831136518 -956.08684123693956 0 0 0 0 0.33966365105879959 391.84185743799378 0 391.84185743799378 -457.73480277573435 0 0 0 0 -304.49366084941721 161.30051473205606 0 161.30051473205606 -1079.5015278093811 0 0 0 0 -112.49434826624929 452.94638123204413 0 452.94638123204413 -670.19031898019159 0 0 0 0 -43.770422849760507 608.05078937329108 0 608.05078937329108 -1519.9605926346453 0 0 0 0 0.16485692197807822 5.2018783458423457 0 5.2018783458423457 -7.6484405386953718 0 0 0 0 -1222.1554730341013 895.08103432056123 0 895.08103432056123 -610.98480315351389 0 0 0 0 0.053576338978018612 408.0017895624228 0 408.0017895624228 -874.61906173066291 0 0 0 0 -54.217545569801587 470.58831992816567 0 470.58831992816567 -944.24522120215545 0 0 0 0 -393.95619939023163 539.070268425221 0 539.070268425221 -474.3860000878567 0 0 0 0 -304.07952453193138 172.61898542856943 0 172.61898542856943 -83.805856989028143 0 0 0 0 -166.75079637969611 153.74506787516202 0 153.74506787516202 -171.85156377787371 0 0 0 0 -190.17278559844908 76.710768562564681 0 76.710768562564681 -11.015341984701081 0 0 0 0 -179.76303259091219 188.32275267882778 0 188.32275267882778 -61.426017105355641 0 0 0 0 -0.38363728758122306 187.97968363926611 0 187.97968363926611 -261.15678029712672 0 0 0 0 -56.155624330320279 105.57498033688898 0 105.57498033688898 -87.742588255510782 0 0 0 0 -0.031185760090011172 67.325056068664708 0 67.325056068664708 -79.035343483945326 0 0 0 0 1.098081934153754 -2.9530446626197158 0 -2.9530446626197158 -0.70648971643707803 0 0 0 0 -26.03504360448278 20.730749559899778 0 20.730749559899778 -3.6755825726722833 0 0 0 0 1.3274114705509987 -1.5663494853116555 0 -1.5663494853116555 -1.0321509576772918 0 0 0 0 -44.313452169242737 4.4220975613196742 0 4.4220975613196742 -4.1076176267342817 0 0 0 0 -16.78248225133575 -3.694415094391843 0 -3.694415094391843 -24.117279240717835 0 0 0 0 -4.1157957010559159 4.1063108031738977 0 4.1063108031738977 2.4171041204074655 0 0 0 0 -3.1524702533191373 9.450307246943197 0 9.450307246943197 -2.4751469702896784 0 0 0 0 28.27367237197177 1.5359522632916196 0 1.5359522632916196 13.551572157430201 0 0 0 0 -26.41413891080083 -23.227292557746296 0 -23.227292557746296 70.842408928187069 0 0 0 0 3.5181717585874139 13.573243121051746 0 13.573243121051746 -22.46860862887479 0 0 0 0 -2.3682945992067062 16.304377392369872 0 16.304377392369872 -14.399152760909338 0 0 0 0 17.533386325217805 15.842854126717839 0 15.842854126717839 8.6485354105163381 0 0 0 0 211.78989589480261 147.29213561950309 0 147.29213561950309 26.160874634496395 0 0 0 0 49.203831915889168 58.173831004257408 0 58.173831004257408 63.301336240840101 0 0 0 0 35.57991696834506 201.72621386715309 0 201.72621386715309 151.53533691683333 0 0 0 0 117.42470372573007 173.76155811554554 0 173.76155811554554 78.49815402371496 0 0 0 0 74.614011556933832 75.305726852818395 0 75.305726852818395 35.490033286310791 0 0 0 0 25.648057986589265 30.497769978675933 0 30.497769978675933 4.0869681995282008 0 0 0 0 42.012150947637167 49.859778520691421 0 49.859778520691421 15.804962995768017 0 0 0 0 -7.5277095097982283 10.945913541688062 0 10.945913541688062 2.7270155087148904 0 0 0 0 -42.624321309442166 -1.0827108699086239 0 -1.0827108699086239 -1.0386122656291263 0 0 0 0 -33.476699633305543 1.0147352261974447 0 1.0147352261974447 -4.4996748432386084 0 0 0 0 -8.0802753758467816 0.14902547173893677 0 0.14902547173893677 1.555949408988706 0 0 0 0 -11.368866294738837 2.9307007227398572 0 2.9307007227398572 3.9639658203441286 0 0 0 0 58.012341115387244 84.133716582221496 0 84.133716582221496 104.52332251174084 0 0 0 0 -5.3796279924499686 26.497654892034461 0 26.497654892034461 94.892192924111441 0 0 0 0 -5.9367470806027995 67.037979347614964 0 67.037979347614964 143.66720806869125 0 0 0 0 -1.9083576348669951 3.5939906456284234 0 3.5939906456284234 1.5107918117438146 0 0 0 0 -3.7689142566802616 2.9622956820039406 0 2.9622956820039406 7.2748902093756271 0 0 0 0 -86.469888785402873 4.5987759138333786 0 4.5987759138333786 31.201133958853461 0 0 0 0 -33.845657575555379 38.603099343874419 0 38.603099343874419 17.18869909998466 0 0 0 0 -26.268167479090152 31.431658246702824 0 31.431658246702824 19.894558910255384 0 0 0 0 -77.04467530461261 36.368956008711393 0 36.368956008711393 39.261208475189051 0 0 0 0 225.03496248758893 147.49330884787196 0 147.49330884787196 11.4504713022543 0 0 0 0 -1.3141136241048059 1.8099781987423853 0 1.8099781987423853 3.1690121645634974 0 0 0 0 -186.25483230738973 -48.32028945678212 0 -48.32028945678212 51.158544946018083 0 0 0 0 -43.620112057131337 -27.058906536517497 0 -27.058906536517497 -40.186032023804728 0 0 0 0 69.014333621613332 99.018377600114036 0 99.018377600114036 64.398437148753146 0 0 0 0 72.202261395257665 96.985932181567478 0 96.985932181567478 58.776774965201184 0 0 0 0 35.138570050017734 67.029741632835794 0 67.029741632835794 64.383469222048006 0 0 0 0 -4.6258053067867877 75.078656189907633 0 75.078656189907633 79.141361794621616 0 0 0 0 -37.484807322987763 43.06761174624944 0 43.06761174624944 76.199227279183106 0 0 0 0 10.655267950569396 50.643517147109378 0 50.643517147109378 60.083967024769663 0 0 0 0 -0.056555667491920758 84.861783578630821 0 84.861783578630821 150.43506816340596 0 0 0 0 -35.146219401372946 28.355623152148382 0 28.355623152148382 264.68680824934199 0 0 0 0 -9.9553135644382564 36.519776136786277 0 36.519776136786277 134.51252718170872 0 0 0 0 -30.439723153023806 65.490850108579252 0 65.490850108579252 149.80799172810293 0 0 0 0 22.563177727046423 48.766231086014159 0 48.766231086014159 75.341142052092437 0 0 0 0 -168.67144539348192 434.14833268013172 0 434.14833268013172 -134.834912394188 0 0 0 0 -166.93996455122033 452.58962848609372 0 452.58962848609372 13.85581736635686 0 0 0 0 -39.603937138541369 816.81099434506541 0 816.81099434506541 183.62225641894474 0 0 0 0 -318.11524083736003 580.62647660294897 0 580.62647660294897 62.012651003495193 0 0 0 0 -455.33600610992471 850.50252927646943 0 850.50252927646943 -18.154069424854242 0 0 0 0 -300.03086244532824 509.66689170620521 0 509.66689170620521 335.36698066328972 0 0 0 0 -333.14703367916991 474.94705554845132 0 474.94705554845132 941.86725763554568 0 0 0 0 400.38996964382568 342.30703827886464 0 342.30703827886464 284.72741156347911 0 0 0 0 -69.168829301943333 177.70687550304865 0 177.70687550304865 384.18782937138167 0 0 0 0 -69.163810766656752 318.54702822062973 0 318.54702822062973 -70.436478100949898 0 0 0 0 -125.61643456230013 258.17753080835246 0 258.17753080835246 148.92580488916428 0 0 0 0 -68.438358253657498 230.48198984765622 0 230.48198984765622 -63.152153045826708 0 0 0 0 -47.296188578005058 203.62791037084025 0 203.62791037084025 -314.81217706250027 0 0 0 0 150.16487976127155 183.84911644724707 0 183.84911644724707 -511.20218341834698 0 0 0 0 -117.72241687156384 220.0524718280285 0 220.0524718280285 -504.47925776131888 0 0 0 0 94.540737300437286 213.33159045891989 0 213.33159045891989 -734.08090210660885 0 0 0 0 -14.445812336569361 156.65647725076269 0 156.65647725076269 -600.29477988497092 0 0 0 0 13.349021243701827 330.28958464457355 0 330.28958464457355 -915.98600632978196 0 0 0 0 -116.14844188149436 174.96989715099335 0 174.96989715099335 -603.16066111740656 0 0 0 0 37.02111666849305 342.09076873632148 0 342.09076873632148 -504.3882837840647 0 0 0 0 12.707473130093604 253.72426634144176 0 253.72426634144176 -673.38333377163508 0 0 0 0 36.076993255455818 627.9093587318639 0 627.9093587318639 -371.25521567503165 0 0 0 0 27.962147514215872 307.55253627858406 0 307.55253627858406 -1196.7400178876997 0 0 0 0 464.51704177742295 -412.07050024141881 0 -412.07050024141881 41.905478496380965 0 0 0 0 114.56530354309871 359.42600594404939 0 359.42600594404939 239.04693269313066 0 0 0 0 290.64973475794977 149.94727048012282 0 149.94727048012282 -653.92472488955536 0 0 0 0 200.53060990802214 614.90915552032038 0 614.90915552032038 -1366.3008841760457 0 0 0 0 4.4646932929960528 1.8140015387633071 0 1.8140015387633071 -18.440064242642421 0 0 0 0 -292.67152478044954 1184.6783025046534 0 1184.6783025046534 -1294.4333355670533 0 0 0 0 -1716.9814101858719 788.96076012193225 0 788.96076012193225 -314.31401395909052 0 0 0 0 -9.5281020706258488 4.3426725847418481 0 4.3426725847418481 8.4255160195683061 0 0 0 0 -356.25025529964114 887.1714081318496 0 887.1714081318496 -2676.3717940442439 0 0 0 0 181.34191050654772 55.678181821422186 0 55.678181821422186 -259.04871799133798 0 0 0 0 -1370.9452430282272 1374.7948396384825 0 1374.7948396384825 -755.53678356434102 0 0 0 0 -169.47304858693315 -916.85837286747847 0 -916.85837286747847 520.19079025987867 0 0 0 0 -1322.7797182922322 122.43709945354965 0 122.43709945354965 643.42136932222638 0 0 0 0 51.506367768007578 46.684658270611791 0 46.684658270611791 45.045383476024654 0 0 0 0 -72.383701508791091 23.093400020667104 0 23.093400020667104 -68.725922099096351 0 0 0 0 503.25432329296382 -717.21985109739762 0 -717.21985109739762 -149.07182395728159 0 0 0 0 574.65165827131204 511.32848468371958 0 511.32848468371958 -1714.2286258423592 0 0 0 0 -1115.9642418497569 1359.5123838891886 0 1359.5123838891886 -897.86111867575892 0 0 0 0 -54.470790012135694 114.73159877069702 0 114.73159877069702 -42.719212743468233 0 0 0 0 63.435897242677129 92.763105422332956 0 92.763105422332956 -285.12615189664939 0 0 0 0 -5.1237440638942644 220.19296914990628 0 220.19296914990628 -163.64905053183611 0 0 0 0 -76.159891179500846 350.66070703221339 0 350.66070703221339 -392.57886876065459 0 0 0 0 -33.553730468139065 130.75056476625286 0 130.75056476625286 -68.534721152362181 0 0 0 0 -42.456721713719162 199.96663656795863 0 199.96663656795863 -171.99980974767095 0 0 0 0 -134.5744639145405 311.23633365499154 0 311.23633365499154 -65.813126773100521 0 0 0 0 -141.4096977605077 370.23804486868175 0 370.23804486868175 -193.89253545923202 0 0 0 0 -321.49856202482624 635.56613927384387 0 635.56613927384387 -47.704523854867148 0 0 0 0 24.288903882331169 22.140584645614489 0 22.140584645614489 20.077873196408518 0 0 0 0 -224.8011343696071 223.83442997318343 0 223.83442997318343 -56.82978922950133 0 0 0 0 -149.60217678526351 55.229634250841627 0 55.229634250841627 310.9444675706909 0 0 0 0 7.7554558666925146 6.6376763600187729 0 6.6376763600187729 5.8214797859561145 0 0 0 0 536.00255002786071 9.2565503767327755 0 9.2565503767327755 104.01407698437652 0 0 0 0 17.152998877059872 701.01853197309538 0 701.01853197309538 294.52118067789343 0 0 0 0 -307.51862167760828 163.64762260854513 0 163.64762260854513 -337.43366641442117 0 0 0 0 499.80790254659223 609.61139158064907 0 609.61139158064907 -811.31084793183254 0 0 0 0 -4.7554857791712521 -0.86243382348237674 0 -0.86243382348237674 -1.6008047301925217 0 0 0 0 -40.641475444992466 763.59320799936904 0 763.59320799936904 -259.75301825310453 0 0 0 0 -219.36091103100944 426.13187853551062 0 426.13187853551062 -34.26048397620616 0 0 0 0 -422.44321928020872 485.33144815221749 0 485.33144815221749 -27.514427080268433 0 0 0 0 -4.4262156491793974 1.0598382875309937 0 1.0598382875309937 0.0612765976372458 0 0 0 0 -354.10440125223977 707.04617995262379 0 707.04617995262379 -726.11832671956654 0 0 0 0 -300.81497030900573 351.35837468133832 0 351.35837468133832 -9.1461904876050539 0 0 0 0 -511.27033470265815 624.6781039718262 0 624.6781039718262 -363.10589327507478 0 0 0 0 -186.3120745855922 -111.33806761383312 0 -111.33806761383312 -260.69897731513629 0 0 0 0 -65.061396111837894 278.60171726598492 0 278.60171726598492 -636.68495542902383 0 0 0 0 -189.18317522739733 -189.19430927434496 0 -189.19430927434496 -1777.5024410273327 0 0 0 0 -19.241800596095132 19.731992191463235 0 19.731992191463235 -21.674570350518934 0 0 0 0 -74.01172677712384 -260.9250939223366 0 -260.9250939223366 -374.34273974141979 0 0 0 0 127.84899190587021 403.61872312397463 0 403.61872312397463 -609.33191236373386 0 0 0 0 1.0220780061536061 652.0439509850039 0 652.0439509850039 -1087.9597863712261 0 0 0 0 -492.68953018246748 823.71830149419839 0 823.71830149419839 -479.60685351067514 0 0 0 0 -736.61028869880101 -519.21815202153812 0 -519.21815202153812 -616.07949809321872 0 0 0 0 -6.9124999861401264 7.2493256574770157 0 7.2493256574770157 -8.0995579914969653 0 0 0 0 0.2674945420876611 1094.3670417395115 0 1094.3670417395115 -1350.2867096070695 0 0 0 0 -40.084613348179118 -10.808262841648684 0 -10.808262841648684 89.419615536011406 0 0 0 0 -519.73202955110901 469.64072319419211 0 469.64072319419211 229.76950196927646 0 0 0 0 -215.60351124499789 484.31885124870405 0 484.31885124870405 -497.48942314415763 0 0 0 0 -231.86299197598419 400.99106880986074 0 400.99106880986074 -90.113138492859434 0 0 0 0 -294.91618434293196 200.68039510179369 0 200.68039510179369 -410.42823673057137 0 0 0 0 -291.13036360425031 246.56402868899795 0 246.56402868899795 45.6472303786868 0 0 0 0 -23.764682899060062 195.75803200233531 0 195.75803200233531 -531.20149544235028 0 0 0 0 -29.746003439639026 58.681218502861157 0 58.681218502861157 -692.33154746226501 0 0 0 0 -0.59002338552890876 -1.4802739188126566 0 -1.4802739188126566 -2.1117718515177017 0 0 0 0 -210.58392866487702 34.665504334570869 0 34.665504334570869 -557.5214028607661 0 0 0 0 -128.59060341056738 -65.349459052973543 0 -65.349459052973543 -450.30434112988587 0 0 0 0 -75.659380270799375 196.86417728400374 0 196.86417728400374 -1001.857951242564 0 0 0 0 -120.46642435886861 49.423422693282191 0 49.423422693282191 330.89338107369986 0 0 0 0 809.58153597962973 6.0319059876983374 0 6.0319059876983374 -568.16214267596661 0 0 0 0 -47.063840350998362 -431.35002750799322 0 -431.35002750799322 -2240.8669233506735 0 0 0 0 -6.993897347950444 6.2980042512812986 0 6.2980042512812986 -5.9020428457667151 0 0 0 0 -553.52366260087365 673.24551310652168 0 673.24551310652168 -776.95551510351652 0 0 0 0 -636.95371376037292 -266.68417703892919 0 -266.68417703892919 -526.48518155360944 0 0 0 0 136.79387386614144 582.68718731232366 0 582.68718731232366 -141.31544534768909 0 0 0 0 89.514581433960529 230.53226454464811 0 230.53226454464811 -486.68018729228061 0 0 0 0 -105.42492052346824 -110.47502891570184 0 -110.47502891570184 -405.39063028155215 0 0 0 0 1020.041654134222 776.65729450814979 0 776.65729450814979 98.075976523439749 0 0 0 0 473.9482077763696 401.99990109761711 0 401.99990109761711 -56.930678628836176 0 0 0 0 501.70675138576007 902.97291152819525 0 902.97291152819525 455.87296033411985 0 0 0 0 772.71227806409479 1048.8860401270886 0 1048.8860401270886 212.06258829672879 0 0 0 0 662.95530244795555 664.36063387677132 0 664.36063387677132 -148.12648122690007 0 0 0 0 207.21157961182985 869.50551241594803 0 869.50551241594803 -220.12781255075242 0 0 0 0 765.71284744814329 834.75154477269825 0 834.75154477269825 -136.64904277176902 0 0 0 0 503.94755072633109 873.82757103998119 0 873.82757103998119 570.19205382879591 0 0 0 0 786.00447977539807 680.44109433388803 0 680.44109433388803 269.49638015884557 0 0 0 0 -92.141474677620863 3.3368445571904886 0 3.3368445571904886 26.255580379605817 0 0 0 0 -72.201199564580733 38.378719233319885 0 38.378719233319885 7.7609388624432825 0 0 0 0 -1713.6455615456362 130.57621633922099 0 130.57621633922099 100.63762313895495 0 0 0 0 -1463.3116142490508 -14.054157603226486 0 -14.054157603226486 30.02035490515118 0 0 0 0 -17.357682821046577 -2.5590734608911632 0 -2.5590734608911632 -7.0390969020675129 0 0 0 0 -552.10559948582522 798.27031136925507 0 798.27031136925507 -1086.3631797456619 0 0 0 0 -1913.1313006125856 1117.4139392060151 0 1117.4139392060151 -930.62507071216532 0 0 0 0 -2772.2805379527417 -240.67024693867643 0 -240.67024693867643 7.4422645500017097 0 0 0 0 -0.63227945886177395 7.1265493917096592 0 7.1265493917096592 -5.9862177216399743 0 0 0 0 962.2613530335675 310.27606198680587 0 310.27606198680587 -44.334125322304317 0 0 0 0 716.80455409921888 462.37893053439711 0 462.37893053439711 139.48021581824287 0 0 0 0 -3.8659037210541953 32.489086616917064 0 32.489086616917064 7.9080207165399656 0 0 0 0 1400.9321375563559 68.399150879711669 0 68.399150879711669 56.574381744751008 0 0 0 0 -1432.2841033551504 -114.77065445444532 0 -114.77065445444532 -890.21887230442371 0 0 0 0 -1860.2150660159896 788.57300233544083 0 788.57300233544083 -1.0596529390313663 0 0 0 0 -2266.2816559337152 926.97695728391409 0 926.97695728391409 -39.674322698127071 0 0 0 0 397.96467267745174 934.39334887939185 0 934.39334887939185 -14.886690138984704 0 0 0 0 -1424.7335176734523 1066.0291345383812 0 1066.0291345383812 -23.870628666787525 0 0 0 0 2478.5558129922056 80.978562082214921 0 80.978562082214921 -456.49086563906167 0 0 0 0 10.41045036458314 22.278713177167177 0 22.278713177167177 -1.0795613794965675 0 0 0 0 -2069.7158955864215 556.64333326282213 0 556.64333326282213 -583.01462959823039 0 0 0 0 -2337.8556365051663 1218.0519966393549 0 1218.0519966393549 -185.33170147407509 0 0 0 0 2728.0425886971279 -632.63681940153765 0 -632.63681940153765 153.48494933470647 0 0 0 0 1679.4087636745426 554.28876991861034 0 554.28876991861034 247.6791153019376 0 0 0 0 1087.1031171077975 -8.2776769723204779 0 -8.2776769723204779 -121.77718089803238 0 0 0 0 -125.40013065883477 127.72365792742858 0 127.72365792742858 -463.66067420494801 0 0 0 0 703.69171875282336 571.16896188195824 0 571.16896188195824 -544.71615446128635 0 0 0 0 780.94299752800362 772.73912575520808 0 772.73912575520808 -731.72493765111722 0 0 0 0 885.38551153629305 509.05375553314661 0 509.05375553314661 -241.36893429855991 0 0 0 0 1225.0649592457012 708.80707626494404 0 708.80707626494404 -391.5970433185139 0 0 0 0 141.73309419508587 293.6879305458715 0 293.6879305458715 163.15517853626989 0 0 0 0 2.3279077656459322 1.4043578155832961 0 1.4043578155832961 -0.24234722863405622 0 0 0 0 94.811331222306762 365.09283440587024 0 365.09283440587024 -4.8578028782958427 0 0 0 0 113.43662381939066 173.40090427661926 0 173.40090427661926 -352.95092171870783 0 0 0 0 97.485122658094497 352.90762770100855 0 352.90762770100855 -231.2607477557176 0 0 0 0 198.49991226177372 228.77454082659824 0 228.77454082659824 -263.05950302256679 0 0 0 0 -101.96975686334918 91.624289275408955 0 91.624289275408955 -234.38896535331287 0 0 0 0 -238.93684322560148 377.88125871257216 0 377.88125871257216 -692.27709311120998 0 0 0 0 -240.54879156331299 493.07824016341328 0 493.07824016341328 -218.43102035173251 0 0 0 0 -292.9047459369358 283.95017870889296 0 283.95017870889296 -309.53990269263159 0 0 0 0 -1090.2830483296857 609.82298844947218 0 609.82298844947218 -248.6806456905324 0 0 0 0 -976.75909863352717 423.06158565699297 0 423.06158565699297 -88.955299725726945 0 0 0 0 -985.93329733730206 328.5797687619488 0 328.5797687619488 -365.10292327725256 0 0 0 0 -922.40360086454166 534.88451368721871 0 534.88451368721871 -332.56925418288301 0 0 0 0 -800.46090550508598 461.96027384344416 0 461.96027384344416 -447.91227804384835 0 0 0 0 -296.96808281703852 237.86825962279545 0 237.86825962279545 -30.814282000399544 0 0 0 0 -443.46355872938148 39.963041153998347 0 39.963041153998347 -256.1883549898921 0 0 0 0 -178.86703301652597 -152.36653695289715 0 -152.36653695289715 -15.491664791174117 0 0 0 0 -11.267157901758765 10.387979296578123 0 10.387979296578123 125.28428433887893 0 0 0 0 -423.87380246568318 -84.483203812917054 0 -84.483203812917054 -395.54694461465988 0 0 0 0 -113.64192892006031 148.43338042797404 0 148.43338042797404 -236.04298274472239 0 0 0 0 7.9888833125514793 -87.021509040270757 0 -87.021509040270757 -162.83207882343595 0 0 0 0 126.38880292046088 56.064046426447021 0 56.064046426447021 9.9799199447152205 0 0 0 0 74.239340831132722 -147.18901252599608 0 -147.18901252599608 72.710756446558662 0 0 0 0 -56.011087002741988 -99.856754275031562 0 -99.856754275031562 214.63220519847528 0 0 0 0 175.37162412787438 -83.208988068974577 0 -83.208988068974577 180.33314966545186 0 0 0 0 70.326351999858161 -0.22183767399110366 0 -0.22183767399110366 198.43730456640878 0 0 0 0 132.2844512917909 25.570590113376966 0 25.570590113376966 140.25357609632192 0 0 0 0 70.481666450563353 157.95973925077851 0 157.95973925077851 21.819327304503531 0 0 0 0 14.866302266888795 4.8279707732299926 0 4.8279707732299926 0.24769906326778823 0 0 0 0 -210.21043873355666 452.55711067013181 0 452.55711067013181 26.050414573150192 0 0 0 0 -86.721574766866979 -236.8754845561416 0 -236.8754845561416 -84.355050207319437 0 0 0 0 144.18938364570204 -148.11573805788066 0 -148.11573805788066 -51.183349462255137 0 0 0 0 1197.8261487315758 1108.1299109503016 0 1108.1299109503016 713.57017168888706 0 0 0 0 56.529387675145699 -175.29473814192897 0 -175.29473814192897 331.75405500915804 0 0 0 0 715.86184774682624 1253.9624884640489 0 1253.9624884640489 251.76049250114011 0 0 0 0 -581.98301040806109 -1000.6334458217898 0 -1000.6334458217898 140.32396567749674 0 0 0 0 58.853028863033074 33.330489786489807 0 33.330489786489807 18.643291186863735 0 0 0 0 114.21967606506223 -42.210836765654676 0 -42.210836765654676 294.9364595557563 0 0 0 0 115.73427384392562 -74.439225391979562 0 -74.439225391979562 158.69941303797532 0 0 0 0 70.994253144366667 -191.80291322800622 0 -191.80291322800622 277.2528622513928 0 0 0 0 142.63618938642321 -106.49120116514678 0 -106.49120116514678 191.17314324557083 0 0 0 0 117.00495650590165 -277.59451561114111 0 -277.59451561114111 -317.8682839982248 0 0 0 0 -304.06097085608417 250.84680999771081 0 250.84680999771081 272.89778092141205 0 0 0 0 -81.150701258324261 280.22981554885337 0 280.22981554885337 -52.879633332486264 0 0 0 0 64.655192644670194 46.364011592508533 0 46.364011592508533 25.633226216274281 0 0 0 0 -11.375458605638414 29.814840517130506 0 29.814840517130506 301.62776991647479 0 0 0 0 24.808773609209311 -0.17456351752844057 0 -0.17456351752844057 313.49432272146805 0 0 0 0 -61.970428456974332 -96.178947644264554 0 -96.178947644264554 213.94671982220461 0 0 0 0 -142.35211829341915 90.495394206629499 0 90.495394206629499 417.3160628349433 0 0 0 0 -0.57794379137340002 -60.848751577199437 0 -60.848751577199437 202.84082976741047 0 0 0 0 8.2934688760894915 9.5718143783406049 0 9.5718143783406049 15.790868962445415 0 0 0 0 132.31865211090917 188.04612470564462 0 188.04612470564462 370.92823613250948 0 0 0 0 -171.46354319385864 61.998651690868428 0 61.998651690868428 89.074001864384627 0 0 0 0 -117.49867326060485 77.6671203105725 0 77.6671203105725 71.950491304771276 0 0 0 0 10.037596019867379 61.281129766292054 0 61.281129766292054 26.729011716256423 0 0 0 0 6.3907390067870438 74.031298083236834 0 74.031298083236834 27.426397227027337 0 0 0 0 4.9224030925637408 74.916922826623477 0 74.916922826623477 27.282635409574141 0 0 0 0 83.255992138889269 37.950871931876463 0 37.950871931876463 43.756926571229997 0 0 0 0 0.54486271019661103 44.174429894839648 0 44.174429894839648 -2.9091653910635955 0 0 0 0 -14.654544461652222 40.435308746070859 0 40.435308746070859 130.99659314058954 0 0 0 0 108.82651418296155 32.663304394911393 0 32.663304394911393 43.484689355935643 0 0 0 0 562.7843772671331 -95.350828328257194 0 -95.350828328257194 -191.68001338971953 0 0 0 0 11.189104135615111 15.027024115594351 0 15.027024115594351 -4.1407901187556604 0 0 0 0 -6.4874220965866698 57.693057760377997 0 57.693057760377997 167.30279107912793 0 0 0 0 -13.530005294574948 27.830459694108868 0 27.830459694108868 16.899126754895406 0 0 0 0 -13.588422635766619 49.798939104577585 0 49.798939104577585 20.831663480799762 0 0 0 0 -18.718800609703862 31.613740436763266 0 31.613740436763266 -10.777583632870147 0 0 0 0 -639.35683413765219 -259.81223597487406 0 -259.81223597487406 133.03238941363816 0 0 0 0 -49.903231067076646 40.646603313822766 0 40.646603313822766 8.1421240316670378 0 0 0 0 215.65669194351358 278.55073154598358 0 278.55073154598358 -205.97730145633977 0 0 0 0 20.097902464433361 29.03369143998561 0 29.03369143998561 10.996034594755173 0 0 0 0 -88.413300128930132 -14.638195793879277 0 -14.638195793879277 214.3639573993587 0 0 0 0 7.5311874462713604 70.95287097649998 0 70.95287097649998 29.144819412962534 0 0 0 0 -11.207645537871485 63.204062725374307 0 63.204062725374307 3.3486616824268935 0 0 0 0 33.499921350929071 65.784169241051131 0 65.784169241051131 -44.1857826825335 0 0 0 0 4.9857403224948484 72.4830678225253 0 72.4830678225253 28.299624473875156 0 0 0 0 -8.4656553565483676 53.746166028416269 0 53.746166028416269 11.407526154641573 0 0 0 0 389.4456629081069 13.91117657005816 0 13.91117657005816 -282.72675590560539 0 0 0 0 15.497822690633683 11.086325081352712 0 11.086325081352712 6.3073548161529516 0 0 0 0 166.0311592544258 206.25454663041273 0 206.25454663041273 -283.80646238703048 0 0 0 0 189.68474443138712 26.680713900353567 0 26.680713900353567 -250.30601183099498 0 0 0 0 553.88604916060285 240.10664066968457 0 240.10664066968457 -338.74231912686082 0 0 0 0 -755.3922687083832 1296.2868773307855 0 1296.2868773307855 2860.7010439197766 0 0 0 0 -418.96088667165895 95.989954232383752 0 95.989954232383752 342.3087449824252 0 0 0 0 -231.61484683326853 284.10218183391407 0 284.10218183391407 388.8058140245339 0 0 0 0 1514.9216899191961 450.53200081823888 0 450.53200081823888 -1408.3620879849041 0 0 0 0 -249.40063440070662 107.09823992009478 0 107.09823992009478 139.24829104190576 0 0 0 0 -493.70739800651791 -167.22484247166722 0 -167.22484247166722 110.00151259214181 0 0 0 0 -37.901369303748922 39.144057490042997 0 39.144057490042997 -33.736321866550838 0 0 0 0 463.5661277261388 707.86733034424833 0 707.86733034424833 -283.32198194052035 0 0 0 0 6.6150405298631085 762.38555805789656 0 762.38555805789656 727.5143850492168 0 0 0 0 468.56197485336816 458.90505860381381 0 458.90505860381381 148.33724762914426 0 0 0 0 137.23843465173104 175.88319245502134 0 175.88319245502134 620.30333124547906 0 0 0 0 278.77168077077295 359.8515738165479 0 359.8515738165479 9.1577436687075533 0 0 0 0 163.89363877267897 -798.4124969570039 0 -798.4124969570039 -1014.6459834236375 0 0 0 0 -17.993374145847596 21.813829299853126 0 21.813829299853126 -18.971704643682415 0 0 0 0 183.04642128292107 701.09516066047945 0 701.09516066047945 887.7357513030729 0 0 0 0 625.4354589461409 797.62243947791649 0 797.62243947791649 310.36576498381328 0 0 0 0 3297.6749760106832 1250.263694886693 0 1250.263694886693 -781.64392075531941 0 0 0 0 2.4288966597100199 5.4944439260620612 0 5.4944439260620612 -0.47304113591894748 0 0 0 0 4809.5742466173033 -259.01795879917336 0 -259.01795879917336 -1090.2520370435668 0 0 0 0 -3840.8031953768204 1772.5864811534775 0 1772.5864811534775 -112.51590004850004 0 0 0 0 -0.076026548809508654 -0.7299918512063357 0 -0.7299918512063357 -2.2944662975181132 0 0 0 0 -2180.4783222493206 437.9792545686978 0 437.9792545686978 -116.84173329451005 0 0 0 0 -502.48787275817449 -286.62416831769224 0 -286.62416831769224 -143.88067138255929 0 0 0 0 -587.22129654798482 514.01244779741683 0 514.01244779741683 681.97265281062209 0 0 0 0 -49.487741326911134 65.593967075905397 0 65.593967075905397 -24.004939000381569 0 0 0 0 -119.67011678862582 32.912658946965166 0 32.912658946965166 63.026956844958477 0 0 0 0 -198.9818357483382 18.136073109766585 0 18.136073109766585 78.72202333027235 0 0 0 0 16.812088485079585 1352.5362463897327 0 1352.5362463897327 -1193.8098090691783 0 0 0 0 -1640.6278066171726 170.50094017894298 0 170.50094017894298 588.13162392035883 0 0 0 0 73.59201857240987 100.48358089689282 0 100.48358089689282 416.93848509714007 0 0 0 0 -0.38931839886208763 57.980439985476551 0 57.980439985476551 16.533468675086624 0 0 0 0 140.60483703178215 331.68393453838507 0 331.68393453838507 -597.98101367824711 0 0 0 0 -1114.4837509033605 930.49939082356286 0 930.49939082356286 -732.28469282700098 0 0 0 0 191.50940664213704 201.96368242065728 0 201.96368242065728 -329.72749614977511 0 0 0 0 6.2680617639802279 19.780660579287783 0 19.780660579287783 12.141215548515731 0 0 0 0 -432.02099492421166 890.25650202180623 0 890.25650202180623 -26.203889854543377 0 0 0 0 84.384831613591814 128.06023430018467 0 128.06023430018467 -287.68833293046919 0 0 0 0 98.740479128785267 77.853378687503806 0 77.853378687503806 1.9953668911902298 0 0 0 0 65.514525844686432 124.05018750589807 0 124.05018750589807 15.106000679785211 0 0 0 0 -216.06565574404522 338.57645591651089 0 338.57645591651089 -36.00808997695276 0 0 0 0 -16.773879745250227 57.236541784117868 0 57.236541784117868 22.686340095619755 0 0 0 0 145.51414836512413 100.71034913776384 0 100.71034913776384 21.760951373478747 0 0 0 0 19.340397623161003 41.403338931838277 0 41.403338931838277 32.429797589982371 0 0 0 0 -239.31815460255666 128.02220052000848 0 128.02220052000848 -517.33085060094891 0 0 0 0 -66.696566008662558 817.02304894976987 0 817.02304894976987 -784.96438975131605 0 0 0 0 -70.837473259023682 227.92473767012416 0 227.92473767012416 128.94926413072699 0 0 0 0 59.094107254308256 671.20867682793323 0 671.20867682793323 -354.15315884492884 0 0 0 0 -63.158719708786521 137.80391717709426 0 137.80391717709426 -41.368540762608973 0 0 0 0 229.77443797707747 424.27432070315263 0 424.27432070315263 -376.97968774012406 0 0 0 0 18.695134117611616 29.215888812557083 0 29.215888812557083 22.781015201157032 0 0 0 0 78.155836607335004 490.37100352088964 0 490.37100352088964 -1004.8646435157716 0 0 0 0 4.927853579190014 43.555860326145194 0 43.555860326145194 23.015125820013054 0 0 0 0 2.598277797409537 23.797685654037195 0 23.797685654037195 45.892869896924822 0 0 0 0 -18.19663435463584 5.8395338830333259 0 5.8395338830333259 -0.67157271181210376 0 0 0 0 95.66151696844463 530.12326503889926 0 530.12326503889926 806.48274785051944 0 0 0 0 -5.5777967621961579 36.241641568307386 0 36.241641568307386 62.375438912509708 0 0 0 0 -4.4548738128669356 36.824917311560057 0 36.824917311560057 51.238512630094192 0 0 0 0 2.5547613632170396 43.874351584900978 0 43.874351584900978 48.595966585206043 0 0 0 0 10.062709347319469 44.606042748109758 0 44.606042748109758 24.161613108735764 0 0 0 0 -3.14082175555086 58.873304852328147 0 58.873304852328147 57.336419778082927 0 0 0 0 -31.959710940367373 34.827416390990876 0 34.827416390990876 35.06386443975066 0 0 0 0 685.72748970360408 -898.69581977589405 0 -898.69581977589405 586.84418256271238 0 0 0 0 90.862135447521723 180.69756371958101 0 180.69756371958101 111.65680564445211 0 0 0 0 1804.6542054551246 1634.2045920629753 0 1634.2045920629753 -2002.4278710613726 0 0 0 0 2.6381911623684573 52.909453630207281 0 52.909453630207281 60.373789679451875 0 0 0 0 -7.4898295173243241 57.909195276708488 0 57.909195276708488 93.464856052909454 0 0 0 0 -30.6094402037359 7.5408804134823555 0 7.5408804134823555 -4.4813678978228779 0 0 0 0 -30.433030874241346 32.530162846326931 0 32.530162846326931 17.462149159724177 0 0 0 0 15.612172022865707 91.366274290867295 0 91.366274290867295 118.22454258107609 0 0 0 0 101.6919170580386 152.06055307360293 0 152.06055307360293 177.81112688216672 0 0 0 0 74.007688440690799 136.76044809448649 0 136.76044809448649 295.14541757424013 0 0 0 0 118.23027813643216 288.18527635218697 0 288.18527635218697 405.26429496322089 0 0 0 0 36.003056380434032 51.615347673740452 0 51.615347673740452 -65.267057041434612 0 0 0 0 86.368591440415912 228.71938210093322 0 228.71938210093322 237.4252090809332 0 0 0 0 80.144608349528426 140.30608075862256 0 140.30608075862256 210.11523478391155 0 0 0 0 61.529024699702859 191.30193965333638 0 191.30193965333638 233.33156036229229 0 0 0 0 60.584645431841636 191.2461286536593 0 191.2461286536593 294.33766132321762 0 0 0 0 81.759473595970121 126.6904820923337 0 126.6904820923337 279.54514778442535 0 0 0 0 61.347873225924559 547.01150922500528 0 547.01150922500528 807.11608279854408 0 0 0 0 206.33957105022273 368.84991756296949 0 368.84991756296949 376.29789403523318 0 0 0 0 36.753445733646807 60.013015662839166 0 60.013015662839166 -69.633689312620831 0 0 0 0 152.05733674324028 475.44049806461317 0 475.44049806461317 307.82837560476037 0 0 0 0 0.47118686341409699 -0.27630757322972954 0 -0.27630757322972954 -17.992054896133403 0 0 0 0 157.44247016735611 267.90391734973468 0 267.90391734973468 523.46872968902608 0 0 0 0 158.14725860048748 290.66485596302664 0 290.66485596302664 397.35618898169923 0 0 0 0 -109.89855767478002 58.619960309151793 0 58.619960309151793 60.858455615736602 0 0 0 0 -101.50100025406755 45.71097254306278 0 45.71097254306278 27.717229957997915 0 0 0 0 -200.51219190278789 101.87078753571404 0 101.87078753571404 -1.8485713304544333 0 0 0 0 -152.32859014867427 15.505478321105329 0 15.505478321105329 23.70913495673085 0 0 0 0 13.01640385101129 16.062103182428316 0 16.062103182428316 1.098705081390321 0 0 0 0 -74.954644657085851 40.925101416890868 0 40.925101416890868 -6.6116139701697421 0 0 0 0 -377.8504225788638 437.20431965199532 0 437.20431965199532 314.07838190702023 0 0 0 0 804.38084042277478 -25.060819282702141 0 -25.060819282702141 -189.97243640194938 0 0 0 0 -106.16783328159363 127.83092463276989 0 127.83092463276989 -160.93772768577037 0 0 0 0 -74.761792689171273 40.774905982572832 0 40.774905982572832 -17.23495473532148 0 0 0 0 -248.57671908971679 72.762670195028477 0 72.762670195028477 191.33275176129973 0 0 0 0 -21.042805555862287 79.155746006261325 0 79.155746006261325 21.756950644667086 0 0 0 0 -18.102202595788896 1.7262435437056922 0 1.7262435437056922 8.4770782415334054 0 0 0 0 -56.144194521351892 122.14735717142685 0 122.14735717142685 36.74151212387369 0 0 0 0 -88.881047701026546 65.326112131311675 0 65.326112131311675 -20.800092389719794 0 0 0 0 -118.4134163855515 123.44274279617639 0 123.44274279617639 32.77816839487059 0 0 0 0 -39.615385855977365 91.874885022974922 0 91.874885022974922 40.187029812062974 0 0 0 0 -48.301743315620115 127.20297244261019 0 127.20297244261019 62.098595385730732 0 0 0 0 -3.8470723916470888 110.44939440427333 0 110.44939440427333 10.589137140988896 0 0 0 0 -1.5931619188850163 125.54491597570814 0 125.54491597570814 53.609623410371569 0 0 0 0 6.4952172675257316 110.47182462358614 0 110.47182462358614 32.087644803752482 0 0 0 0 -22.188232074115149 84.886522830765898 0 84.886522830765898 82.740048131265212 0 0 0 0 12.213020411720208 136.3830815002766 0 136.3830815002766 111.66800141037675 0 0 0 0 15.412876729038544 104.49366233372712 0 104.49366233372712 74.008493944711518 0 0 0 0 22.834995486831758 134.2715379954243 0 134.2715379954243 191.91131566417243 0 0 0 0 63.414772304298822 132.44577629681589 0 132.44577629681589 33.311169557622634 0 0 0 0 23.047946246886568 109.70424191898201 0 109.70424191898201 26.569481560198255 0 0 0 0 25.037440541014803 116.60843432619185 0 116.60843432619185 50.484786347420595 0 0 0 0 -33.326898307662987 43.868983768125354 0 43.868983768125354 50.850923234719261 0 0 0 0 -57.672647006484262 47.658551495170784 0 47.658551495170784 150.64681272041577 0 0 0 0 -99.24788398099281 104.38628011129185 0 104.38628011129185 268.22712689229957 0 0 0 0 1.0653762610068327 69.395999735247187 0 69.395999735247187 -19.809002809859685 0 0 0 0 5.7316069186126697 180.7983553454942 0 180.7983553454942 236.39652564725748 0 0 0 0 0.16519866281669238 139.18545010686103 0 139.18545010686103 95.216366043619928 0 0 0 0 17.776438160544785 123.62988752199817 0 123.62988752199817 55.178018626596895 0 0 0 0 -14.34974886328564 71.344896239079389 0 71.344896239079389 93.38952586139203 0 0 0 0 -72.516936407075264 105.50386164058 0 105.50386164058 75.104680240794551 0 0 0 0 -57.095733046939131 97.533207455915544 0 97.533207455915544 139.96297328470973 0 0 0 0 -15.893520034170137 61.021132040951798 0 61.021132040951798 -36.481185621860618 0 0 0 0 -31.770224425270499 96.580822546881791 0 96.580822546881791 84.457405543435016 0 0 0 0 256.22622083546594 143.95612884739785 0 143.95612884739785 29.383693420209966 0 0 0 0 -63.959887019380403 47.089772195729893 0 47.089772195729893 57.331017746997532 0 0 0 0 508.8669685205823 453.35884391998297 0 453.35884391998297 -474.77977343310704 0 0 0 0 184.89412626676494 461.33919170166519 0 461.33919170166519 -466.89658070489577 0 0 0 0 186.47154879393202 522.74871989719941 0 522.74871989719941 -211.87328706791232 0 0 0 0 229.10275230002298 623.39497060906615 0 623.39497060906615 -518.85680851043185 0 0 0 0 13.833815599151421 789.31061065163885 0 789.31061065163885 -522.39585722574861 0 0 0 0 -296.8661574059588 831.55934358368268 0 831.55934358368268 -132.64223262547239 0 0 0 0 -211.1981312117714 695.42515126654871 0 695.42515126654871 -32.324570210371348 0 0 0 0 -26.270800182013772 430.58578894948732 0 430.58578894948732 -172.43775062552413 0 0 0 0 -121.04591681567399 392.37571845923048 0 392.37571845923048 383.70772153230064 0 0 0 0 136.41071923819254 268.60073104192452 0 268.60073104192452 77.825070191982377 0 0 0 0 35.581030256667873 26.884758775306182 0 26.884758775306182 388.59808306902778 0 0 0 0 -340.29867464171912 214.83986231391009 0 214.83986231391009 349.77331018334007 0 0 0 0 -8.8257873881228051 29.244276349074227 0 29.244276349074227 -7.5224224446170425 0 0 0 0 573.98111692468228 159.80185405495649 0 159.80185405495649 88.494116695987032 0 0 0 0 265.49233734916925 467.7615846785834 0 467.7615846785834 517.10265691545101 0 0 0 0 -78.752927846486273 192.79066927109125 0 192.79066927109125 309.53241773402806 0 0 0 0 -77.84160719068575 149.86352926910445 0 149.86352926910445 229.84427241988669 0 0 0 0 -147.15894437371753 25.308349178607386 0 25.308349178607386 675.33143429228267 0 0 0 0 -112.68438360088476 65.121458939423064 0 65.121458939423064 221.27822903972265 0 0 0 0 241.61849842888478 -216.79018822654143 0 -216.79018822654143 147.74824084820284 0 0 0 0 -238.07151761887144 1031.1044371991356 0 1031.1044371991356 -425.53537587309256 0 0 0 0 2.9596261000766901 3.8552951163603382 0 3.8552951163603382 3.3665384251160617 0 0 0 0 131.28490849452646 188.68470662645905 0 188.68470662645905 -458.63755405692791 0 0 0 0 -388.71298084392038 -142.45380788963485 0 -142.45380788963485 291.76297355015731 0 0 0 0 -239.29855296836104 -192.56454747278531 0 -192.56454747278531 167.41012058809429 0 0 0 0 -12.72850624727559 41.290501058148607 0 41.290501058148607 37.590035022643818 0 0 0 0 48.929325861405232 166.67602603776686 0 166.67602603776686 17.324535717337312 0 0 0 0 14.173972437342712 24.530581921166018 0 24.530581921166018 24.410104673311235 0 0 0 0 -282.31164961029572 -247.90460549274167 0 -247.90460549274167 62.619581923761871 0 0 0 0 -187.67986392165403 -84.52187795170903 0 -84.52187795170903 61.508320126073158 0 0 0 0 -156.35161513638741 113.30107153239078 0 113.30107153239078 290.62896240239752 0 0 0 0 -178.86076920298365 77.451694209045399 0 77.451694209045399 249.23492725409233 0 0 0 0 -44.765696996276766 47.288450454983348 0 47.288450454983348 151.91343419344491 0 0 0 0 -104.06210113973066 121.47618915296789 0 121.47618915296789 205.41736693659732 0 0 0 0 188.13503404271432 151.21566740691196 0 151.21566740691196 179.87276408314938 0 0 0 0 59.083077025385798 57.444603660203448 0 57.444603660203448 -43.965488570628935 0 0 0 0 62.518161001072713 221.9215870834978 0 221.9215870834978 301.19331271273404 0 0 0 0 270.53027373043005 23.478229803491558 0 23.478229803491558 -140.6654101525728 0 0 0 0 103.66742249669187 144.06224228890278 0 144.06224228890278 -36.097309156213669 0 0 0 0 638.79189408133607 -7.3241577014859445 0 -7.3241577014859445 -31.255882198584004 0 0 0 0 95.126112712161557 10.972649327043655 0 10.972649327043655 657.23190382336179 0 0 0 0 616.23341401851212 713.13190804542137 0 713.13190804542137 414.8443773975996 0 0 0 0 1299.8645949506918 541.63774484115538 0 541.63774484115538 -189.72786124181039 0 0 0 0 2.2135785241028323 5.1849960503326429 0 5.1849960503326429 8.6178491177867755 0 0 0 0 631.32116040322217 348.63728784083742 0 348.63728784083742 44.727280874815733 0 0 0 0 180.37233040585124 146.38782978410745 0 146.38782978410745 -35.992277496729002 0 0 0 0 -1.308124814536491 20.857471166333859 0 20.857471166333859 33.789333422997672 0 0 0 0 -30.148522349416453 26.81644957809749 0 26.81644957809749 131.27191780930298 0 0 0 0 -303.34963146331575 -67.137575385742821 0 -67.137575385742821 334.91648128207999 0 0 0 0 -19.767654949978912 34.330935060015733 0 34.330935060015733 30.219713258616224 0 0 0 0 96.354729733040585 171.37280975964586 0 171.37280975964586 -153.92712857611332 0 0 0 0 -237.176138421215 113.03325564243096 0 113.03325564243096 108.69135134759563 0 0 0 0 -61.147018179228326 -89.758936302952634 0 -89.758936302952634 160.22526439927606 0 0 0 0 -1573.146400382233 658.75892428903308 0 658.75892428903308 577.51044438827739 0 0 0 0 -13.676427317038602 4.1610465874521338 0 4.1610465874521338 16.049313894752029 0 0 0 0 -341.04473648563726 -90.053535999228643 0 -90.053535999228643 266.1004210515639 0 0 0 0 145.98063398362137 849.02246295641544 0 849.02246295641544 -829.18043494470112 0 0 0 0 -1386.9262799427615 20.238863636574706 0 20.238863636574706 14.895594775898644 0 0 0 0 -1443.136423197313 718.83374319015275 0 718.83374319015275 572.47359072395284 0 0 0 0 -602.1529273784472 418.53701689188711 0 418.53701689188711 191.84085758361016 0 0 0 0 -994.90727199500543 -497.78877243367378 0 -497.78877243367378 252.81926592008676 0 0 0 0 -515.19952648148319 -46.168390973006808 0 -46.168390973006808 -215.85812752618313 0 0 0 0 -368.16459099546773 -607.17234047515024 0 -607.17234047515024 1017.2378686929578 0 0 0 0 168.94826337883569 -263.42651816380294 0 -263.42651816380294 126.52461084855304 0 0 0 0 819.08279700480489 296.19476051363608 0 296.19476051363608 394.62804385476466 0 0 0 0 173.5281835005735 560.93100895660018 0 560.93100895660018 1620.5823399500277 0 0 0 0 -437.79949821451737 914.23543582132334 0 914.23543582132334 1610.3607516947673 0 0 0 0 209.46313744456711 621.37296946197512 0 621.37296946197512 -483.49788803782212 0 0 0 0 921.5741427083849 841.17708718307631 0 841.17708718307631 -418.05348949849213 0 0 0 0 58.757961735074787 214.9677017387985 0 214.9677017387985 202.28970553243016 0 0 0 0 42.304459159171529 252.9771385987915 0 252.9771385987915 218.96341939585 0 0 0 0 58.544437037654149 230.44210846279418 0 230.44210846279418 231.51421226672028 0 0 0 0 58.520618676480964 223.98577186261531 0 223.98577186261531 259.94666685607808 0 0 0 0 87.551954245682282 211.04327432363516 0 211.04327432363516 243.42876909848928 0 0 0 0 134.15892934919248 233.21430852105186 0 233.21430852105186 222.65494960845899 0 0 0 0 41.523460808018328 46.897770692511159 0 46.897770692511159 -64.725250848953209 0 0 0 0 138.85274068486251 232.24289984664938 0 232.24289984664938 106.7488176006409 0 0 0 0 77.36650875158648 296.38492885150481 0 296.38492885150481 385.46924902117462 0 0 0 0 153.04086307241778 309.19603822208683 0 309.19603822208683 147.40684756272458 0 0 0 0 137.43741396491987 267.50238604346578 0 267.50238604346578 53.02497478164878 0 0 0 0 88.73522376078472 299.49664692828719 0 299.49664692828719 251.58619198721863 0 0 0 0 29.322200427192001 245.50922429235288 0 245.50922429235288 133.67970165704673 0 0 0 0 -45.525931978623703 230.95749516340584 0 230.95749516340584 231.33490112690015 0 0 0 0 607.07496956185571 480.45576197805036 0 480.45576197805036 118.45733391193426 0 0 0 0 49.697724411282252 498.26479287995608 0 498.26479287995608 480.99266406860079 0 0 0 0 -448.45858768450489 178.28770670436552 0 178.28770670436552 310.43019365588498 0 0 0 0 34.654678703558602 187.0047317425142 0 187.0047317425142 117.05457252757196 0 0 0 0 45.356869122133503 274.12591460712792 0 274.12591460712792 148.07282060063062 0 0 0 0 23.971211525614194 191.57009819559732 0 191.57009819559732 192.34086878929156 0 0 0 0 82.059450436578118 215.27213759058532 0 215.27213759058532 146.55012603864088 0 0 0 0 82.120076793960834 217.03166364641856 0 217.03166364641856 196.45884054376165 0 0 0 0 55.896921218129137 135.54746841404994 0 135.54746841404994 113.58834572940941 0 0 0 0 13.180830993595009 22.263331416335859 0 22.263331416335859 -57.085581234749384 0 0 0 0 58.136818870250863 132.47061642204517 0 132.47061642204517 117.7653976436286 0 0 0 0 54.052271948043199 252.83031967999705 0 252.83031967999705 -68.770602235268598 0 0 0 0 61.708025610170807 186.0507621067045 0 186.0507621067045 68.639524682763295 0 0 0 0 78.225030229503318 224.96150580690301 0 224.96150580690301 134.45458708388242 0 0 0 0 -51.66509335515201 29.917481608195239 0 29.917481608195239 1.5717616771480678 0 0 0 0 -353.1076577279091 273.04826905310438 0 273.04826905310438 -113.58138661704288 0 0 0 0 -513.95923883490468 -33.490580400739418 0 -33.490580400739418 -366.73825212211523 0 0 0 0 -483.73298768058294 -213.67477119759747 0 -213.67477119759747 -142.90560950305371 0 0 0 0 -3.2987379763090132 0.8261325660591865 0 0.8261325660591865 -0.19193574303514005 0 0 0 0 -45.641913490369916 175.91773698043835 0 175.91773698043835 -333.53222485108017 0 0 0 0 -153.95391730293159 120.49161796390217 0 120.49161796390217 -6.0445811035642691 0 0 0 0 48.983057334000478 247.75554269677559 0 247.75554269677559 22.584964360130925 0 0 0 0 -72.832220005827367 -60.901292626715531 0 -60.901292626715531 -51.484402957143175 0 0 0 0 -165.50552073912422 106.18761473751874 0 106.18761473751874 109.752805830336 0 0 0 0 33.638609306174658 10.254577991837323 0 10.254577991837323 118.20169045628063 0 0 0 0 189.36329147014476 252.30318916865872 0 252.30318916865872 143.12134712443594 0 0 0 0 -17.217282014074954 223.30099092176897 0 223.30099092176897 211.00831350067892 0 0 0 0 72.158105625825556 278.71688871120477 0 278.71688871120477 228.6017303851404 0 0 0 0 27.217177306896701 299.40663945369306 0 299.40663945369306 523.90827105111384 0 0 0 0 501.28213517913537 368.84154387848685 0 368.84154387848685 347.06037489610026 0 0 0 0 65.528889755092678 259.29888427088372 0 259.29888427088372 190.83379672967567 0 0 0 0 51.685808407522927 247.36135795097471 0 247.36135795097471 235.40283700103828 0 0 0 0 59.019645528529509 291.78515842291017 0 291.78515842291017 100.14798031806777 0 0 0 0 47.299009845575711 276.84975402730106 0 276.84975402730106 256.53062504825721 0 0 0 0 14.010275178945449 262.43469060691132 0 262.43469060691132 409.76904469732472 0 0 0 0 66.038006513739674 153.92742708817786 0 153.92742708817786 413.47150638044053 0 0 0 0 41.231260939792264 205.26725041890495 0 205.26725041890495 344.29343730226356 0 0 0 0 39.627517807191907 222.48827748648728 0 222.48827748648728 267.23081891499533 0 0 0 0 33.354566602441992 129.19542249757524 0 129.19542249757524 388.72501191907941 0 0 0 0 61.507884408143582 154.42049692217915 0 154.42049692217915 258.97791270824382 0 0 0 0 44.46738927566912 136.62536727470615 0 136.62536727470615 299.81620815175847 0 0 0 0 156.2150502991957 364.05602645078892 0 364.05602645078892 958.95385930769407 0 0 0 0 78.447639907217223 23.647108203374948 0 23.647108203374948 -18.824152307097481 0 0 0 0 63.720349781389814 110.68411824051509 0 110.68411824051509 306.29098946078011 0 0 0 0 66.874947177664581 102.93033406950053 0 102.93033406950053 293.07996564435598 0 0 0 0 -42.505153673348431 65.274714301979685 0 65.274714301979685 -41.322325519680355 0 0 0 0 108.23239780655695 -70.121529635511251 0 -70.121529635511251 -208.06899750983939 0 0 0 0 57.75297572386944 282.26641644394476 0 282.26641644394476 -110.15060982026444 0 0 0 0 34.227167274115345 208.39112567568736 0 208.39112567568736 352.73243153334261 0 0 0 0 23.380334847111953 74.493448780316612 0 74.493448780316612 326.30483884466776 0 0 0 0 27.962019847480292 2.2595006866504832 0 2.2595006866504832 726.91208434143664 0 0 0 0 25.729714628207148 203.13059565755339 0 203.13059565755339 591.89559418016688 0 0 0 0 115.21057752581328 175.49859705382096 0 175.49859705382096 495.46984919311399 0 0 0 0 91.12965572943267 36.299744800358667 0 36.299744800358667 937.65604668550804 0 0 0 0 18.411782893152029 2.1731453506425638 0 2.1731453506425638 0.48102240771240723 0 0 0 0 -60.188797850212723 325.77906199202334 0 325.77906199202334 1701.2563758331744 0 0 0 0 411.60249558672331 -11.327962557155843 0 -11.327962557155843 -743.81099540360628 0 0 0 0 -197.40499580955839 54.92393745636582 0 54.92393745636582 -236.94283753006312 0 0 0 0 50.718782941076007 12.149612055460743 0 12.149612055460743 5.3244036279379792 0 0 0 0 204.78164107401426 222.11297137566726 0 222.11297137566726 -683.60047769011362 0 0 0 0 -67.717094598048789 326.1055623043394 0 326.1055623043394 -240.25497660748078 0 0 0 0 -33.753656777926281 53.00851018818247 0 53.00851018818247 -47.534517478566926 0 0 0 0 478.91034374722949 576.04152366530616 0 576.04152366530616 2164.1460338692123 0 0 0 0 -99.737769099593152 126.96138576490557 0 126.96138576490557 331.16163331204734 0 0 0 0 -41.924705266315414 411.88730282794677 0 411.88730282794677 339.74575043460936 0 0 0 0 -68.551092737268846 233.99889328102108 0 233.99889328102108 140.21662034433393 0 0 0 0 2.4271813704108354 233.03740521720465 0 233.03740521720465 -206.51824693080198 0 0 0 0 70.435745604936528 224.24710956955823 0 224.24710956955823 81.813836221117526 0 0 0 0 153.07934953406584 199.80464851515353 0 199.80464851515353 -195.53719551247559 0 0 0 0 195.2875188545222 309.48345853079081 0 309.48345853079081 96.923000138440329 0 0 0 0 34.755009621258068 246.73966522855335 0 246.73966522855335 79.353440914489511 0 0 0 0 673.51534455151705 1082.638912195689 0 1082.638912195689 -388.34489533348824 0 0 0 0 158.0744066559455 60.801630209363793 0 60.801630209363793 337.96684235707653 0 0 0 0 60.00083647579595 602.20669598177483 0 602.20669598177483 2081.2592008994689 0 0 0 0 -1.578843163917135 1.5079052903512604 0 1.5079052903512604 -0.14518069610420525 0 0 0 0 49.374179374146479 736.40653723520518 0 736.40653723520518 2105.1209099032385 0 0 0 0 780.7469237889236 986.30643929084181 0 986.30643929084181 1231.1537245656073 0 0 0 0 -3.9756119756048847 7.5900235249390846 0 7.5900235249390846 4.4471375335875365 0 0 0 0 25.205894810716927 94.768391749152215 0 94.768391749152215 -741.6551284476227 0 0 0 0 225.72397394337895 -107.76506670500385 0 -107.76506670500385 -1986.6236505031411 0 0 0 0 -48.785431096473076 -37.1148061611093 0 -37.1148061611093 -908.58232730692544 0 0 0 0 -16.737141389424323 174.59855525763305 0 174.59855525763305 -724.61745483060076 0 0 0 0 2.5224373599285173 15.664733424251608 0 15.664733424251608 44.989227768790442 0 0 0 0 5.2415810570328674 21.838935027273791 0 21.838935027273791 16.833280475457585 0 0 0 0 281.99204207097364 227.42841292685625 0 227.42841292685625 1011.9211840025819 0 0 0 0 -6.9701781984714302 -1.3879792401834976 0 -1.3879792401834976 7.472544598900356 0 0 0 0 8.6332816399044532 875.72053655126365 0 875.72053655126365 1154.2528176551423 0 0 0 0 42.764244263427599 369.8395092994906 0 369.8395092994906 3377.0589969317662 0 0 0 0 1.5513899775204933 0.32584159545577052 0 0.32584159545577052 -0.30360457108629646 0 0 0 0 -416.59118213350303 132.55576972818017 0 132.55576972818017 912.85070436732167 0 0 0 0 38.907151078852621 -576.91974383088564 0 -576.91974383088564 1157.5106152676562 0 0 0 0 12.93814054203915 18.558547251635527 0 18.558547251635527 20.629574005309848 0 0 0 0 -622.81964014242476 1849.5843057996972 0 1849.5843057996972 -1572.4808442489739 0 0 0 0 12.334539628474488 4.7613569466287124 0 4.7613569466287124 -0.20237020909476655 0 0 0 0 -201.62920526691232 871.79732653309929 0 871.79732653309929 -1777.7339284070404 0 0 0 0 -1026.0949198558155 380.97518998706073 0 380.97518998706073 -969.45671382913861 0 0 0 0 530.4684003252878 890.05825068482409 0 890.05825068482409 -910.05989105344634 0 0 0 0 -700.08923932274047 872.31431659992086 0 872.31431659992086 133.8106398153941 0 0 0 0 -768.93469605984319 1731.2098753681689 0 1731.2098753681689 -1331.6731120321929 0 0 0 0 -247.96284375866162 753.20882715714106 0 753.20882715714106 -1127.5062870908878 0 0 0 0 14.160697868633278 34.958779930927513 0 34.958779930927513 20.355480963920343 0 0 0 0 18.702642695832765 -59.794003471259202 0 -59.794003471259202 575.33145486130525 0 0 0 0 -89.624758480182209 21.694532256784441 0 21.694532256784441 602.35001545515297 0 0 0 0 -56.981065541085627 218.05958722415016 0 218.05958722415016 402.49567012437183 0 0 0 0 -17.890102030327938 50.491353370683626 0 50.491353370683626 -38.424960230687418 0 0 0 0 -22.093198041075084 192.21537093148072 0 192.21537093148072 418.96676829674107 0 0 0 0 71.64711975156024 80.617438221604971 0 80.617438221604971 477.00294539076276 0 0 0 0 -72.793213515129537 194.94554796536613 0 194.94554796536613 363.45595764122845 0 0 0 0 -117.81407598402438 210.2549444991746 0 210.2549444991746 422.96310534176155 0 0 0 0 -108.54160915807734 259.84765369874367 0 259.84765369874367 384.81572302741188 0 0 0 0 32.076270552818414 202.28480843479178 0 202.28480843479178 258.70530799908738 0 0 0 0 -55.626079691330233 368.29162037016067 0 368.29162037016067 66.97680596938153 0 0 0 0 -157.46103042476352 282.11052387067502 0 282.11052387067502 342.84435142688744 0 0 0 0 68.977084084580383 237.32320922990766 0 237.32320922990766 -28.874504631145101 0 0 0 0 -116.09212610636314 599.05932111424409 0 599.05932111424409 444.83065632554099 0 0 0 0 -106.43548528670362 228.76156492293376 0 228.76156492293376 388.39913550521851 0 0 0 0 -339.85505511942483 175.4150435244901 0 175.4150435244901 519.36854608010617 0 0 0 0 -1340.5899124149764 1410.107693297334 0 1410.107693297334 -71.69803374948242 0 0 0 0 -1112.4648498147048 -165.61669706362954 0 -165.61669706362954 945.32983548293123 0 0 0 0 609.06041084440585 1314.271830710004 0 1314.271830710004 -1093.2745655138169 0 0 0 0 44.095852393744281 602.86298248863022 0 602.86298248863022 -588.98679813989293 0 0 0 0 1013.158106538609 377.63345566520911 0 377.63345566520911 -649.79956892550035 0 0 0 0 1098.5645223373213 389.16081069702886 0 389.16081069702886 355.02701846612399 0 0 0 0 -1119.003386544191 -685.76612640700296 0 -685.76612640700296 873.9421941509554 0 0 0 0 -1581.223578449426 928.91703917540508 0 928.91703917540508 -399.89170182957969 0 0 0 0 -15.236446253562463 285.14228905053642 0 285.14228905053642 -954.9665022161862 0 0 0 0 -456.87653459418652 1001.246589325192 0 1001.246589325192 -1938.9035688736258 0 0 0 0 723.91625067675704 -474.06366886497381 0 -474.06366886497381 789.15772591021232 0 0 0 0 -334.82663131331356 -67.109877679547935 0 -67.109877679547935 393.39444945059586 0 0 0 0 -18.50608677123823 -7.412279458238153 0 -7.412279458238153 -1.8000141147946351 0 0 0 0 -618.38100042480801 -5.5732696667910204 0 -5.5732696667910204 989.17592834114475 0 0 0 0 -107.5205832819338 -1397.6888850202777 0 -1397.6888850202777 3204.2616250065985 0 0 0 0 -62.508618087766138 15.758929972348874 0 15.758929972348874 0.80010332160827247 0 0 0 0 795.01739568062476 521.09662491064955 0 521.09662491064955 -489.83628604643172 0 0 0 0 -789.20117884965293 1425.1634611951827 0 1425.1634611951827 1774.695873277371 0 0 0 0 -4.7208853234915296 534.50957480941179 0 534.50957480941179 -539.93680407617262 0 0 0 0 -90.830822487976008 53.373739800261198 0 53.373739800261198 -15.088725837215307 0 0 0 0 -261.2279776423436 252.63242134901554 0 252.63242134901554 -157.05482564727936 0 0 0 0 63.138419194046946 385.97367756276071 0 385.97367756276071 -143.74518551806079 0 0 0 0 -1106.5561450850764 206.80819188041278 0 206.80819188041278 387.85681238232064 0 0 0 0 282.89071936078653 158.91556050162944 0 158.91556050162944 191.85336565787384 0 0 0 0 -107.57164184402609 199.22159599367751 0 199.22159599367751 190.46159770019221 0 0 0 0 -69.087570331115515 46.725850358158219 0 46.725850358158219 -12.882760957460114 0 0 0 0 294.70177010596308 708.8502221036033 0 708.8502221036033 260.90278495911321 0 0 0 0 -292.75477432162643 537.06814382840366 0 537.06814382840366 281.73825484326881 0 0 0 0 44.498363591646921 -263.07521451684806 0 -263.07521451684806 210.53868581159304 0 0 0 0 -357.01207890934529 -31.422312923867139 0 -31.422312923867139 275.2443860857561 0 0 0 0 -360.51547472473521 -52.615741945245645 0 -52.615741945245645 147.89571874158719 0 0 0 0 -3.9561324434616836 -176.52908142149317 0 -176.52908142149317 -139.16516474978198 0 0 0 0 -55.180505312826426 60.376528125441837 0 60.376528125441837 92.137928974458191 0 0 0 0 -284.45856730268133 -295.96460033606127 0 -295.96460033606127 -85.16017510979691 0 0 0 0 -202.95356280563283 -40.136174003926499 0 -40.136174003926499 -36.755335478805137 0 0 0 0 88.96855803293144 295.60070906545951 0 295.60070906545951 377.56733537809123 0 0 0 0 -62.962209403300065 37.877138806668512 0 37.877138806668512 -2.9656635645199074 0 0 0 0 99.800676792968261 316.13796164193991 0 316.13796164193991 367.40093454016278 0 0 0 0 300.79347172757389 267.23387911631835 0 267.23387911631835 289.20738043602614 0 0 0 0 -0.83074690102340298 1.6895321724599341 0 1.6895321724599341 -1.3674310736334974 0 0 0 0 89.76614940831081 304.57033069665766 0 304.57033069665766 407.58413096019649 0 0 0 0 106.29415079877708 330.64273292217695 0 330.64273292217695 399.20078637910547 0 0 0 0 -3.3487147712306324 3.3820075736744322 0 3.3820075736744322 -0.76166873044779493 0 0 0 0 -127.92524582744409 233.25932511917745 0 233.25932511917745 408.00672525721802 0 0 0 0 -19.010518844926992 387.08050567811642 0 387.08050567811642 581.36447564958326 0 0 0 0 -200.27015827927244 304.12661068420493 0 304.12661068420493 676.48687996798617 0 0 0 0 -380.74788819051355 361.40380721579641 0 361.40380721579641 664.70400549703845 0 0 0 0 -131.59723201865927 273.192639205663 0 273.192639205663 591.64350832534842 0 0 0 0 274.44960515169441 360.5277019854384 0 360.5277019854384 482.69513366529645 0 0 0 0 205.00714803855954 514.97764728801485 0 514.97764728801485 167.43215033034721 0 0 0 0 -238.58676545020535 551.90601976594371 0 551.90601976594371 418.08228007577964 0 0 0 0 172.29680706492582 404.2227698432398 0 404.2227698432398 14.470801558236417 0 0 0 0 -721.09710908988563 957.10918247290829 0 957.10918247290829 136.49925948594318 0 0 0 0 -196.62913652834277 409.04538675325784 0 409.04538675325784 593.42495720237639 0 0 0 0 220.10691846202758 716.73536091044707 0 716.73536091044707 450.22475054416282 0 0 0 0 214.215618327828 551.35229019156213 0 551.35229019156213 274.20017152649962 0 0 0 0 -429.09913231033715 142.15658001200791 0 142.15658001200791 386.33888766393284 0 0 0 0 429.91825307557258 833.49438737010087 0 833.49438737010087 509.40363289801098 0 0 0 0 -0.15542747239721422 1.7834177129445976 0 1.7834177129445976 -1.2938264227473297 0 0 0 0 64.864288340719213 494.0858010387692 0 494.0858010387692 462.78121940257188 0 0 0 0 15.00628073795724 433.94170406543981 0 433.94170406543981 393.11625214612286 0 0 0 0 273.27451166101991 446.88201840053989 0 446.88201840053989 478.41942590066901 0 0 0 0 127.11250984066101 277.30203809732666 0 277.30203809732666 353.72171589879599 0 0 0 0 135.80705413171177 334.80169155950171 0 334.80169155950171 459.59675145737492 0 0 0 0 185.60135762341156 271.07661490675218 0 271.07661490675218 470.9149631003711 0 0 0 0 83.449930105841304 272.9011989087594 0 272.9011989087594 386.59818367960906 0 0 0 0 133.71206292675924 252.23344980896945 0 252.23344980896945 140.50010828024097 0 0 0 0 -115.02755378942425 -87.573711085342438 0 -87.573711085342438 16.482174760443741 0 0 0 0 -127.09721585415627 61.80072940991522 0 61.80072940991522 345.81052500346414 0 0 0 0 140.21181599663942 150.45294050300618 0 150.45294050300618 194.93135887056269 0 0 0 0 200.37344976893712 277.10681942274095 0 277.10681942274095 139.53595188294275 0 0 0 0 1.8533598881783746 0.041949546670899451 0 0.041949546670899451 -2.4644638311296774 0 0 0 0 189.99480735099814 293.77894042661137 0 293.77894042661137 470.49069911523566 0 0 0 0 -1000.5765646219588 327.97099236815393 0 327.97099236815393 -91.126640928312554 0 0 0 0 -0.81972755705674771 1.6225290307342073 0 1.6225290307342073 -6.6622310399481819 0 0 0 0 103.46604156080866 80.420672872838622 0 80.420672872838622 -304.26057186935395 0 0 0 0 66.154826315956598 72.801591221994386 0 72.801591221994386 49.872174150706996 0 0 0 0 97.163261943967655 552.67254549419476 0 552.67254549419476 -716.4465417552783 0 0 0 0 106.57589296330343 422.52351143132432 0 422.52351143132432 27.621584876789711 0 0 0 0 140.22335225254938 249.09371764624666 0 249.09371764624666 102.51675638516917 0 0 0 0 156.2995293814256 240.67038028703246 0 240.67038028703246 101.43148953173659 0 0 0 0 146.92072547207681 175.77446253161543 0 175.77446253161543 -246.1350701163683 0 0 0 0 -9.6982973305148334 11.39215941857401 0 11.39215941857401 96.724578211551488 0 0 0 0 2.6070362480586482 44.040720356795646 0 44.040720356795646 129.12709852524222 0 0 0 0 36.782865216528535 64.184811092738528 0 64.184811092738528 49.081961657197098 0 0 0 0 142.34934728001645 165.02312650128897 0 165.02312650128897 46.12222917820327 0 0 0 0 48.149169802238248 113.54649223663364 0 113.54649223663364 153.12519361898012 0 0 0 0 -315.28815753398339 20.207228005428988 0 20.207228005428988 33.697047819539875 0 0 0 0 0.71554027514871521 6.5509536690840164 0 6.5509536690840164 -16.995446809115649 0 0 0 0 -53.938795888612731 -12.440185301571546 0 -12.440185301571546 -18.393060409434838 0 0 0 0 -83.345716454874491 109.46013650387886 0 109.46013650387886 -97.536876345744531 0 0 0 0 4.7036016114961967 22.505521884675545 0 22.505521884675545 -8.6575002398185461 0 0 0 0 9.4485890456153356 24.110159327381272 0 24.110159327381272 2.5287707575541418 0 0 0 0 35.618569586130434 38.729127985376181 0 38.729127985376181 -16.04787515410726 0 0 0 0 8.2600226612174552 11.642470588125008 0 11.642470588125008 -3.8987186918611769 0 0 0 0 11.999802857677462 12.970973489635467 0 12.970973489635467 -18.050088324928467 0 0 0 0 119.54465789796814 -9.4739296181069221 0 -9.4739296181069221 -22.181627932477568 0 0 0 0 1.8410494125746482 12.315103368613563 0 12.315103368613563 -18.498148216516711 0 0 0 0 -1.962539614841198 2.9319687249304565 0 2.9319687249304565 0.35514313569647982 0 0 0 0 127.43994204379669 93.955586041154675 0 93.955586041154675 -6.8756599990520044 0 0 0 0 16.416714058804246 33.23276900932251 0 33.23276900932251 -26.481390326774999 0 0 0 0 3.2182947113769842 58.726795968383158 0 58.726795968383158 30.064000750562855 0 0 0 0 -18.963100694580476 29.893895920837167 0 29.893895920837167 2.6266158517246367 0 0 0 0 42.966730451658918 -101.8156737594818 0 -101.8156737594818 16.363004183976955 0 0 0 0 10.083768584401051 16.244919216283336 0 16.244919216283336 0.89275854465388882 0 0 0 0 77.982082533469338 54.979093686441047 0 54.979093686441047 -185.28770383063602 0 0 0 0 64.811873756638761 32.020586467055182 0 32.020586467055182 -59.182397312284593 0 0 0 0 23.091633684672402 17.762994492159848 0 17.762994492159848 -4.0145439447617868 0 0 0 0 21.97725741439308 54.528978365753574 0 54.528978365753574 -52.623983571191729 0 0 0 0 64.352938176479142 78.720985940637547 0 78.720985940637547 -158.03319461371575 0 0 0 0 21.922825850493382 228.76771341665153 0 228.76771341665153 66.410915497501264 0 0 0 0 146.90180811071355 198.60288139295517 0 198.60288139295517 -150.26900550854054 0 0 0 0 126.41269377065521 30.231788265304203 0 30.231788265304203 -238.87008193925431 0 0 0 0 144.61765113963378 175.81259501748036 0 175.81259501748036 -343.94270679189503 0 0 0 0 -113.75955622443519 519.38028934815702 0 519.38028934815702 8.3909302124229725 0 0 0 0 -7.594363514474253 275.07135730060327 0 275.07135730060327 345.25097892756276 0 0 0 0 -1.0328382737074069 1.3573637336309634 0 1.3573637336309634 -8.9184632203985501 0 0 0 0 -528.96061001781004 -66.560320490925733 0 -66.560320490925733 127.72401206782797 0 0 0 0 17.893091982307851 34.527947351873081 0 34.527947351873081 29.251148408056906 0 0 0 0 78.485617303840854 -0.72826157614235854 0 -0.72826157614235854 -122.31173038593079 0 0 0 0 20.931923354171886 24.54673942728914 0 24.54673942728914 -35.211218068074231 0 0 0 0 30.15361335510687 59.239620557355522 0 59.239620557355522 -13.617400139926758 0 0 0 0 29.220526168726792 45.322547800877146 0 45.322547800877146 -80.783211437545106 0 0 0 0 8.9148059056753937 44.211196099179688 0 44.211196099179688 2.365408927147655 0 0 0 0 47.382719349438958 63.042327465963353 0 63.042327465963353 -13.076967866258201 0 0 0 0 0.74426735353746487 12.557656251749618 0 12.557656251749618 -21.163208087888798 0 0 0 0 -110.2995521157182 91.52687049971064 0 91.52687049971064 -41.351053879327083 0 0 0 0 561.85088829987035 -264.51362992747454 0 -264.51362992747454 231.25367814388301 0 0 0 0 -9.7282154921547388 23.561377624270264 0 23.561377624270264 -17.813679199059607 0 0 0 0 593.73342784715078 162.05371760076102 0 162.05371760076102 -109.32178804080468 0 0 0 0 1013.1335496688353 -136.46901712338331 0 -136.46901712338331 -1332.8411494202301 0 0 0 0 109.66850981578773 953.2318942179154 0 953.2318942179154 -1121.5944976709434 0 0 0 0 -393.76370035080618 373.83513631172173 0 373.83513631172173 508.66407372290996 0 0 0 0 593.39175944372346 386.31874334833265 0 386.31874334833265 -481.76060506117938 0 0 0 0 119.5262085187187 -45.903909410055348 0 -45.903909410055348 -388.61769836380699 0 0 0 0 20.190296821538141 138.68010418372978 0 138.68010418372978 -61.617980228642409 0 0 0 0 12.419405905349777 23.031732525087136 0 23.031732525087136 -1.5840664575698611 0 0 0 0 10.103105295083878 35.994259808259812 0 35.994259808259812 0.24659885809523985 0 0 0 0 14.764446323782977 23.674906329099031 0 23.674906329099031 -5.3292380786260765 0 0 0 0 23.811090705101094 16.923243434993196 0 16.923243434993196 -7.3310635696933755 0 0 0 0 20.143369249133684 19.519283630772406 0 19.519283630772406 -2.2482423088658834 0 0 0 0 26.106619888445493 17.813741055953869 0 17.813741055953869 -4.1090155194906401 0 0 0 0 21.62524579073397 15.622666543549713 0 15.622666543549713 0.178299175327993 0 0 0 0 26.619105943804243 19.556783486570566 0 19.556783486570566 0.31448834170078044 0 0 0 0 36.793576695803495 17.915585306816865 0 17.915585306816865 -3.5143627831348567 0 0 0 0 25.597782792051106 16.842296954063606 0 16.842296954063606 -3.4928134980124668 0 0 0 0 26.146066191660793 19.014722642605193 0 19.014722642605193 -0.43388829742616508 0 0 0 0 33.583533386607087 19.904023176337432 0 19.904023176337432 -2.0268671604990232 0 0 0 0 71.963689631882289 -19.321899444395967 0 -19.321899444395967 14.993467800115468 0 0 0 0 2.6986437642661851 11.852870188376398 0 11.852870188376398 -0.95382206074914677 0 0 0 0 4.4545792594530029 3.3058846555368788 0 3.3058846555368788 -1.8502255905686651 0 0 0 0 127.09486699869512 58.417026477269246 0 58.417026477269246 123.0345309460572 0 0 0 0 241.98911260748582 162.58887835261703 0 162.58887835261703 118.69938331119977 0 0 0 0 -310.67050937641449 341.28266527758024 0 341.28266527758024 -361.35965215427859 0 0 0 0 0.87504434664447217 149.94692771517293 0 149.94692771517293 -316.21785370142231 0 0 0 0 -210.90310009910615 223.79883015831183 0 223.79883015831183 -320.79580630070268 0 0 0 0 -301.5185234944779 323.77038079002887 0 323.77038079002887 -374.56338740157662 0 0 0 0 -178.93575190653087 413.30297006519686 0 413.30297006519686 -621.45112451787281 0 0 0 0 -45.339569894388433 202.90055602650682 0 202.90055602650682 -370.02157277667789 0 0 0 0 83.413221428286647 107.97720257655965 0 107.97720257655965 -346.84520017760951 0 0 0 0 98.057411664080519 109.67562969827486 0 109.67562969827486 -448.98725533142715 0 0 0 0 5.9346687152283009 1.0485848379082121 0 1.0485848379082121 -11.567897195917809 0 0 0 0 -1472.3490532513079 508.32492135600478 0 508.32492135600478 239.37243213621178 0 0 0 0 -36.66001954368619 -730.10729348638051 0 -730.10729348638051 -348.31095242358424 0 0 0 0 271.94962102396664 -430.38717305715909 0 -430.38717305715909 -761.82678929077883 0 0 0 0 830.22330686985697 -1898.6078917620762 0 -1898.6078917620762 844.7313497250434 0 0 0 0 411.70848381970939 -550.42767453065608 0 -550.42767453065608 -673.53323305235244 0 0 0 0 -2.6191337151774174 5.9400833909587476 0 5.9400833909587476 -10.077873932877125 0 0 0 0 -606.8397268921367 422.80504774568635 0 422.80504774568635 486.59124518522731 0 0 0 0 -726.80697594629055 785.83306826617263 0 785.83306826617263 43.199241101749067 0 0 0 0 -366.31872029191891 276.5996691685541 0 276.5996691685541 511.76744107412412 0 0 0 0 -1545.6828400121776 216.74440441116894 0 216.74440441116894 -240.67611813704934 0 0 0 0 1640.0924496988519 -55.045445335930708 0 -55.045445335930708 -909.97860156360184 0 0 0 0 -3.2228597205519307 5.7271464076223637 0 5.7271464076223637 -10.191426424159701 0 0 0 0 -146.33678798233632 -27.485355850330961 0 -27.485355850330961 740.34873132782923 0 0 0 0 457.86908487207722 1107.3759106667603 0 1107.3759106667603 -379.01384138239519 0 0 0 0 208.47329689195226 -114.68252943197876 0 -114.68252943197876 -449.06986303156009 0 0 0 0 160.38462919966241 -188.96465028699822 0 -188.96465028699822 -269.76417537930411 0 0 0 0 -1464.4492426939339 1200.2524042048535 0 1200.2524042048535 -625.72453149881221 0 0 0 0 157.01521792515746 39.384337873809272 0 39.384337873809272 -702.85603265348755 0 0 0 0 -18.182011490232298 251.50153726146891 0 251.50153726146891 -599.77930839751207 0 0 0 0 -5.1644611335038437 15.262550279756724 0 15.262550279756724 -14.604228419473742 0 0 0 0 1.0325902090239243 3.2311646752052354 0 3.2311646752052354 -0.77750625411334795 0 0 0 0 6.3114554417915087 -20.844872312802181 0 -20.844872312802181 305.87915048270224 0 0 0 0 -30.838725746816749 146.07134098796769 0 146.07134098796769 403.58549902348022 0 0 0 0 287.17337090582168 167.82828223704018 0 167.82828223704018 433.5122927540142 0 0 0 0 3.8203963545586124 5.8216454250287342 0 5.8216454250287342 -2.03273785693486 0 0 0 0 217.89155222567933 263.32194542037541 0 263.32194542037541 329.28123206146756 0 0 0 0 293.00764046466429 541.44768419458524 0 541.44768419458524 618.8439010072525 0 0 0 0 -44.659252859551998 87.021762183190731 0 87.021762183190731 368.50221462019545 0 0 0 0 -78.063355857560964 -794.91796198807424 0 -794.91796198807424 -556.614708726971 0 0 0 0 256.49186522682794 507.23678998259493 0 507.23678998259493 246.4243964998459 0 0 0 0 183.23132751920639 134.96115307900254 0 134.96115307900254 86.39889384174603 0 0 0 0 -27.110359694393594 356.437137523155 0 356.437137523155 -119.02906096146035 0 0 0 0 73.404518252100388 146.94214877451668 0 146.94214877451668 -75.288951619786531 0 0 0 0 113.9545224180406 443.06514307337966 0 443.06514307337966 360.67747351630533 0 0 0 0 405.98970948975693 473.41926849034644 0 473.41926849034644 324.41340617337301 0 0 0 0 -5.4764327107882735 2.4215777010518735 0 2.4215777010518735 1.3025557474639697 0 0 0 0 -223.32775970711555 577.93453811188192 0 577.93453811188192 1616.3295674160545 0 0 0 0 1015.6510665213191 995.23724328991193 0 995.23724328991193 707.52703932218287 0 0 0 0 693.27521681884264 1595.3827605019933 0 1595.3827605019933 1393.9073680716538 0 0 0 0 163.1598974640001 348.20859986430514 0 348.20859986430514 699.00503143812966 0 0 0 0 -1578.9084797619034 -1859.7684773946585 0 -1859.7684773946585 -313.45085708484885 0 0 0 0 550.76907538810065 783.37638350934685 0 783.37638350934685 975.14424247452007 0 0 0 0 594.94362517770492 345.46809485447011 0 345.46809485447011 623.49890373508606 0 0 0 0 -23.500783740749632 10.274550726675102 0 10.274550726675102 8.362496273628409 0 0 0 0 -1169.17426849403 -584.21645285574823 0 -584.21645285574823 -96.75344786783171 0 0 0 0 -653.80392130009022 -47.096414410294528 0 -47.096414410294528 -677.26830387806694 0 0 0 0 116.17611713863664 248.59035144996778 0 248.59035144996778 514.20858528262397 0 0 0 0 242.90586440179823 326.47183237011996 0 326.47183237011996 383.48096997929542 0 0 0 0 578.27119233680787 511.53386884220981 0 511.53386884220981 507.3621701459515 0 0 0 0 185.55444648146863 386.10249156171085 0 386.10249156171085 693.32583624950348 0 0 0 0 342.99397563568095 376.66274576648857 0 376.66274576648857 557.28305173692934 0 0 0 0 340.50232116768996 400.91115863692721 0 400.91115863692721 452.36556942465086 0 0 0 0 468.07810169862415 344.05529489705168 0 344.05529489705168 353.60052382725553 0 0 0 0 -38.563390317445787 20.130554095849618 0 20.130554095849618 6.5329495930270198 0 0 0 0 595.585485837953 653.55161531844806 0 653.55161531844806 587.95943294975518 0 0 0 0 -484.56090109995148 -169.64953446088793 0 -169.64953446088793 210.30872321745301 0 0 0 0 -402.12950688363162 -508.69335157564365 0 -508.69335157564365 -44.170319795479372 0 0 0 0 249.53892585003436 434.98363866577438 0 434.98363866577438 597.71316198164277 0 0 0 0 -248.4994734366519 15.581294277131747 0 15.581294277131747 106.61959283809483 0 0 0 0 -268.4177322434607 206.7251940004553 0 206.7251940004553 104.95343111070724 0 0 0 0 -155.35095120547703 84.320320695727787 0 84.320320695727787 -216.86263424100071 0 0 0 0 -356.51497803180064 152.11502369917525 0 152.11502369917525 438.52283282146891 0 0 0 0 -5.5583586133295739 2.8343642523386663 0 2.8343642523386663 -0.26957799480881839 0 0 0 0 232.2430878794512 442.28221993630177 0 442.28221993630177 -413.03763102787343 0 0 0 0 -2.2503801135756731 2.0119674150556648 0 2.0119674150556648 -0.37313360129018847 0 0 0 0 35.845484997813401 206.41058954897426 0 206.41058954897426 404.09234091339931 0 0 0 0 -195.8227717647992 513.70613103214498 0 513.70613103214498 61.884397272042406 0 0 0 0 33.16236880346878 425.79581928661446 0 425.79581928661446 125.63461970120989 0 0 0 0 297.13738359586932 205.44701366917616 0 205.44701366917616 -155.93035311353356 0 0 0 0 66.911293095356086 264.91625605696254 0 264.91625605696254 -158.57406959501532 0 0 0 0 -11.162802606858349 77.546531888801383 0 77.546531888801383 -87.228460640217236 0 0 0 0 2.2677413408857667 8.8755265313617961 0 8.8755265313617961 20.750849568453987 0 0 0 0 -160.93319683282425 200.37393473695829 0 200.37393473695829 -43.554510801501237 0 0 0 0 91.057508350473654 -18.446726060205037 0 -18.446726060205037 33.653552578214658 0 0 0 0 41.737168435443891 461.82758505764832 0 461.82758505764832 644.29529052717771 0 0 0 0 670.39365019604156 417.70286698945711 0 417.70286698945711 5.6539780849561794 0 0 0 0 0.7471463179351332 3.3179195012988458 0 3.3179195012988458 12.272529227388546 0 0 0 0 788.42797173504732 660.18178429147065 0 660.18178429147065 328.5436816716865 0 0 0 0 -637.20750163985122 -223.10847970379928 0 -223.10847970379928 893.31609755785212 0 0 0 0 415.45617519125335 926.47844199521251 0 926.47844199521251 1149.1577596721108 0 0 0 0 73.253893730008713 598.64115707266501 0 598.64115707266501 1345.0435185743445 0 0 0 0 74.554433303423139 722.44915523277723 0 722.44915523277723 837.54220276743217 0 0 0 0 -1.6721156236599199 257.96522380744682 0 257.96522380744682 116.96916605782826 0 0 0 0 -214.75736988263088 -741.49827456208732 0 -741.49827456208732 -383.88096949986721 0 0 0 0 -0.24970450166930624 -1.6207618841722251 0 -1.6207618841722251 13.424848860503559 0 0 0 0 393.08889901623479 697.19311773164918 0 697.19311773164918 108.38124025837442 0 0 0 0 -967.21533934881154 -71.28152098262035 0 -71.28152098262035 1519.6847053754318 0 0 0 0 39.422676997583039 475.88962927094326 0 475.88962927094326 1134.0933423805527 0 0 0 0 478.57722949841036 46.173992465245419 0 46.173992465245419 332.9144512730054 0 0 0 0 -571.7968685746855 -109.56474446781726 0 -109.56474446781726 -201.307751563485 0 0 0 0 -463.07373728541279 -30.582224553145352 0 -30.582224553145352 -144.2600543482431 0 0 0 0 -134.01796137732163 -230.94332240297626 0 -230.94332240297626 -251.46093112212657 0 0 0 0 -438.48469441966517 -108.57054822042971 0 -108.57054822042971 140.28271976806082 0 0 0 0 -7.8511747061134614 16.16562806707821 0 16.16562806707821 4.7747079014711442 0 0 0 0 -409.84770014524292 -107.08012956420362 0 -107.08012956420362 -259.31254824464304 0 0 0 0 -6.6007162392692038 5.7644573931637595 0 5.7644573931637595 7.4794225118809017 0 0 0 0 -723.64614023921968 -419.22866613839324 0 -419.22866613839324 -179.52071032916342 0 0 0 0 -16.056188333404862 44.58623963256332 0 44.58623963256332 301.99581554150245 0 0 0 0 -151.02281139241313 136.62475974331073 0 136.62475974331073 466.7969698281504 0 0 0 0 6.2397777304441604 6.7366013068226209 0 6.7366013068226209 10.636029130057718 0 0 0 0 472.73386233288329 669.70725122061958 0 669.70725122061958 722.12777361884037 0 0 0 0 -20.669695499647787 60.834858814848531 0 60.834858814848531 -80.894398397703299 0 0 0 0 110.60219505191344 -24.328395605984497 0 -24.328395605984497 -63.177644248333308 0 0 0 0 1652.9048964620742 -232.41018357117991 0 -232.41018357117991 -295.29377898490793 0 0 0 0 801.94097506565959 224.36606929477057 0 224.36606929477057 -386.21636854500139 0 0 0 0 -325.05010753694296 1142.638166105146 0 1142.638166105146 669.95677287725084 0 0 0 0 993.9445792514598 -613.64572053053053 0 -613.64572053053053 46.334358148834781 0 0 0 0 1113.7233706456632 602.3579602039797 0 602.3579602039797 358.33792794689361 0 0 0 0 242.96669761256999 396.23046435657943 0 396.23046435657943 1181.1451774460961 0 0 0 0 533.86585121849203 382.40060261924282 0 382.40060261924282 473.35620664715134 0 0 0 0 255.77321049993043 429.48294368454663 0 429.48294368454663 465.99562506757002 0 0 0 0 404.45939758584427 509.98555713038058 0 509.98555713038058 408.94303675855826 0 0 0 0 117.93448020274263 94.656146544239618 0 94.656146544239618 223.55323238732853 0 0 0 0 292.97170934159294 439.5639775155737 0 439.5639775155737 421.35097066701564 0 0 0 0 -4.1024164170742381 3.3485027563211247 0 3.3485027563211247 8.9286231573799597 0 0 0 0 -1160.3885245571837 -226.08359730355392 0 -226.08359730355392 -16.442406038317131 0 0 0 0 341.8819060293572 510.59938285298904 0 510.59938285298904 595.74646211770778 0 0 0 0 948.18149235694 921.62247504091511 0 921.62247504091511 603.6631150733956 0 0 0 0 -0.21079426451983352 -0.25230443131603408 0 -0.25230443131603408 2.9783847495226041 0 0 0 0 518.11927778227255 513.3187622368423 0 513.3187622368423 410.1418103620382 0 0 0 0 414.09835695919173 608.20232712879488 0 608.20232712879488 600.67141446297683 0 0 0 0 516.22117156827608 549.3847397072484 0 549.3847397072484 298.52275108436879 0 0 0 0 530.82101627222437 650.74601463429553 0 650.74601463429553 302.22064910984409 0 0 0 0 2.0478341471980457 484.74367402540474 0 484.74367402540474 778.30442214397408 0 0 0 0 68.176608318943181 717.18692588241811 0 717.18692588241811 570.12688976223762 0 0 0 0 245.73353513399888 369.53730763451404 0 369.53730763451404 674.29597002198898 0 0 0 0 -0.85794031047151975 0.7571494286751097 0 0.7571494286751097 3.2006892549310635 0 0 0 0 361.79500561379973 500.14481849219101 0 500.14481849219101 176.68995717417783 0 0 0 0 -474.72844452098434 160.63660432601091 0 160.63660432601091 132.73854658771961 0 0 0 0 -497.6627229447804 178.69456666015139 0 178.69456666015139 -138.7522473034478 0 0 0 0 -506.26081926939878 381.0872054686206 0 381.0872054686206 -175.02323172160686 0 0 0 0 -175.00585113101988 49.136319019375151 0 49.136319019375151 -387.18466167805673 0 0 0 0 -114.88313957831633 188.74123422029788 0 188.74123422029788 -98.117646997285192 0 0 0 0 -122.6319016915495 699.16422173568799 0 699.16422173568799 398.978525776678 0 0 0 0 64.943959771750087 518.68025340107306 0 518.68025340107306 -381.5081578081481 0 0 0 0 1420.7327998689566 697.42565449249344 0 697.42565449249344 38.280327095475513 0 0 0 0 -448.15782232174752 279.19833024055879 0 279.19833024055879 -58.113547495971943 0 0 0 0 0.57797151442577466 -0.78120905365746296 0 -0.78120905365746296 3.2644488794313702 0 0 0 0 -8.2284665378319914 59.374711289539846 0 59.374711289539846 -75.383824448208543 0 0 0 0 -94.066968027316761 146.36620023179239 0 146.36620023179239 -34.832822912489064 0 0 0 0 608.11285716783459 501.69825596448391 0 501.69825596448391 9.9396430840679386 0 0 0 0 659.62370213473696 668.18397417331835 0 668.18397417331835 401.03076455750124 0 0 0 0 595.82966391652599 478.69486970577384 0 478.69486970577384 7.4652685105102137 0 0 0 0 627.72050051255428 795.37508624905058 0 795.37508624905058 447.87562389420782 0 0 0 0 -49.569792865931959 -45.478424331315182 0 -45.478424331315182 -50.849729086745356 0 0 0 0 -490.3514944742783 -81.866012585973294 0 -81.866012585973294 299.7748755680841 0 0 0 0 47.55125026728274 -209.5072701633253 0 -209.5072701633253 194.08412681061554 0 0 0 0 47.477945906540299 296.10026547027155 0 296.10026547027155 95.714007717455388 0 0 0 0 -573.34216214072148 -110.66940456087468 0 -110.66940456087468 410.34941854712997 0 0 0 0 -2060.277822992226 -171.67414484884466 0 -171.67414484884466 707.39180446167302 0 0 0 0 -0.45725626660571939 -3.9253856541823851 0 -3.9253856541823851 39.748737824482532 0 0 0 0 -672.37589623723761 115.30098897263088 0 115.30098897263088 -73.499807930129464 0 0 0 0 -112.31162171527831 -230.77832385207694 0 -230.77832385207694 127.30079543613829 0 0 0 0 63.195081904634208 115.23610659907126 0 115.23610659907126 257.1366025801799 0 0 0 0 667.17741359962019 92.916744552995624 0 92.916744552995624 333.85020091457773 0 0 0 0 166.90750574323465 -153.18979301098443 0 -153.18979301098443 759.46038714440692 0 0 0 0 409.05845843324641 623.07846595138471 0 623.07846595138471 730.33064710920007 0 0 0 0 -183.51552326287492 337.23725919016942 0 337.23725919016942 705.8169345794621 0 0 0 0 87.163137298706715 -203.20253317460811 0 -203.20253317460811 282.56375008358691 0 0 0 0 200.40064923786122 -2.7216806751675904 0 -2.7216806751675904 -92.45232368463985 0 0 0 0 -25.442903303648563 34.522177617749549 0 34.522177617749549 -87.600454378898576 0 0 0 0 -2.5803704372003864 1.9785708728775333 0 1.9785708728775333 4.4494478118524867 0 0 0 0 -48.207792124618209 -20.602811533313798 0 -20.602811533313798 -12.081751533112765 0 0 0 0 -417.95770404817449 426.75665150472923 0 426.75665150472923 -264.61759151166916 0 0 0 0 -190.84640143529759 292.38023145645275 0 292.38023145645275 -487.10429004171965 0 0 0 0 -7.6169042391406947 3.4795314926781913 0 3.4795314926781913 1.1125692439254453 0 0 0 0 6.8700188021521171 -4.2713125868540374 0 -4.2713125868540374 -101.17122341512004 0 0 0 0 -16.760564221924142 -0.60794177580828546 0 -0.60794177580828546 18.061617404317076 0 0 0 0 -9.2600987765548268 2.3005977435358016 0 2.3005977435358016 14.269068249664485 0 0 0 0 -6.8557155216967658 10.868014699073683 0 10.868014699073683 10.86013789979188 0 0 0 0 -16.562621843808301 10.420523308912379 0 10.420523308912379 29.084886166519937 0 0 0 0 -13.220611237352898 -2.7134480147474491 0 -2.7134480147474491 9.5111252283277388 0 0 0 0 -127.02382310299072 -100.20684692230861 0 -100.20684692230861 -4.6837503049064253 0 0 0 0 35.058607540015146 -31.035027749224355 0 -31.035027749224355 -22.877734216923272 0 0 0 0 -229.48136192803031 175.37153076748655 0 175.37153076748655 43.610676091338973 0 0 0 0 -9.2164693252198049 107.07017881980119 0 107.07017881980119 -50.644042747058847 0 0 0 0 -5.6532831685470359 -0.84283072697804329 0 -0.84283072697804329 63.173285696948852 0 0 0 0 -5.0931223531974386 6.9876083262427535 0 6.9876083262427535 11.313222808997011 0 0 0 0 -8.6346458263942267 29.410084177325786 0 29.410084177325786 3.0927829997845073 0 0 0 0 6.7079074975899857 35.238110442349353 0 35.238110442349353 12.331318488199031 0 0 0 0 -0.0021162804875913821 10.537742525915959 0 10.537742525915959 -5.7220501194909303 0 0 0 0 -0.64194854920606303 19.333464488325262 0 19.333464488325262 14.378749690669665 0 0 0 0 32.596956680805306 24.163761433463151 0 24.163761433463151 -9.1409647736436455 0 0 0 0 6.1188544222681713 18.137033153869112 0 18.137033153869112 2.165827367833117 0 0 0 0 6.1509050888635102 20.875492484756251 0 20.875492484756251 9.8033443183285272 0 0 0 0 50.218238307932552 -10.983246988848805 0 -10.983246988848805 -16.8508948107592 0 0 0 0 35.131182001061461 30.710608413119189 0 30.710608413119189 -120.86099138091959 0 0 0 0 0.56727392773973406 98.249759391312182 0 98.249759391312182 -128.85988043604448 0 0 0 0 -133.02864217548631 141.53782233065067 0 141.53782233065067 -301.1039651465544 0 0 0 0 -895.73871540321852 224.20296401614542 0 224.20296401614542 -258.63152440552403 0 0 0 0 -2.9617912126370101 0.46004229421519405 0 0.46004229421519405 2.0808386045167708 0 0 0 0 -86.933225358792697 -67.733323053609638 0 -67.733323053609638 -216.17934382265548 0 0 0 0 0.54059525879480219 -0.53605515839670659 0 -0.53605515839670659 -0.41959991861779145 0 0 0 0 -152.7395455073347 201.45468304610949 0 201.45468304610949 -66.845130874593451 0 0 0 0 -193.73552462439329 114.39550204390252 0 114.39550204390252 23.290610876356368 0 0 0 0 -12.676962147310405 13.672813056347877 0 13.672813056347877 9.0664087505938369 0 0 0 0 -12.655711043222254 4.3444440722851141 0 4.3444440722851141 3.5870937866930035 0 0 0 0 -49.913342801362887 -44.340079951783991 0 -44.340079951783991 -37.378170398464135 0 0 0 0 -4.323796883953456 5.8089731038814136 0 5.8089731038814136 -3.0417349554615214 0 0 0 0 -7.5912321167501133 -0.84221148034015414 0 -0.84221148034015414 8.0578138577881759 0 0 0 0 -49.041188204490027 147.84931943350966 0 147.84931943350966 -135.29426759659691 0 0 0 0 -305.14919051500328 259.29563925919138 0 259.29563925919138 -85.794258396505029 0 0 0 0 -316.61268316792484 209.89874549275919 0 209.89874549275919 -216.84585286871152 0 0 0 0 -341.17005980604154 247.48714573584584 0 247.48714573584584 -109.75398617499559 0 0 0 0 -380.0078661371881 377.58398384801694 0 377.58398384801694 -226.2198012552617 0 0 0 0 -451.11140358327975 404.09508774065034 0 404.09508774065034 -253.84380434847844 0 0 0 0 -278.58219581971025 254.20219880428886 0 254.20219880428886 -175.88565528436084 0 0 0 0 -392.45015649763445 365.58248001828179 0 365.58248001828179 -223.53515896649333 0 0 0 0 -400.21239265434451 403.9182997285161 0 403.9182997285161 -304.97454337638919 0 0 0 0 -475.65565658721789 288.22927529652952 0 288.22927529652952 -340.24530564872111 0 0 0 0 -437.27492951544991 572.02341708220047 0 572.02341708220047 -684.36259233033888 0 0 0 0 -27.666462174191111 -172.6061644740621 0 -172.6061644740621 -46.201341008294548 0 0 0 0 -566.34110111275368 447.15098898627912 0 447.15098898627912 -173.93664185204216 0 0 0 0 -145.40409794116204 151.62101790392262 0 151.62101790392262 -165.95324615217396 0 0 0 0 -305.22059496535803 188.1813525637408 0 188.1813525637408 -91.2543293580311 0 0 0 0 -436.02683551603695 417.97908205513522 0 417.97908205513522 -321.46636549380855 0 0 0 0 -455.38981314995181 421.51852825450624 0 421.51852825450624 -315.01171913884173 0 0 0 0 -363.48044585287062 463.8214239632689 0 463.8214239632689 -732.07436320410488 0 0 0 0 -719.28255194243684 725.53083469621924 0 725.53083469621924 -468.77944835258108 0 0 0 0 -355.33596116101762 431.62077017783304 0 431.62077017783304 -481.07935408811318 0 0 0 0 6.3009156264888588 -165.40143008600717 0 -165.40143008600717 71.380560150420933 0 0 0 0 -9.5272235376318193 1.012837183112012 0 1.012837183112012 0.77096698900928828 0 0 0 0 -412.15739496607785 716.62302330371313 0 716.62302330371313 -795.60545893323797 0 0 0 0 139.72132356021393 -35.366559723848695 0 -35.366559723848695 -40.93909100439123 0 0 0 0 -21.062866907835996 -146.08533745743989 0 -146.08533745743989 -116.8651631545581 0 0 0 0 -126.22935403981319 86.137766269977874 0 86.137766269977874 236.77249660672533 0 0 0 0 -257.67886831860233 -12.008526884252205 0 -12.008526884252205 338.12252629823888 0 0 0 0 -342.68078360918662 -34.832569779355254 0 -34.832569779355254 170.84442142275293 0 0 0 0 -88.632705847423495 -66.150960260517422 0 -66.150960260517422 186.21245258937779 0 0 0 0 -137.67947287535571 76.499458964328369 0 76.499458964328369 -69.828387301853581 0 0 0 0 11.584847924681526 158.01467022567886 0 158.01467022567886 185.01305325531939 0 0 0 0 -522.45042400372404 -38.036942448394257 0 -38.036942448394257 117.39069965751332 0 0 0 0 -213.06995548205123 286.92784992786255 0 286.92784992786255 155.37301356659555 0 0 0 0 -65.902631963843305 285.2749773281339 0 285.2749773281339 -242.49800646520453 0 0 0 0 53.236210193099396 108.35352034086281 0 108.35352034086281 -194.66040922049797 0 0 0 0 -41.439930946187815 245.96910917121932 0 245.96910917121932 -296.52055202474094 0 0 0 0 -307.08518296958209 550.28898901217235 0 550.28898901217235 -358.0021472614244 0 0 0 0 -198.04280994272085 2.0667684180589276 0 2.0667684180589276 -647.42494734700813 0 0 0 0 -113.71961900050519 -17.674498988912092 0 -17.674498988912092 170.58642302531553 0 0 0 0 464.97899507462716 160.23828662997585 0 160.23828662997585 -80.68392062579187 0 0 0 0 -1.6192113396245986 -144.17185358756615 0 -144.17185358756615 108.51440955245926 0 0 0 0 26.909662267949898 51.436701347683993 0 51.436701347683993 -107.69716475316909 0 0 0 0 7.0642791171715373 6.12610377179778 0 6.12610377179778 3.4647156145371074 0 0 0 0 268.2804596416463 505.42228284538032 0 505.42228284538032 897.3310176380146 0 0 0 0 695.64737545725802 843.71708442790259 0 843.71708442790259 497.77808576329699 0 0 0 0 122.30584232467663 252.49474396825099 0 252.49474396825099 543.88260653148973 0 0 0 0 1.6624323448814646 2.3923252972201112 0 2.3923252972201112 8.9063192280857351 0 0 0 0 -1.9840897145838881 68.624917283613399 0 68.624917283613399 -61.810386144119548 0 0 0 0 85.678186853590887 -30.395847114770731 0 -30.395847114770731 47.45134283414518 0 0 0 0 -26.360400315657898 95.507199192248663 0 95.507199192248663 17.482945943149389 0 0 0 0 -23.909527485317085 13.79099045969997 0 13.79099045969997 10.437543884123443 0 0 0 0 -73.505579038399446 -5.5171468516891764 0 -5.5171468516891764 56.838509278346464 0 0 0 0 -23.982905447825033 13.978089202541014 0 13.978089202541014 10.076450581532299 0 0 0 0 -2.0622214760954467 16.23916265643885 0 16.23916265643885 10.340239549999495 0 0 0 0 -10.028660051777326 16.039208257082983 0 16.039208257082983 14.060877368064311 0 0 0 0 -29.673237184990285 14.49288327353861 0 14.49288327353861 43.408008310601872 0 0 0 0 -17.7468634245175 21.70775460791425 0 21.70775460791425 15.612613921689395 0 0 0 0 -11.233516763790334 23.669290101271091 0 23.669290101271091 15.471310436305799 0 0 0 0 -16.559983041493979 22.818751915428038 0 22.818751915428038 12.441476025414886 0 0 0 0 -29.55255154974094 0.58297931452071339 0 0.58297931452071339 10.507845970772905 0 0 0 0 -150.32871839296422 62.544378594460795 0 62.544378594460795 -3.4606467624689685 0 0 0 0 -14.027998610923532 23.502958795972518 0 23.502958795972518 12.02492999824608 0 0 0 0 -41.690202821046114 -11.068348885761225 0 -11.068348885761225 -97.437220917945524 0 0 0 0 -1.2380755345926477 16.875971145115663 0 16.875971145115663 8.7708762363517963 0 0 0 0 -6.3550077028272085 9.6040774283693402 0 9.6040774283693402 6.6873772380016163 0 0 0 0 -9.5485246287798873 -6.5421961634144736 0 -6.5421961634144736 41.562422113074717 0 0 0 0 -121.43789382888644 -37.993324515875429 0 -37.993324515875429 90.929960079543889 0 0 0 0 -11.692045151331726 1.4262661357525772 0 1.4262661357525772 3.8529657571001543 0 0 0 0 -28.447492603386301 0.84120609034192029 0 0.84120609034192029 4.4910433419037226 0 0 0 0 -60.289507606405095 30.701823733121273 0 30.701823733121273 127.05035688521821 0 0 0 0 5.1174525163514772 -9.2577584264217876 0 -9.2577584264217876 40.933503263629973 0 0 0 0 5.8002164183781133 100.30582262880489 0 100.30582262880489 74.05903877909077 0 0 0 0 -32.297735359548824 -113.77766005022568 0 -113.77766005022568 -23.278509856087112 0 0 0 0 -83.185380521783372 65.946371456040652 0 65.946371456040652 62.265109506610315 0 0 0 0 -105.34568833230878 17.134400661445397 0 17.134400661445397 39.943063288224948 0 0 0 0 -35.452427163658285 66.017130341322627 0 66.017130341322627 -78.009879509496386 0 0 0 0 -84.444342770213552 18.318048088229261 0 18.318048088229261 -108.09358857320331 0 0 0 0 -29.754624971721569 118.88098740707301 0 118.88098740707301 -194.64671915961662 0 0 0 0 -149.40054362735827 54.611884740224923 0 54.611884740224923 -66.096084566568607 0 0 0 0 -136.90446660787347 114.42549980157082 0 114.42549980157082 -148.95470569610188 0 0 0 0 -53.268036697110801 18.591572751280182 0 18.591572751280182 -134.22743488644483 0 0 0 0 -95.319067459480721 16.064466004218048 0 16.064466004218048 -76.798288042511558 0 0 0 0 -123.14776852367504 19.019009960327821 0 19.019009960327821 -41.866752093890682 0 0 0 0 -148.4590166840353 110.02672006902867 0 110.02672006902867 -172.63020801319908 0 0 0 0 -68.964878073322325 182.80670495523009 0 182.80670495523009 -194.78390338653116 0 0 0 0 -367.18455825062847 265.86714139102332 0 265.86714139102332 -173.17404530119529 0 0 0 0 -164.85010413618875 102.84252794867643 0 102.84252794867643 -143.34430542875634 0 0 0 0 -302.74026751577912 321.39441318596801 0 321.39441318596801 -205.65781795948351 0 0 0 0 -284.71266053368163 318.00265031617892 0 318.00265031617892 -269.4865720337184 0 0 0 0 -297.3981939417863 307.72354300966254 0 307.72354300966254 -254.98716540858004 0 0 0 0 -201.7789184791036 -108.49148213999433 0 -108.49148213999433 342.48432388542278 0 0 0 0 -216.91627768910257 352.907428071514 0 352.907428071514 -436.47269318714825 0 0 0 0 -5.315611972862385 3.0987690402970713 0 3.0987690402970713 0.69714840261182331 0 0 0 0 -21.002341458932335 -1.3998503981593586 0 -1.3998503981593586 1.0410906154350812 0 0 0 0 -51.141277916700346 -97.461962531495374 0 -97.461962531495374 46.083783677837346 0 0 0 0 -7.2135512387612835 -65.052983528672485 0 -65.052983528672485 -54.065044971219322 0 0 0 0 19.647320400181343 183.41911631554831 0 183.41911631554831 -348.94677417331332 0 0 0 0 121.71248089642904 -25.5800738300386 0 -25.5800738300386 -209.28543826419991 0 0 0 0 98.930024309231158 41.604050137269041 0 41.604050137269041 8.2602009318070486 0 0 0 0 -33.239830895212435 57.723291306896499 0 57.723291306896499 60.971449043565372 0 0 0 0 38.22528090083506 -144.5605212047958 0 -144.5605212047958 145.52803131166002 0 0 0 0 -2.3912521493792127 -1.03659007972864 0 -1.03659007972864 -0.62025076822047964 0 0 0 0 -3.9386949225372518 117.83157213801314 0 117.83157213801314 -271.81615835134289 0 0 0 0 -294.08781667997027 145.64511278117061 0 145.64511278117061 76.717472321223795 0 0 0 0 -112.60857026711165 19.805048106278264 0 19.805048106278264 39.640927836655464 0 0 0 0 -92.818085967473962 17.021774909982469 0 17.021774909982469 138.37656452607189 0 0 0 0 -182.73794254662789 -51.758272042625322 0 -51.758272042625322 89.04774535116303 0 0 0 0 -55.678096150879355 -58.871818849662304 0 -58.871818849662304 17.864090151924756 0 0 0 0 -5.6396431594293972 -11.6759286639317 0 -11.6759286639317 29.022949079158934 0 0 0 0 -35.723820115705166 23.62541340417738 0 23.62541340417738 37.73303474970453 0 0 0 0 -81.233776551514893 3.895290740794735 0 3.895290740794735 25.831019308929172 0 0 0 0 -11.912958874449195 6.0173231359210604 0 6.0173231359210604 6.1704896029266187 0 0 0 0 -53.060952368854487 13.503148504911223 0 13.503148504911223 53.218451982314946 0 0 0 0 -20.161923311690771 75.205502515314947 0 75.205502515314947 -43.36725666260827 0 0 0 0 -31.599764229671564 -13.949185312987538 0 -13.949185312987538 -14.072309194525587 0 0 0 0 -65.678108846688701 65.297374584533827 0 65.297374584533827 57.970933003845857 0 0 0 0 -11.656583555709013 18.495502024011344 0 18.495502024011344 18.171217180086984 0 0 0 0 1.3307941196980266 21.838229294856163 0 21.838229294856163 14.000033576936772 0 0 0 0 -58.224053526611897 5.0333697508340265 0 5.0333697508340265 39.534976438255399 0 0 0 0 -24.407230565995405 36.060085110521015 0 36.060085110521015 39.496425732435455 0 0 0 0 -25.375449560699053 9.0688175770483213 0 9.0688175770483213 7.9746743507457722 0 0 0 0 -36.730324534899111 61.828844863038036 0 61.828844863038036 50.23136551986822 0 0 0 0 -41.062863777709936 13.758196348751881 0 13.758196348751881 19.503831570022157 0 0 0 0 -89.362405903550098 20.275759522868611 0 20.275759522868611 24.383993041830763 0 0 0 0 -81.05874602671247 11.342062119587354 0 11.342062119587354 29.290818564941219 0 0 0 0 -26.202807850408135 42.023519730924818 0 42.023519730924818 1.0256945635392185 0 0 0 0 -47.034576212892716 91.698223468794822 0 91.698223468794822 -23.205430726487975 0 0 0 0 -36.28715820916932 135.55588319135222 0 135.55588319135222 119.90574432442008 0 0 0 0 -43.892514227249194 -27.117973602873462 0 -27.117973602873462 -65.903409806051059 0 0 0 0 2.0736085504420601 8.8093253708490948 0 8.8093253708490948 5.4291984523796799 0 0 0 0 -17.675209729839708 15.184709641299012 0 15.184709641299012 18.307329466718297 0 0 0 0 -45.491069205781969 45.645972963387976 0 45.645972963387976 12.825313265271689 0 0 0 0 -64.79446734729936 28.372490598115292 0 28.372490598115292 13.772066406807426 0 0 0 0 -77.481006037520274 36.927631348265095 0 36.927631348265095 16.355719493229117 0 0 0 0 -95.229074541992304 14.436875595304627 0 14.436875595304627 11.429061220784206 0 0 0 0 4.472748077524642 25.314253364115473 0 25.314253364115473 17.918895222882156 0 0 0 0 -119.62621981172606 -8.4775798667105846 0 -8.4775798667105846 5.7437228151975432 0 0 0 0 -13.33649341684117 17.617881587398735 0 17.617881587398735 16.690089129910504 0 0 0 0 -36.984971716068685 -25.257206765243609 0 -25.257206765243609 -51.745975456084125 0 0 0 0 -82.776333948764659 58.603225068802203 0 58.603225068802203 95.311783725570422 0 0 0 0 -61.263717429985263 -16.660905084969272 0 -16.660905084969272 -56.771649056943716 0 0 0 0 83.078976247890751 191.63440776763127 0 191.63440776763127 -72.518969984492287 0 0 0 0 -63.511511414333654 122.66594419896865 0 122.66594419896865 221.41276428960191 0 0 0 0 2.4275708669480345 13.987729341903092 0 13.987729341903092 -7.3020466245315276 0 0 0 0 -11.609505944265006 31.779177331040323 0 31.779177331040323 4.397317315935851 0 0 0 0 -9.528251961866772 -1.7534914117277367 0 -1.7534914117277367 137.32736139659028 0 0 0 0 73.329946588490202 17.047636821205742 0 17.047636821205742 -151.84692254771653 0 0 0 0 -1.132229991275032 27.743075618507728 0 27.743075618507728 34.076616076866571 0 0 0 0 -59.721658321512223 56.530739387548238 0 56.530739387548238 234.42070501726266 0 0 0 0 -117.59457928541087 81.165381047960182 0 81.165381047960182 452.60254560675094 0 0 0 0 -57.521117408614373 26.482296789201428 0 26.482296789201428 17.760849551021238 0 0 0 0 -63.756109428374202 18.322974697207535 0 18.322974697207535 38.989275537951485 0 0 0 0 -54.070389018888818 53.02553843680289 0 53.02553843680289 124.48335221785965 0 0 0 0 -58.859240542675252 82.00410137794097 0 82.00410137794097 39.259317972086137 0 0 0 0 -57.490213227611093 51.955300210647692 0 51.955300210647692 127.78823256269243 0 0 0 0 -63.974862217663031 129.22113807160349 0 129.22113807160349 154.62162568458189 0 0 0 0 -20.719993001119292 22.351983281198045 0 22.351983281198045 -26.993115817196667 0 0 0 0 -31.584328954625107 49.546520507324658 0 49.546520507324658 67.171619532477052 0 0 0 0 -77.839450057907015 76.583255315696078 0 76.583255315696078 55.505193279699597 0 0 0 0 -126.54371369285764 52.161001362663228 0 52.161001362663228 118.31790460759657 0 0 0 0 -88.254498556860199 82.674124248434964 0 82.674124248434964 141.17572257557185 0 0 0 0 -89.927556092436134 120.51533263261081 0 120.51533263261081 128.9643220943417 0 0 0 0 -95.915992469986122 144.51210637072563 0 144.51210637072563 49.199018578503456 0 0 0 0 -17.975406469993686 57.762816251130062 0 57.762816251130062 48.37584451220755 0 0 0 0 -29.604606470666113 88.062135049763128 0 88.062135049763128 -30.215341297378473 0 0 0 0 -15.710266762098399 42.373304343211203 0 42.373304343211203 23.130770583627964 0 0 0 0 -37.538907475296583 152.80583688253807 0 152.80583688253807 -57.294694449812141 0 0 0 0 -4.9488089244326119 36.359276339159052 0 36.359276339159052 58.682070340047346 0 0 0 0 18.168950680537655 51.658348096737043 0 51.658348096737043 -2.174715628433292 0 0 0 0 -50.361236552596893 107.21882500224081 0 107.21882500224081 -12.134634571973947 0 0 0 0 -68.303579272705974 126.85772573590845 0 126.85772573590845 31.476904510057921 0 0 0 0 -20.299887703295099 83.07554120319702 0 83.07554120319702 -49.710575142278117 0 0 0 0 -19.055251297635884 32.243905446852601 0 32.243905446852601 50.502784789352816 0 0 0 0 -19.093305434337708 51.874995945628143 0 51.874995945628143 21.054819892815431 0 0 0 0 -13.892979956173804 22.787577557664918 0 22.787577557664918 43.90423746243323 0 0 0 0 8.8657830746010546 40.850518967940658 0 40.850518967940658 39.904004565051039 0 0 0 0 -5.0284117058732649 20.508178111474344 0 20.508178111474344 1.2974796251929135 0 0 0 0 21.009969901191653 88.080781625923009 0 88.080781625923009 -10.333390357274766 0 0 0 0 -95.287876345770201 19.939275944169822 0 19.939275944169822 39.896475183172697 0 0 0 0 -39.786099249547988 92.094247379597277 0 92.094247379597277 -8.4152869543904103 0 0 0 0 -28.467372095617065 106.07718016805882 0 106.07718016805882 -31.727932986367705 0 0 0 0 27.571628916840581 51.880457992690395 0 51.880457992690395 -26.6517309790433 0 0 0 0 -16.509843531363003 71.921155702670148 0 71.921155702670148 -0.67055683741409666 0 0 0 0 -43.042022222760352 88.625732697283297 0 88.625732697283297 -7.1794978227317188 0 0 0 0 -90.911435019683267 123.62592636818044 0 123.62592636818044 -66.685504582157591 0 0 0 0 -32.650223597861583 60.304988684220802 0 60.304988684220802 38.575412567596288 0 0 0 0 14.197822411220841 129.28228233645132 0 129.28228233645132 -131.76529916846994 0 0 0 0 -21.579789628039663 27.356943285671278 0 27.356943285671278 42.434586748033482 0 0 0 0 -51.226793734703278 94.445985611501811 0 94.445985611501811 0.78511215052844818 0 0 0 0 -30.622304181952131 56.533902175325352 0 56.533902175325352 -5.9923554168390183 0 0 0 0 -33.261157701053889 52.854603111944471 0 52.854603111944471 3.6913431010208342 0 0 0 0 -14.585830520894755 46.889925695694998 0 46.889925695694998 1.7186209949474218 0 0 0 0 -109.72915971276598 75.810675802242258 0 75.810675802242258 -274.37762067477888 0 0 0 0 -118.42182644960974 202.41863874387707 0 202.41863874387707 -296.66542977654171 0 0 0 0 2.5248649439715436 8.5128006925036459 0 8.5128006925036459 3.2966609596133019 0 0 0 0 16.553948544653394 172.22443062274033 0 172.22443062274033 -547.97586493322524 0 0 0 0 2.4447918363439385 -134.57421216314469 0 -134.57421216314469 706.39177116262726 0 0 0 0 -148.05349404950539 279.99692016775771 0 279.99692016775771 396.19448731491138 0 0 0 0 55.929677939391695 245.34891065789816 0 245.34891065789816 139.15644711957748 0 0 0 0 -86.577821060124734 -172.14334947603538 0 -172.14334947603538 484.47071360913833 0 0 0 0 -193.94140523139504 121.47687942834091 0 121.47687942834091 1194.614309202505 0 0 0 0 -149.56196739696225 71.266718018359825 0 71.266718018359825 219.25270911748521 0 0 0 0 -68.08894715682618 98.610269462966244 0 98.610269462966244 175.82430435573951 0 0 0 0 -119.36993419413557 284.12455752385631 0 284.12455752385631 -149.63100487707561 0 0 0 0 -92.39051552672754 175.85608737802431 0 175.85608737802431 180.75635902477188 0 0 0 0 -9.3874541129480349 290.74472701243576 0 290.74472701243576 -687.61160012053824 0 0 0 0 0.24779286668638179 3.0379966913439844 0 3.0379966913439844 1.5170422869713995 0 0 0 0 -71.261219056294976 169.29679655357722 0 169.29679655357722 -212.49060759033455 0 0 0 0 -141.64217543778977 114.44558190797216 0 114.44558190797216 -22.939922644931357 0 0 0 0 -61.20786820531066 36.890621630089299 0 36.890621630089299 -60.919940466003936 0 0 0 0 -45.264641467432739 43.050509088392573 0 43.050509088392573 68.669796865156968 0 0 0 0 -26.086499077937333 83.485526544240201 0 83.485526544240201 -0.09359655920707155 0 0 0 0 -28.678438383978573 101.07309466317383 0 101.07309466317383 68.697371784321149 0 0 0 0 -103.84332124336561 132.99743594916708 0 132.99743594916708 86.224938254308654 0 0 0 0 -70.217470058512845 49.394030379109608 0 49.394030379109608 12.433409491606653 0 0 0 0 -73.298849048989723 68.718292875544648 0 68.718292875544648 -52.253783575593843 0 0 0 0 -75.876298217087253 162.67123724857453 0 162.67123724857453 -51.574446436206927 0 0 0 0 -10.494311751061105 73.153620059394598 0 73.153620059394598 42.905150361966662 0 0 0 0 -45.678125260092202 57.779629342257977 0 57.779629342257977 -185.22234786680929 0 0 0 0 -63.145743802542711 73.17273394298536 0 73.17273394298536 15.82054647176119 0 0 0 0 -57.203210113792011 28.689233175125992 0 28.689233175125992 -324.90456320572775 0 0 0 0 -30.516525406572327 179.6784502026203 0 179.6784502026203 -223.07405104516511 0 0 0 0 -34.381167336727231 246.68836715146608 0 246.68836715146608 167.80172583300737 0 0 0 0 -46.616795874555145 64.84106752743925 0 64.84106752743925 -53.843687017714736 0 0 0 0 -52.267460186209064 91.872522590951718 0 91.872522590951718 81.538013718308633 0 0 0 0 2.1316372414385114 122.02787823003871 0 122.02787823003871 91.585276153150289 0 0 0 0 -22.671114059735828 144.13977016044078 0 144.13977016044078 117.83575375998066 0 0 0 0 -47.707481835299618 65.154887369404591 0 65.154887369404591 -52.423340843991589 0 0 0 0 -3.6038333976175636 249.96874390767334 0 249.96874390767334 62.262089881667634 0 0 0 0 -55.115566253338329 -2.9010618029897159 0 -2.9010618029897159 -122.98859256915057 0 0 0 0 52.717524424899239 129.47793120110327 0 129.47793120110327 -177.21580204893689 0 0 0 0 -102.92191323343286 133.96386137414447 0 133.96386137414447 -174.13188818699746 0 0 0 0 9.0631642089630589 12.32328142579729 0 12.32328142579729 7.1031828823995795 0 0 0 0 64.294232988426302 160.89231866591581 0 160.89231866591581 -373.76330720053011 0 0 0 0 -495.12479460158829 155.75994757536682 0 155.75994757536682 375.57208015884316 0 0 0 0 51.599945978489927 397.4041017789109 0 397.4041017789109 23.121688442020968 0 0 0 0 76.66850558774604 263.95970267172379 0 263.95970267172379 245.12205066511888 0 0 0 0 140.86279467076088 67.310780051788242 0 67.310780051788242 -134.71489859985013 0 0 0 0 433.34926895604985 484.24478110804012 0 484.24478110804012 104.13602311949762 0 0 0 0 339.63418268437817 235.67951415952666 0 235.67951415952666 29.179996925931846 0 0 0 0 -0.12157849989450042 1.2532889465138908 0 1.2532889465138908 -3.3953884897994158 0 0 0 0 -817.21709280739742 144.4122545415612 0 144.4122545415612 265.24474427970199 0 0 0 0 -212.60847265051871 123.15833765990919 0 123.15833765990919 15.326267520173133 0 0 0 0 294.30638290883189 183.23673935912484 0 183.23673935912484 -40.245383005658596 0 0 0 0 113.62833920110006 -19.556560763030575 0 -19.556560763030575 53.134504203695542 0 0 0 0 195.36093219895611 160.20091882202178 0 160.20091882202178 -309.30687124207543 0 0 0 0 110.97359302768132 214.07357888077968 0 214.07357888077968 -151.45294582068891 0 0 0 0 74.075049060382298 169.65883660586405 0 169.65883660586405 85.138682852575585 0 0 0 0 -22.48292871817603 69.663172860572359 0 69.663172860572359 -64.420876597075775 0 0 0 0 53.025954438904307 -14.363855109825636 0 -14.363855109825636 -340.98010900870577 0 0 0 0 -23.520857981181962 31.359806661601397 0 31.359806661601397 -66.316097544122385 0 0 0 0 13.235189702974822 199.63269118851804 0 199.63269118851804 120.17178706547406 0 0 0 0 31.915391212834948 198.68628180223459 0 198.68628180223459 115.0947315635774 0 0 0 0 -1.997530074980677 6.3858215856807812 0 6.3858215856807812 -14.641123913106552 0 0 0 0 17.838158465118795 170.00001364348111 0 170.00001364348111 80.412734382953204 0 0 0 0 2.2107985341954191 187.31022300303152 0 187.31022300303152 150.95263714660723 0 0 0 0 9.328089974973409 170.96404427160428 0 170.96404427160428 110.45166749636633 0 0 0 0 25.599439714471373 171.26071353220073 0 171.26071353220073 61.650144305725917 0 0 0 0 24.085893339561153 153.7516680363774 0 153.7516680363774 -157.14134473333252 0 0 0 0 -45.928781633025025 66.792630165369673 0 66.792630165369673 -43.57164313735246 0 0 0 0 7.1918897603418372 172.07776674955232 0 172.07776674955232 103.43467236672655 0 0 0 0 14.527243583735345 21.720355404625224 0 21.720355404625224 -16.290909790812709 0 0 0 0 27.131484268144959 154.68409744754007 0 154.68409744754007 93.143263093512843 0 0 0 0 8.4105625866051241 159.63966278683 0 159.63966278683 109.63678738869089 0 0 0 0 -7.5340017778544279 146.99980218046386 0 146.99980218046386 72.865988290760015 0 0 0 0 3.093161608668197 170.26446458677805 0 170.26446458677805 84.060254469663164 0 0 0 0 3.3418199750276472 135.38092048423152 0 135.38092048423152 33.211326142309304 0 0 0 0 -27.16817301465926 109.20935275281533 0 109.20935275281533 40.645009862960251 0 0 0 0 2.5677912052651664 150.08262220411802 0 150.08262220411802 21.318589957750532 0 0 0 0 -21.665539440184148 105.95604669437421 0 105.95604669437421 35.448475299612028 0 0 0 0 -30.976614390541727 120.4117535148016 0 120.4117535148016 17.662234790343518 0 0 0 0 -38.705639995108868 54.226476861575527 0 54.226476861575527 -57.667037303033339 0 0 0 0 -13.916575436120979 163.39178132065965 0 163.39178132065965 67.83132876548143 0 0 0 0 -9.7255183930034832 112.18509905778041 0 112.18509905778041 37.035988884855669 0 0 0 0 -3.6298458613400726 135.57561420530737 0 135.57561420530737 3.6008229679018768 0 0 0 0 26.88687106913676 128.67248632931182 0 128.67248632931182 95.769236156601437 0 0 0 0 29.237736970341757 194.77725678068123 0 194.77725678068123 93.953060757573439 0 0 0 0 -9.5830479135438509 167.19666333446742 0 167.19666333446742 -239.6260444288244 0 0 0 0 -175.69397632838627 113.81958961143218 0 113.81958961143218 -24.16419168077573 0 0 0 0 -67.946782150500439 -22.512830996361345 0 -22.512830996361345 -129.33499913093374 0 0 0 0 -24.993255676130502 47.623204327255905 0 47.623204327255905 -64.190542722014015 0 0 0 0 -31.80189554100798 18.145486723507418 0 18.145486723507418 -13.995768753928019 0 0 0 0 -3.7110041620387619 130.36673260610115 0 130.36673260610115 -252.09318980641433 0 0 0 0 -196.28927521638434 369.31950651251555 0 369.31950651251555 20.218295351326105 0 0 0 0 -100.58402285062766 166.32934587027717 0 166.32934587027717 102.29555948939765 0 0 0 0 -74.83701958868005 100.8458137486441 0 100.8458137486441 207.73156706697409 0 0 0 0 -310.13228309807437 194.55839248224521 0 194.55839248224521 572.73107828203456 0 0 0 0 -127.70164700538407 35.403690982500621 0 35.403690982500621 137.80056588382877 0 0 0 0 -0.82952610422422168 1.5949543869192571 0 1.5949543869192571 6.1350725784009965 0 0 0 0 28.019663562974529 -222.20705911871448 0 -222.20705911871448 494.01639375217565 0 0 0 0 652.36731541662812 28.768558971639095 0 28.768558971639095 -139.23361567778977 0 0 0 0 -46.764073456993628 106.21429102447951 0 106.21429102447951 124.91074254774912 0 0 0 0 -18.805142129584056 66.053858891445998 0 66.053858891445998 118.62055492080901 0 0 0 0 -115.94317691377046 22.652339832611688 0 22.652339832611688 -92.228880214994206 0 0 0 0 -17.09085736256154 65.245591821599305 0 65.245591821599305 -52.322980063061841 0 0 0 0 -10.996806818837705 57.976760433337361 0 57.976760433337361 -51.150220330125947 0 0 0 0 22.313450780860876 63.678040092091635 0 63.678040092091635 -87.073131507516791 0 0 0 0 2.9238918940002421 24.800315844812609 0 24.800315844812609 -16.432319391264443 0 0 0 0 -21.83503927722726 64.874398202545848 0 64.874398202545848 -58.470387556276449 0 0 0 0 10.220812958466922 119.58450333772225 0 119.58450333772225 121.34070538357878 0 0 0 0 -19.249583688368148 193.03682337859254 0 193.03682337859254 156.05065800072771 0 0 0 0 -116.17815861173494 14.677065700301682 0 14.677065700301682 28.714184318216212 0 0 0 0 -12.457527188374343 -90.803430795280292 0 -90.803430795280292 -202.40623459486596 0 0 0 0 -10.329638131828858 87.62764850653366 0 87.62764850653366 -28.724843002342823 0 0 0 0 49.6632380314486 30.00660646776214 0 30.00660646776214 86.902364046891307 0 0 0 0 62.201130135929702 46.239260496831776 0 46.239260496831776 -69.08635528454397 0 0 0 0 -39.966723122963003 -85.1330870546808 0 -85.1330870546808 307.49169029608674 0 0 0 0 -32.239395649770017 260.23118246865306 0 260.23118246865306 0.98685050334006519 0 0 0 0 -2.2479218301060815 -0.34499221626608545 0 -0.34499221626608545 8.9342777896999337 0 0 0 0 -32.18418064092063 240.33302361897336 0 240.33302361897336 351.10995241344062 0 0 0 0 -30.546936189739426 87.472931318653991 0 87.472931318653991 4.2112116421085375 0 0 0 0 18.10475315545591 132.43854546705188 0 132.43854546705188 32.895581930815752 0 0 0 0 -33.707457408922892 93.450806634155015 0 93.450806634155015 22.216334335844294 0 0 0 0 -2.6724254461281802 16.950309782626235 0 16.950309782626235 -5.8294884329340277 0 0 0 0 -70.232067080413799 34.217781532199297 0 34.217781532199297 14.21875255622308 0 0 0 0 -60.984824946908702 92.633034584723646 0 92.633034584723646 165.23154121498737 0 0 0 0 -70.415424121029901 124.46609544564853 0 124.46609544564853 57.9594654863904 0 0 0 0 9.9425469409279685 105.97095302898015 0 105.97095302898015 28.298199818658759 0 0 0 0 -75.902948600352829 205.39141174091492 0 205.39141174091492 43.548092145512783 0 0 0 0 -185.52690603288193 190.03017663987157 0 190.03017663987157 136.8642277718991 0 0 0 0 43.195996308877852 177.34415698398448 0 177.34415698398448 -321.39511940072407 0 0 0 0 54.706323402102043 107.64397020816136 0 107.64397020816136 -5.4009203923233144 0 0 0 0 248.61828009881742 150.8426994188394 0 150.8426994188394 356.33611034220667 0 0 0 0 154.3492632348424 -82.19623641567523 0 -82.19623641567523 116.7222427198576 0 0 0 0 155.09508096715166 -190.45159098558997 0 -190.45159098558997 -337.08109481005886 0 0 0 0 -347.83294352331018 465.60331219012733 0 465.60331219012733 170.54156738435449 0 0 0 0 -175.63760613534311 119.52406042154098 0 119.52406042154098 427.35258234534194 0 0 0 0 205.29101406784346 240.08355702567314 0 240.08355702567314 -25.053337220255344 0 0 0 0 233.1332324871351 340.01144597504936 0 340.01144597504936 -479.62445189404025 0 0 0 0 5.3107143480941463 0.93317725318638978 0 0.93317725318638978 -0.35791720377643799 0 0 0 0 289.16203638087381 162.61988846269742 0 162.61988846269742 -26.518401943896606 0 0 0 0 351.94986734295344 35.270097229986277 0 35.270097229986277 -0.36263183111304897 0 0 0 0 351.96242939394187 66.659813684869732 0 66.659813684869732 -287.87388696250491 0 0 0 0 226.7623883721642 61.066849981769337 0 61.066849981769337 86.857723236116726 0 0 0 0 -1.7249335817961593 0.95538908582305737 0 0.95538908582305737 9.1401509130213014 0 0 0 0 375.9524713103649 49.518025056773695 0 49.518025056773695 1.3152929147145187 0 0 0 0 -2.2779302317531993 8.8078459869521275 0 8.8078459869521275 -11.817935576056882 0 0 0 0 2.4021847398689715 65.534236798966248 0 65.534236798966248 7.8715826064144494 0 0 0 0 52.55746732454827 30.009724860929055 0 30.009724860929055 -14.492028601045604 0 0 0 0 29.693996501378933 23.911198691275786 0 23.911198691275786 1.3476459379162407 0 0 0 0 32.088823780903112 16.503879986557877 0 16.503879986557877 -1.004903077162453 0 0 0 0 15.543192473625822 14.617450543657469 0 14.617450543657469 -2.5871828404087864 0 0 0 0 10.337165716313393 23.257677130186494 0 23.257677130186494 -1.607081838258182 0 0 0 0 30.082374503390838 18.042094732364376 0 18.042094732364376 -9.8857017452755827 0 0 0 0 11.750976520727818 24.203787282107442 0 24.203787282107442 -3.2510538162096054 0 0 0 0 -5.8583830541392672 21.18327032668094 0 21.18327032668094 -3.7248252690860681 0 0 0 0 5.8580690477319877 32.562610401169877 0 32.562610401169877 -21.500032701886084 0 0 0 0 3.8160932423124905 23.755850195972016 0 23.755850195972016 -25.174825366229925 0 0 0 0 -10.880786274061393 36.871300094418984 0 36.871300094418984 -10.879350916969997 0 0 0 0 -6.0271427007410239 62.842595133995928 0 62.842595133995928 -83.43162308605315 0 0 0 0 44.859779835762311 7.486449088275549 0 7.486449088275549 -19.782653502908943 0 0 0 0 6.5593684914456389 15.883753434984101 0 15.883753434984101 -5.4368769517313922 0 0 0 0 8.5785096524214168 27.559214499007794 0 27.559214499007794 -23.389983921308158 0 0 0 0 -32.571110412107828 73.729548588251419 0 73.729548588251419 -54.43312555981538 0 0 0 0 -20.106395517262399 15.379816681691409 0 15.379816681691409 18.425007408535748 0 0 0 0 -101.80353274735307 66.121388356672014 0 66.121388356672014 -10.363050189756905 0 0 0 0 -87.924862133006172 134.36117194734288 0 134.36117194734288 -47.937998792131111 0 0 0 0 -3.4027937307624043 5.1823953173993331 0 5.1823953173993331 -7.5859362580063419 0 0 0 0 10.344124813109374 69.503961663594055 0 69.503961663594055 -80.898967978995643 0 0 0 0 -16.006211238094693 127.78491347653835 0 127.78491347653835 -138.29359826353539 0 0 0 0 -10.472278459279551 97.034769919733662 0 97.034769919733662 -33.026920812575554 0 0 0 0 -70.896913173223766 171.672466606944 0 171.672466606944 8.7293633542067255 0 0 0 0 -36.351615002491144 200.33798235527138 0 200.33798235527138 -64.681087427255989 0 0 0 0 231.37239714370389 278.18098596950222 0 278.18098596950222 200.53245234643146 0 0 0 0 162.28075804182686 272.13554176825164 0 272.13554176825164 393.94669580051414 0 0 0 0 0.54971935828769425 -1.3887343799413205 0 -1.3887343799413205 3.1805516089998207 0 0 0 0 678.80553947830094 248.28805477703403 0 248.28805477703403 110.63958090766391 0 0 0 0 64.345935784566791 165.98776563140018 0 165.98776563140018 273.13781778465363 0 0 0 0 -96.413526213097967 -24.610783533552052 0 -24.610783533552052 63.638278180638736 0 0 0 0 -2.3259652787237428 383.84402925319409 0 383.84402925319409 -245.4107331943099 0 0 0 0 16.076941502091358 203.72050686534021 0 203.72050686534021 -245.59365849051753 0 0 0 0 0.17600847235007677 210.80227699494208 0 210.80227699494208 -210.81937053995716 0 0 0 0 -38.345286030285934 241.04422056900239 0 241.04422056900239 -229.07210671226494 0 0 0 0 27.818755142739974 193.61753522815343 0 193.61753522815343 -300.42578875496292 0 0 0 0 -1.5934734435286373 279.45666568765228 0 279.45666568765228 -422.65495422069216 0 0 0 0 -73.589045304222964 344.11651269528011 0 344.11651269528011 -396.53015965066152 0 0 0 0 -14.786112061847234 362.35251544733546 0 362.35251544733546 -398.66688629933833 0 0 0 0 0.68750973277286676 -1.585262179999674 0 -1.585262179999674 -1.5662099915194698 0 0 0 0 -74.266754028711148 456.57260995067281 0 456.57260995067281 -834.00037094767322 0 0 0 0 -181.08445499758818 339.55183897020652 0 339.55183897020652 -372.56532782206341 0 0 0 0 -107.40829064542777 274.10871959844735 0 274.10871959844735 -397.85883368320538 0 0 0 0 -100.39158344689349 258.68500955274703 0 258.68500955274703 -388.1878011484896 0 0 0 0 9.2555729104044531 6.730594934621692 0 6.730594934621692 0.50995033015176716 0 0 0 0 -56.074079915648326 281.48022697673787 0 281.48022697673787 -399.44659911056988 0 0 0 0 -120.10719241397601 33.421671215814058 0 33.421671215814058 333.2803406769599 0 0 0 0 329.60456640072516 -301.18110446178116 0 -301.18110446178116 402.49218023162939 0 0 0 0 18.054618820347969 383.72990699370735 0 383.72990699370735 851.57466041909902 0 0 0 0 -107.67250221446739 483.61117726553584 0 483.61117726553584 1783.9571769659651 0 0 0 0 232.75549030752154 610.75033249159196 0 610.75033249159196 841.74109091245032 0 0 0 0 65.485879774016212 886.36393757980386 0 886.36393757980386 1957.5000008906309 0 0 0 0 -222.24031025848672 526.8583688005815 0 526.8583688005815 2705.5662856390081 0 0 0 0 3.7140902130765312 2.1992011184900662 0 2.1992011184900662 1.4186681983629841 0 0 0 0 -31.571826077641163 208.38093061989002 0 208.38093061989002 -659.17097493205438 0 0 0 0 201.67633749521337 402.96453931222186 0 402.96453931222186 -1003.2848491807235 0 0 0 0 0.19501318444235949 367.07355913703941 0 367.07355913703941 983.33877294171725 0 0 0 0 225.98034972815367 546.1950348482369 0 546.1950348482369 -528.87582389316958 0 0 0 0 145.54824696993455 579.88095459037777 0 579.88095459037777 1174.1822908269351 0 0 0 0 -0.26319561470882036 472.19130374086308 0 472.19130374086308 1489.8162943959032 0 0 0 0 -36.622252076636869 268.57178226997689 0 268.57178226997689 1062.3891284771225 0 0 0 0 -5.7716229813086102 507.3623536768855 0 507.3623536768855 1587.5328191104763 0 0 0 0 -135.94274396386936 553.55466229005265 0 553.55466229005265 1576.5345804402723 0 0 0 0 -182.0062987965357 54.71277742467737 0 54.71277742467737 1205.8778013609335 0 0 0 0 -69.550542588745884 318.04936229982548 0 318.04936229982548 567.70326575464787 0 0 0 0 -188.6043336790317 114.36578306243382 0 114.36578306243382 1060.1077041345379 0 0 0 0 -0.18424855426565045 349.75223239608727 0 349.75223239608727 351.77405075627939 0 0 0 0 132.93373529020755 33.664078979236592 0 33.664078979236592 -541.1638424372577 0 0 0 0 114.09132266462984 81.383314165850607 0 81.383314165850607 -331.88314347978439 0 0 0 0 -152.17228816795978 44.417784352949639 0 44.417784352949639 514.66020412185253 0 0 0 0 49.07682839212066 55.897457044985231 0 55.897457044985231 -557.68616835514376 0 0 0 0 -181.98091843458678 420.04601778414087 0 420.04601778414087 -311.42691109329985 0 0 0 0 0.50440973416414181 -1.4795404350232779 0 -1.4795404350232779 -0.29394141755630188 0 0 0 0 -219.97693450410588 127.83309616904444 0 127.83309616904444 382.83558610021782 0 0 0 0 1.1271799396234314 0.81118019912682726 0 0.81118019912682726 -0.7822671264298926 0 0 0 0 -130.87052507231419 402.78596901912692 0 402.78596901912692 -1053.4186324461687 0 0 0 0 232.40245807595784 518.49540576868458 0 518.49540576868458 -1617.6018967173857 0 0 0 0 14.598664753386402 550.15153412918301 0 550.15153412918301 -1431.9808607876487 0 0 0 0 -6.5636054527276428 295.5551836388521 0 295.5551836388521 -737.79810414953772 0 0 0 0 1.5739667406355125 0.53586489715676144 0 0.53586489715676144 -0.67061942365325256 0 0 0 0 -94.262855163979111 -234.4270117608969 0 -234.4270117608969 809.83380515489898 0 0 0 0 13.543313004396623 439.41895580648384 0 439.41895580648384 632.27626912745893 0 0 0 0 515.58994102229917 294.83395877656437 0 294.83395877656437 -132.79967667177061 0 0 0 0 46.250545537312064 -236.95091687050893 0 -236.95091687050893 2949.8978264966722 0 0 0 0 -63.843216600100277 372.94216312642948 0 372.94216312642948 1050.9168886090151 0 0 0 0 47.183443860965781 -187.84740674566729 0 -187.84740674566729 1911.9326461788869 0 0 0 0 -167.05013702438737 768.57860026632125 0 768.57860026632125 1706.0317599797763 0 0 0 0 -105.79634469820303 913.8268855651595 0 913.8268855651595 1950.3619635745445 0 0 0 0 -104.4254806625213 802.68362676339211 0 802.68362676339211 3226.6615662300246 0 0 0 0 740.18774217829923 1500.780106116285 0 1500.780106116285 1857.4940817546719 0 0 0 0 628.9499885023688 -1407.4217992290992 0 -1407.4217992290992 2330.0330534744203 0 0 0 0 -554.56001086343895 114.45632288442869 0 114.45632288442869 3578.3852769910895 0 0 0 0 1447.6177529850102 797.53510764880048 0 797.53510764880048 4.5885087265214679 0 0 0 0 2.1228684881700985 5.4700064461982549 0 5.4700064461982549 25.002831490925558 0 0 0 0 -327.97224517587165 -114.57856085540288 0 -114.57856085540288 1873.2769987840659 0 0 0 0 -589.76140747663158 390.48750219392542 0 390.48750219392542 1505.3510442753468 0 0 0 0 -175.72103117774532 484.2502979330568 0 484.2502979330568 545.9566168208662 0 0 0 0 -438.51725303392959 1171.4948538495353 0 1171.4948538495353 1018.1120786349597 0 0 0 0 -762.63881609344389 624.53313800437104 0 624.53313800437104 1761.7447455817903 0 0 0 0 627.76342512620613 1594.4707497088943 0 1594.4707497088943 2003.6303997717673 0 0 0 0 1678.7603471549592 -138.36333210547139 0 -138.36333210547139 798.01128135226691 0 0 0 0 301.15765388132422 400.14488849873055 0 400.14488849873055 -831.11737839935086 0 0 0 0 -831.0558844823463 1304.5375233498276 0 1304.5375233498276 -242.0082196282483 0 0 0 0 -319.50196257635253 1246.9702699696772 0 1246.9702699696772 228.37766490550291 0 0 0 0 -533.54971190632205 601.49092150346883 0 601.49092150346883 -86.098107704968982 0 0 0 0 57.229700250009898 33.068522019325812 0 33.068522019325812 3.4076852386962786 0 0 0 0 -427.71144556251238 1790.2135122393634 0 1790.2135122393634 -2165.5171080533769 0 0 0 0 -479.23110550028287 616.81686338943234 0 616.81686338943234 -1511.2996618600619 0 0 0 0 -954.66711461910745 870.86560804660144 0 870.86560804660144 -1389.2824846805966 0 0 0 0 -202.69520503783133 629.83839026591158 0 629.83839026591158 -1535.6377032983019 0 0 0 0 -153.89394089628331 1211.5602224099491 0 1211.5602224099491 -1259.1565103117618 0 0 0 0 -1395.2463466442714 690.27607852481765 0 690.27607852481765 857.08259181904077 0 0 0 0 3300.0237332442775 -1224.3766370205246 0 -1224.3766370205246 -1436.2521961577136 0 0 0 0 -398.12399702692346 1456.2642190031929 0 1456.2642190031929 -1843.2234382418524 0 0 0 0 -46.099108578055166 -768.16061140077204 0 -768.16061140077204 137.38801126234446 0 0 0 0 40.015444714986586 20.285318930085523 0 20.285318930085523 7.5966342550085484 0 0 0 0 200.84741350673721 -101.30434695279382 0 -101.30434695279382 -579.2195039322628 0 0 0 0 247.55898315520608 114.536306133724 0 114.536306133724 141.23260952307282 0 0 0 0 -222.55209216914955 -1153.2240693481294 0 -1153.2240693481294 -697.05755469296082 0 0 0 0 -727.27651583647821 545.34141527147244 0 545.34141527147244 43.801129923580902 0 0 0 0 11.169840455732128 9.152250713959333 0 9.152250713959333 5.9973875763922262 0 0 0 0 1795.0005784113455 683.41181977794508 0 683.41181977794508 356.84762857368605 0 0 0 0 -620.37486243658259 1413.3186249988025 0 1413.3186249988025 683.85380971189534 0 0 0 0 -200.14127295201433 759.49078200756821 0 759.49078200756821 753.2004305609812 0 0 0 0 1471.9151493621321 1128.5129473670816 0 1128.5129473670816 470.20364488146947 0 0 0 0 -229.79873150882486 700.61711272757088 0 700.61711272757088 1198.2337996948295 0 0 0 0 -900.57060561445542 987.43513925998832 0 987.43513925998832 1105.2773447703305 0 0 0 0 -545.08296573138796 963.28743417768578 0 963.28743417768578 1106.7583864213914 0 0 0 0 -376.92787037486414 174.65848579949375 0 174.65848579949375 846.74591485477686 0 0 0 0 -282.43381051854522 354.68625680435798 0 354.68625680435798 1058.3312960772525 0 0 0 0 46.829904401492968 556.67788343335496 0 556.67788343335496 871.82769399408517 0 0 0 0 378.79245646366326 308.94911827715578 0 308.94911827715578 526.0717789009733 0 0 0 0 -106.31846560349368 339.47600193988274 0 339.47600193988274 711.46762834925903 0 0 0 0 57.714236751129647 220.69936548569171 0 220.69936548569171 535.55352529811353 0 0 0 0 28.854591021745534 38.491459056644075 0 38.491459056644075 4.8532239255826362 0 0 0 0 61.988284855691745 184.84886361488066 0 184.84886361488066 142.87640599936276 0 0 0 0 -132.76433893660942 35.601995049254015 0 35.601995049254015 906.09122627390752 0 0 0 0 -147.95137657846499 101.20880994084837 0 101.20880994084837 681.06709347493506 0 0 0 0 -34.536427520404686 -0.24561030587301502 0 -0.24561030587301502 500.31563654309326 0 0 0 0 176.15772921056487 -293.20380215474279 0 -293.20380215474279 482.16637575932418 0 0 0 0 -15.349755639399518 26.537484076120563 0 26.537484076120563 91.164049125169186 0 0 0 0 8.8499726715880627 26.190931777512446 0 26.190931777512446 57.557999097102467 0 0 0 0 24.399184954003431 68.10031616258857 0 68.10031616258857 -5.8520015305582547 0 0 0 0 8.2559985150423358 11.667085579938899 0 11.667085579938899 16.522176291649135 0 0 0 0 106.43551586103422 53.379778573020303 0 53.379778573020303 122.89264820282187 0 0 0 0 33.505977696171612 34.050866143778421 0 34.050866143778421 28.602691433906784 0 0 0 0 20.374385147915575 40.569498553401345 0 40.569498553401345 20.934593307343619 0 0 0 0 11.160689285820098 26.638089639613611 0 26.638089639613611 39.440395251381887 0 0 0 0 -2.0330844581590668 2.7583128545101658 0 2.7583128545101658 6.6774111459144692 0 0 0 0 -14.992186247829522 50.187053362280949 0 50.187053362280949 101.56830056033505 0 0 0 0 -162.71981111911009 306.42627962773622 0 306.42627962773622 -360.01387938536664 0 0 0 0 -156.1521525112621 305.54740838447651 0 305.54740838447651 -408.4393618531758 0 0 0 0 -239.11495345062576 293.02811808933984 0 293.02811808933984 -262.93373356293159 0 0 0 0 -353.22121374140261 358.44828894646707 0 358.44828894646707 -239.02941255475343 0 0 0 0 7.0030665359708166 8.6301964171535417 0 8.6301964171535417 -8.2537198763014601 0 0 0 0 76.654028431716142 -32.561294795632421 0 -32.561294795632421 -25.634602459331745 0 0 0 0 73.472813529631821 4.7527634260914056 0 4.7527634260914056 -28.553238143046428 0 0 0 0 59.421695110679138 32.876214493409861 0 32.876214493409861 -62.289145495851699 0 0 0 0 55.142014814919094 -19.135435266525747 0 -19.135435266525747 336.5370097150153 0 0 0 0 1.6408033535117283 150.50012444456843 0 150.50012444456843 -29.859021085845598 0 0 0 0 132.43173899018439 -187.22638069671666 0 -187.22638069671666 -237.47131471026978 0 0 0 0 -62.601533886801917 -322.22034369237554 0 -322.22034369237554 547.34618846315425 0 0 0 0 53.59434240907342 45.035361923128946 0 45.035361923128946 16.13580658650767 0 0 0 0 112.89339508931153 -68.663296775317576 0 -68.663296775317576 -494.58846252399962 0 0 0 0 600.09515623556217 620.12531050827965 0 620.12531050827965 -147.52259400371622 0 0 0 0 5.7428124070488025 14.464490259592701 0 14.464490259592701 20.413060972428198 0 0 0 0 92.021642692154273 97.337721825861081 0 97.337721825861081 -223.34235660441482 0 0 0 0 38.945892171817832 38.403166098193367 0 38.403166098193367 64.461702413952594 0 0 0 0 40.804921368646319 48.247120588931921 0 48.247120588931921 36.458444571074466 0 0 0 0 28.540853937035763 40.944305126718781 0 40.944305126718781 25.449947126276207 0 0 0 0 25.745820883348642 22.675403817745632 0 22.675403817745632 67.959689825530177 0 0 0 0 5.0447943537292304 48.354750928179783 0 48.354750928179783 50.647160641188748 0 0 0 0 -4.7893986603157828 75.629980359429851 0 75.629980359429851 84.308271364687243 0 0 0 0 -13.776948675734815 36.76554006888189 0 36.76554006888189 60.982298179881035 0 0 0 0 2.2859409997054385 38.961526244619023 0 38.961526244619023 48.284583168069503 0 0 0 0 29.488096848624991 65.485476823644603 0 65.485476823644603 66.207583431239527 0 0 0 0 17.574458899680337 29.520735554966905 0 29.520735554966905 12.833904515861491 0 0 0 0 48.40258999078651 67.367345434971469 0 67.367345434971469 60.697756359926643 0 0 0 0 42.657347618864151 71.38229019115488 0 71.38229019115488 68.50568614817945 0 0 0 0 14.88480072809034 223.71793277120378 0 223.71793277120378 165.32092078609458 0 0 0 0 106.55363113067551 241.51940200232374 0 241.51940200232374 153.49339475976012 0 0 0 0 58.808962090130933 61.747312590667619 0 61.747312590667619 30.66946989697411 0 0 0 0 22.39357631537132 62.219100456852971 0 62.219100456852971 72.448710669289085 0 0 0 0 40.374211845337413 86.81450902031338 0 86.81450902031338 140.40454533451066 0 0 0 0 25.388649875640112 49.166529878998858 0 49.166529878998858 44.374902592542639 0 0 0 0 -26.279605919111418 78.786195044740452 0 78.786195044740452 140.11678085092353 0 0 0 0 5.1840343009532717 103.80401011429262 0 103.80401011429262 91.280825030503323 0 0 0 0 -16.796482911857311 79.910896431201763 0 79.910896431201763 62.685199523326446 0 0 0 0 34.632697243067867 90.287564274139626 0 90.287564274139626 57.899866591525054 0 0 0 0 -58.411285167743799 45.624510281741408 0 45.624510281741408 79.30411403997951 0 0 0 0 -31.260933966107899 25.19209021102597 0 25.19209021102597 25.294876511654554 0 0 0 0 9.3089855424950656 119.72492454494568 0 119.72492454494568 30.270155913241979 0 0 0 0 -28.2287038313724 9.6036493832757426 0 9.6036493832757426 20.769943750168501 0 0 0 0 -91.566352938993077 70.03300329004378 0 70.03300329004378 134.45666143240305 0 0 0 0 -77.791838759498205 23.40686079178522 0 23.40686079178522 9.8436057106264343 0 0 0 0 -49.647350186322001 114.77006516425536 0 114.77006516425536 149.07696515646967 0 0 0 0 -42.827326826834053 8.0618050387891174 0 8.0618050387891174 15.570280095874928 0 0 0 0 -42.324174704034704 34.871817995472952 0 34.871817995472952 186.5746805353665 0 0 0 0 0.43072336529735367 81.325032657254042 0 81.325032657254042 85.983178384437451 0 0 0 0 -1.2498436774185393 48.134241225514415 0 48.134241225514415 78.137067298633156 0 0 0 0 -15.313004121489939 28.395171421051415 0 28.395171421051415 17.426516485282534 0 0 0 0 -20.352683885372244 87.286235269279132 0 87.286235269279132 117.0563419844184 0 0 0 0 -3.3914230867029289 47.061465436964355 0 47.061465436964355 1.5978000657951128 0 0 0 0 124.92724234792695 76.576592996330874 0 76.576592996330874 -233.55791016252624 0 0 0 0 -53.452696746244328 -13.866502837174266 0 -13.866502837174266 94.632471942999928 0 0 0 0 2.777352350343449 9.7971162150964375 0 9.7971162150964375 7.5816141530258463 0 0 0 0 -100.97297576076744 184.04765976610952 0 184.04765976610952 204.18920508705196 0 0 0 0 -11.27429911974366 24.641020139742423 0 24.641020139742423 -6.2798743956192382 0 0 0 0 219.70429567416431 432.66092426224714 0 432.66092426224714 -154.99808024132108 0 0 0 0 12.301210476081906 -340.05904557608847 0 -340.05904557608847 -436.84061717389704 0 0 0 0 -65.586251372282277 267.27849988470552 0 267.27849988470552 105.87321290660111 0 0 0 0 147.20980266225524 209.70957219697993 0 209.70957219697993 -276.5414886937433 0 0 0 0 131.09802274464164 229.47359836236137 0 229.47359836236137 24.286773908595933 0 0 0 0 152.24767375684178 432.93506348062925 0 432.93506348062925 187.84705950244461 0 0 0 0 143.89156949306289 237.10680156457948 0 237.10680156457948 103.19408250975903 0 0 0 0 37.128388733763131 545.11608355428689 0 545.11608355428689 435.63045350316224 0 0 0 0 -10.874988158524502 249.96415482231896 0 249.96415482231896 102.25965373055328 0 0 0 0 -238.69041440522415 260.98472732072332 0 260.98472732072332 298.11216733347828 0 0 0 0 19.394343416373886 301.67160288483046 0 301.67160288483046 177.81036491025225 0 0 0 0 -70.127741950753261 357.9685537623518 0 357.9685537623518 439.47569731639305 0 0 0 0 -566.76739794337482 366.62323313746765 0 366.62323313746765 726.41045307354125 0 0 0 0 -62.250892287212992 393.56703502055279 0 393.56703502055279 372.48257868217843 0 0 0 0 -823.46682338874962 -135.97965109698998 0 -135.97965109698998 484.35685002856167 0 0 0 0 -259.74527295007374 -21.120543616017642 0 -21.120543616017642 431.54478303182987 0 0 0 0 3.7490452731173036 7.3254002300497802 0 7.3254002300497802 30.19402843222651 0 0 0 0 -51.112366079025378 61.330286538648579 0 61.330286538648579 98.555132150511781 0 0 0 0 78.350056100724032 -74.480201377842604 0 -74.480201377842604 229.76342662512616 0 0 0 0 4.3618814729117048 43.657674167973624 0 43.657674167973624 16.599947811300307 0 0 0 0 33.151006239401909 42.621281342623973 0 42.621281342623973 18.089731635514063 0 0 0 0 55.644433816458331 32.079939272276533 0 32.079939272276533 -8.2347302674770617 0 0 0 0 44.306731381962891 64.364157663917467 0 64.364157663917467 58.624888620858655 0 0 0 0 395.20774641685421 415.01068359997998 0 415.01068359997998 461.22013072248137 0 0 0 0 288.51961088219832 -23.74346190043434 0 -23.74346190043434 -86.714573774040218 0 0 0 0 -2.1504282316318637 -6.2475077449261391 0 -6.2475077449261391 13.572368298090431 0 0 0 0 278.18993902816874 186.05711309674302 0 186.05711309674302 1364.55455863008 0 0 0 0 866.78669278189773 -364.00301265591088 0 -364.00301265591088 508.90810254888902 0 0 0 0 -1072.9606277917555 -23.543325697672827 0 -23.543325697672827 227.47197494641478 0 0 0 0 659.36664494754586 -819.51559404453849 0 -819.51559404453849 15.677604330558097 0 0 0 0 -1064.2971670737516 55.111147813746868 0 55.111147813746868 734.05739818271013 0 0 0 0 186.53300377473352 990.92909687301835 0 990.92909687301835 1176.338604805421 0 0 0 0 569.98944872480934 508.4531381886427 0 508.4531381886427 446.80179277017083 0 0 0 0 -655.33338003183599 12.0266728532971 0 12.0266728532971 283.30380185746685 0 0 0 0 1282.1669373876503 -366.04419771665175 0 -366.04419771665175 48.133297979466533 0 0 0 0 371.59340314564179 58.940031390305307 0 58.940031390305307 327.86857680089247 0 0 0 0 16.220650892065549 17.812775055105732 0 17.812775055105732 11.271882156591982 0 0 0 0 2382.0000355928132 2111.5232829712249 0 2111.5232829712249 -853.62651453194894 0 0 0 0 857.37686419661622 708.41424493317663 0 708.41424493317663 1063.8578617639473 0 0 0 0 2000.1995425156492 1501.3723410723342 0 1501.3723410723342 -1739.53757522245 0 0 0 0 318.29649441359652 -400.72447384852489 0 -400.72447384852489 -1199.5423851683813 0 0 0 0 -1457.240940920834 350.92848118469783 0 350.92848118469783 228.29587411423267 0 0 0 0 -813.12460727434518 835.70241735454317 0 835.70241735454317 -286.87445304018604 0 0 0 0 -124.35144053182739 -1194.4582016413001 0 -1194.4582016413001 657.63842304253194 0 0 0 0 -2.1601596375535266 -2.5113649671128258 0 -2.5113649671128258 15.905259389760371 0 0 0 0 2123.9440363783215 311.22761037683222 0 311.22761037683222 182.04550924336445 0 0 0 0 44.387682227883488 315.33756668953583 0 315.33756668953583 2166.9638588645353 0 0 0 0 1160.9993767865162 1144.6061679178445 0 1144.6061679178445 1288.7154378377172 0 0 0 0 58.43950027183746 627.34094355297293 0 627.34094355297293 2223.6360873519707 0 0 0 0 -677.54069168199203 1263.5341931660191 0 1263.5341931660191 2276.8479879001966 0 0 0 0 -1115.3371916353426 573.21216787662161 0 573.21216787662161 1504.9174348738411 0 0 0 0 1302.0626233070871 1715.5412133829473 0 1715.5412133829473 994.00372221849102 0 0 0 0 -489.019515046788 267.44755304597652 0 267.44755304597652 681.13628945529308 0 0 0 0 -381.20166753210651 101.29029944344529 0 101.29029944344529 593.42309747662694 0 0 0 0 59.854654313399806 430.76901399648341 0 430.76901399648341 590.76429919153043 0 0 0 0 -223.37298924724746 227.01260290146683 0 227.01260290146683 1252.3325113991687 0 0 0 0 597.11547265395347 271.70860130552819 0 271.70860130552819 453.27432740903106 0 0 0 0 -4.6573659295727339 -207.72970646981997 0 -207.72970646981997 595.92546182191836 0 0 0 0 -214.28489725510008 183.47404946799816 0 183.47404946799816 561.69643948769499 0 0 0 0 -130.96102981150034 169.46226096396549 0 169.46226096396549 245.20568961626122 0 0 0 0 446.10821418204432 60.043583041168858 0 60.043583041168858 -531.86499317466041 0 0 0 0 -260.0621244701324 61.537498742375647 0 61.537498742375647 568.1015729856997 0 0 0 0 36.587252383603357 32.228744822345632 0 32.228744822345632 19.929635706308218 0 0 0 0 -188.50901815767065 29.005589313061137 0 29.005589313061137 -9.8790798522932164 0 0 0 0 32.915027869332022 35.315197101333638 0 35.315197101333638 18.129813285648343 0 0 0 0 -18.25212486345842 17.554789788786515 0 17.554789788786515 1.8756487303521876 0 0 0 0 -9.9069640956313378 133.5041403238053 0 133.5041403238053 20.22917404808959 0 0 0 0 104.29158913812716 241.22142529191751 0 241.22142529191751 -226.9822675826299 0 0 0 0 -511.13330638105981 112.63708180884032 0 112.63708180884032 220.45868239457013 0 0 0 0 -646.17463324566302 665.18093504931392 0 665.18093504931392 -286.27275496773166 0 0 0 0 -110.59492487345415 -148.1520897197779 0 -148.1520897197779 -17.061817105431146 0 0 0 0 -6.1825400355801037 7.1727539903093742 0 7.1727539903093742 -4.7431298019435122 0 0 0 0 -662.71684613649268 -225.59250901161931 0 -225.59250901161931 -4.1364552210579859 0 0 0 0 -159.48116203065729 664.34164525875212 0 664.34164525875212 908.79074212768182 0 0 0 0 288.62319043213211 519.09582240115924 0 519.09582240115924 471.89305548374932 0 0 0 0 -25.241792672612064 428.25472316983746 0 428.25472316983746 1098.9253915329432 0 0 0 0 178.62304625598881 179.71852469190719 0 179.71852469190719 712.5695867229897 0 0 0 0 152.27310595647577 222.28779766480568 0 222.28779766480568 776.42659287553602 0 0 0 0 -439.05756017743261 -64.780786926300038 0 -64.780786926300038 2270.7692086713869 0 0 0 0 -451.99147834654286 1138.9486680645414 0 1138.9486680645414 982.91748210461174 0 0 0 0 247.30990411784751 48.246092223066853 0 48.246092223066853 8.0470301397381263 0 0 0 0 -9.2424614339432765 18.207872788346798 0 18.207872788346798 -0.53247770087433466 0 0 0 0 7.5577165319594144 15.003421985512205 0 15.003421985512205 7.3413702005808936 0 0 0 0 95.337897276469448 -51.88945350398626 0 -51.88945350398626 -537.28574067966019 0 0 0 0 -34.481238215819758 139.03509124020547 0 139.03509124020547 -66.76740479932414 0 0 0 0 6.3523356593941571 68.677983912941954 0 68.677983912941954 274.79568527835772 0 0 0 0 225.12831346497114 169.51079637707426 0 169.51079637707426 -64.816024372625691 0 0 0 0 125.60111659750692 276.17203421290878 0 276.17203421290878 -182.55556042375338 0 0 0 0 -92.313134139942122 -84.947713865775995 0 -84.947713865775995 -302.80578240651084 0 0 0 0 -108.46561155084055 586.38296861096114 0 586.38296861096114 -94.988753317059491 0 0 0 0 24.001065638137334 253.3482556554859 0 253.3482556554859 417.71473385769787 0 0 0 0 1037.179927442121 935.98107747908193 0 935.98107747908193 501.12961035042508 0 0 0 0 144.64018078012759 759.21238382071851 0 759.21238382071851 767.0893374150437 0 0 0 0 3.0998968720743107 -2.5214046355205824 0 -2.5214046355205824 1.3170789632390694 0 0 0 0 -94.943002772939508 26.44652114267592 0 26.44652114267592 180.50395725208364 0 0 0 0 -166.83984422268986 225.26868069128022 0 225.26868069128022 20.868003477856291 0 0 0 0 -51.998335495784431 571.70623434467598 0 571.70623434467598 370.47973778473533 0 0 0 0 -180.49824722752965 139.02465072733594 0 139.02465072733594 74.83565476926151 0 0 0 0 -469.07029809114465 599.91938624741579 0 599.91938624741579 -347.2213245554085 0 0 0 0 100.29007232829827 -30.840221257592475 0 -30.840221257592475 -1348.1601700712672 0 0 0 0 -3.0145588532681131 4.2254032786514415 0 4.2254032786514415 -4.2959442439848168 0 0 0 0 -452.17127264766168 194.77394092054055 0 194.77394092054055 -437.00909471018895 0 0 0 0 -316.07609236861754 -41.61841457940136 0 -41.61841457940136 -295.07475482313748 0 0 0 0 -923.41607201753141 148.17191120973894 0 148.17191120973894 428.69261864309919 0 0 0 0 -537.91235899900494 348.33828983996136 0 348.33828983996136 -179.8981996990251 0 0 0 0 -502.23756727222644 518.00879563624585 0 518.00879563624585 626.785436068114 0 0 0 0 -109.89863668350154 266.94523480345561 0 266.94523480345561 244.87342144449394 0 0 0 0 394.1397598871481 494.5351831443661 0 494.5351831443661 341.96129411557922 0 0 0 0 -120.66709090469521 674.98656573363496 0 674.98656573363496 684.96259429253223 0 0 0 0 -628.58950882564386 -481.64705562532345 0 -481.64705562532345 1171.9061330855661 0 0 0 0 -624.6378936161309 -381.13761172515569 0 -381.13761172515569 -110.65360353092728 0 0 0 0 -1320.5750005700229 -360.28129912769145 0 -360.28129912769145 113.67344107235294 0 0 0 0 -129.73146317553255 354.23955181729571 0 354.23955181729571 536.28082136016565 0 0 0 0 201.51327942715579 235.67880406865061 0 235.67880406865061 147.71292917582105 0 0 0 0 -276.29657956344454 -6.9187603750369817 0 -6.9187603750369817 74.511974300295861 0 0 0 0 55.889528124898789 -792.33496238854968 0 -792.33496238854968 -334.06717163857866 0 0 0 0 -471.90903327161868 341.38135528672547 0 341.38135528672547 -537.5658834248552 0 0 0 0 204.23393773443968 586.03378325098129 0 586.03378325098129 -888.0025966387584 0 0 0 0 147.32614522119547 -169.65234204723311 0 -169.65234204723311 -874.10001945789418 0 0 0 0 131.48294602443093 323.01544114518651 0 323.01544114518651 -130.95181412374222 0 0 0 0 5.8649438482243568 590.01605635732449 0 590.01605635732449 773.7287837847764 0 0 0 0 -177.82288831810001 81.154340287146624 0 81.154340287146624 -210.68070308728056 0 0 0 0 -50.439425378717715 53.122674347905559 0 53.122674347905559 -217.69650898379768 0 0 0 0 -368.38447699145763 -187.87715099488742 0 -187.87715099488742 -138.62429057460395 0 0 0 0 -10.538929754256969 18.574328905217044 0 18.574328905217044 13.340027887852557 0 0 0 0 -10.272670051113209 4.9392879432771295 0 4.9392879432771295 1.0707028356062693 0 0 0 0 -132.06863219701336 221.57676192018334 0 221.57676192018334 -277.03546155418167 0 0 0 0 -8.0026780568577465 15.69398774904672 0 15.69398774904672 -0.80826561965941579 0 0 0 0 34.715160573716275 -192.09186176982985 0 -192.09186176982985 -149.84761815591355 0 0 0 0 -43.97483540403482 82.914197243448143 0 82.914197243448143 -75.677221673620807 0 0 0 0 -696.7971874742725 -60.559853036180357 0 -60.559853036180357 9.3095495781089994 0 0 0 0 -760.34350895500029 79.729505429722849 0 79.729505429722849 115.33986029372318 0 0 0 0 -5.8960442199607144 11.792638557109697 0 11.792638557109697 -10.42936085188456 0 0 0 0 -406.74973944861267 26.020209882604831 0 26.020209882604831 9.4125875333993463 0 0 0 0 -658.8755809465365 77.792210421248456 0 77.792210421248456 68.808536687920423 0 0 0 0 -649.48494629723427 161.69709120086918 0 161.69709120086918 163.17569273589834 0 0 0 0 -8.3875583543299399 2.7574157622701279 0 2.7574157622701279 10.820761105111565 0 0 0 0 -564.75582794181537 256.16107596149413 0 256.16107596149413 0.16551500436162314 0 0 0 0 -13.804285891017571 -239.9135764424318 0 -239.9135764424318 230.14473831621945 0 0 0 0 -584.49552193166892 237.78640220323905 0 237.78640220323905 96.894067046885539 0 0 0 0 -398.4523506644764 129.70055109437089 0 129.70055109437089 -38.832928978717973 0 0 0 0 -52.692437704623444 31.708558146108771 0 31.708558146108771 191.90833841056883 0 0 0 0 -23.052139436884858 14.596723770025552 0 14.596723770025552 5.7568277858511543 0 0 0 0 -127.90049461404487 -34.118293305767338 0 -34.118293305767338 230.54581486117968 0 0 0 0 85.563962875952711 -29.759574132851412 0 -29.759574132851412 171.21511261311389 0 0 0 0 -103.9306452061137 109.70965868508029 0 109.70965868508029 137.5675262468194 0 0 0 0 -245.15387481870494 216.12853963740145 0 216.12853963740145 31.392118399079664 0 0 0 0 -45.228853619963047 186.78080356120245 0 186.78080356120245 -305.45872704955946 0 0 0 0 -354.21090552065289 21.630371734647269 0 21.630371734647269 440.85771944447515 0 0 0 0 -3.1983193509872621 0.48881600841041362 0 0.48881600841041362 5.7028858372190783 0 0 0 0 -113.79161329229464 789.85529718002363 0 789.85529718002363 -295.07766238469912 0 0 0 0 -159.35695299222425 633.17467229707472 0 633.17467229707472 499.41420165953969 0 0 0 0 757.76699991496571 637.13309842948547 0 637.13309842948547 168.77500730586326 0 0 0 0 379.31316992169013 632.82523411504917 0 632.82523411504917 266.80489586786643 0 0 0 0 424.57394076540368 594.11995065327574 0 594.11995065327574 -226.65574788795493 0 0 0 0 47.594131142464903 248.23734240403519 0 248.23734240403519 66.348205116570171 0 0 0 0 257.66607539277902 568.1482043498745 0 568.1482043498745 245.00659687779171 0 0 0 0 -128.83747644514369 471.28360581893321 0 471.28360581893321 81.417598829172505 0 0 0 0 -489.10040990711786 69.954437360214797 0 69.954437360214797 -55.105527020848967 0 0 0 0 779.28672718956659 549.42153144192707 0 549.42153144192707 403.91068987191102 0 0 0 0 584.58705290552462 480.08534256412167 0 480.08534256412167 432.00373992097866 0 0 0 0 264.46811886516298 387.77230586920905 0 387.77230586920905 436.26614613167112 0 0 0 0 3.1893429321448536 -0.34550785690897357 0 -0.34550785690897357 -0.30438578333458111 0 0 0 0 915.03286091149494 756.49484635450062 0 756.49484635450062 320.51183779802341 0 0 0 0 807.30982730616233 517.3748038214253 0 517.3748038214253 187.94875134630274 0 0 0 0 668.86530828585455 683.22420438821518 0 683.22420438821518 921.62364951368363 0 0 0 0 797.91446650974831 807.49350273211894 0 807.49350273211894 316.94625825253752 0 0 0 0 372.31412972386897 102.13318715343303 0 102.13318715343303 772.99934578825923 0 0 0 0 191.02041521554202 -522.9619711576488 0 -522.9619711576488 884.13555942504536 0 0 0 0 164.78825081734976 343.41136502946028 0 343.41136502946028 1121.562151146325 0 0 0 0 208.25316895764263 -532.05162696068328 0 -532.05162696068328 319.60961203324769 0 0 0 0 174.26861815630855 345.30196821432628 0 345.30196821432628 184.32571254345748 0 0 0 0 -7.0199778298324418 -1.5596079253686206 0 -1.5596079253686206 -2.4965389791920369 0 0 0 0 -184.25714746892481 -116.93241441123064 0 -116.93241441123064 644.35839327848407 0 0 0 0 -263.7325550648311 97.468797363479098 0 97.468797363479098 398.07013970312983 0 0 0 0 -217.78716772745247 90.711245047365082 0 90.711245047365082 393.61843656451947 0 0 0 0 -349.84563119332597 246.72784429126659 0 246.72784429126659 509.98877237614215 0 0 0 0 12.919011151832819 387.46358468574363 0 387.46358468574363 468.57378401739652 0 0 0 0 20.174212621954211 338.88604682591358 0 338.88604682591358 92.88846825562814 0 0 0 0 352.7229073011149 332.42893769675084 0 332.42893769675084 143.56471878062439 0 0 0 0 56.966088742539796 228.80467045383011 0 228.80467045383011 135.37619720659859 0 0 0 0 -169.21738271642971 135.74651460006862 0 135.74651460006862 165.79229336064236 0 0 0 0 -234.10796370825119 486.22018977756989 0 486.22018977756989 -305.31958997645779 0 0 0 0 -312.30910069830952 203.77787660120543 0 203.77787660120543 78.959858746558893 0 0 0 0 305.56130345424026 645.77977209180972 0 645.77977209180972 -606.71864656745856 0 0 0 0 32.037485168708372 119.82232308508173 0 119.82232308508173 -221.82316171268394 0 0 0 0 336.19890922067134 403.98863105902547 0 403.98863105902547 15.168730113298807 0 0 0 0 288.25168964588374 807.70208824710789 0 807.70208824710789 474.49979581919979 0 0 0 0 505.11141468612914 397.23990781665452 0 397.23990781665452 -26.537244996416121 0 0 0 0 341.9297185101459 484.8269746912556 0 484.8269746912556 397.2179724764901 0 0 0 0 660.36001392952312 544.87315969786141 0 544.87315969786141 109.29564793195459 0 0 0 0 664.54178744819365 185.42913244777264 0 185.42913244777264 56.304082189505607 0 0 0 0 364.0000121100602 436.23508222528653 0 436.23508222528653 401.53863273200477 0 0 0 0 632.02971065291786 466.97771896594713 0 466.97771896594713 -5.0542311488898122 0 0 0 0 462.8208224537957 41.602734424137452 0 41.602734424137452 -207.33351214427876 0 0 0 0 -114.9875826102907 51.964437313750295 0 51.964437313750295 123.22072403869606 0 0 0 0 122.28161859881948 293.61032813765632 0 293.61032813765632 230.85410397094893 0 0 0 0 158.91210310723545 222.40148058167506 0 222.40148058167506 128.77288406904336 0 0 0 0 -59.019401814286539 -121.02147536798657 0 -121.02147536798657 1.1616095011540892 0 0 0 0 -3.1429899182178644 2.8364022925091916 0 2.8364022925091916 5.4193765624600232 0 0 0 0 150.31529461596801 839.15857211667753 0 839.15857211667753 2223.4637387322218 0 0 0 0 243.77207677469414 176.81658885370052 0 176.81658885370052 30.356717615512025 0 0 0 0 74.031606142612873 147.41280067554726 0 147.41280067554726 401.0492962785479 0 0 0 0 1.7296374732245283 5.7835018660515374 0 5.7835018660515374 -1.6455951664079791 0 0 0 0 -5.588476943005297 4.3730842123392719 0 4.3730842123392719 -6.7578096065512767 0 0 0 0 -118.44991613255206 127.96084934263172 0 127.96084934263172 74.384166145002382 0 0 0 0 120.26211995044332 316.7600440614608 0 316.7600440614608 220.84566249309137 0 0 0 0 615.12548117477127 644.97551315039891 0 644.97551315039891 331.75259732285485 0 0 0 0 79.659793779617758 -64.092570492284722 0 -64.092570492284722 -94.632783615630615 0 0 0 0 -76.886678965696774 -111.74300990183838 0 -111.74300990183838 -61.562680032146091 0 0 0 0 -17.176899529797083 -449.11826559616384 0 -449.11826559616384 -1136.5251351720253 0 0 0 0 -6.1793464714573929 57.621554212185401 0 57.621554212185401 -8.5638205473062499 0 0 0 0 -3.4523548195371063 20.48310546629488 0 20.48310546629488 -27.846938432109166 0 0 0 0 -23.855777316310935 23.212563957988209 0 23.212563957988209 -17.764519481437851 0 0 0 0 -24.243305680571211 46.146328605400413 0 46.146328605400413 -10.897552922977411 0 0 0 0 -24.233665683717845 42.81321005662312 0 42.81321005662312 5.7356006840700502 0 0 0 0 15.596388438684237 44.050455593828886 0 44.050455593828886 -33.425500669059048 0 0 0 0 -28.729553977800606 62.318224413309736 0 62.318224413309736 -6.2081087278675113 0 0 0 0 -9.4284945140461787 88.48083368773041 0 88.48083368773041 -101.27511173708808 0 0 0 0 -13.893079536648699 35.157177782574834 0 35.157177782574834 33.188912008941699 0 0 0 0 -0.41588925755786477 31.637995976237107 0 31.637995976237107 -45.465115984992735 0 0 0 0 3.6687109318150704 35.344966977206973 0 35.344966977206973 -22.507855979040695 0 0 0 0 11.425198862147226 67.286545827204463 0 67.286545827204463 -35.649620898433568 0 0 0 0 11.004882083696216 50.159916314192934 0 50.159916314192934 -24.144254044848633 0 0 0 0 -5.0829778322950006 59.447866962247645 0 59.447866962247645 -53.143997173097887 0 0 0 0 -11.264535373107947 64.275119676303788 0 64.275119676303788 15.686574951345468 0 0 0 0 -4.7065155943637365 96.355856279936688 0 96.355856279936688 -83.927435240124396 0 0 0 0 -25.159913726206526 70.242610138141004 0 70.242610138141004 16.009905434470738 0 0 0 0 -24.053841675893636 121.34537905012257 0 121.34537905012257 -94.051720366307563 0 0 0 0 -92.89488240400533 107.96216953451949 0 107.96216953451949 24.048618453820382 0 0 0 0 24.50995002201924 100.97329609696085 0 100.97329609696085 29.993764892071653 0 0 0 0 4.5622436150079011 106.68334636795953 0 106.68334636795953 -9.6073280710261315 0 0 0 0 26.265017410343091 64.843998787251962 0 64.843998787251962 -16.644223232405892 0 0 0 0 25.086902762239333 102.93619740461327 0 102.93619740461327 -17.361591207787569 0 0 0 0 8.8727106688080539 123.46067005435646 0 123.46067005435646 32.83966877733846 0 0 0 0 2.8550777654538138 52.646382429817734 0 52.646382429817734 16.30753961910316 0 0 0 0 9.5899385252687495 88.347685863848682 0 88.347685863848682 22.284611899619591 0 0 0 0 7.4304650566009514 105.89519104786268 0 105.89519104786268 -33.252998763822688 0 0 0 0 22.886939497617107 66.772898447153679 0 66.772898447153679 -16.230725975070538 0 0 0 0 -11.368667110233218 96.926440296054352 0 96.926440296054352 -33.955864618625128 0 0 0 0 38.23812720279966 41.653742334974595 0 41.653742334974595 -103.06770388090808 0 0 0 0 5.0640394159365343 60.877013396580395 0 60.877013396580395 -72.62659572083399 0 0 0 0 9.5143219653418782 101.67156478209566 0 101.67156478209566 -36.821220095278477 0 0 0 0 42.745483510407212 209.1906771604481 0 209.1906771604481 -98.20786625706387 0 0 0 0 138.32906764686049 234.73290270162579 0 234.73290270162579 -202.30538700131547 0 0 0 0 294.18419576873566 398.28717443823371 0 398.28717443823371 41.617726948137715 0 0 0 0 158.8588245860883 165.23495250299675 0 165.23495250299675 388.48296430762275 0 0 0 0 46.328629578027176 364.80397443545644 0 364.80397443545644 326.96514947168907 0 0 0 0 341.89343992198701 19.350239729157693 0 19.350239729157693 -107.65385438498652 0 0 0 0 -6.8636517598369835 2.5033501497377895 0 2.5033501497377895 -11.909003486792749 0 0 0 0 1188.1064519989377 1513.763542108718 0 1513.763542108718 -172.96038318422688 0 0 0 0 166.13563931302633 246.11894576625491 0 246.11894576625491 -793.34847301675109 0 0 0 0 109.42715520698403 -780.17189459407382 0 -780.17189459407382 1450.0620505551415 0 0 0 0 5.6672623699930398 10.776115791881141 0 10.776115791881141 13.87029444490647 0 0 0 0 -973.81282714880945 81.793143956600034 0 81.793143956600034 1631.790966184577 0 0 0 0 124.32955445963819 -22.623624270130762 0 -22.623624270130762 544.9630542105042 0 0 0 0 -84.918239435733994 170.27687635306938 0 170.27687635306938 416.69987460123502 0 0 0 0 -123.53108309885647 93.083352671506873 0 93.083352671506873 266.53933194719502 0 0 0 0 -227.12011533616169 221.9581909257322 0 221.9581909257322 254.68709445856075 0 0 0 0 39.70185681886835 121.80805508232228 0 121.80805508232228 181.14809905841636 0 0 0 0 -227.77141805745487 195.36369513989121 0 195.36369513989121 232.54999143718305 0 0 0 0 -330.28724364902155 223.32883979088183 0 223.32883979088183 334.76343530425765 0 0 0 0 -137.04464815654137 99.493941934891154 0 99.493941934891154 217.54775288817473 0 0 0 0 -125.88890655663272 249.59625231079917 0 249.59625231079917 54.797847695481323 0 0 0 0 -80.481797169126764 -10.66563173416057 0 -10.66563173416057 67.567699433944426 0 0 0 0 -292.32857029548177 398.46404150902345 0 398.46404150902345 162.73989587737833 0 0 0 0 -92.741368629420322 181.34767749061302 0 181.34767749061302 97.196787555563787 0 0 0 0 8.7616844801126206 78.058405019492383 0 78.058405019492383 144.93060932027436 0 0 0 0 -32.805941258007806 425.55593636788944 0 425.55593636788944 -108.36604180518771 0 0 0 0 -11.473635667305189 91.688245179299656 0 91.688245179299656 76.112389366864775 0 0 0 0 -71.146314793062629 164.8284820606932 0 164.8284820606932 87.148760402054904 0 0 0 0 47.314176093116302 93.658572748672981 0 93.658572748672981 87.573743174839706 0 0 0 0 -96.812223216329585 128.4002410346402 0 128.4002410346402 229.49651690046267 0 0 0 0 -37.981951360197854 145.29416910128202 0 145.29416910128202 -91.871009652946668 0 0 0 0 -33.166617745067924 149.60227915288669 0 149.60227915288669 33.698832045205563 0 0 0 0 -20.957523831313779 23.817495010014312 0 23.817495010014312 19.349676931949908 0 0 0 0 35.976301418862015 87.37659410652185 0 87.37659410652185 81.985394976091257 0 0 0 0 77.449939705664292 16.625781043811003 0 16.625781043811003 100.01563273265492 0 0 0 0 63.469553110677225 177.13719128012781 0 177.13719128012781 44.758328841417097 0 0 0 0 -67.117978729773313 206.58915933802928 0 206.58915933802928 -89.242992515159131 0 0 0 0 -36.899344109990899 96.084584837710736 0 96.084584837710736 33.77715345310969 0 0 0 0 -0.81029058778949548 153.96561111910341 0 153.96561111910341 -120.18050569503976 0 0 0 0 371.2944795016665 -34.070199319976382 0 -34.070199319976382 33.452103758638259 0 0 0 0 -15.106255360048294 29.415386043573136 0 29.415386043573136 10.283760012194172 0 0 0 0 -82.695089562912472 315.51719551231508 0 315.51719551231508 -164.34307458229887 0 0 0 0 -28.703304507830836 69.331169183346361 0 69.331169183346361 41.832878328845403 0 0 0 0 -89.349508960935054 134.31820237998181 0 134.31820237998181 19.862132133010164 0 0 0 0 7.7864885392336873 131.12553341276725 0 131.12553341276725 -6.2248666381383373 0 0 0 0 -48.326171933498699 97.359580846197787 0 97.359580846197787 16.495815610629506 0 0 0 0 -20.159150625753682 103.30560553260148 0 103.30560553260148 -373.59070366000924 0 0 0 0 -16.288012581035332 6.7377141986686837 0 6.7377141986686837 2.0197734380023746 0 0 0 0 -188.56597296882683 173.50995259040064 0 173.50995259040064 -318.13209062229362 0 0 0 0 -69.200027682039945 39.595033927471377 0 39.595033927471377 554.23656814307833 0 0 0 0 -26.884216916529112 142.88414734395883 0 142.88414734395883 350.24304165610374 0 0 0 0 -24.96806150773773 74.603838459839608 0 74.603838459839608 226.49117382615077 0 0 0 0 -113.34380899884854 160.6909481459661 0 160.6909481459661 321.73619998542563 0 0 0 0 -96.11438904805982 169.01860891900651 0 169.01860891900651 238.16622532006295 0 0 0 0 -53.228063798233052 198.45537430271179 0 198.45537430271179 199.50533854332753 0 0 0 0 -102.95548900499125 233.31496638933095 0 233.31496638933095 223.71197646297696 0 0 0 0 -113.93462869126233 216.85445089443238 0 216.85445089443238 288.34195618487865 0 0 0 0 -74.766596107387159 177.66983101099322 0 177.66983101099322 409.3260207100102 0 0 0 0 -85.482374961065943 295.60145771266252 0 295.60145771266252 255.05181204075052 0 0 0 0 -36.098542480540345 268.90492405842633 0 268.90492405842633 163.14569273422239 0 0 0 0 -63.768542517311289 324.32460519479355 0 324.32460519479355 133.13542689626047 0 0 0 0 -12.851536436442984 326.85955565442418 0 326.85955565442418 -53.759778508825548 0 0 0 0 2.5032105853315443 263.12520820911595 0 263.12520820911595 43.105519520562666 0 0 0 0 7.7235608854825841 244.07642364180901 0 244.07642364180901 113.02335331540053 0 0 0 0 -1.7726820734824287 259.03161662358298 0 259.03161662358298 91.05560666439851 0 0 0 0 -72.844635305416887 220.3893312145874 0 220.3893312145874 109.06765983884543 0 0 0 0 -56.18877069503651 268.19565825075188 0 268.19565825075188 235.3829640476597 0 0 0 0 6.3493360144129838 -135.09000374088782 0 -135.09000374088782 515.53342973226063 0 0 0 0 16.902039902044635 79.550177547773728 0 79.550177547773728 87.850951555754818 0 0 0 0 29.60098653701867 28.320302768085526 0 28.320302768085526 26.595804029421242 0 0 0 0 -231.15056058071059 117.25031698265229 0 117.25031698265229 46.538780428407335 0 0 0 0 57.631446111227078 117.25953451778547 0 117.25953451778547 127.35991140229406 0 0 0 0 20.345744396686115 56.668654038971226 0 56.668654038971226 63.967614591923187 0 0 0 0 -243.43901031836867 320.89821961169582 0 320.89821961169582 38.185899675896508 0 0 0 0 -170.7950844457082 51.7849009236038 0 51.7849009236038 201.83229013673565 0 0 0 0 -116.61791180649016 176.07309584540417 0 176.07309584540417 155.5038502881107 0 0 0 0 -82.010473612877831 232.88227179105706 0 232.88227179105706 37.816580746650288 0 0 0 0 -115.18531998971957 193.51693097042335 0 193.51693097042335 89.561282809721888 0 0 0 0 -228.31698839941237 164.77745634132225 0 164.77745634132225 242.38318073816436 0 0 0 0 49.285584272081906 30.210225618775439 0 30.210225618775439 221.37869012623696 0 0 0 0 -76.578306712817721 184.23126636059396 0 184.23126636059396 155.69408368687073 0 0 0 0 -150.5381156759031 35.908861941685245 0 35.908861941685245 304.52649647750422 0 0 0 0 40.928826390030736 102.1769159169196 0 102.1769159169196 92.397323302771838 0 0 0 0 28.104523628225017 77.80097391529435 0 77.80097391529435 98.724260200715975 0 0 0 0 25.832543050913955 79.15810689021896 0 79.15810689021896 67.497954982611645 0 0 0 0 0.8729382608726155 88.628741979449842 0 88.628741979449842 -19.977726578889815 0 0 0 0 16.955429403795279 106.12189360631555 0 106.12189360631555 104.48646906188969 0 0 0 0 -37.636051831171585 13.656069789481691 0 13.656069789481691 45.625523951953639 0 0 0 0 55.233931152884622 57.14399654002284 0 57.14399654002284 55.598448136871617 0 0 0 0 31.106867841815983 113.86066217593213 0 113.86066217593213 102.86003224978685 0 0 0 0 16.354837805702118 102.08567948159543 0 102.08567948159543 -43.343649820824794 0 0 0 0 23.945992355729686 173.11765654748524 0 173.11765654748524 -25.152839483162097 0 0 0 0 36.233176234512939 135.42272447839423 0 135.42272447839423 -140.6908670930934 0 0 0 0 54.019247417428119 91.667282326957107 0 91.667282326957107 88.013489395496222 0 0 0 0 51.404610680134184 89.478441841679569 0 89.478441841679569 66.814024311559294 0 0 0 0 -15.520814040894038 126.80335906604455 0 126.80335906604455 30.133899457092866 0 0 0 0 26.745212488283869 153.01058403849675 0 153.01058403849675 96.957712587549395 0 0 0 0 -307.0790732466703 531.04657931715519 0 531.04657931715519 -90.734184853146871 0 0 0 0 -376.1276368174731 695.98776945795544 0 695.98776945795544 -479.13928233468323 0 0 0 0 -194.63842531696719 230.60167354075384 0 230.60167354075384 -608.39872526416002 0 0 0 0 21.152725678373827 92.198739368381212 0 92.198739368381212 -227.26434496152729 0 0 0 0 57.672288921225118 199.196220021513 0 199.196220021513 -641.81230830868481 0 0 0 0 159.11033292548382 387.18251951709681 0 387.18251951709681 318.17829083287506 0 0 0 0 1.7769400934946589 5.6321684634663285 0 5.6321684634663285 10.11916373737273 0 0 0 0 681.37636650435161 250.85867931914254 0 250.85867931914254 352.01222381921616 0 0 0 0 28.970247766432294 118.06144160302938 0 118.06144160302938 922.47265466176032 0 0 0 0 -8.1533961126099257 2.3638875294417119 0 2.3638875294417119 15.821213202770004 0 0 0 0 4.0409281720158106 121.96793430606624 0 121.96793430606624 245.36986556765623 0 0 0 0 10.86814491514815 318.05824717704309 0 318.05824717704309 864.08098993048043 0 0 0 0 174.79377134336391 70.081136563952896 0 70.081136563952896 63.814335796716477 0 0 0 0 0.70146375138614303 1.4037882063602751 0 1.4037882063602751 -1.2864794663722137 0 0 0 0 -5.9850031663663685 552.65001892775763 0 552.65001892775763 160.42337547511852 0 0 0 0 24.020743301065522 242.18010723894349 0 242.18010723894349 -123.90304500423372 0 0 0 0 31.043487838440342 185.29888374376605 0 185.29888374376605 334.5900662378117 0 0 0 0 -14.556690562254516 591.45016826306528 0 591.45016826306528 -15.148793474916602 0 0 0 0 -659.20725052126363 511.31699819195637 0 511.31699819195637 -98.306622139883984 0 0 0 0 -711.90340579301119 505.80179338160087 0 505.80179338160087 -98.828850235364371 0 0 0 0 -198.50546891288104 487.56335897182089 0 487.56335897182089 -293.61211961318986 0 0 0 0 49.264318518718937 415.61934948444105 0 415.61934948444105 -296.14760061306151 0 0 0 0 -7.3322983884281712 407.47486609157022 0 407.47486609157022 -211.03343717589451 0 0 0 0 159.4313842614647 520.26419692668424 0 520.26419692668424 -265.0294474161642 0 0 0 0 302.37374047955382 135.75756033462358 0 135.75756033462358 -100.3133149747664 0 0 0 0 -7.9824040536663574 3.9018481593301715 0 3.9018481593301715 0.03771085209628211 0 0 0 0 -390.14717794887838 675.2318309144357 0 675.2318309144357 -247.43781721737469 0 0 0 0 -98.783904832751432 -21.207142659581223 0 -21.207142659581223 394.23836139890409 0 0 0 0 -598.6501195509918 224.13198771467614 0 224.13198771467614 364.97444671011544 0 0 0 0 46.946850031978101 89.218277668776864 0 89.218277668776864 425.67478537945863 0 0 0 0 -357.34340734210855 122.19676909109694 0 122.19676909109694 472.77373883654911 0 0 0 0 -181.05269582971232 235.34589184844299 0 235.34589184844299 352.4056665755852 0 0 0 0 -253.35557107463319 366.71317460858791 0 366.71317460858791 141.69846821680403 0 0 0 0 -157.81365630065557 306.52870408724993 0 306.52870408724993 120.09675346154472 0 0 0 0 -41.505237167322775 322.09235300395812 0 322.09235300395812 32.696979741893301 0 0 0 0 -74.478972163757135 306.02418594346636 0 306.02418594346636 35.022404323939554 0 0 0 0 -167.67910371223115 503.33678805888121 0 503.33678805888121 -288.05117428244102 0 0 0 0 -75.886514956189785 224.63702080428629 0 224.63702080428629 325.31859471043572 0 0 0 0 -157.45152160373982 369.08474026046679 0 369.08474026046679 196.17961360231129 0 0 0 0 -112.9676995138434 260.11787188202834 0 260.11787188202834 441.92425890206141 0 0 0 0 -28.206227026021224 199.5846009163688 0 199.5846009163688 336.10291992004022 0 0 0 0 -170.27621649041248 56.589864560661226 0 56.589864560661226 589.19767909489747 0 0 0 0 -101.22229152993532 61.679338112444384 0 61.679338112444384 924.60893806294916 0 0 0 0 5.7300331134465523 16.251086969572498 0 16.251086969572498 546.66376649886206 0 0 0 0 -15.460807230309001 7.3324844444562984 0 7.3324844444562984 3.3481772459822245 0 0 0 0 -344.55858724212885 394.52318755616034 0 394.52318755616034 -641.3042321525827 0 0 0 0 -98.643661620379135 251.72990837016823 0 251.72990837016823 -587.8544182368496 0 0 0 0 14.75177807394067 6.4609055003756168 0 6.4609055003756168 -17.650906163841228 0 0 0 0 132.71355746470363 80.595224921004046 0 80.595224921004046 -47.574481407031271 0 0 0 0 -508.56800109006872 641.14131745124905 0 641.14131745124905 -560.67500105520139 0 0 0 0 -221.68502099774196 564.0113700585207 0 564.0113700585207 -1339.5316522674912 0 0 0 0 -960.90501305300859 799.7361796527257 0 799.7361796527257 -519.73924559158695 0 0 0 0 11.538189424987223 5.9867117332202326 0 5.9867117332202326 -14.130856003212187 0 0 0 0 -809.37274723353767 871.80757638797695 0 871.80757638797695 -1091.8148570086996 0 0 0 0 -883.63216843269765 604.05297667151171 0 604.05297667151171 583.72545238422754 0 0 0 0 -1619.6243636141735 1138.8660814673385 0 1138.8660814673385 -857.92374916741392 0 0 0 0 -785.06553696217088 1135.1907312332551 0 1135.1907312332551 -329.88379037138657 0 0 0 0 -340.92826931212039 -161.34936530963751 0 -161.34936530963751 1459.2820249042725 0 0 0 0 132.73341109167814 -16.239070226205513 0 -16.239070226205513 590.36138270400261 0 0 0 0 -539.58126522228122 1259.2984512288967 0 1259.2984512288967 -1933.1059409054651 0 0 0 0 -5.9080277186116632 1.0773087211716899 0 1.0773087211716899 -0.029480523000803061 0 0 0 0 -81.3913306484028 45.510550650662481 0 45.510550650662481 474.17969935177325 0 0 0 0 -601.13267067764536 84.26952181040906 0 84.26952181040906 711.78611955325596 0 0 0 0 -91.297659513133112 17.063711499654801 0 17.063711499654801 549.80102895998425 0 0 0 0 -323.58906061133166 500.64099954453559 0 500.64099954453559 71.840932629274903 0 0 0 0 -712.60927828674903 1170.8034505041833 0 1170.8034505041833 -413.57561555946086 0 0 0 0 531.00164313563437 193.38037307798368 0 193.38037307798368 194.64106014911886 0 0 0 0 512.16875127104868 644.24850311112095 0 644.24850311112095 77.832799841679844 0 0 0 0 -10.147537119021877 7.8816771003612018 0 7.8816771003612018 -3.9095588034464583 0 0 0 0 1023.2127885889895 438.59817999873303 0 438.59817999873303 128.66050234599243 0 0 0 0 -1305.8377795268607 1334.4332265336889 0 1334.4332265336889 -173.17835961288438 0 0 0 0 5.9092100205083682 3.2531966228347073 0 3.2531966228347073 -6.6413111042384685 0 0 0 0 1550.2664282949881 -365.47048172351697 0 -365.47048172351697 -77.610258699598489 0 0 0 0 -1172.874565539998 801.14728175154596 0 801.14728175154596 -616.45515265506401 0 0 0 0 540.45290680032485 -35.17899650628533 0 -35.17899650628533 -77.850344176658837 0 0 0 0 548.28184641135158 -65.087300160197628 0 -65.087300160197628 20.619199022340581 0 0 0 0 827.87923646294075 168.6630914526595 0 168.6630914526595 -226.26812637754483 0 0 0 0 354.21570521117246 273.52383587447184 0 273.52383587447184 -183.22434253990014 0 0 0 0 415.88598541303509 194.64430786903722 0 194.64430786903722 -95.620992083393503 0 0 0 0 283.6084170009417 -0.80535524418519344 0 -0.80535524418519344 -74.387924997849041 0 0 0 0 158.95596204366302 379.36575047961378 0 379.36575047961378 -49.89629847840115 0 0 0 0 -0.15650201726384694 545.63086767756431 0 545.63086767756431 -223.12493660437758 0 0 0 0 382.1842117683409 333.90201786344369 0 333.90201786344369 -108.21540155755065 0 0 0 0 215.21304035166395 496.79316230632321 0 496.79316230632321 -212.72625195070441 0 0 0 0 337.03319413750432 315.20217477034385 0 315.20217477034385 -189.78409425419795 0 0 0 0 548.28845178239135 444.93165939330356 0 444.93165939330356 -216.5333537098486 0 0 0 0 253.28628601833043 497.8705498194031 0 497.8705498194031 -576.66417213005479 0 0 0 0 -4.7809788236378381 2.2589337381692687 0 2.2589337381692687 -0.21573132377751847 0 0 0 0 0.24443274980148999 136.39496086366853 0 136.39496086366853 253.87197398351418 0 0 0 0 298.7263092497451 -4.0418327497500286 0 -4.0418327497500286 -580.93889218625804 0 0 0 0 282.99613066195161 74.958292822942894 0 74.958292822942894 18.022432204312281 0 0 0 0 92.810708957683573 253.6674048749511 0 253.6674048749511 335.7611653606873 0 0 0 0 91.759248805479729 157.30570908172376 0 157.30570908172376 252.19626396501735 0 0 0 0 -0.11185355844564698 185.88802309623205 0 185.88802309623205 250.42656335941501 0 0 0 0 67.723015157345799 130.23129037206854 0 130.23129037206854 131.16950982916387 0 0 0 0 6.197881699714344 164.72931702967071 0 164.72931702967071 290.43811367581657 0 0 0 0 225.44561291457649 214.53743798319465 0 214.53743798319465 223.16668751412362 0 0 0 0 104.93909418143448 149.01495448752758 0 149.01495448752758 282.19949525562151 0 0 0 0 -13.768955323447301 9.3786215107748347 0 9.3786215107748347 -3.4056448503457233 0 0 0 0 -168.33131409858834 672.27470610715545 0 672.27470610715545 712.83228190994123 0 0 0 0 173.07541967759607 373.52350212860256 0 373.52350212860256 405.05496711421438 0 0 0 0 44.383224530291045 136.94644685717503 0 136.94644685717503 386.74490026165745 0 0 0 0 157.11817879050795 111.30058169006588 0 111.30058169006588 72.198227136954301 0 0 0 0 75.443232380144764 259.63808865950341 0 259.63808865950341 221.94599908641248 0 0 0 0 -4.0070111515669851 231.25029237721719 0 231.25029237721719 11.415519313864934 0 0 0 0 102.24504438376607 160.89288640009363 0 160.89288640009363 -129.15492342076686 0 0 0 0 -105.86263230475743 333.68345987141856 0 333.68345987141856 -248.26593964531276 0 0 0 0 166.89014961830253 197.97164471774977 0 197.97164471774977 -218.36187344519203 0 0 0 0 -43.655414139320783 207.22687840486105 0 207.22687840486105 -137.15892480219554 0 0 0 0 48.989813689593575 187.503464545518 0 187.503464545518 -252.43439504956496 0 0 0 0 -26.955356514503364 131.50087874808196 0 131.50087874808196 132.68735970632952 0 0 0 0 15.818229789481848 139.97461245944714 0 139.97461245944714 -105.77381293963481 0 0 0 0 0.060432486039644573 202.02455817764894 0 202.02455817764894 -65.425059504526871 0 0 0 0 19.469368806853055 8.7465078843530932 0 8.7465078843530932 -26.047315995879302 0 0 0 0 298.40532514962251 468.37450332117442 0 468.37450332117442 551.72189614834497 0 0 0 0 0.02967410339624621 23.812039851291047 0 23.812039851291047 -30.626937568394169 0 0 0 0 -15.569774219140527 430.82061122565938 0 430.82061122565938 -3771.4313111745432 0 0 0 0 -3.6266449045508011 5.7670172589883677 0 5.7670172589883677 -10.412419460450138 0 0 0 0 -14.96676629880676 1630.7829517218197 0 1630.7829517218197 -3326.5343444989776 0 0 0 0 -161.9244756638218 1750.9831234588273 0 1750.9831234588273 -2438.08187451103 0 0 0 0 -918.63812006264925 1482.3636411407861 0 1482.3636411407861 -2070.5423207406129 0 0 0 0 -62.592653497016727 376.79407006153906 0 376.79407006153906 -2128.3411439873307 0 0 0 0 -1896.1990917901567 2253.5777089126677 0 2253.5777089126677 -2202.110402043385 0 0 0 0 377.28767143564619 -13.612586328368252 0 -13.612586328368252 62.951253862629528 0 0 0 0 -592.3936862633127 3.3281863033917034 0 3.3281863033917034 -767.49925143655128 0 0 0 0 1598.4908617017209 -717.9482312855107 0 -717.9482312855107 -1331.5049790887588 0 0 0 0 4.2439313560372511 2.2735197036989803 0 2.2735197036989803 -0.29192179554550179 0 0 0 0 91.904932968820503 68.280553469710867 0 68.280553469710867 78.036996089547756 0 0 0 0 269.95887542296259 428.90835431087908 0 428.90835431087908 696.00626792635376 0 0 0 0 1002.6158459264843 260.33848266470523 0 260.33848266470523 -110.44120789325098 0 0 0 0 547.72379852815357 115.69978460483981 0 115.69978460483981 -105.89455363116872 0 0 0 0 571.32964327764785 137.77553358797741 0 137.77553358797741 -108.98974750234629 0 0 0 0 34.990157516826002 374.00595250192782 0 374.00595250192782 149.31673787863838 0 0 0 0 418.86926237444277 -735.45997658935266 0 -735.45997658935266 -1834.0792589487392 0 0 0 0 -47.868081114606014 45.982541731940344 0 45.982541731940344 -40.987895177015361 0 0 0 0 8.6935438743603299 227.9703218635259 0 227.9703218635259 67.501882807453512 0 0 0 0 776.54102783669077 1113.2281381470966 0 1113.2281381470966 63.85058011971887 0 0 0 0 -35.986296605973621 33.984523377599544 0 33.984523377599544 3.3854678697480267 0 0 0 0 -37.557267741238348 41.265030552530135 0 41.265030552530135 -40.380630003526306 0 0 0 0 -72.673321345428121 189.58519512891871 0 189.58519512891871 96.69662533961673 0 0 0 0 -51.205944290321895 0.48100002593491809 0 0.48100002593491809 319.02933744228358 0 0 0 0 -0.037766369991004467 23.851546975980455 0 23.851546975980455 -30.622773052344201 0 0 0 0 -0.44171125138709044 6.3199532339120879 0 6.3199532339120879 -7.8917938712058344 0 0 0 0 0.21640104824473383 217.63199414675546 0 217.63199414675546 -151.97649687749799 0 0 0 0 -60.318698572285939 306.94584871061306 0 306.94584871061306 61.969700257570366 0 0 0 0 113.69470887785428 423.20308356963506 0 423.20308356963506 19.99094351461099 0 0 0 0 -1.3491842560113128 -0.25804035495354327 0 -0.25804035495354327 0.24691983594055245 0 0 0 0 72.09526572725008 127.88457976356585 0 127.88457976356585 -670.23980064124044 0 0 0 0 20.473094243061496 403.12416606648912 0 403.12416606648912 596.21399663024567 0 0 0 0 108.37236239125195 199.05496639545163 0 199.05496639545163 394.98967756742422 0 0 0 0 -0.081049934837210458 295.84507544619555 0 295.84507544619555 331.92325144457573 0 0 0 0 120.183872694819 318.4865594048897 0 318.4865594048897 131.5929523917348 0 0 0 0 111.47483584957808 294.40249300303367 0 294.40249300303367 132.16398525158729 0 0 0 0 175.85289505787659 366.1593280874049 0 366.1593280874049 -87.86681286770181 0 0 0 0 0.28192605295043904 443.08141340891598 0 443.08141340891598 6.3809177288640058 0 0 0 0 198.7320312763768 199.66925552053362 0 199.66925552053362 -90.570180405002247 0 0 0 0 221.2833295740711 265.69687609467474 0 265.69687609467474 102.75098001187871 0 0 0 0 61.131985133135458 106.46504426985484 0 106.46504426985484 49.630865472918231 0 0 0 0 210.82929685385898 167.87381104769702 0 167.87381104769702 -9.9069895449283649 0 0 0 0 92.443867425463395 91.92183462282992 0 91.92183462282992 15.549094478543338 0 0 0 0 52.302543726269505 60.382542948809714 0 60.382542948809714 5.6384713614825159 0 0 0 0 47.419923911482329 85.259196396917105 0 85.259196396917105 36.478512581026735 0 0 0 0 129.65943462408904 205.10399740932098 0 205.10399740932098 86.532574029784882 0 0 0 0 100.1377594997175 186.76663857944914 0 186.76663857944914 222.47953703528765 0 0 0 0 103.25130270770751 -29.938240643692552 0 -29.938240643692552 -337.65131191934415 0 0 0 0 55.212457610708952 187.38926601547792 0 187.38926601547792 -192.38516056109802 0 0 0 0 -3.5515327022692418 1.4997786520624317 0 1.4997786520624317 -0.071706308155704335 0 0 0 0 -34.225966185418656 -89.981425569818384 0 -89.981425569818384 -98.80808776171034 0 0 0 0 -48.892633195298089 35.926046354733536 0 35.926046354733536 -21.678126728737936 0 0 0 0 -45.577041391414241 387.08028394008215 0 387.08028394008215 2552.1998298109756 0 0 0 0 -705.40319941347116 207.8104018571612 0 207.8104018571612 2511.8268445071299 0 0 0 0 -1701.1766210377682 1055.2227690572035 0 1055.2227690572035 3309.4207020013055 0 0 0 0 11.933091388375033 1227.9814560910745 0 1227.9814560910745 2513.9173266986327 0 0 0 0 63.577645297329582 103.22904561200721 0 103.22904561200721 -84.195293704273354 0 0 0 0 -1260.1259568780079 1084.9153214064427 0 1084.9153214064427 3267.1425755104938 0 0 0 0 -21.024728251087822 4.95442468902759 0 4.95442468902759 -0.30277097446228396 0 0 0 0 640.50889087258838 781.84895469155163 0 781.84895469155163 1960.3204570956586 0 0 0 0 168.63357322991942 191.03986056653957 0 191.03986056653957 2268.5756911214703 0 0 0 0 151.47839093656512 -15.705058433319209 0 -15.705058433319209 1713.3986146972456 0 0 0 0 238.43423225235165 256.69400290735211 0 256.69400290735211 1399.5709293127002 0 0 0 0 -14.81173551856773 141.59960575732111 0 141.59960575732111 569.45392955766874 0 0 0 0 258.81384310251451 339.42081469056666 0 339.42081469056666 236.42211093739024 0 0 0 0 -124.41373626101995 387.20843985627289 0 387.20843985627289 1378.1073465257177 0 0 0 0 235.64982909639366 115.94279652577825 0 115.94279652577825 -214.85562511414173 0 0 0 0 -18.48523677396588 803.38695429990184 0 803.38695429990184 412.38383077942854 0 0 0 0 116.12542786385166 608.091226029268 0 608.091226029268 1585.7359164211302 0 0 0 0 141.45634032152884 253.2890415040165 0 253.2890415040165 662.65466427482897 0 0 0 0 371.53323962943978 347.50845947564085 0 347.50845947564085 1303.1018825489446 0 0 0 0 1247.3569654391613 745.27523299597669 0 745.27523299597669 479.03561983685358 0 0 0 0 300.5357037258218 -592.36698577631614 0 -592.36698577631614 -1251.5822177373921 0 0 0 0 -282.26805046619847 -31.543237583508017 0 -31.543237583508017 -81.490026807092363 0 0 0 0 -59.888642105914187 24.728180182835786 0 24.728180182835786 13.832287868950516 0 0 0 0 -50.744350678403862 8.3127653361498233 0 8.3127653361498233 -22.783360953893862 0 0 0 0 5.2840961055206321 12.373299175943927 0 12.373299175943927 -8.5679595536828543 0 0 0 0 28.707386728317942 -88.932443719895673 0 -88.932443719895673 -113.86116669948387 0 0 0 0 -36.485643941115256 28.85040004728544 0 28.85040004728544 -17.186209669542308 0 0 0 0 152.55861814477248 -110.12433330094791 0 -110.12433330094791 -171.89283379517656 0 0 0 0 60.626379669774906 47.594113098621165 0 47.594113098621165 193.74330376691069 0 0 0 0 -5.101743678117316 8.1476314274899053 0 8.1476314274899053 -7.4268155515487138 0 0 0 0 43.126907528087031 61.481362200720469 0 61.481362200720469 13.238404890522361 0 0 0 0 1016.9809878089 1014.8657135627582 0 1014.8657135627582 1411.1552246381179 0 0 0 0 -27.013564812368713 45.921900382098102 0 45.921900382098102 10.880215417739237 0 0 0 0 82.069076969375601 64.098036281502573 0 64.098036281502573 -6.6945840637417859 0 0 0 0 -22.626625126489671 62.348721672275133 0 62.348721672275133 6.3461403776473162 0 0 0 0 5.8936103973828722 35.789418928179657 0 35.789418928179657 0.95611900229414459 0 0 0 0 -33.093218401350896 30.997986525602755 0 30.997986525602755 -39.974479093871196 0 0 0 0 -23.744896790678467 68.623801721549171 0 68.623801721549171 -27.205363045839476 0 0 0 0 -18.096267487970181 57.300394305915688 0 57.300394305915688 -2.5303140680371143 0 0 0 0 10.460224050839173 10.568707772965922 0 10.568707772965922 -19.699314128754509 0 0 0 0 -467.09920810742187 472.17967200508065 0 472.17967200508065 -281.29178037292149 0 0 0 0 -35.464772606355837 92.813482814090094 0 92.813482814090094 -656.05395263278115 0 0 0 0 111.81282236304105 44.581948281387668 0 44.581948281387668 -53.438557839996065 0 0 0 0 -860.18268300344062 394.63923114572754 0 394.63923114572754 -505.78350033092102 0 0 0 0 -60.559725192710175 273.83612792598797 0 273.83612792598797 -880.62624847523693 0 0 0 0 -574.29298792722693 760.02820679944489 0 760.02820679944489 -695.72983425387065 0 0 0 0 -1115.7903054211056 -160.22154313007195 0 -160.22154313007195 -2.5390843208442675 0 0 0 0 -5.3522967970251898 3.7345708878130424 0 3.7345708878130424 -3.8767807073554081 0 0 0 0 -41.700253920716932 292.34281630904297 0 292.34281630904297 -859.57565282624273 0 0 0 0 -344.82296962745022 8.3417785373458173 0 8.3417785373458173 -13.031748279393469 0 0 0 0 -173.10298717676778 86.05325298284879 0 86.05325298284879 -100.17682561793481 0 0 0 0 -2.8855646615154171 6.1488221260823366 0 6.1488221260823366 -8.2795761429382821 0 0 0 0 -903.2517656126056 1012.1089120052475 0 1012.1089120052475 -522.31187685770419 0 0 0 0 -48.977787665935466 428.77630112412953 0 428.77630112412953 -173.41626665576769 0 0 0 0 50.139903781644534 621.02745174599841 0 621.02745174599841 494.27943349967859 0 0 0 0 -524.65474064039881 771.51071260256867 0 771.51071260256867 495.16610706050415 0 0 0 0 -6.7533138447033707 2.8177354340550664 0 2.8177354340550664 1001.9277128135873 0 0 0 0 109.65779161214596 -46.122704603374586 0 -46.122704603374586 -81.775710384710692 0 0 0 0 -506.63930793810869 6.6368443281608052 0 6.6368443281608052 623.56816738397174 0 0 0 0 -864.15016915069282 69.012733744208163 0 69.012733744208163 190.38181435015576 0 0 0 0 -73.064360423304606 436.87655108861509 0 436.87655108861509 288.57661065257344 0 0 0 0 -46.633444123976005 532.54765097517611 0 532.54765097517611 1004.2872545105347 0 0 0 0 -367.39046659026644 -42.018615411147039 0 -42.018615411147039 1737.5767022474611 0 0 0 0 -57.218157897449657 19.323124214952912 0 19.323124214952912 -2.1844597204992411 0 0 0 0 -298.74539997700776 622.1093830821992 0 622.1093830821992 2406.8413552007332 0 0 0 0 -253.13399419339839 656.9865430187856 0 656.9865430187856 1575.00259791391 0 0 0 0 -81.754529706638209 29.730303922410215 0 29.730303922410215 -4.6271546722522174 0 0 0 0 -116.29710704821809 143.35316342507303 0 143.35316342507303 -184.34156610367063 0 0 0 0 -80.458025375584839 425.11606469335675 0 425.11606469335675 -539.84839029386058 0 0 0 0 -74.631203639117302 362.60574068639107 0 362.60574068639107 -339.3055411390651 0 0 0 0 -30.413487191572131 418.61053422518853 0 418.61053422518853 -559.20521834836109 0 0 0 0 -105.73619877902092 181.96447085703403 0 181.96447085703403 -954.95584357790358 0 0 0 0 -165.02626719188993 657.93934572843136 0 657.93934572843136 -667.19146949155038 0 0 0 0 -203.82348244389141 1068.3568074918985 0 1068.3568074918985 -694.62167754358961 0 0 0 0 256.35056857048767 523.98234252135444 0 523.98234252135444 -2118.3871332291419 0 0 0 0 -51.195782643306302 1111.9553601655207 0 1111.9553601655207 -1294.5406633967359 0 0 0 0 -215.55913616095495 415.8588225110725 0 415.8588225110725 -641.54056514077092 0 0 0 0 -454.59255701258371 604.01989468520333 0 604.01989468520333 34.459506411811162 0 0 0 0 -4.5654391361749731 237.01804514940159 0 237.01804514940159 -214.8753208582275 0 0 0 0 -75.770438867082703 398.00256148445624 0 398.00256148445624 -435.62623512683058 0 0 0 0 -1.1101927676645573 120.15838280894241 0 120.15838280894241 -145.22241427251538 0 0 0 0 -210.10551504937757 473.00982299724274 0 473.00982299724274 -234.14772449408338 0 0 0 0 -112.61270175719983 168.94571606843601 0 168.94571606843601 111.73220200419746 0 0 0 0 296.88973474611703 923.67184169297252 0 923.67184169297252 -956.00258288011173 0 0 0 0 2.8599554634599826 7.6083791092520414 0 7.6083791092520414 -0.011175428341690719 0 0 0 0 -376.37909237960412 498.8783746243862 0 498.8783746243862 577.14759851002145 0 0 0 0 -4.85527813027403 7.1928030085956038 0 7.1928030085956038 0.67443013176395183 0 0 0 0 -505.32118822481425 -44.431900886986114 0 -44.431900886986114 881.31566591982164 0 0 0 0 -513.05983656735043 723.35934504136094 0 723.35934504136094 -1111.7929318320239 0 0 0 0 -3.5701655338103819 2.7999575690670042 0 2.7999575690670042 0.13127809839419413 0 0 0 0 -163.42420363545898 396.92267868950512 0 396.92267868950512 -816.49695085038547 0 0 0 0 -138.8475801040986 297.00874149579249 0 297.00874149579249 -410.52791062364122 0 0 0 0 -120.18770590247732 305.12382529372917 0 305.12382529372917 -418.67684290611214 0 0 0 0 -857.10557826924924 238.79401757453888 0 238.79401757453888 -179.15236956374429 0 0 0 0 -592.36590452797827 364.38205904686038 0 364.38205904686038 -200.09216555680905 0 0 0 0 -526.78052662362461 132.7710992264474 0 132.7710992264474 -380.35434490331136 0 0 0 0 -875.90539401292335 335.9653685860103 0 335.9653685860103 -421.11693042738989 0 0 0 0 -652.21157837989449 287.63267283472669 0 287.63267283472669 -218.95195766906181 0 0 0 0 -824.07479131988657 320.30036035538797 0 320.30036035538797 -176.67741783908423 0 0 0 0 -373.12548910430633 297.49644071861985 0 297.49644071861985 -263.94862793229549 0 0 0 0 -657.49142402264988 267.6090014336005 0 267.6090014336005 -203.24299815507402 0 0 0 0 -452.10984500562699 206.16457841333613 0 206.16457841333613 -240.85465476343234 0 0 0 0 -381.04467810150527 170.33151356282178 0 170.33151356282178 -236.49021367865498 0 0 0 0 -435.78492168162484 244.04390803292335 0 244.04390803292335 -193.17454127032033 0 0 0 0 -99.366239675244287 67.493225867654928 0 67.493225867654928 -67.353494862327352 0 0 0 0 -5.4453807087955965 -5.9956683476652017 0 -5.9956683476652017 -4.1474618293005676 0 0 0 0 -113.44763262337074 72.951138808843098 0 72.951138808843098 -62.575262229398504 0 0 0 0 -88.62414730855744 43.433237586872565 0 43.433237586872565 -185.8498868355673 0 0 0 0 -3.1553621161669128 -1.7756841129148881 0 -1.7756841129148881 -2.2566347322119213 0 0 0 0 -30.342722202697246 8.8708917536600325 0 8.8708917536600325 -19.823713921469448 0 0 0 0 -191.59441456085187 68.88482868716892 0 68.88482868716892 -36.388166925440601 0 0 0 0 -165.07029631924161 141.61839249174591 0 141.61839249174591 -103.93205833529646 0 0 0 0 -74.534147804690292 72.139800589917286 0 72.139800589917286 -112.81701686626911 0 0 0 0 -0.16727803087971438 -5.2927679777254752 0 -5.2927679777254752 -4.7405298127577282 0 0 0 0 -109.09964834414131 -121.94482172095013 0 -121.94482172095013 -383.90643037746486 0 0 0 0 -1024.2395438585227 -102.57320195061038 0 -102.57320195061038 -188.91681047943712 0 0 0 0 -507.43602437152367 179.74648468213672 0 179.74648468213672 -251.93528135278029 0 0 0 0 -719.58109126982163 -327.81562193363061 0 -327.81562193363061 -373.31092415882813 0 0 0 0 -868.2380926117512 -53.372541220353014 0 -53.372541220353014 -387.88949419527489 0 0 0 0 -1026.1787929232523 236.67691513243335 0 236.67691513243335 -212.86828945646766 0 0 0 0 -259.23835921140562 346.56055022218061 0 346.56055022218061 -437.79635088323676 0 0 0 0 -628.68124350340804 250.85404917912092 0 250.85404917912092 -445.30527374816302 0 0 0 0 -357.54281928631826 -85.094282573147211 0 -85.094282573147211 -498.61060400755377 0 0 0 0 -22.641328399447957 -30.672932149005646 0 -30.672932149005646 -164.97429604695208 0 0 0 0 -191.79632272500021 424.85815477317374 0 424.85815477317374 277.37316504245246 0 0 0 0 -94.161566852602448 27.454841684693079 0 27.454841684693079 -3.9431400459818065 0 0 0 0 -824.38459912486724 501.5960842014465 0 501.5960842014465 106.71261332282302 0 0 0 0 -812.23017772325693 137.17034430116837 0 137.17034430116837 928.57129754819471 0 0 0 0 -212.29540366747096 627.98122184913518 0 627.98122184913518 673.2434364388464 0 0 0 0 -353.23686581426591 291.76573563812417 0 291.76573563812417 114.16588443093042 0 0 0 0 35.620924208589713 388.63460868782568 0 388.63460868782568 289.37835750966769 0 0 0 0 -195.13870169421716 746.95747878866314 0 746.95747878866314 216.16809327466308 0 0 0 0 -28.470927361573558 472.20158641300441 0 472.20158641300441 -364.8221760399756 0 0 0 0 -65.879083175099368 590.14798163623755 0 590.14798163623755 65.175390816752042 0 0 0 0 -10.65415705392661 379.96821831156558 0 379.96821831156558 -426.59625741307627 0 0 0 0 -14.231549190139049 340.02595868613935 0 340.02595868613935 -176.88490191211167 0 0 0 0 -90.382063602162816 403.9564295251771 0 403.9564295251771 -322.75706711693056 0 0 0 0 38.361065486974603 86.036965785535301 0 86.036965785535301 -27.438614908389752 0 0 0 0 -117.07438810484746 277.61559835352273 0 277.61559835352273 -152.41701748034393 0 0 0 0 -61.749135276118977 118.86194240583973 0 118.86194240583973 -35.923107498732861 0 0 0 0 -45.973458577078418 105.45092833076342 0 105.45092833076342 -24.53475933622758 0 0 0 0 -174.79552241285455 257.82833922791906 0 257.82833922791906 -134.42974424012937 0 0 0 0 -192.22342276788549 399.34820477982066 0 399.34820477982066 -196.6406398020772 0 0 0 0 -13.521742473632912 102.68342285142717 0 102.68342285142717 -25.927951689227484 0 0 0 0 -604.5886708557955 338.66111002119942 0 338.66111002119942 99.337392623347114 0 0 0 0 -2.4486411296966253 116.62355577059316 0 116.62355577059316 -8.3791023154917639 0 0 0 0 17.783176458330573 96.612746059970164 0 96.612746059970164 -12.624852925355043 0 0 0 0 -389.30299459815433 375.31087732025117 0 375.31087732025117 21.742294863208372 0 0 0 0 -540.59450283510341 -422.84908649472345 0 -422.84908649472345 -103.18965582021337 0 0 0 0 -431.22093579762441 -108.08265511614445 0 -108.08265511614445 364.73806463105939 0 0 0 0 -87.872166150441501 49.005648970969446 0 49.005648970969446 -14.121478349362441 0 0 0 0 -388.34773688314817 22.159864940234911 0 22.159864940234911 -77.500311139810947 0 0 0 0 8.4254555940506819 80.124734420730846 0 80.124734420730846 -82.728392248623777 0 0 0 0 -334.42812513974786 270.71653469992452 0 270.71653469992452 122.58292602689471 0 0 0 0 -46.920242813612276 123.32635406283225 0 123.32635406283225 -160.20934741632664 0 0 0 0 -141.06376910133986 262.07612152084766 0 262.07612152084766 -241.44912428042153 0 0 0 0 -114.42554986421601 185.45412367963581 0 185.45412367963581 -95.603736207063776 0 0 0 0 -55.132238400299684 169.600495660663 0 169.600495660663 -213.31652906858653 0 0 0 0 -38.157332011534095 167.42010583001388 0 167.42010583001388 -390.68149585591163 0 0 0 0 -37.939478779298952 149.21414756702143 0 149.21414756702143 -194.22861841940903 0 0 0 0 -13.570535777078476 53.762925810588058 0 53.762925810588058 -288.01419342117151 0 0 0 0 -16.009543422405841 68.460603890620405 0 68.460603890620405 -362.09925090713659 0 0 0 0 -20.237068337197996 4.0524084081270217 0 4.0524084081270217 43.45536912847561 0 0 0 0 -243.56585967590217 -3.6752030990173807 0 -3.6752030990173807 -133.9713467808906 0 0 0 0 -2.5470263870996916 32.879053131570771 0 32.879053131570771 3.3588492782113519 0 0 0 0 -30.576932919910178 94.061293850798393 0 94.061293850798393 -143.88784654496703 0 0 0 0 -30.919239595576073 119.39017032575066 0 119.39017032575066 -140.27786503706011 0 0 0 0 -45.516483849831275 120.29070544954448 0 120.29070544954448 -84.239368716815079 0 0 0 0 -34.931296117254533 69.63064128824044 0 69.63064128824044 -176.93690150526527 0 0 0 0 -58.825929702434223 153.39846726904216 0 153.39846726904216 -156.97243211610476 0 0 0 0 11.258937699880335 56.608831801233464 0 56.608831801233464 -46.322934015170176 0 0 0 0 -0.72533932271471713 44.993208855827106 0 44.993208855827106 53.050653213580517 0 0 0 0 -41.927938043039433 46.889341299148093 0 46.889341299148093 -14.404831941746806 0 0 0 0 1.4927687646666641 25.036265088967752 0 25.036265088967752 -2.6296370153566571 0 0 0 0 -29.863735973038274 125.57515492365383 0 125.57515492365383 -7.2567153302225051 0 0 0 0 -49.135013279751178 98.531693945616809 0 98.531693945616809 -37.481651130037505 0 0 0 0 -21.046966501860879 115.77922616828255 0 115.77922616828255 -13.921312744379975 0 0 0 0 -22.39794570034428 113.16101738160069 0 113.16101738160069 7.6406671184377046 0 0 0 0 -20.006204855366377 127.42397109895683 0 127.42397109895683 39.11032494263236 0 0 0 0 -19.409209773610201 127.31248763411168 0 127.31248763411168 -16.564949286927003 0 0 0 0 -18.544256030683755 122.78302500311838 0 122.78302500311838 -29.374258474432281 0 0 0 0 -20.806370975013124 126.31956115577486 0 126.31956115577486 -17.303392783864183 0 0 0 0 -35.862109043522651 112.84534349482055 0 112.84534349482055 -9.6146178663911996 0 0 0 0 31.465099022560878 42.751655775194507 0 42.751655775194507 11.064234438242806 0 0 0 0 -26.149415064508503 106.85727716706242 0 106.85727716706242 -61.328991784437676 0 0 0 0 7.514268336504756 90.588734513792588 0 90.588734513792588 -103.52308805334178 0 0 0 0 39.71038017822606 33.074107033393204 0 33.074107033393204 -11.315109437519737 0 0 0 0 36.437700520647923 89.813729931564012 0 89.813729931564012 -56.925688042567344 0 0 0 0 34.355997202044819 142.25919697816425 0 142.25919697816425 -111.73455150482187 0 0 0 0 -7.1265764803611091 46.441172968847241 0 46.441172968847241 88.209623530856334 0 0 0 0 14.247703997967164 18.107020095450189 0 18.107020095450189 19.854212646184578 0 0 0 0 -47.88534599638524 142.85651194657271 0 142.85651194657271 -43.010545379453106 0 0 0 0 1.1168870311248611 105.19770214540677 0 105.19770214540677 -97.283100761364039 0 0 0 0 19.861037086491706 42.860883349203505 0 42.860883349203505 -18.851600540845538 0 0 0 0 -11.172476212326949 88.72580472375364 0 88.72580472375364 -50.917995900655342 0 0 0 0 -2.541906606786327 108.25602663332872 0 108.25602663332872 15.566677086360272 0 0 0 0 -10.061194249341497 68.229584631189937 0 68.229584631189937 -28.122672542725923 0 0 0 0 -8.5580321148408984 109.3555772598811 0 109.3555772598811 -124.49266421829816 0 0 0 0 3.4495227127193715 65.587981566294644 0 65.587981566294644 -29.875079835402779 0 0 0 0 9.6452754066976922 87.841037091111502 0 87.841037091111502 -179.56747103584348 0 0 0 0 19.148929395960295 40.238571203008178 0 40.238571203008178 9.710423850985535 0 0 0 0 12.12093527619578 50.515641537934229 0 50.515641537934229 -59.304970062481772 0 0 0 0 15.084208097716328 94.984882605262101 0 94.984882605262101 -48.055823826332926 0 0 0 0 -27.741887105046771 68.994347353975172 0 68.994347353975172 -34.468358191224979 0 0 0 0 3.8462333851202288 54.975522198946408 0 54.975522198946408 10.540665010882591 0 0 0 0 -72.05987568978162 158.3548689144809 0 158.3548689144809 -66.704552674258593 0 0 0 0 -6.5351389531209065 46.311272619566147 0 46.311272619566147 -42.276867892653655 0 0 0 0 36.100918678581365 65.465591116939322 0 65.465591116939322 -34.307698664759755 0 0 0 0 9.2783456506076618 96.292010620971269 0 96.292010620971269 -30.420451029617652 0 0 0 0 87.454182063993358 36.154662560322322 0 36.154662560322322 0.33354252303251997 0 0 0 0 104.81797014138283 23.325491019510082 0 23.325491019510082 -7.9164849130465882 0 0 0 0 -193.06489685179986 106.15193672932219 0 106.15193672932219 4.1624019324954133 0 0 0 0 20.274168780987115 40.767452618507747 0 40.767452618507747 -30.618605179630492 0 0 0 0 -48.801772779782368 76.925452141666028 0 76.925452141666028 -104.74251508528687 0 0 0 0 59.964607662604976 91.890292757987481 0 91.890292757987481 -131.69427967345109 0 0 0 0 5.2043458158324754 2.2743409357490094 0 2.2743409357490094 -1.2075981410939107 0 0 0 0 -154.45192465136643 114.70737447326246 0 114.70737447326246 -63.828000891226111 0 0 0 0 0.96004247998041592 5.0150742088798381 0 5.0150742088798381 1.7354864634634737 0 0 0 0 -79.698176524922019 4.4800991757074371 0 4.4800991757074371 44.917427745021996 0 0 0 0 7.2186299890288126 25.065283935839858 0 25.065283935839858 16.223793628470446 0 0 0 0 27.413399984245189 20.063698518715682 0 20.063698518715682 -3.0609591465617996 0 0 0 0 15.176448032545741 17.050184924056907 0 17.050184924056907 6.4511726240542657 0 0 0 0 -1.0545111769606592 22.936602003930602 0 22.936602003930602 -4.41812900853256 0 0 0 0 23.981303997362033 24.289952635249136 0 24.289952635249136 6.4453634155402 0 0 0 0 -170.19062073118403 66.444009628641652 0 66.444009628641652 58.349773850903148 0 0 0 0 -97.819496339798206 182.48167366798225 0 182.48167366798225 -72.266364087117836 0 0 0 0 -64.596248872563592 73.735973978793481 0 73.735973978793481 13.894316882622661 0 0 0 0 -1.4032161889626877 53.983762996351288 0 53.983762996351288 15.223745378738386 0 0 0 0 -0.33083864008307273 27.613011623791593 0 27.613011623791593 -0.29017281384186333 0 0 0 0 4.1056091558275511 52.091887934046099 0 52.091887934046099 25.41573791490373 0 0 0 0 76.696077683838666 36.868920719149173 0 36.868920719149173 2.4402490687862155 0 0 0 0 20.303772896763604 38.312368641864225 0 38.312368641864225 -15.186661352884016 0 0 0 0 66.416377459929208 -2.1250574169825995 0 -2.1250574169825995 -8.8364898197178263 0 0 0 0 28.616120271886757 20.338303374068346 0 20.338303374068346 -1.791468408802757 0 0 0 0 11.217958860618808 34.329932941128789 0 34.329932941128789 22.974114286380171 0 0 0 0 27.318761212314712 57.331065735197626 0 57.331065735197626 -45.984115189232398 0 0 0 0 8.5962811640347354 114.7559674828517 0 114.7559674828517 -20.909572993899928 0 0 0 0 -28.985655119446164 18.997003791679163 0 18.997003791679163 1.7134897757205181 0 0 0 0 -37.188512725806504 73.252263843787659 0 73.252263843787659 -0.97403886962274555 0 0 0 0 11.333156014156685 25.178129174457695 0 25.178129174457695 19.608174166708295 0 0 0 0 -13.347354943812206 46.611623413636153 0 46.611623413636153 -1.1390784334216733 0 0 0 0 -52.444389323420182 61.355526384111727 0 61.355526384111727 15.253427317432397 0 0 0 0 0.96576654438104015 60.206528158814763 0 60.206528158814763 -8.2744862695708434 0 0 0 0 19.964958180888907 26.29029475657579 0 26.29029475657579 -9.5155065020882716 0 0 0 0 -6.617879000107763 23.262037625185627 0 23.262037625185627 25.106060638402454 0 0 0 0 6.0799872752737159 26.088122486755992 0 26.088122486755992 20.424296101836205 0 0 0 0 -3.0263770698220469 35.480472091410775 0 35.480472091410775 24.575600937547279 0 0 0 0 0.88885374198343925 44.001323533686445 0 44.001323533686445 0.66156748580397107 0 0 0 0 -48.97602751485465 44.186901565790322 0 44.186901565790322 49.220144486811478 0 0 0 0 6.4838723770588871 20.848822128269617 0 20.848822128269617 25.467377241688155 0 0 0 0 -48.844461055363354 -1.0737003891263157 0 -1.0737003891263157 67.067626323638251 0 0 0 0 37.728023647396185 30.680943045772437 0 30.680943045772437 3.4913362778024748 0 0 0 0 -7.8135353992395267 2.1258450103475468 0 2.1258450103475468 6.5178089500194574 0 0 0 0 -200.76529558305629 614.40309275034087 0 614.40309275034087 -269.87727652241301 0 0 0 0 -30.813285380318121 44.788008255367458 0 44.788008255367458 -314.87866909850709 0 0 0 0 -12.777175968185475 40.211698901111959 0 40.211698901111959 27.814145079246373 0 0 0 0 0.26791133990161597 0.22730201367977543 0 0.22730201367977543 -0.52318240098620095 0 0 0 0 -32.082504852423881 -35.418591558626758 0 -35.418591558626758 269.90267857958679 0 0 0 0 -81.330605813709553 194.30675953139144 0 194.30675953139144 100.42352182610193 0 0 0 0 -143.45229756290792 169.70125343152904 0 169.70125343152904 -85.023313104160479 0 0 0 0 -90.500950956033194 181.64193004843401 0 181.64193004843401 -98.442174121169955 0 0 0 0 -79.001452696844353 195.36462755883986 0 195.36462755883986 -82.093334891094401 0 0 0 0 -140.66978345851385 150.45333631995891 0 150.45333631995891 -20.374246185325319 0 0 0 0 -91.81346919418138 183.87958127664024 0 183.87958127664024 -95.787851695670724 0 0 0 0 -30.595546385084162 174.14687786881768 0 174.14687786881768 -179.78889223268197 0 0 0 0 40.672851431838353 89.266244472499238 0 89.266244472499238 -117.78764555868838 0 0 0 0 27.243552830931876 63.315869720878567 0 63.315869720878567 -65.394416574240779 0 0 0 0 -139.14842176092498 425.12729608732479 0 425.12729608732479 -594.50910249036679 0 0 0 0 -107.12579018063479 152.69745276611138 0 152.69745276611138 -98.384878781071166 0 0 0 0 275.91666645909572 54.076574120706937 0 54.076574120706937 -73.151049148553284 0 0 0 0 17.554558765681577 -2.7239683149091434 0 -2.7239683149091434 -108.89291268533634 0 0 0 0 4.2494626389507459 0.44558143943683604 0 0.44558143943683604 -0.043740434465576072 0 0 0 0 18.273282031897537 50.717441641842811 0 50.717441641842811 -74.241854359389436 0 0 0 0 -85.026090573075635 105.24728147654241 0 105.24728147654241 -77.556173643664806 0 0 0 0 -121.29352972994093 82.457815490797657 0 82.457815490797657 -63.538185187615454 0 0 0 0 -15.813717950676278 25.594720346670528 0 25.594720346670528 -12.764573260291201 0 0 0 0 -102.70294785644001 84.833773003578244 0 84.833773003578244 -78.712134856032208 0 0 0 0 -31.332267754671193 71.12527121927269 0 71.12527121927269 -83.827914290726767 0 0 0 0 77.985888792100013 283.8741257093352 0 283.8741257093352 97.410353577070055 0 0 0 0 114.64865520333842 400.72064712428255 0 400.72064712428255 52.773856984247686 0 0 0 0 398.13958519928565 218.0309359656967 0 218.0309359656967 -252.58736277822754 0 0 0 0 178.72534056774748 -44.780190231773304 0 -44.780190231773304 -237.13376830581547 0 0 0 0 -404.34116111399635 212.43640435050838 0 212.43640435050838 -103.8213441863918 0 0 0 0 -391.17463918503563 234.29113912555476 0 234.29113912555476 -239.12273017734697 0 0 0 0 -687.03128685896536 348.35279445367814 0 348.35279445367814 -53.272656779838144 0 0 0 0 3.7682712482284941 4.6230448996746247 0 4.6230448996746247 -2.5492920080886279 0 0 0 0 0.21840145455193749 1.638094885762257 0 1.638094885762257 2.22669740627191 0 0 0 0 124.94809630104282 259.12245064276794 0 259.12245064276794 -143.65165442320722 0 0 0 0 176.07755048679246 97.858529636039748 0 97.858529636039748 -173.91951687057735 0 0 0 0 348.77785369609774 75.512608707409527 0 75.512608707409527 -207.48815080011263 0 0 0 0 252.46166996676766 153.37303752190201 0 153.37303752190201 -143.15125223976793 0 0 0 0 434.81021407713706 114.39672467474884 0 114.39672467474884 -135.70837747657788 0 0 0 0 237.23440727927664 345.96203678262827 0 345.96203678262827 51.308267312124372 0 0 0 0 33.765170236118138 170.79700410782971 0 170.79700410782971 -92.525420485646464 0 0 0 0 -208.34329803092987 294.11143323365832 0 294.11143323365832 191.25401993404193 0 0 0 0 -396.44454934018722 58.013463888499246 0 58.013463888499246 -99.352086858954863 0 0 0 0 -307.41593866639596 288.60389610675338 0 288.60389610675338 -95.573670923107784 0 0 0 0 0.33057215461437295 3.0342793353281934 0 3.0342793353281934 4.8196054892644611 0 0 0 0 -396.97473770019587 393.97820999841861 0 393.97820999841861 -149.7724097599712 0 0 0 0 -185.955316127689 164.25764288872233 0 164.25764288872233 -137.88809777953429 0 0 0 0 -102.0632997494904 312.3581778142543 0 312.3581778142543 -296.48869672056753 0 0 0 0 -342.97752796939312 42.986517562196241 0 42.986517562196241 -139.65729485545307 0 0 0 0 141.32156445994042 151.93880132802587 0 151.93880132802587 -218.17530095778056 0 0 0 0 135.17100588803441 139.42264466353663 0 139.42264466353663 -219.4833856470068 0 0 0 0 214.97551529232442 79.102744628956316 0 79.102744628956316 -184.99211492337054 0 0 0 0 221.50001236688695 143.83973846233857 0 143.83973846233857 -239.1134292477218 0 0 0 0 210.9572254219529 93.784116393406293 0 93.784116393406293 -278.21157979329291 0 0 0 0 53.734433389574406 129.51118011983635 0 129.51118011983635 -48.416355727465998 0 0 0 0 210.79874667948752 52.898061682699336 0 52.898061682699336 -146.93433073429333 0 0 0 0 237.39214835122402 120.58798470979673 0 120.58798470979673 -251.15359260563855 0 0 0 0 -285.12473960206262 321.11881377833924 0 321.11881377833924 -351.18469234928489 0 0 0 0 31.307385434602082 46.495477013246813 0 46.495477013246813 -63.488774066410542 0 0 0 0 -17.049065869464243 -0.39862217921867682 0 -0.39862217921867682 -9.7484923859922219 0 0 0 0 -122.22990830618073 60.279837584206689 0 60.279837584206689 -59.37133984335378 0 0 0 0 -961.67387987951224 671.7832796822986 0 671.7832796822986 -255.88407875770645 0 0 0 0 8.4443922863043497 -6.2617872173777016 0 -6.2617872173777016 -3.2908054822761414 0 0 0 0 -256.52438566935598 369.80854036523669 0 369.80854036523669 -330.73873014995479 0 0 0 0 327.82025113563577 8.0328385841276031 0 8.0328385841276031 -84.949307008544565 0 0 0 0 44.353519477520251 27.595768111596925 0 27.595768111596925 -49.04630982879155 0 0 0 0 283.99437589424997 -30.306797822117005 0 -30.306797822117005 -110.13155201727932 0 0 0 0 77.591836032104766 35.648925582792799 0 35.648925582792799 -305.75021895294776 0 0 0 0 -657.02747218226432 648.41312411430408 0 648.41312411430408 -3.9071891293206136 0 0 0 0 -59.329236295057854 52.3043390024283 0 52.3043390024283 -35.484341089931974 0 0 0 0 -558.95048372581368 962.8948937956302 0 962.8948937956302 1120.6851300444105 0 0 0 0 -161.33812067550025 141.98161200923641 0 141.98161200923641 -311.78338745934889 0 0 0 0 -162.28498065340682 469.68364747532178 0 469.68364747532178 -647.93761292613635 0 0 0 0 -169.09904353493766 349.74314920191682 0 349.74314920191682 517.54684093833202 0 0 0 0 -247.33103742229287 47.461951730725559 0 47.461951730725559 70.121685381804127 0 0 0 0 838.51227756837761 702.30342601342272 0 702.30342601342272 123.77533263049554 0 0 0 0 -542.70010052720318 2487.5419607132644 0 2487.5419607132644 1186.8578754482514 0 0 0 0 -367.0505276755066 499.05050439619117 0 499.05050439619117 541.59174786377116 0 0 0 0 -247.83929353757412 693.28342224852531 0 693.28342224852531 432.0354226185591 0 0 0 0 910.99076227273326 492.95092617714545 0 492.95092617714545 84.440088919945993 0 0 0 0 -130.94034218200613 571.48803168626546 0 571.48803168626546 166.33710977120791 0 0 0 0 -231.08976753466413 864.04471666479367 0 864.04471666479367 321.53005242165818 0 0 0 0 575.11895365815144 227.16558188802446 0 227.16558188802446 -14.967626779020065 0 0 0 0 6.4376657800445116 6.0795219559678912 0 6.0795219559678912 5.1309049686736898 0 0 0 0 -415.17164832216804 720.57692619352019 0 720.57692619352019 286.4929134549493 0 0 0 0 -442.26774142486101 187.37350866429915 0 187.37350866429915 -202.5738594676659 0 0 0 0 100.98486635356676 148.34565178600315 0 148.34565178600315 -178.36927147918323 0 0 0 0 211.05355720751686 609.58931610835134 0 609.58931610835134 47.813570275902748 0 0 0 0 58.855078345601214 364.36200376781926 0 364.36200376781926 -357.59003337056492 0 0 0 0 32.08041064212739 82.337294556113193 0 82.337294556113193 -439.99631301146292 0 0 0 0 67.848819425438705 43.841569968972181 0 43.841569968972181 354.72611311546643 0 0 0 0 680.66921762484981 65.549768973618029 0 65.549768973618029 403.22405427513877 0 0 0 0 651.99249625809898 915.99283957145235 0 915.99283957145235 315.73949749558233 0 0 0 0 275.74763011299365 440.33668603589467 0 440.33668603589467 60.174605675332714 0 0 0 0 2009.070169372455 -8.8018462990876287 0 -8.8018462990876287 -60.519353970477823 0 0 0 0 -5.774346841337703 9.5651603627566715 0 9.5651603627566715 -7.0623674714187246 0 0 0 0 2048.61730870881 678.45732448381023 0 678.45732448381023 267.76963732135482 0 0 0 0 434.11800055713684 589.46026438011904 0 589.46026438011904 1038.6605773450865 0 0 0 0 125.98175866500242 383.61814628131106 0 383.61814628131106 323.9644651026756 0 0 0 0 316.49674316614983 229.55347546241683 0 229.55347546241683 435.7018929720507 0 0 0 0 277.52148175019829 297.55819886627432 0 297.55819886627432 69.809260353737045 0 0 0 0 125.30254997807788 523.48013502452523 0 523.48013502452523 630.66604039781669 0 0 0 0 673.66968710088986 439.00459531275555 0 439.00459531275555 152.33736947079888 0 0 0 0 78.620323545888823 381.32720791851898 0 381.32720791851898 303.36569418231375 0 0 0 0 494.39791097669513 437.63261006135144 0 437.63261006135144 158.62418110325234 0 0 0 0 614.87523532540945 254.09646622312721 0 254.09646622312721 -28.837286195863271 0 0 0 0 383.47422979977273 -444.44205386276008 0 -444.44205386276008 43.613085240707733 0 0 0 0 18.209877813849062 7.1679442944601277 0 7.1679442944601277 -19.899910921063054 0 0 0 0 640.81253781137639 244.1467174278514 0 244.1467174278514 159.18704149452969 0 0 0 0 490.07400629631593 252.51549066856387 0 252.51549066856387 171.43045503727626 0 0 0 0 -449.73487018625747 297.93876642583928 0 297.93876642583928 353.19882748596137 0 0 0 0 -104.14738697713619 391.39327215468074 0 391.39327215468074 350.73675408095005 0 0 0 0 -221.64029079079046 237.77474495492061 0 237.77474495492061 193.9038798741085 0 0 0 0 -156.69093589347904 198.3957569845079 0 198.3957569845079 398.22670646909683 0 0 0 0 -294.29536527779419 278.76736661403265 0 278.76736661403265 395.00992449215846 0 0 0 0 -295.31409269203141 239.51924201262591 0 239.51924201262591 162.46663947310299 0 0 0 0 -487.74487414925534 241.20366453054885 0 241.20366453054885 347.2437275655393 0 0 0 0 -466.24101296823937 300.66458838828839 0 300.66458838828839 141.13448274316033 0 0 0 0 42.25304251628404 182.59709203168313 0 182.59709203168313 -74.829569105349947 0 0 0 0 -160.31064337620046 297.53000078471086 0 297.53000078471086 -134.67310871664085 0 0 0 0 -164.16088992957339 203.54460355359743 0 203.54460355359743 -185.79807391238865 0 0 0 0 -353.55528321524616 454.16413496340101 0 454.16413496340101 -470.89302408255753 0 0 0 0 -99.224675917634158 249.15084272113018 0 249.15084272113018 -551.54306852298032 0 0 0 0 -15.812193768921134 160.0358715121647 0 160.0358715121647 -716.83423373014375 0 0 0 0 -18.177837165942975 11.541324494252194 0 11.541324494252194 4.1119304337753633 0 0 0 0 -152.49058176938706 165.47807887434465 0 165.47807887434465 -608.79932021463173 0 0 0 0 -106.22183784294612 419.06794046763207 0 419.06794046763207 -643.15653067432868 0 0 0 0 166.76396759845375 237.25017616229161 0 237.25017616229161 -661.59953922248678 0 0 0 0 12.919934373697572 19.202420617135743 0 19.202420617135743 9.7381735801747595 0 0 0 0 -90.464478411453456 187.09462002490727 0 187.09462002490727 -125.24023274111096 0 0 0 0 -110.06086844938 121.11230201543913 0 121.11230201543913 -146.05643381664413 0 0 0 0 134.38435382406169 119.34852691137348 0 119.34852691137348 40.441998634289575 0 0 0 0 5.2128913750709103 13.720529973494394 0 13.720529973494394 7.5568365100704966 0 0 0 0 203.82707878787733 -45.024538111531001 0 -45.024538111531001 -60.30393231351627 0 0 0 0 -136.64755218348728 77.634769472839253 0 77.634769472839253 80.361404472030699 0 0 0 0 -165.81589402700774 94.615156847750768 0 94.615156847750768 42.297751109435922 0 0 0 0 -112.78240276130964 145.42773942701751 0 145.42773942701751 -20.949656932563812 0 0 0 0 -94.638649387634359 163.33656787738437 0 163.33656787738437 -125.62767349015871 0 0 0 0 -141.99116069693355 126.3477267276985 0 126.3477267276985 -26.814484832982998 0 0 0 0 -104.28252634827368 175.35547389226122 0 175.35547389226122 77.695843557477929 0 0 0 0 -98.592982411399134 163.95605428455201 0 163.95605428455201 -3.9725467463431414 0 0 0 0 21.422559678467223 188.8203238084534 0 188.8203238084534 -147.2773041932669 0 0 0 0 24.50517885563022 186.21447080267535 0 186.21447080267535 -0.40375406638850109 0 0 0 0 -141.67506167321699 137.86137747217435 0 137.86137747217435 97.762328370779869 0 0 0 0 -1.6207454292854493 5.8886356174425885 0 5.8886356174425885 1.5426931392872234 0 0 0 0 -68.420788791030645 68.728198142802285 0 68.728198142802285 -32.733201290015131 0 0 0 0 -7.8481245621078415 16.845121683887555 0 16.845121683887555 -0.034809362216037698 0 0 0 0 -155.0689177261811 13.876937670657753 0 13.876937670657753 -274.11857958362089 0 0 0 0 42.157703145938285 243.98696213359653 0 243.98696213359653 -245.94457514045644 0 0 0 0 -74.918526081019081 60.519958587887231 0 60.519958587887231 -0.37388033085696976 0 0 0 0 -1.5779038356075148 3.91897837215609 0 3.91897837215609 1.224600845767263 0 0 0 0 -172.69028150569648 23.407150261373317 0 23.407150261373317 562.52229158917908 0 0 0 0 116.3290226737663 26.067099876458087 0 26.067099876458087 53.121619425044628 0 0 0 0 -86.492977605797932 152.69018096289074 0 152.69018096289074 69.597581370720945 0 0 0 0 26.930443619230573 102.67529575300796 0 102.67529575300796 -98.66557606466813 0 0 0 0 -42.732906175573589 311.65317892850726 0 311.65317892850726 169.89242779838969 0 0 0 0 163.01552034654014 197.34632908849744 0 197.34632908849744 -908.1231087014894 0 0 0 0 -141.82772825162101 44.454150036021019 0 44.454150036021019 -145.08858825810239 0 0 0 0 -30.219519416205003 45.051128846011125 0 45.051128846011125 -148.49557075154735 0 0 0 0 16.148714876951999 184.89653324311803 0 184.89653324311803 -416.90964642353356 0 0 0 0 -149.38056360496557 181.31267980538541 0 181.31267980538541 -148.11658798080316 0 0 0 0 40.667096530305571 208.52599112807366 0 208.52599112807366 -144.42915252086823 0 0 0 0 -24.214006376653259 8.2836762757632982 0 8.2836762757632982 3.7870095706123781 0 0 0 0 -132.05996843973116 45.572018856692011 0 45.572018856692011 60.525549691193419 0 0 0 0 94.904132518582628 -67.735077889839886 0 -67.735077889839886 -69.52477449705475 0 0 0 0 44.62162270542467 184.4440443994099 0 184.4440443994099 348.50059206083824 0 0 0 0 -7.4020031874983374 1.5142911842353328 0 1.5142911842353328 -0.76434217512311609 0 0 0 0 -90.323458996797854 230.8908272575427 0 230.8908272575427 349.26211306388723 0 0 0 0 185.90047967448118 189.04661520359878 0 189.04661520359878 256.31268961934256 0 0 0 0 157.79319548633066 394.50206792914832 0 394.50206792914832 36.408984636858804 0 0 0 0 129.11958007863723 393.37771544762654 0 393.37771544762654 468.94437621036195 0 0 0 0 -185.59348634855996 256.7575950306782 0 256.7575950306782 535.16109102849987 0 0 0 0 -137.28358836012194 -23.022496023157146 0 -23.022496023157146 -73.025118497549556 0 0 0 0 -25.347141223693512 12.460247109386643 0 12.460247109386643 17.04888840638688 0 0 0 0 -38.965939164203675 35.946103716045513 0 35.946103716045513 -6.9992016992378012 0 0 0 0 4.7965439377585426 38.937399881833699 0 38.937399881833699 9.6009333929105196 0 0 0 0 -16.213211925345291 29.668395774178776 0 29.668395774178776 -23.18198273207588 0 0 0 0 412.43660519140394 839.12439638375508 0 839.12439638375508 619.2366399167804 0 0 0 0 -51.543769272152623 29.347794044208371 0 29.347794044208371 13.085405535415589 0 0 0 0 -385.57281531604531 210.42263549220661 0 210.42263549220661 198.2850982605014 0 0 0 0 -875.47754880134016 -199.47133718623081 0 -199.47133718623081 279.90068119766147 0 0 0 0 121.66397264730767 -207.08659355231794 0 -207.08659355231794 223.05451004733914 0 0 0 0 -179.55240234592929 -79.833664587727981 0 -79.833664587727981 544.08060027221654 0 0 0 0 -21.949471025871389 34.01969193763216 0 34.01969193763216 -25.155594882788137 0 0 0 0 -29.650641521190238 19.037390670764353 0 19.037390670764353 -2.1988477646966373 0 0 0 0 -416.5962832228106 226.20817197098222 0 226.20817197098222 564.29218556441174 0 0 0 0 -191.27239133910189 25.977682643326261 0 25.977682643326261 204.74990959877323 0 0 0 0 -87.537634051041096 127.25649794513447 0 127.25649794513447 49.661614919343265 0 0 0 0 -281.0802408834279 22.264613078958064 0 22.264613078958064 5.9158157181518618 0 0 0 0 -10.450353133885145 13.718228943482366 0 13.718228943482366 -17.096364227866218 0 0 0 0 212.04659274726873 -385.13921691929863 0 -385.13921691929863 -523.73730909245205 0 0 0 0 -8.7599831407295845 3.1560593836508417 0 3.1560593836508417 4.5600648020528638 0 0 0 0 796.48961044299358 286.6388866995112 0 286.6388866995112 -359.02144765263074 0 0 0 0 52.787107715455932 495.45067184088839 0 495.45067184088839 -49.0829911607143 0 0 0 0 70.711893704654358 236.53754483336525 0 236.53754483336525 246.62735387821158 0 0 0 0 -171.58098496450111 -121.12391450509313 0 -121.12391450509313 49.661614919421936 0 0 0 0 2.8193584723485401 179.11834000225645 0 179.11834000225645 -0.081913455360336229 0 0 0 0 1.8787248970537611 -1.9949074850744921 0 -1.9949074850744921 0.20421677774112368 0 0 0 0 779.10989306286501 85.919423893887142 0 85.919423893887142 -62.506564080445969 0 0 0 0 55.497568940994825 301.67761357554446 0 301.67761357554446 0.44329566777742002 0 0 0 0 778.51535212769522 560.27090702550777 0 560.27090702550777 -414.69622772489674 0 0 0 0 -577.87183660417213 865.36571158995503 0 865.36571158995503 -0.87687510852993 0 0 0 0 -7.8932198561690257 9.9154943370658799 0 9.9154943370658799 -9.1836146677247825 0 0 0 0 -2662.1909251647376 -266.69500469820196 0 -266.69500469820196 630.75851964132744 0 0 0 0 -4.8378020042298431 4.3715741122373544 0 4.3715741122373544 -7.0703061734688504 0 0 0 0 -2200.3144835481071 593.70830940362066 0 593.70830940362066 529.88526285867556 0 0 0 0 -1896.4049702771008 324.35874846915249 0 324.35874846915249 106.26099133742537 0 0 0 0 -1857.1808016199357 -2.2200348263286287 0 -2.2200348263286287 736.92444297428301 0 0 0 0 -298.16110040433705 -400.1251205012959 0 -400.1251205012959 341.81825690239202 0 0 0 0 -1144.9741978192942 556.35486952356041 0 556.35486952356041 12.972995081130648 0 0 0 0 -11.045572123035839 22.921623004606658 0 22.921623004606658 -21.007418049224043 0 0 0 0 46.872599470167188 352.03765365545405 0 352.03765365545405 -1338.5092859376455 0 0 0 0 -196.10086268502619 513.47600787223837 0 513.47600787223837 -639.98697135820112 0 0 0 0 -13.612157301784407 4.9251175372507845 0 4.9251175372507845 -1.5209445417840755 0 0 0 0 -2031.3921540635347 -885.87196625520301 0 -885.87196625520301 -101.48169380036416 0 0 0 0 -2583.3532989927735 63.785956282637926 0 63.785956282637926 736.7146090384631 0 0 0 0 -1982.8997963567381 99.433585996077454 0 99.433585996077454 581.37400782903569 0 0 0 0 -10.44601946155467 20.935467083858811 0 20.935467083858811 -16.62137203949419 0 0 0 0 560.22002085801068 390.45164990104968 0 390.45164990104968 -179.49184996300028 0 0 0 0 -1005.6296016568085 264.53251765757886 0 264.53251765757886 238.08239350962685 0 0 0 0 -365.43667383835418 212.89063958314 0 212.89063958314 170.26998542387446 0 0 0 0 -414.61572871688986 745.90343922346801 0 745.90343922346801 -22.880159183609067 0 0 0 0 1002.219074187713 388.40345971371971 0 388.40345971371971 -413.36628592190391 0 0 0 0 -4.9675757878860338 7.7561603340641341 0 7.7561603340641341 -5.0115976838586107 0 0 0 0 -3099.2029325736876 -209.22762071307079 0 -209.22762071307079 253.80353376515268 0 0 0 0 -845.04629696812481 14.824223252537195 0 14.824223252537195 -209.50179095054773 0 0 0 0 -1682.95444470847 310.74385762484599 0 310.74385762484599 184.26611936819972 0 0 0 0 2.0696462217601947 26.771208600883256 0 26.771208600883256 -60.465375759755261 0 0 0 0 -861.50403262385225 20.607974843784177 0 20.607974843784177 56.839719153736951 0 0 0 0 -205.08036333422933 139.66758013322033 0 139.66758013322033 28.816783956674044 0 0 0 0 -11.15557203460169 4.9590365165862806 0 4.9590365165862806 13.248851973541719 0 0 0 0 -61.988115314065112 46.422859276813057 0 46.422859276813057 -32.214202477569302 0 0 0 0 696.93358745721343 284.11123732240958 0 284.11123732240958 -421.90824385643646 0 0 0 0 -249.2705050863442 146.72642204197473 0 146.72642204197473 143.651693178399 0 0 0 0 -40.500562921748497 140.02677214710275 0 140.02677214710275 112.08527294432861 0 0 0 0 -240.83272310702887 -0.60546466478990624 0 -0.60546466478990624 70.015137594891712 0 0 0 0 -181.77634950759239 103.96003386742086 0 103.96003386742086 -71.012831903193728 0 0 0 0 -296.26553587994931 404.86226739321864 0 404.86226739321864 29.87846682840609 0 0 0 0 -918.62305041897343 657.36603300279603 0 657.36603300279603 -500.89536682936887 0 0 0 0 108.26217423325579 858.19354085129817 0 858.19354085129817 -225.09796033147722 0 0 0 0 -785.96325575844094 96.857483972351474 0 96.857483972351474 526.11902574905253 0 0 0 0 -568.50341919196217 -27.189021253481769 0 -27.189021253481769 -592.91241396778787 0 0 0 0 129.35888969679945 -106.42459774143208 0 -106.42459774143208 -389.62216057078331 0 0 0 0 -480.21308619175397 128.51363554436102 0 128.51363554436102 -369.95728414974292 0 0 0 0 271.8338386452524 501.17510896793829 0 501.17510896793829 -426.25605357887252 0 0 0 0 -256.91939008369809 349.30471328162093 0 349.30471328162093 -438.4729858127539 0 0 0 0 -284.96208452166462 299.26408250530505 0 299.26408250530505 -344.30013306492765 0 0 0 0 -233.75011944891594 293.94495983597153 0 293.94495983597153 -372.04103587326972 0 0 0 0 -311.39572506830154 106.89938535299007 0 106.89938535299007 -408.56606854208076 0 0 0 0 -677.9503096434637 144.61366294374602 0 144.61366294374602 -252.45037911883264 0 0 0 0 -668.40203070833468 237.4931269249314 0 237.4931269249314 -133.96552249434171 0 0 0 0 -731.02385432246956 426.33585710615444 0 426.33585710615444 -100.5463182941894 0 0 0 0 -944.15973844698601 337.95725032153314 0 337.95725032153314 -34.156019365182146 0 0 0 0 -230.80526726194512 396.85646033321973 0 396.85646033321973 -246.65926180452516 0 0 0 0 -1076.6982980066241 73.543674097723851 0 73.543674097723851 -198.71215936229419 0 0 0 0 -221.69597239008726 195.56376277935124 0 195.56376277935124 -475.10803975757153 0 0 0 0 68.317636404266523 64.140126874248381 0 64.140126874248381 -202.90129971106944 0 0 0 0 -488.25663164084835 32.163461249539978 0 32.163461249539978 -174.39658711075026 0 0 0 0 -499.57749174928631 702.10892166059762 0 702.10892166059762 -368.94070322692278 0 0 0 0 -352.30703317587813 922.63537562600663 0 922.63537562600663 -541.0579012180242 0 0 0 0 -399.2147838826786 173.70645892815082 0 173.70645892815082 -41.71572780245333 0 0 0 0 208.82878885299135 1224.3692686094473 0 1224.3692686094473 -910.24669517789152 0 0 0 0 210.6737970749673 993.24875491185958 0 993.24875491185958 -621.66081254638993 0 0 0 0 -1336.8983919998573 325.94860265126044 0 325.94860265126044 -454.12946715414728 0 0 0 0 -1303.4689704293851 1843.3717098047782 0 1843.3717098047782 -1065.2547864943408 0 0 0 0 -1951.2567286988342 663.46459478775432 0 663.46459478775432 -741.15797812750679 0 0 0 0 -1849.4153773113649 918.02666133691127 0 918.02666133691127 -312.97048633685336 0 0 0 0 3474.4697500067268 1340.6320002846187 0 1340.6320002846187 -1531.799966860417 0 0 0 0 -4010.4269643542211 1675.334920152538 0 1675.334920152538 -139.88156717632228 0 0 0 0 3.1639867092906258 10.57093257903324 0 10.57093257903324 -0.33385412584607366 0 0 0 0 7.8613103074863631 26.106350541009164 0 26.106350541009164 2.2806585182106573 0 0 0 0 -463.75697884295732 1394.0951493701614 0 1394.0951493701614 -616.76690863964905 0 0 0 0 -2715.1658071904676 1076.4865056898052 0 1076.4865056898052 -145.25319817665149 0 0 0 0 -1027.4539359091796 481.34066563348097 0 481.34066563348097 -363.16799371226807 0 0 0 0 -1603.4406779214041 1007.9048948346826 0 1007.9048948346826 -203.94555365072301 0 0 0 0 -839.54702768953439 275.72785047927368 0 275.72785047927368 -151.16146817630215 0 0 0 0 -798.66865508923365 779.61944938154193 0 779.61944938154193 -863.50698193690187 0 0 0 0 -751.05126531534188 726.12400653726945 0 726.12400653726945 -374.11779054719591 0 0 0 0 -1016.0026381800417 586.39339567028946 0 586.39339567028946 290.4401392081636 0 0 0 0 -1444.008184405975 948.40718237047986 0 948.40718237047986 118.49820791768434 0 0 0 0 -1098.5764366436342 846.75898485850485 0 846.75898485850485 -234.11974274164822 0 0 0 0 -1285.2169389184855 1189.6967162754518 0 1189.6967162754518 -58.364744857852202 0 0 0 0 -1260.1272927439568 1072.3152415246514 0 1072.3152415246514 146.16542730884976 0 0 0 0 -1950.0605113511265 1206.5050394238278 0 1206.5050394238278 145.66888099713086 0 0 0 0 -1633.2407814267644 130.38038776646135 0 130.38038776646135 -197.26047248145915 0 0 0 0 -2637.2790341941873 117.92200027905346 0 117.92200027905346 -168.79288436497154 0 0 0 0 -2504.5117687375168 1131.2923278169619 0 1131.2923278169619 -177.97748078189034 0 0 0 0 0.10558644925930594 5.5456631925272575 0 5.5456631925272575 0.69433303414359671 0 0 0 0 -2448.4472450989269 930.75285535585135 0 930.75285535585135 17.356331487637362 0 0 0 0 -665.43264242425357 1052.1776276381534 0 1052.1776276381534 -295.56593314374913 0 0 0 0 -2.0632134582695869 5.0767998363130289 0 5.0767998363130289 1.2227445775424712 0 0 0 0 1085.4670226125818 138.57292159359349 0 138.57292159359349 -1100.9759272411611 0 0 0 0 -1846.3210996355447 2482.6819194193104 0 2482.6819194193104 2.6857052330160514 0 0 0 0 -5270.1746542625697 597.3980738676255 0 597.3980738676255 678.99003344474477 0 0 0 0 -1112.7521393599745 916.73107523075305 0 916.73107523075305 -717.71258845645934 0 0 0 0 -2929.7949625266192 2861.5935404270349 0 2861.5935404270349 -1.9285486613781415 0 0 0 0 -2743.6855209018395 2447.8461221325742 0 2447.8461221325742 -0.53467388491844758 0 0 0 0 0.53643199284793752 11.937796120157174 0 11.937796120157174 1.5887095493544052 0 0 0 0 -5130.6720348913477 1515.0570892542419 0 1515.0570892542419 -53.847514249631786 0 0 0 0 -2510.0874687657051 2207.8657400060765 0 2207.8657400060765 -386.49959205065898 0 0 0 0 -3615.1744868042151 2110.455304018069 0 2110.455304018069 -54.400062652559427 0 0 0 0 -1230.725883832878 1250.6281733715041 0 1250.6281733715041 161.42556321687152 0 0 0 0 6.1988587689529169 26.415244066920877 0 26.415244066920877 4.648396886481919 0 0 0 0 -1402.0667648244798 791.45845542809639 0 791.45845542809639 -381.78474824324076 0 0 0 0 -1858.4369475087005 464.25930101634367 0 464.25930101634367 -254.08394877974933 0 0 0 0 -2217.9445916051627 1070.9202458282416 0 1070.9202458282416 -557.19815966059105 0 0 0 0 -1393.3918264448221 2209.3379726206658 0 2209.3379726206658 -477.21625205996679 0 0 0 0 -1441.2418428580131 2354.7043911093424 0 2354.7043911093424 -871.44047869399947 0 0 0 0 -1053.6531844759375 2891.7460395557991 0 2891.7460395557991 -265.34443145684054 0 0 0 0 -315.62959961149318 2359.3237466856008 0 2359.3237466856008 -3479.1505055884536 0 0 0 0 -1.7625353275971634 7.5779666740264702 0 7.5779666740264702 -0.60473390192612442 0 0 0 0 -362.82422905504063 1733.7502170112566 0 1733.7502170112566 1036.2628519338832 0 0 0 0 -1944.7473537034093 1762.8276024417282 0 1762.8276024417282 -769.00316357301199 0 0 0 0 -1247.9505471524608 2071.5713203591076 0 2071.5713203591076 -537.92418143009127 0 0 0 0 -848.90414171087468 2826.063471071513 0 2826.063471071513 -0.17981654121404156 0 0 0 0 0.93074060937215108 3104.3993757844237 0 3104.3993757844237 -1223.2552879611685 0 0 0 0 -211.43694250964472 1795.0837420146399 0 1795.0837420146399 -3178.0767423565921 0 0 0 0 -439.21836390490353 1284.785682013513 0 1284.785682013513 -609.28183326205908 0 0 0 0 -688.03420623646525 1752.889187753186 0 1752.889187753186 1493.9628469647032 0 0 0 0 -2.0459995772194475 8.550897044790446 0 8.550897044790446 -0.39424084022009254 0 0 0 0 -68.359345269986079 2030.0480854970301 0 2030.0480854970301 -800.14314150266182 0 0 0 0 0.021579294038842605 2459.8937807732082 0 2459.8937807732082 -38.912549160362687 0 0 0 0 -443.11060904517944 2194.4709647709897 0 2194.4709647709897 -843.88829349981825 0 0 0 0 -583.89510900738969 2481.4725115591136 0 2481.4725115591136 -613.47723831786425 0 0 0 0 -809.17821815334901 2334.6723725578304 0 2334.6723725578304 -559.13035117707477 0 0 0 0 -200.59355742596381 1798.7753798476988 0 1798.7753798476988 -1105.5857410884455 0 0 0 0 -842.00450609223481 1473.4854155972243 0 1473.4854155972243 -18.190323333961715 0 0 0 0 1548.3433523713466 760.82394008349365 0 760.82394008349365 -456.22304891460226 0 0 0 0 -639.99913832022867 1849.0506445553619 0 1849.0506445553619 -559.99233120873214 0 0 0 0 -542.29526285667089 2108.2599576575521 0 2108.2599576575521 -1183.9845013106096 0 0 0 0 -641.44663340943953 1556.6545634395479 0 1556.6545634395479 -1583.8829124868498 0 0 0 0 -391.63228447925212 2192.1020468511524 0 2192.1020468511524 -647.02628448617179 0 0 0 0 857.64237631356809 1861.8768119430752 0 1861.8768119430752 -364.95316858410661 0 0 0 0 645.7090935613669 1073.2144459404371 0 1073.2144459404371 -1501.8264971306744 0 0 0 0 1787.1045437756839 -1507.1287565077946 0 -1507.1287565077946 -800.22121387591687 0 0 0 0 2673.0885392210039 377.90024365369027 0 377.90024365369027 -1021.7194900803588 0 0 0 0 11.087863983186566 1.9392524160689106 0 1.9392524160689106 -9.5893695918490209 0 0 0 0 -896.90703259385191 2938.5120904539363 0 2938.5120904539363 -2955.0057990345667 0 0 0 0 -1337.1600199333334 3105.8593885607988 0 3105.8593885607988 -2689.1686863260693 0 0 0 0 17.274924675890361 2184.9635587086814 0 2184.9635587086814 -3050.3054605838406 0 0 0 0 -533.30904549566912 2044.4076203759687 0 2044.4076203759687 -2228.4127141246718 0 0 0 0 -572.04740486818628 1964.2319290863397 0 1964.2319290863397 -2338.9330493548914 0 0 0 0 -460.24164632752945 1641.9824188616185 0 1641.9824188616185 -2411.7155279073068 0 0 0 0 -0.094160625194490422 1989.9657560448213 0 1989.9657560448213 -2630.8598217737745 0 0 0 0 -225.73627074571414 1756.8566220736539 0 1756.8566220736539 -2132.6730021683034 0 0 0 0 -0.20086115599406185 2192.7449325399793 0 2192.7449325399793 -1500.1720175824012 0 0 0 0 -510.08234423828253 1832.0625309163297 0 1832.0625309163297 -1407.9025367480572 0 0 0 0 -292.54041225629226 2004.5841137155439 0 2004.5841137155439 -1795.6612587645504 0 0 0 0 5.3299304713266604 -1.9674758458088775 0 -1.9674758458088775 29.109611211253437 0 0 0 0 -4.3976775038431697 -125.65160709578049 0 -125.65160709578049 252.45206496263563 0 0 0 0 80.566165194932182 -199.52620285078592 0 -199.52620285078592 29.463839965086663 0 0 0 0 43.837089664298674 2.58157604904045 0 2.58157604904045 191.85251750407042 0 0 0 0 94.05747410490585 -25.231556266619009 0 -25.231556266619009 -67.126988925869227 0 0 0 0 64.57995952503552 -11.286987491424952 0 -11.286987491424952 68.604034823511029 0 0 0 0 -1.7821316711502702 28.712552040887473 0 28.712552040887473 34.729177380110343 0 0 0 0 51.226058254791496 50.704282516628155 0 50.704282516628155 81.019294285506476 0 0 0 0 33.377051983584806 -37.536074913790799 0 -37.536074913790799 90.282026587970904 0 0 0 0 3.3452761249857303 54.889025079894964 0 54.889025079894964 74.111610286337964 0 0 0 0 2.0944954805414682 52.379397648038321 0 52.379397648038321 75.487712479000038 0 0 0 0 -3.1976507931449305 37.183642823583796 0 37.183642823583796 199.32212491742393 0 0 0 0 -6.6660172204913746 55.115458982332846 0 55.115458982332846 75.345050161738072 0 0 0 0 -2.0335883603720504 13.997381931105338 0 13.997381931105338 146.06460859547224 0 0 0 0 482.54765900689745 -20.996930672263261 0 -20.996930672263261 121.15731378496275 0 0 0 0 -62.844000292063356 -67.763524976882763 0 -67.763524976882763 351.09624698176049 0 0 0 0 1.2167440054458467 0.35665838640150582 0 0.35665838640150582 0.1054204646309671 0 0 0 0 4.9194133404231364 4.8817763647442121 0 4.8817763647442121 3.759372437587615 0 0 0 0 -200.29488803829963 656.44134692869557 0 656.44134692869557 -684.08070079353001 0 0 0 0 -316.87553244044511 273.33463564442354 0 273.33463564442354 -624.678344869586 0 0 0 0 -270.96066006632009 377.70010145556444 0 377.70010145556444 -371.22448255281779 0 0 0 0 -265.15523151751881 337.1116001635819 0 337.1116001635819 -567.83347613865044 0 0 0 0 -472.0483254163745 314.20154615950014 0 314.20154615950014 -447.32393560264609 0 0 0 0 -400.02331480488147 394.77712317587429 0 394.77712317587429 -371.06552740948973 0 0 0 0 -330.93099052594107 321.50937961792806 0 321.50937961792806 -362.26982673518796 0 0 0 0 -291.03444800894511 254.8133261086823 0 254.8133261086823 -268.05327479357948 0 0 0 0 -330.28813505314383 360.15827428794 0 360.15827428794 -281.44821613296517 0 0 0 0 373.52644327788585 108.91512314137071 0 108.91512314137071 271.91261791146826 0 0 0 0 11.429641054654565 13.419183485333093 0 13.419183485333093 12.545118117312114 0 0 0 0 -381.70008932778035 469.29573595555848 0 469.29573595555848 -465.38795168176875 0 0 0 0 -91.37708656121481 -4.8432593729139626 0 -4.8432593729139626 378.35599221613666 0 0 0 0 -261.82745037216205 406.68423762658495 0 406.68423762658495 -502.38589577793027 0 0 0 0 -362.86161324196274 413.23711406835355 0 413.23711406835355 -356.51312591179158 0 0 0 0 -243.72875196461246 316.78995538789604 0 316.78995538789604 -434.68860046328336 0 0 0 0 -301.3008052422411 348.45358557680447 0 348.45358557680447 -357.56084307521814 0 0 0 0 -273.80418685882432 280.21305515129643 0 280.21305515129643 -273.8995181198261 0 0 0 0 -267.78811137823823 209.78945700848271 0 209.78945700848271 -213.60132765898379 0 0 0 0 -293.82323288729702 308.78781222681573 0 308.78781222681573 -326.43724649499563 0 0 0 0 -283.39623919639894 250.64639782186714 0 250.64639782186714 -163.24822324240813 0 0 0 0 -243.87253634142417 264.63301786666852 0 264.63301786666852 -286.69665390155296 0 0 0 0 -313.00390782087857 331.82048253034736 0 331.82048253034736 -252.92329753233935 0 0 0 0 -95.088294373962071 209.76754914768389 0 209.76754914768389 -223.0109254547715 0 0 0 0 -17.949688910096484 178.20180474581139 0 178.20180474581139 -205.08800579949821 0 0 0 0 -266.54292111723748 237.35720951724215 0 237.35720951724215 -130.07533326417615 0 0 0 0 -259.71771195578958 239.23527351676603 0 239.23527351676603 -280.18344833617448 0 0 0 0 -272.37862982428885 255.00743453748146 0 255.00743453748146 -299.62724948918913 0 0 0 0 -212.08655486214502 219.40454868671077 0 219.40454868671077 -272.11433712911821 0 0 0 0 -184.36179013807987 283.72494094328431 0 283.72494094328431 -269.76569859914889 0 0 0 0 -209.5655334095004 282.58850514651931 0 282.58850514651931 -371.10472864052281 0 0 0 0 -176.38483220283433 230.27327374674496 0 230.27327374674496 -322.12148051787517 0 0 0 0 17.256926493931012 19.169636691440189 0 19.169636691440189 14.589874271663291 0 0 0 0 -233.95240088698847 339.14132201642497 0 339.14132201642497 -390.08479239826556 0 0 0 0 -235.60764265131661 329.21374143651337 0 329.21374143651337 -404.82152158993995 0 0 0 0 -242.65796287865533 290.59008768301283 0 290.59008768301283 -351.96007078351977 0 0 0 0 -197.42428402232918 251.83167372822936 0 251.83167372822936 -346.14436883662711 0 0 0 0 68.062009844042223 58.29789169911237 0 58.29789169911237 -15.541872550667904 0 0 0 0 -202.92441446240537 304.99503076334804 0 304.99503076334804 -414.15988257722347 0 0 0 0 -190.17933835726762 270.56687008935842 0 270.56687008935842 -382.66142468573526 0 0 0 0 -252.54154939400996 306.25947600774816 0 306.25947600774816 -376.71682902937755 0 0 0 0 -251.67987636040198 312.16627027924551 0 312.16627027924551 -372.65732363949064 0 0 0 0 45.063919178228389 7.9001772371120751 0 7.9001772371120751 14.409117650488042 0 0 0 0 22.71749878539525 19.820920334732108 0 19.820920334732108 9.5840576979571637 0 0 0 0 43.460550947882439 21.146542140340898 0 21.146542140340898 -234.99566733164829 0 0 0 0 9.8217487470301421 -29.644257243053289 0 -29.644257243053289 34.109071532904636 0 0 0 0 32.827833300767452 -19.098712826118572 0 -19.098712826118572 38.597339742205804 0 0 0 0 -3.6695624800540827 -10.074324861023342 0 -10.074324861023342 68.589868380106054 0 0 0 0 -17.763348656443668 31.552931248734239 0 31.552931248734239 77.489073720702436 0 0 0 0 -24.495383807425242 -23.471878927302896 0 -23.471878927302896 60.021211818297161 0 0 0 0 -192.20116736774435 336.46322063200932 0 336.46322063200932 -553.86802949978301 0 0 0 0 -1.9982480834595897 4.0521597352548611 0 4.0521597352548611 4.5574890270553396 0 0 0 0 -197.14226231409339 321.02660677733365 0 321.02660677733365 -457.12807988771237 0 0 0 0 -153.51140421238051 364.44849358695501 0 364.44849358695501 -514.75177718594205 0 0 0 0 7.5171712738357357 -1.6699518865441405 0 -1.6699518865441405 -10.862522488415095 0 0 0 0 -89.371103764239706 265.9580138039164 0 265.9580138039164 -522.78313990858078 0 0 0 0 -67.612816371084591 187.99000907489608 0 187.99000907489608 -244.34195131805609 0 0 0 0 -193.11573146597357 277.98168746019655 0 277.98168746019655 -274.5385476560914 0 0 0 0 -139.57744901625665 223.37736193483579 0 223.37736193483579 -390.0849773119844 0 0 0 0 -136.24590694490598 269.18991731759161 0 269.18991731759161 -277.2206981733907 0 0 0 0 -144.88968224603559 265.55128437583335 0 265.55128437583335 -184.80920246109599 0 0 0 0 -110.15766531689042 289.09749116612511 0 289.09749116612511 -222.05185234476812 0 0 0 0 -75.725966691648864 249.29791993711842 0 249.29791993711842 -176.05012721679304 0 0 0 0 -78.086665338630496 234.06173972807301 0 234.06173972807301 -133.28663477872033 0 0 0 0 -47.750477053511077 183.298307701054 0 183.298307701054 -146.46479571345844 0 0 0 0 -39.232033883205077 213.33957786248357 0 213.33957786248357 -274.57863326187362 0 0 0 0 53.026894603041001 115.5484937322035 0 115.5484937322035 -210.456183221424 0 0 0 0 -49.319076004108865 221.29355920836679 0 221.29355920836679 -166.89111201751803 0 0 0 0 -14.01898664831333 172.07480109170865 0 172.07480109170865 -101.48427624299075 0 0 0 0 -32.016079479401014 109.9539866076957 0 109.9539866076957 -37.143077759588778 0 0 0 0 14.4996700338952 106.54157764797128 0 106.54157764797128 -28.318088266707491 0 0 0 0 -32.459215356377172 163.70327686411474 0 163.70327686411474 -79.48665078477643 0 0 0 0 -35.999090949703714 27.635814723340445 0 27.635814723340445 69.73010403139051 0 0 0 0 25.142695169409713 21.407720388646595 0 21.407720388646595 26.207192965972027 0 0 0 0 6.6896656863881976 32.2906258937724 0 32.2906258937724 35.815485345252739 0 0 0 0 36.017711080892781 6.8304690269884532 0 6.8304690269884532 65.286676812283986 0 0 0 0 34.620990700174843 -12.234697424559272 0 -12.234697424559272 56.864756282840972 0 0 0 0 30.241721946925281 39.53328484116355 0 39.53328484116355 64.859366833443346 0 0 0 0 18.751324276240666 -11.767843121771875 0 -11.767843121771875 98.422005411717691 0 0 0 0 -25.68842024818332 182.44331429504382 0 182.44331429504382 -266.24604552848905 0 0 0 0 -12.617122069352263 34.348307261214359 0 34.348307261214359 66.076235583539528 0 0 0 0 3.0802483376190324 32.228725805022833 0 32.228725805022833 26.113423611949536 0 0 0 0 0.093708366242026386 52.206439434703498 0 52.206439434703498 61.96290208335995 0 0 0 0 7.7837064136197114 40.433148633210294 0 40.433148633210294 65.87805940535327 0 0 0 0 -19.013964870051495 64.512943341585924 0 64.512943341585924 64.237126834676019 0 0 0 0 15.985085039684787 30.14809666395233 0 30.14809666395233 29.966237301731184 0 0 0 0 25.588719580085428 34.822842389377826 0 34.822842389377826 28.116801321393183 0 0 0 0 -6.6871649358126888 29.425439464575902 0 29.425439464575902 123.67721062788041 0 0 0 0 21.670964889583047 24.621785479335813 0 24.621785479335813 28.914101088368625 0 0 0 0 11.798744117423666 8.8662239725381369 0 8.8662239725381369 36.15719446784351 0 0 0 0 38.873397131502259 55.249080634836446 0 55.249080634836446 75.13910986839619 0 0 0 0 -29.453529648291806 31.623197085638822 0 31.623197085638822 91.428623919841812 0 0 0 0 17.115454905013394 33.443571051015169 0 33.443571051015169 91.116757141920971 0 0 0 0 0.6757815043111286 5.4811920305529327 0 5.4811920305529327 9.7164086293697682 0 0 0 0 11.847583575541648 39.087070420166128 0 39.087070420166128 -0.80729425651952624 0 0 0 0 3.2502731701911216 69.902108510295875 0 69.902108510295875 97.650422576516576 0 0 0 0 -1.8429907701503829 37.471986623793299 0 37.471986623793299 15.336209926928234 0 0 0 0 6.0189865938882576 63.413720577416825 0 63.413720577416825 37.366839526963304 0 0 0 0 7.7369059591508176 42.287390932273411 0 42.287390932273411 16.490731852642057 0 0 0 0 -3.4349501162912475 46.129147449011725 0 46.129147449011725 71.101167196087772 0 0 0 0 1.7600595088238542 61.073853483239311 0 61.073853483239311 31.296927907039084 0 0 0 0 0.078419342767801936 50.436747036482302 0 50.436747036482302 79.083607525135449 0 0 0 0 0.18638685884661754 53.431586549533677 0 53.431586549533677 92.306484916996851 0 0 0 0 4.5272684328910477 34.283230871159901 0 34.283230871159901 33.858843034464648 0 0 0 0 33.427574972510229 4.3065817210735986 0 4.3065817210735986 42.749114937818376 0 0 0 0 2.1477234837186181 36.529292606262089 0 36.529292606262089 10.629336029304682 0 0 0 0 41.924215630238905 40.422408084355993 0 40.422408084355993 13.197814361476048 0 0 0 0 5.9235192299729533 50.101238556608223 0 50.101238556608223 51.542849201348872 0 0 0 0 -59.838121451673032 -25.135794362911838 0 -25.135794362911838 136.22001877023104 0 0 0 0 1.8355711754758666 63.227041496335488 0 63.227041496335488 30.949605604943713 0 0 0 0 76.875474809032312 142.05213506490963 0 142.05213506490963 -78.043804063402604 0 0 0 0 -142.44433326002945 124.78462174432116 0 124.78462174432116 223.40180380188031 0 0 0 0 123.94092398687917 -86.777252048405103 0 -86.777252048405103 241.97012848812847 0 0 0 0 -80.734565985340851 -15.388977706831611 0 -15.388977706831611 410.78138798191139 0 0 0 0 8.7274839941217071 18.902307303916054 0 18.902307303916054 6.1248974047815592 0 0 0 0 53.61965188940087 119.19862751020378 0 119.19862751020378 247.66862420064172 0 0 0 0 12.949139523665053 -78.754472383752272 0 -78.754472383752272 -8.8309116572308994 0 0 0 0 -91.162492601131817 -199.46806453479894 0 -199.46806453479894 756.36002366492539 0 0 0 0 -170.28872463945891 148.73348233926686 0 148.73348233926686 270.63663908819581 0 0 0 0 238.23746995808051 -112.74096283034851 0 -112.74096283034851 291.56503071828598 0 0 0 0 55.276224861712763 165.22833229895696 0 165.22833229895696 352.98969715595103 0 0 0 0 -43.923774359569506 -72.533375538051587 0 -72.533375538051587 129.56044960797226 0 0 0 0 114.13189749959929 210.29590984868901 0 210.29590984868901 -188.43939224641053 0 0 0 0 82.858616409110255 449.94066933768499 0 449.94066933768499 -1079.7894061469863 0 0 0 0 7.0983143355621898 13.062201497561603 0 13.062201497561603 3.9126751583640682 0 0 0 0 -115.37660886624508 -60.837998730886738 0 -60.837998730886738 607.55432601063603 0 0 0 0 -430.6853604481912 659.96408778840259 0 659.96408778840259 -514.04472141175847 0 0 0 0 169.357098742993 276.77938263876149 0 276.77938263876149 -1853.15398611413 0 0 0 0 -120.53370785576408 154.99116768107478 0 154.99116768107478 -1686.1331377481451 0 0 0 0 223.16370806038913 -193.37583069159245 0 -193.37583069159245 -1664.486392017212 0 0 0 0 158.82107177458784 61.697617119854385 0 61.697617119854385 -2196.3910174758403 0 0 0 0 -294.07447163252073 1164.1013501687808 0 1164.1013501687808 -2567.2122023508614 0 0 0 0 -59.138233048885013 131.65066430624165 0 131.65066430624165 672.51926614207446 0 0 0 0 -3.3806590392687212 115.26257988543398 0 115.26257988543398 186.00328648485834 0 0 0 0 54.304047628049375 79.605393899558607 0 79.605393899558607 151.96581975539436 0 0 0 0 94.932215651792376 15.13566225254192 0 15.13566225254192 161.30642355869759 0 0 0 0 68.362209543235167 -68.433026593700887 0 -68.433026593700887 306.49326414932125 0 0 0 0 -19.425552769913338 -58.213893034942885 0 -58.213893034942885 421.85024161208435 0 0 0 0 34.251539772776596 94.459804364887532 0 94.459804364887532 169.32800826007121 0 0 0 0 -6.0928135534813919 94.203501314083042 0 94.203501314083042 313.9925033231396 0 0 0 0 -117.7128045560421 172.24264717754363 0 172.24264717754363 709.61641054362985 0 0 0 0 -277.37960886837391 310.52645119872068 0 310.52645119872068 -411.27252626516315 0 0 0 0 2.0696014108884633 2.9673776031801591 0 2.9673776031801591 -1.3585052012437759 0 0 0 0 340.86063604260562 1105.1719120610896 0 1105.1719120610896 -2650.3579192121633 0 0 0 0 6.0165708982965498 5.3378509962807117 0 5.3378509962807117 0.98081250057624414 0 0 0 0 -2.76069134037607 127.87050977257464 0 127.87050977257464 171.76657675097829 0 0 0 0 62.174503930458741 113.8211830119107 0 113.8211830119107 66.819784952601324 0 0 0 0 26.645662748716859 188.26087266722078 0 188.26087266722078 447.52412700111336 0 0 0 0 85.136098407667305 192.20700950247985 0 192.20700950247985 178.73148962668131 0 0 0 0 190.93659457619651 565.07655587468764 0 565.07655587468764 576.59834920234573 0 0 0 0 550.21825539575184 304.05331323779683 0 304.05331323779683 -341.01628702417474 0 0 0 0 175.54465788968355 42.904020222937461 0 42.904020222937461 -76.378534695663973 0 0 0 0 14.573789566383994 0.93085617672692322 0 0.93085617672692322 -27.31379694087326 0 0 0 0 -32.072700072905718 4.7015787014336752 0 4.7015787014336752 -10.467434859805053 0 0 0 0 0.46224846977793277 55.930477002147683 0 55.930477002147683 81.718108880626204 0 0 0 0 53.555296578104389 68.40498315110284 0 68.40498315110284 18.263266632331465 0 0 0 0 -13.233892303578614 98.659424210269322 0 98.659424210269322 172.02841630667288 0 0 0 0 30.042776733404025 100.31645790962622 0 100.31645790962622 58.086598638017563 0 0 0 0 -48.284959819731739 117.17938241107197 0 117.17938241107197 58.899504172757588 0 0 0 0 -54.092409373191913 117.12947695788523 0 117.12947695788523 69.222524613521273 0 0 0 0 3.164091438140531 116.30728374005287 0 116.30728374005287 -24.822090994373639 0 0 0 0 16.361850017028701 131.4604186779938 0 131.4604186779938 72.051484941247793 0 0 0 0 -10.461678974686947 123.30654224604928 0 123.30654224604928 160.73015966889548 0 0 0 0 63.800735954425363 212.03172190973447 0 212.03172190973447 -907.33533216110845 0 0 0 0 345.75969395832362 -1.9762947632784744 0 -1.9762947632784744 -992.64803365400803 0 0 0 0 -315.1069492652332 174.60312609111043 0 174.60312609111043 -694.83807488868752 0 0 0 0 2.0041681644347342 6.8250836514932143 0 6.8250836514932143 1.0982583283112779 0 0 0 0 -170.97553382200931 196.0305110237542 0 196.0305110237542 -235.54048995774423 0 0 0 0 -286.35158076459629 -778.56011322929669 0 -778.56011322929669 -1739.4548526182759 0 0 0 0 -502.66400232218712 -8.6016961335373558 0 -8.6016961335373558 -143.18666303400778 0 0 0 0 -284.90809446165531 133.57061993718429 0 133.57061993718429 -50.731070990728711 0 0 0 0 -335.6347395011835 -165.08789007232087 0 -165.08789007232087 -151.1463673681429 0 0 0 0 -181.69040053505523 59.412316038537469 0 59.412316038537469 -8.9912517267397334 0 0 0 0 -161.08297235125974 121.49695987958303 0 121.49695987958303 -16.899023029757473 0 0 0 0 -208.6722761762685 -27.616905104337633 0 -27.616905104337633 0.91116396487652196 0 0 0 0 -150.47389518021373 65.856686099669105 0 65.856686099669105 -62.73186409510496 0 0 0 0 -112.42620795914809 18.329899833282639 0 18.329899833282639 -4.2198584648803603 0 0 0 0 -108.95757131321034 109.6643942361803 0 109.6643942361803 -22.254336353298982 0 0 0 0 -81.406261210862795 54.893520534534439 0 54.893520534534439 -17.880543075370724 0 0 0 0 -25.794074689570152 58.358594302294136 0 58.358594302294136 -53.057424123448641 0 0 0 0 -58.61568015832745 81.22356225522293 0 81.22356225522293 -7.6679736215941432 0 0 0 0 -20.738348392604166 78.592808611289598 0 78.592808611289598 11.213154999234597 0 0 0 0 -42.93126191362694 142.38406374356589 0 142.38406374356589 -23.072250506116461 0 0 0 0 -34.684775542511488 95.527268361435631 0 95.527268361435631 -181.0498144873194 0 0 0 0 -6.7541009337419382 106.91539880703472 0 106.91539880703472 67.187270096345713 0 0 0 0 -3.3668805460501972 104.71989874760743 0 104.71989874760743 -45.652562785930726 0 0 0 0 6.4001788046143702 73.050141560911555 0 73.050141560911555 -8.8284241252787865 0 0 0 0 -0.37865339047517388 2.6899739474902971 0 2.6899739474902971 0.49280989645326423 0 0 0 0 0.52352051788602694 67.956731937519748 0 67.956731937519748 91.191472904677198 0 0 0 0 -26.513187690821269 107.43995998906421 0 107.43995998906421 310.74218334707444 0 0 0 0 10.638646055801264 23.426233961806155 0 23.426233961806155 7.3510901564876923 0 0 0 0 -42.040633329646653 24.012118971445489 0 24.012118971445489 245.21692869923208 0 0 0 0 -13.35318432393251 191.14553731887966 0 191.14553731887966 -883.35744399445048 0 0 0 0 0.1045519197270437 5.2949292824179519 0 5.2949292824179519 1.1311886876695731 0 0 0 0 -88.557852391953929 164.15032306218268 0 164.15032306218268 -820.15725292242917 0 0 0 0 0.27423710293351178 78.635811845588563 0 78.635811845588563 -12.72468806629405 0 0 0 0 66.061481253219881 -52.887498864726695 0 -52.887498864726695 189.48588305412159 0 0 0 0 61.42927671841484 74.742039768046027 0 74.742039768046027 164.66414402229384 0 0 0 0 -33.280454071239106 87.39921613480567 0 87.39921613480567 144.07803642121689 0 0 0 0 -48.502319019981769 8.0623300469369497 0 8.0623300469369497 126.58791346078578 0 0 0 0 -1.8097841827948287 52.817288340709638 0 52.817288340709638 75.464842398692781 0 0 0 0 -9.6039782549521533 63.020575398188157 0 63.020575398188157 65.642874293014756 0 0 0 0 57.346928719559628 92.708182698862402 0 92.708182698862402 -4.6235074076739693 0 0 0 0 -0.60390569707596242 63.116090674282027 0 63.116090674282027 31.691591419107574 0 0 0 0 1.0749399674364213 55.321980860197073 0 55.321980860197073 74.206711260241718 0 0 0 0 -73.678361476437715 109.53923164899703 0 109.53923164899703 176.92689263192187 0 0 0 0 -17.484833458553297 -175.0350481302155 0 -175.0350481302155 657.5398921451997 0 0 0 0 -8.5664542630011571 52.387101018000095 0 52.387101018000095 87.084886446757565 0 0 0 0 -9.7863417932977654 57.415622471053211 0 57.415622471053211 68.945053089453722 0 0 0 0 -7.3746814606288353 63.94485508424259 0 63.94485508424259 59.069859563664068 0 0 0 0 -4.9550509985344888 54.144585607973568 0 54.144585607973568 56.641110563776238 0 0 0 0 -30.286702460568677 51.371457318790817 0 51.371457318790817 106.25910876052876 0 0 0 0 -4.6243188591881585 62.274183536586861 0 62.274183536586861 28.251984633608991 0 0 0 0 23.484794603641163 63.968156019598609 0 63.968156019598609 55.920333966323597 0 0 0 0 21.759624725489914 -11.369307125605701 0 -11.369307125605701 140.14484392260215 0 0 0 0 -12.118777902113589 63.483319117004214 0 63.483319117004214 55.572963035647973 0 0 0 0 -11.589119421670375 68.812125414257935 0 68.812125414257935 93.133468010637444 0 0 0 0 -12.756084380028199 69.510812690090461 0 69.510812690090461 26.37447983047241 0 0 0 0 -10.048332101121268 58.399924451917741 0 58.399924451917741 55.479085040789421 0 0 0 0 -4.2476367834719895 62.000650201604913 0 62.000650201604913 82.700545820661318 0 0 0 0 73.532964361470817 200.70370910871449 0 200.70370910871449 -364.04782335877371 0 0 0 0 13.782196033812619 25.694958992634412 0 25.694958992634412 10.341465821112498 0 0 0 0 30.902995957643867 42.313267508625358 0 42.313267508625358 93.549139587003992 0 0 0 0 -62.719944694258629 189.94400797634225 0 189.94400797634225 -877.91617520756108 0 0 0 0 -70.303279231653619 275.29000859964884 0 275.29000859964884 -47.579507394252573 0 0 0 0 17.332105801021228 188.85617639896947 0 188.85617639896947 -130.37754964819067 0 0 0 0 17.683042354733971 200.32733108899444 0 200.32733108899444 128.38410357683176 0 0 0 0 -26.933266214583455 189.61944583922053 0 189.61944583922053 33.824392578957031 0 0 0 0 -102.5404484373355 33.279647909388757 0 33.279647909388757 -34.805596441330493 0 0 0 0 -3.4379419612737365 68.089688232216758 0 68.089688232216758 92.703704779717555 0 0 0 0 4.4176233948255685 70.060701646045345 0 70.060701646045345 -36.883908120611522 0 0 0 0 14.510496780692504 31.366749048650078 0 31.366749048650078 -1.2678474654958736 0 0 0 0 -59.590658999530206 116.53145025803497 0 116.53145025803497 -47.828798423717672 0 0 0 0 -3.0341588504961692 99.993476301735427 0 99.993476301735427 -51.100224983493717 0 0 0 0 4.747648957607133 52.565400461799818 0 52.565400461799818 28.434811406386316 0 0 0 0 -90.097548050543992 159.76028937559022 0 159.76028937559022 225.82769167892548 0 0 0 0 -45.171494251712865 67.281886301017636 0 67.281886301017636 -27.724521707416475 0 0 0 0 23.243475423383074 133.60976918428929 0 133.60976918428929 -94.304399139845941 0 0 0 0 -31.223157744647324 124.60987873376507 0 124.60987873376507 82.39609486028894 0 0 0 0 -54.093844575794719 93.091586085027302 0 93.091586085027302 150.73881221810734 0 0 0 0 -31.162659680804332 80.853925785376276 0 80.853925785376276 50.278750526350933 0 0 0 0 -8.8730091396752186 -2.349913203142151 0 -2.349913203142151 27.067697263731592 0 0 0 0 -97.39095761254066 138.4197603697321 0 138.4197603697321 -35.826193804823561 0 0 0 0 -66.335352996407892 128.83770975259256 0 128.83770975259256 -24.646841484024606 0 0 0 0 -28.075296582259398 119.44842469639843 0 119.44842469639843 -18.15826868565 0 0 0 0 -29.888128646980874 59.619691969723135 0 59.619691969723135 46.358203422734114 0 0 0 0 1.1984514125564658 59.419606644226874 0 59.419606644226874 28.447826740664386 0 0 0 0 -44.532615786533825 110.01159959506367 0 110.01159959506367 -0.54704449382916209 0 0 0 0 -0.88222751665945864 12.811409635578343 0 12.811409635578343 -31.88823004515308 0 0 0 0 -23.583210087490453 80.927705396553449 0 80.927705396553449 46.243605717283359 0 0 0 0 57.916242836261517 266.3240103667049 0 266.3240103667049 5.6042600492037309 0 0 0 0 -21.310368269836545 124.18919344093592 0 124.18919344093592 -71.374792501854245 0 0 0 0 -75.243613043712685 89.746365167200565 0 89.746365167200565 -92.557660719859996 0 0 0 0 -2.1307532512452383 48.591848769894376 0 48.591848769894376 27.669444246692329 0 0 0 0 6.7353116774793307 72.0336483134015 0 72.0336483134015 -191.71416389189108 0 0 0 0 35.366567834950871 -17.378330987201934 0 -17.378330987201934 -346.95942337581073 0 0 0 0 8.1131057631199184 255.85304284155654 0 255.85304284155654 13.970819058115012 0 0 0 0 81.379033789006144 82.555638226433075 0 82.555638226433075 -621.94423730731069 0 0 0 0 -256.14091322522177 -8.1544952779076993 0 -8.1544952779076993 -206.22345271837548 0 0 0 0 43.545271297707018 80.413107463074994 0 80.413107463074994 -309.37254386948189 0 0 0 0 110.45808243141437 219.5023018394204 0 219.5023018394204 -452.60392710652377 0 0 0 0 94.693693218372573 445.58302730650757 0 445.58302730650757 -210.90843684560969 0 0 0 0 -39.348268654206549 177.45436964033433 0 177.45436964033433 60.440609442841378 0 0 0 0 70.52703858608038 -30.076651504939946 0 -30.076651504939946 -360.00123329236521 0 0 0 0 -21.065532495312937 -57.075758887549455 0 -57.075758887549455 -116.09418823511805 0 0 0 0 37.513193221974689 28.758865899435477 0 28.758865899435477 -117.31775115936762 0 0 0 0 41.362164495225443 88.274763230059762 0 88.274763230059762 -141.01648262409799 0 0 0 0 -2.6273465283957065 3.6466043469508458 0 3.6466043469508458 -4.0522136687516195 0 0 0 0 -158.54778130859734 265.93357782037492 0 265.93357782037492 -445.68839425293118 0 0 0 0 -12.91501756793701 10.896547485987355 0 10.896547485987355 -1.1939457871432921 0 0 0 0 -78.143933976544815 96.035807532865874 0 96.035807532865874 -120.87544840494229 0 0 0 0 -52.451265393932772 292.66104096922209 0 292.66104096922209 -647.17834294589193 0 0 0 0 46.224192319289386 30.047648535866756 0 30.047648535866756 -655.33129624323919 0 0 0 0 -457.88134713941872 753.23574100775295 0 753.23574100775295 -845.78149423947616 0 0 0 0 -724.37685392013009 563.92845683492487 0 563.92845683492487 315.95016349596699 0 0 0 0 73.522009117432845 160.36080012490493 0 160.36080012490493 -1270.7815451843926 0 0 0 0 -1250.752149943416 527.99487531607156 0 527.99487531607156 585.93188577818364 0 0 0 0 -5.5057320976251685 3.3125955609495747 0 3.3125955609495747 -1.6337570274532709 0 0 0 0 418.03460671228186 498.4962222440081 0 498.4962222440081 85.440811015760119 0 0 0 0 -726.99416876871601 535.26633054164995 0 535.26633054164995 741.16408906652941 0 0 0 0 -1108.4014539149875 -20.978751203481806 0 -20.978751203481806 -287.23939248242823 0 0 0 0 438.28947695541285 52.769324990454606 0 52.769324990454606 -909.62690459639998 0 0 0 0 222.54669268676935 -80.862473952569417 0 -80.862473952569417 -67.31635181963793 0 0 0 0 306.32254853381096 182.30774278762692 0 182.30774278762692 -339.90271256581764 0 0 0 0 -356.6400841001664 15.681727306829998 0 15.681727306829998 275.72997574957844 0 0 0 0 -522.68949421472007 477.58108285881463 0 477.58108285881463 19.336189452093095 0 0 0 0 -34.767052104534571 75.786141001955514 0 75.786141001955514 61.55051661243656 0 0 0 0 -163.9176385925623 154.76299191066937 0 154.76299191066937 -250.8127063329448 0 0 0 0 -25.901834038830202 114.25458047161374 0 114.25458047161374 -126.60570206424381 0 0 0 0 -42.261832520295627 94.688074272731114 0 94.688074272731114 -55.508371918855119 0 0 0 0 -39.977624372666469 84.381092165142036 0 84.381092165142036 -7.7775527352278004 0 0 0 0 -34.912341579164334 71.932872418994492 0 71.932872418994492 25.071140351358821 0 0 0 0 -60.414618157970835 115.946638474059 0 115.946638474059 -8.8188982124956965 0 0 0 0 -2.6780737949547557 8.4407452276339683 0 8.4407452276339683 25.90313295476993 0 0 0 0 -105.22465641312738 155.69946020514908 0 155.69946020514908 -23.799824097586679 0 0 0 0 -31.388833044151397 50.450737302662674 0 50.450737302662674 -115.26295447017765 0 0 0 0 -85.507445047100191 194.30592190510652 0 194.30592190510652 -159.38637329394987 0 0 0 0 -34.098199710192901 47.933732089713594 0 47.933732089713594 34.784561704363128 0 0 0 0 -30.553775285531856 98.080488158611161 0 98.080488158611161 -92.306891906853707 0 0 0 0 -34.251353791300062 114.35649674925662 0 114.35649674925662 -33.558794718606805 0 0 0 0 -43.771034752373453 137.1088527735119 0 137.1088527735119 -97.883761869525188 0 0 0 0 -36.549855079771078 120.65657039621146 0 120.65657039621146 -93.534174878273916 0 0 0 0 -33.59085374826973 65.425113434686807 0 65.425113434686807 30.359555585312918 0 0 0 0 -61.892382205265676 124.70850255001278 0 124.70850255001278 -100.04312569590184 0 0 0 0 -166.52265591627429 201.2661012847384 0 201.2661012847384 -112.6263818810985 0 0 0 0 5.5463450885882715 66.779541623094772 0 66.779541623094772 -81.022694342193645 0 0 0 0 -4.5419216599355536 45.992809611369353 0 45.992809611369353 13.591313825936759 0 0 0 0 -33.450181614785834 96.206040011566074 0 96.206040011566074 -69.651255056496666 0 0 0 0 0.69462990683909354 57.974599466127067 0 57.974599466127067 -56.1101013445371 0 0 0 0 -70.15104720949239 63.545810000864094 0 63.545810000864094 85.250119793910471 0 0 0 0 -22.668701366391815 114.56708374402297 0 114.56708374402297 -78.384119268208451 0 0 0 0 -18.384338440652474 69.028350182744163 0 69.028350182744163 19.590488766693671 0 0 0 0 -24.467535871513974 84.472277765198669 0 84.472277765198669 -55.081830728629939 0 0 0 0 16.829118457157165 31.235903103856799 0 31.235903103856799 -56.524769423279814 0 0 0 0 61.701138495903251 73.099350514210528 0 73.099350514210528 -116.41868817092109 0 0 0 0 -8.6274224535080464 18.770623003133551 0 18.770623003133551 -12.309354271102109 0 0 0 0 -20.83867252656529 50.490548788478918 0 50.490548788478918 31.629807852167687 0 0 0 0 -0.16515096269721852 53.32642506651797 0 53.32642506651797 7.994069163782072 0 0 0 0 -32.022895915392837 99.769733681745493 0 99.769733681745493 -101.92513416317524 0 0 0 0 -50.956764507744083 146.1085458903035 0 146.1085458903035 -118.5161014960031 0 0 0 0 -24.85271072735668 161.14085031514333 0 161.14085031514333 -146.54150804548408 0 0 0 0 82.83897300164972 228.77926955330622 0 228.77926955330622 -134.99108336676727 0 0 0 0 18.377404498152828 106.28778769719065 0 106.28778769719065 -131.02947448505438 0 0 0 0 29.499426221263775 67.015207940436085 0 67.015207940436085 -77.935292157941149 0 0 0 0 42.589543636053349 47.853141076891916 0 47.853141076891916 -78.816640981521232 0 0 0 0 -16.215502364841086 69.931392088117718 0 69.931392088117718 -26.073469787370414 0 0 0 0 17.708806705777533 76.505774685276265 0 76.505774685276265 -90.074118721560808 0 0 0 0 -44.205490818102589 113.9588626736986 0 113.9588626736986 -79.964087936823489 0 0 0 0 -3.639746963584912 127.08432989246649 0 127.08432989246649 -167.69988863001345 0 0 0 0 6.2571900056791492 89.432860927954607 0 89.432860927954607 -56.176210975645517 0 0 0 0 -3.9085579198035703 69.184963580039039 0 69.184963580039039 -91.794335264055007 0 0 0 0 35.817959212028654 12.811452683949028 0 12.811452683949028 5.1876458463038944 0 0 0 0 -14.168386865186221 60.1378694772975 0 60.1378694772975 1.8866500925360015 0 0 0 0 -49.434734243128332 91.003248448112572 0 91.003248448112572 -12.109291376167675 0 0 0 0 -33.645465155488637 99.421572617990023 0 99.421572617990023 -38.818388113504625 0 0 0 0 -20.987648866773554 13.66967257382629 0 13.66967257382629 5.5343519505159406 0 0 0 0 -38.591636101591575 109.61619084605627 0 109.61619084605627 -54.710199940556777 0 0 0 0 32.516795872840703 39.490372438935083 0 39.490372438935083 -51.238690359168686 0 0 0 0 30.234294129516158 35.068179461530349 0 35.068179461530349 -6.0436088259181133 0 0 0 0 -45.934906372684054 111.10471096601395 0 111.10471096601395 -10.127873682475183 0 0 0 0 0.74297971572741517 19.844696695086895 0 19.844696695086895 10.23937512885459 0 0 0 0 4.6814613941933203 30.137530530068034 0 30.137530530068034 36.055225151438208 0 0 0 0 18.822149040789213 22.306693133963336 0 22.306693133963336 12.597801909525515 0 0 0 0 -22.173043923750811 58.211731605042587 0 58.211731605042587 -4.4390515017512371 0 0 0 0 -0.63984817919617853 59.537756885592898 0 59.537756885592898 6.0826389136491343 0 0 0 0 -15.571812986336212 26.688914005867389 0 26.688914005867389 19.377751659368414 0 0 0 0 -51.46021731437213 71.71769676094118 0 71.71769676094118 -13.222758311385405 0 0 0 0 -0.15764166153894621 80.371251830918482 0 80.371251830918482 13.904843884520233 0 0 0 0 -11.738415885193859 15.365119074117899 0 15.365119074117899 3.1500417203950661 0 0 0 0 14.769792848752317 28.338375153415541 0 28.338375153415541 7.7032060516282854 0 0 0 0 9.5276395586001215 32.342680551812293 0 32.342680551812293 16.347957882959093 0 0 0 0 30.823923470820095 30.269755276246102 0 30.269755276246102 -32.499829949373805 0 0 0 0 -31.57736381898394 84.924383942416171 0 84.924383942416171 -78.295025917701423 0 0 0 0 -10.78808526294597 73.189660138217732 0 73.189660138217732 -73.686408487410517 0 0 0 0 -10.757386171922917 115.97852432177024 0 115.97852432177024 -77.406348668097053 0 0 0 0 9.2369505463476997 20.659994967528206 0 20.659994967528206 21.676260433697166 0 0 0 0 -46.3498399757882 62.427217332311557 0 62.427217332311557 0.13985788617719663 0 0 0 0 -11.711965007067192 35.616969018017699 0 35.616969018017699 -24.582869624544401 0 0 0 0 31.866526136825996 43.281145556269621 0 43.281145556269621 -15.118619629989553 0 0 0 0 -96.673538051076321 56.121108374609321 0 56.121108374609321 18.590526404441334 0 0 0 0 28.979242312292559 25.372535811456999 0 25.372535811456999 4.6629299730696516 0 0 0 0 26.20678083079838 48.934499987411982 0 48.934499987411982 -5.8867280576232588 0 0 0 0 5.1317919561297884 8.8706889402188551 0 8.8706889402188551 4.1410743876395486 0 0 0 0 27.319341723501566 70.508495664573275 0 70.508495664573275 -106.82797568988462 0 0 0 0 29.981156633616123 28.772474934268359 0 28.772474934268359 16.825465265638542 0 0 0 0 3.3308856922039922 25.654876659700676 0 25.654876659700676 35.751497676377767 0 0 0 0 -48.841448196451893 72.583384576155368 0 72.583384576155368 21.903979578477447 0 0 0 0 -21.653815823035075 81.554158843486221 0 81.554158843486221 24.758898150292225 0 0 0 0 29.959367796348488 51.187927331258834 0 51.187927331258834 -32.804103148249851 0 0 0 0 10.069377539061936 25.500658985541847 0 25.500658985541847 -10.937562355439951 0 0 0 0 10.322831034875435 80.020695126400824 0 80.020695126400824 -6.1216700595105067 0 0 0 0 -1.2255107732780743 62.65018961338501 0 62.65018961338501 30.479047208325937 0 0 0 0 27.163073919346971 20.913773081832915 0 20.913773081832915 -13.137584162031999 0 0 0 0 66.186058881557983 51.828319229884073 0 51.828319229884073 -3.3553080903802766 0 0 0 0 0.13266567161508647 29.479873524614959 0 29.479873524614959 6.3491526463258197 0 0 0 0 -6.9430309503490069 19.91702126797415 0 19.91702126797415 -9.4262023653352003 0 0 0 0 20.214694223832588 26.783598392006127 0 26.783598392006127 -2.8228203878374813 0 0 0 0 -13.697876744756822 34.926334124466756 0 34.926334124466756 -6.7308029878761317 0 0 0 0 3.9427989022594829 101.68196968996199 0 101.68196968996199 2.0873085675702896 0 0 0 0 -13.979774602979091 57.511339646611304 0 57.511339646611304 53.146607011309243 0 0 0 0 -32.331006097462819 36.94246115047099 0 36.94246115047099 171.94151508843061 0 0 0 0 12.229622086783543 91.731341103350132 0 91.731341103350132 -21.672201268840581 0 0 0 0 -13.976179742564167 67.917645089102734 0 67.917645089102734 -26.46241526940139 0 0 0 0 2.3672958249080693 85.167784519770066 0 85.167784519770066 -16.524820291516335 0 0 0 0 2.011520313191113 82.673124908818863 0 82.673124908818863 -6.1448413533653365 0 0 0 0 35.55922876309883 45.397698389601373 0 45.397698389601373 23.364327261706819 0 0 0 0 21.370663909481664 75.821177549150889 0 75.821177549150889 -7.8932085749984253 0 0 0 0 20.509721062713567 21.127891153624432 0 21.127891153624432 8.6065230534560726 0 0 0 0 20.098210160125745 19.162480445345864 0 19.162480445345864 -0.66882783442270011 0 0 0 0 41.571648446583097 28.800302971998661 0 28.800302971998661 5.6160123824444099 0 0 0 0 48.939459313045461 42.331819755870789 0 42.331819755870789 7.1824185723791629 0 0 0 0 21.412160919291026 44.177950068291295 0 44.177950068291295 2.8329209990333766 0 0 0 0 68.189129398638727 45.551913339872179 0 45.551913339872179 5.3243574734506183 0 0 0 0 29.487127953407253 70.421236218884587 0 70.421236218884587 -17.212699771236657 0 0 0 0 20.524159546448573 37.663722955036064 0 37.663722955036064 25.027651272946969 0 0 0 0 7.1326691987533906 29.236614367176259 0 29.236614367176259 12.327970261845905 0 0 0 0 20.690734110564627 22.575129391817896 0 22.575129391817896 6.9261199648742036 0 0 0 0 1.7073275503025798 29.212991395022982 0 29.212991395022982 2.4768284454621607 0 0 0 0 5.793924179068199 44.07709274410081 0 44.07709274410081 13.133741028781515 0 0 0 0 -3.8935266932930972 45.874614336593368 0 45.874614336593368 13.143105451177689 0 0 0 0 3.6166432609807089 34.751438605173462 0 34.751438605173462 5.1243983391032089 0 0 0 0 -128.94321809270332 9.735246797426953 0 9.735246797426953 53.353904752846574 0 0 0 0 18.221529924544654 23.068310780755496 0 23.068310780755496 18.210019252590769 0 0 0 0 -29.151644259771274 179.94089908110254 0 179.94089908110254 -156.67390201157832 0 0 0 0 -197.32419650197699 324.81692723065498 0 324.81692723065498 -143.03969543355925 0 0 0 0 28.731112980299258 41.726405205279661 0 41.726405205279661 -97.86715853298665 0 0 0 0 19.058403932694034 23.334300602592521 0 23.334300602592521 21.709260774735753 0 0 0 0 527.06414488172231 84.445016060955822 0 84.445016060955822 3.0023851171135902 0 0 0 0 -88.691642708498875 221.95862047662376 0 221.95862047662376 -98.768182793908636 0 0 0 0 3.9460896920548372 6.8152782629954558 0 6.8152782629954558 -8.0498665221509214 0 0 0 0 -153.79402892132566 164.97694952788879 0 164.97694952788879 -139.70557833384373 0 0 0 0 519.59354826226013 108.36793857855446 0 108.36793857855446 -6.2922586056229193 0 0 0 0 -213.38989156754815 167.49582204126636 0 167.49582204126636 -132.85566711829597 0 0 0 0 -260.56734405331008 327.06078542507021 0 327.06078542507021 -179.8753082801195 0 0 0 0 -179.94541517196376 279.88483050493232 0 279.88483050493232 -266.72634985642799 0 0 0 0 -241.64787605074616 371.82075803772022 0 371.82075803772022 -378.24511844146764 0 0 0 0 -263.73516706078954 382.47544628119795 0 382.47544628119795 -291.48438597726636 0 0 0 0 -210.52437838898504 322.03378198685823 0 322.03378198685823 -336.47251135876286 0 0 0 0 -218.32204571745933 526.81773996166885 0 526.81773996166885 -408.14645114773884 0 0 0 0 -262.17813405135485 562.8373906893321 0 562.8373906893321 -154.79893556120805 0 0 0 0 -190.04267297232218 503.61924714890483 0 503.61924714890483 -555.50487901587621 0 0 0 0 -249.60950335454982 378.90400718626915 0 378.90400718626915 -470.82844502630178 0 0 0 0 -234.31747151358468 737.21144995806389 0 737.21144995806389 -279.87093268957688 0 0 0 0 -538.68547748113815 578.11320110879024 0 578.11320110879024 -154.83116780151613 0 0 0 0 -281.49125795952568 941.5802845354192 0 941.5802845354192 357.53420558618382 0 0 0 0 -768.61209467081517 758.04041913716355 0 758.04041913716355 405.18837497682398 0 0 0 0 701.21439188432987 193.52685448260854 0 193.52685448260854 67.19619211438112 0 0 0 0 -1177.6562111633825 400.61802692884521 0 400.61802692884521 213.79942157064215 0 0 0 0 -1.0265046681891694 3.8728278001744769 0 3.8728278001744769 -2.3350574215129996 0 0 0 0 -581.71893988680904 302.50694109562755 0 302.50694109562755 -110.36123602875159 0 0 0 0 506.6663135151457 88.168412336650363 0 88.168412336650363 38.375420034513809 0 0 0 0 700.24927194230895 3.2318794460006757 0 3.2318794460006757 417.00471218689563 0 0 0 0 -3.3877190183832999 11.11353937350785 0 11.11353937350785 20.340550640274728 0 0 0 0 -77.307696659703538 78.226875769360049 0 78.226875769360049 1.4868307792785345 0 0 0 0 263.49366284359849 214.69152650454635 0 214.69152650454635 141.45922891079681 0 0 0 0 556.69370198691331 235.58699558238732 0 235.58699558238732 87.376730424890411 0 0 0 0 -9.0502424128644634 50.47734709631186 0 50.47734709631186 26.640064516279381 0 0 0 0 -8.7823000997068306 27.037597406515999 0 27.037597406515999 -14.35779633065593 0 0 0 0 -60.685670334430029 54.425865564604464 0 54.425865564604464 34.385820319672348 0 0 0 0 -8.1898401624251118 6.5251804891683634 0 6.5251804891683634 10.498715697422284 0 0 0 0 -46.498177965659124 48.29670380357129 0 48.29670380357129 29.432467079677735 0 0 0 0 0.38954722271637365 31.180404179860489 0 31.180404179860489 -8.163768501879531 0 0 0 0 -8.6017716685361165 -2.5789000741933705 0 -2.5789000741933705 -13.031003353758933 0 0 0 0 -3.7210519387553003 6.7576419721407603 0 6.7576419721407603 0.14740203000704355 0 0 0 0 -14.507644667671457 -28.247565515332099 0 -28.247565515332099 -118.58765741451134 0 0 0 0 34.733779135357963 60.161872039847367 0 60.161872039847367 -35.138013466916163 0 0 0 0 -30.180892407331271 77.672920911121764 0 77.672920911121764 -76.258518228089088 0 0 0 0 503.92156054159847 59.063500737408503 0 59.063500737408503 -9.6282240238215309 0 0 0 0 579.06724361873967 63.838876944544609 0 63.838876944544609 -12.027530381805263 0 0 0 0 559.43193116486964 127.69072326091555 0 127.69072326091555 -53.564623186626704 0 0 0 0 -347.77322047336941 183.95879579454322 0 183.95879579454322 384.60327459312975 0 0 0 0 584.39122344657608 207.64636872842675 0 207.64636872842675 77.578951271309052 0 0 0 0 565.71163408764437 52.333231087836793 0 52.333231087836793 -112.02637594818952 0 0 0 0 757.45946866613394 121.8643308648243 0 121.8643308648243 -82.893828137952369 0 0 0 0 1.000814712653004 4.3948407888787742 0 4.3948407888787742 13.48605516513652 0 0 0 0 383.97756127067487 142.50401532023534 0 142.50401532023534 224.78960031767201 0 0 0 0 -1.2418280537024202 206.11742247619259 0 206.11742247619259 125.93608451610271 0 0 0 0 126.44772209089012 84.401968155725626 0 84.401968155725626 -245.39987173675036 0 0 0 0 -8.0694824038150301 70.889633678030805 0 70.889633678030805 -18.979074102564482 0 0 0 0 -145.49556573371365 -120.58439940051176 0 -120.58439940051176 -168.6920992404921 0 0 0 0 -24.614193087509648 78.002456783760863 0 78.002456783760863 -11.94761440900038 0 0 0 0 -84.017764159096146 29.019704257581907 0 29.019704257581907 -29.143572479995782 0 0 0 0 -46.6129149226756 81.44783772619121 0 81.44783772619121 15.859285314276349 0 0 0 0 0.55212974017333938 1.2468649293333094 0 1.2468649293333094 4.6478366405559086 0 0 0 0 1141.9447014502607 39.258677335383254 0 39.258677335383254 -326.0378612223285 0 0 0 0 -419.15131798960465 -6.7295904620259535 0 -6.7295904620259535 89.460559385814122 0 0 0 0 105.98379507276582 -5.2356529765893356 0 -5.2356529765893356 -15.955492973305809 0 0 0 0 84.301214113119613 5.4389022371688043 0 5.4389022371688043 8.4746376684415736 0 0 0 0 327.02881785580234 37.815652237870381 0 37.815652237870381 143.75058209279086 0 0 0 0 6.790311136939752 16.356315595653733 0 16.356315595653733 -9.6705256030528517 0 0 0 0 157.67098264778986 -12.049627765838522 0 -12.049627765838522 -115.206475842293 0 0 0 0 5.2297051131755161 -8.1050088870207269 0 -8.1050088870207269 -5.5236609548769593 0 0 0 0 -128.29759101815853 52.916045021498576 0 52.916045021498576 33.060337092400005 0 0 0 0 428.93257834556789 209.76964745210717 0 209.76964745210717 -79.922370734566357 0 0 0 0 1.397960038424398 1.9044480693322434 0 1.9044480693322434 -0.71718061575109004 0 0 0 0 -87.816836475755736 188.30393206592998 0 188.30393206592998 -168.41020664098323 0 0 0 0 -130.85771820662012 76.346577873060596 0 76.346577873060596 -70.135073201185151 0 0 0 0 3.0253492093870591 127.79729625290202 0 127.79729625290202 -92.836082583919051 0 0 0 0 -9.0859849699991173 -24.942766465588647 0 -24.942766465588647 10.199604858466046 0 0 0 0 108.12703966310164 -38.663133181362355 0 -38.663133181362355 -43.222800186449604 0 0 0 0 57.721478543356966 -25.514235347602153 0 -25.514235347602153 -28.942390439202427 0 0 0 0 126.04245899712896 -2.5063532410567859 0 -2.5063532410567859 -29.743556531070681 0 0 0 0 37.340443854466685 36.524323645280674 0 36.524323645280674 -22.738468862444279 0 0 0 0 69.952800069583418 7.3903010093708872 0 7.3903010093708872 -8.3601422980427742 0 0 0 0 78.667699259866822 -9.5153394297813065 0 -9.5153394297813065 1.1305394331575371 0 0 0 0 98.92563333592625 -5.6991740561461484 0 -5.6991740561461484 -14.61589502741117 0 0 0 0 5.0217526923994651 15.520371260720406 0 15.520371260720406 -8.7315070744854779 0 0 0 0 96.517231166016018 1.8917676201963332 0 1.8917676201963332 -12.571694601560012 0 0 0 0 107.32192770848678 162.07553368778463 0 162.07553368778463 507.98122290961328 0 0 0 0 1.1521639934264769 -7.109696493133832 0 -7.109696493133832 -14.28926634402842 0 0 0 0 348.30247567140327 388.5529324465042 0 388.5529324465042 100.74914677860215 0 0 0 0 466.1182908217047 -32.721682187509941 0 -32.721682187509941 -174.6166949843464 0 0 0 0 -22.337090041246711 149.26733891503682 0 149.26733891503682 -36.971855216121185 0 0 0 0 1.8050531305830475 213.66306198557868 0 213.66306198557868 -60.537664890987799 0 0 0 0 -23.909920765825404 121.69824224369222 0 121.69824224369222 48.687972261046525 0 0 0 0 -179.70724724882643 180.62409645767184 0 180.62409645767184 193.06519718127674 0 0 0 0 6.046371414377063 281.40075679240545 0 281.40075679240545 -16.717808140092529 0 0 0 0 68.751610269041251 38.502917551244224 0 38.502917551244224 10.337879137600339 0 0 0 0 4.6855991220763826 97.545104916058335 0 97.545104916058335 -44.536389906483237 0 0 0 0 42.403463163546007 46.162219127949953 0 46.162219127949953 30.761561254137121 0 0 0 0 191.68498365670666 75.417857132611971 0 75.417857132611971 -159.24245444284315 0 0 0 0 16.947728047604766 -1.1432431475330951 0 -1.1432431475330951 -27.236416144862062 0 0 0 0 86.178940808739526 29.468331317457341 0 29.468331317457341 -42.42681365145836 0 0 0 0 88.716702374986426 -41.37833511755889 0 -41.37833511755889 -156.35997915806365 0 0 0 0 18.412482130731405 68.001083643875972 0 68.001083643875972 -8.2522410115925595 0 0 0 0 61.696760437483391 37.954891292665536 0 37.954891292665536 15.695327243827876 0 0 0 0 80.675222687317728 11.024222633073805 0 11.024222633073805 11.370233275811188 0 0 0 0 16.377675667713618 3.8564413717103463 0 3.8564413717103463 -0.22194054942792718 0 0 0 0 136.65176418390183 7.8931595161848236 0 7.8931595161848236 -10.569842228316702 0 0 0 0 55.436758093506796 54.882256939599756 0 54.882256939599756 2.4095774822635576 0 0 0 0 45.623910790249219 44.154947213063906 0 44.154947213063906 19.05746786127105 0 0 0 0 48.980793008609908 65.746690827363636 0 65.746690827363636 -8.725034561852226 0 0 0 0 37.493986192101147 58.078238123882329 0 58.078238123882329 -13.538298710540403 0 0 0 0 65.315194990839757 14.764828985731583 0 14.764828985731583 -28.97193737699601 0 0 0 0 14.253200247125264 3.5439607566708347 0 3.5439607566708347 0.65449334435561468 0 0 0 0 37.326681469795943 19.719901885289786 0 19.719901885289786 -7.8014058422085668 0 0 0 0 -55.002186176683608 107.65183922024153 0 107.65183922024153 -0.56954424682771787 0 0 0 0 -10.34247579703333 3.1175338756220299 0 3.1175338756220299 130.20229781708622 0 0 0 0 -24.053200163434667 23.638404172859737 0 23.638404172859737 49.456772185538284 0 0 0 0 7.6085171167069348 74.156841456831899 0 74.156841456831899 36.39881932924618 0 0 0 0 22.835828950297582 28.243617826108675 0 28.243617826108675 -2.3316597704542801 0 0 0 0 -6.7499433662169821 25.105085078329708 0 25.105085078329708 0.36302620147228026 0 0 0 0 38.001484313312176 29.118120176644879 0 29.118120176644879 -1.3623189474365063 0 0 0 0 44.285099216252092 22.654467250520611 0 22.654467250520611 -6.380293590889778 0 0 0 0 23.582645106118875 21.408726823729154 0 21.408726823729154 2.0891422333463652 0 0 0 0 117.79188358657302 36.731426678103162 0 36.731426678103162 -93.29685226159927 0 0 0 0 41.283102440531366 9.3056689121294767 0 9.3056689121294767 -8.2104707293910906 0 0 0 0 40.049053587716116 5.9625984935919405 0 5.9625984935919405 -12.794034970283974 0 0 0 0 46.435252696420484 16.034517962640166 0 16.034517962640166 -5.8547480810261732 0 0 0 0 24.443407051275393 11.787796216627243 0 11.787796216627243 -5.9757242100946542 0 0 0 0 27.962758452646085 0.86393152934033424 0 0.86393152934033424 -1.8538990411907434 0 0 0 0 5.0657736168980527 2.5919966991323378 0 2.5919966991323378 0.9556221291521183 0 0 0 0 43.865933124543517 24.911754724977072 0 24.911754724977072 -5.7357859263429418 0 0 0 0 23.289688665132374 3.9678313574254673 0 3.9678313574254673 -8.2779746075756293 0 0 0 0 40.370476425125844 25.008625817084976 0 25.008625817084976 156.70371803693706 0 0 0 0 188.47623187096997 -53.380885789621971 0 -53.380885789621971 -78.928534784232397 0 0 0 0 140.50989926266595 -100.25359413531987 0 -100.25359413531987 7.7839710685366299 0 0 0 0 6.6513858447162768 -1.4793778003002558 0 -1.4793778003002558 -2.8590811970377956 0 0 0 0 15.693831605428926 15.41911050430636 0 15.41911050430636 -7.3643578829156127 0 0 0 0 35.9210208657016 19.952168907330446 0 19.952168907330446 2.1906688359521809 0 0 0 0 44.774909091936934 28.73275165549785 0 28.73275165549785 -1.4303892582538538 0 0 0 0 52.894920582242321 22.523185362628283 0 22.523185362628283 -10.219123792332539 0 0 0 0 -189.52850563907123 162.2992777466643 0 162.2992777466643 -175.29162393136539 0 0 0 0 -0.81575607800841965 1.1076166768044686 0 1.1076166768044686 3.3036218363262151 0 0 0 0 -487.06795664272067 200.72972595002648 0 200.72972595002648 280.27139736816753 0 0 0 0 -220.86043020861689 229.74573268737004 0 229.74573268737004 -174.73188304570795 0 0 0 0 -284.15054750514719 212.1853020325234 0 212.1853020325234 -86.862507639743853 0 0 0 0 45.204807855385297 49.045593129027111 0 49.045593129027111 -128.24446925660595 0 0 0 0 -252.42063779203454 151.43469626946899 0 151.43469626946899 -40.271174954301387 0 0 0 0 8.043214153436935 6.1257331138401412 0 6.1257331138401412 1.0292851086833821 0 0 0 0 -24.807831976395391 193.77370748157409 0 193.77370748157409 -243.4759372255794 0 0 0 0 -280.97193093071837 303.29148016808176 0 303.29148016808176 68.025098418169364 0 0 0 0 -126.34860519837821 113.99100867892412 0 113.99100867892412 9.8335457782377489 0 0 0 0 -16.516914112200084 93.713504573603132 0 93.713504573603132 -25.825144474860281 0 0 0 0 11.230675172332646 4.4267321160511699 0 4.4267321160511699 4.1452516655497789 0 0 0 0 43.825542018690612 25.05776246836831 0 25.05776246836831 -125.21510324688279 0 0 0 0 38.33385909981007 1.9928590540293953 0 1.9928590540293953 75.848066187827499 0 0 0 0 154.190483201397 65.310820328755653 0 65.310820328755653 -80.940226278500631 0 0 0 0 44.59804726881967 40.724052245527332 0 40.724052245527332 22.665848934072812 0 0 0 0 -4.1785811343215755 73.220826632532408 0 73.220826632532408 -8.156395776935824 0 0 0 0 70.80742512021996 38.183376995130345 0 38.183376995130345 11.654028977324316 0 0 0 0 -22.03927440087125 105.3162687720469 0 105.3162687720469 -14.544010624355906 0 0 0 0 357.1647409606885 212.19561432264163 0 212.19561432264163 -91.145865445956588 0 0 0 0 498.67048660388537 -88.260751978174085 0 -88.260751978174085 -99.315940885644522 0 0 0 0 -0.72825326505500243 -0.071945997914809823 0 -0.071945997914809823 3.0102386695555765 0 0 0 0 142.80748133132875 -91.60599416657351 0 -91.60599416657351 53.66283553649555 0 0 0 0 157.08624659280758 52.45736706572643 0 52.45736706572643 -5.5297358246607473 0 0 0 0 57.896642608735419 65.305212789302459 0 65.305212789302459 -6.8233851310287719 0 0 0 0 97.718245238085728 105.48285259133991 0 105.48285259133991 7.5098743169219233 0 0 0 0 -90.968065981505788 61.978532752968022 0 61.978532752968022 25.182653057392599 0 0 0 0 21.280523674344295 115.28777175855066 0 115.28777175855066 22.151047974475659 0 0 0 0 101.74296375321319 91.362778497807085 0 91.362778497807085 -6.45190018217545 0 0 0 0 -160.09542038805375 -21.389643547765445 0 -21.389643547765445 -4.5488663869473385 0 0 0 0 -14.049018552848793 -1.4669710605267028 0 -1.4669710605267028 -25.561179618234746 0 0 0 0 -142.21799147930869 -27.838792144139006 0 -27.838792144139006 16.848595797113376 0 0 0 0 68.602369264826848 161.27347181240839 0 161.27347181240839 84.357279665287933 0 0 0 0 -197.27824678292382 184.76880527455796 0 184.76880527455796 94.786600018647732 0 0 0 0 -191.10125833290385 124.2695304664262 0 124.2695304664262 259.7840685845149 0 0 0 0 -330.6163149684653 -15.5233577342442 0 -15.5233577342442 208.86097365194655 0 0 0 0 -201.08668567538189 35.544702893585054 0 35.544702893585054 88.677546412945958 0 0 0 0 -172.95652998039441 -108.47543784961454 0 -108.47543784961454 -105.92182473625871 0 0 0 0 -562.81279887905112 -40.00844620668795 0 -40.00844620668795 75.797993424348533 0 0 0 0 -497.25867110067338 125.33734707986878 0 125.33734707986878 110.69159375008894 0 0 0 0 -532.55572384915286 84.963622545961698 0 84.963622545961698 -69.348865341569763 0 0 0 0 -781.18359733992838 257.50769243888499 0 257.50769243888499 50.482315172324888 0 0 0 0 -538.25358898747072 301.39915167745494 0 301.39915167745494 -70.714813634259372 0 0 0 0 -496.46509048031294 337.44902164954692 0 337.44902164954692 -262.27572694185073 0 0 0 0 -445.42600241001128 293.03628521307473 0 293.03628521307473 -71.021496407483937 0 0 0 0 -603.58415698180033 285.75980177966994 0 285.75980177966994 201.66625649991329 0 0 0 0 -476.76894976641051 253.58571825150284 0 253.58571825150284 331.72000784536067 0 0 0 0 -461.49817872888525 239.05603061636793 0 239.05603061636793 208.24929583423 0 0 0 0 -307.5694528003105 222.65901407556521 0 222.65901407556521 160.58015216121566 0 0 0 0 -473.5370818740339 270.15577874348674 0 270.15577874348674 325.01911040575942 0 0 0 0 -812.53103714526515 332.59132748117554 0 332.59132748117554 613.06684028745804 0 0 0 0 -211.50711865894846 8.2252692360343644 0 8.2252692360343644 -24.500010064075468 0 0 0 0 -6.692024090544038 2.6704754498783814 0 2.6704754498783814 -0.91404831492319616 0 0 0 0 -889.93675698657171 506.10018934643449 0 506.10018934643449 -210.80306884745369 0 0 0 0 -316.96526129313861 -137.3315691742464 0 -137.3315691742464 -225.30627707135864 0 0 0 0 -692.56550922026508 305.96040297808941 0 305.96040297808941 -115.08460148117592 0 0 0 0 -945.1135416480538 9.9174812627024949 0 9.9174812627024949 -450.68292091065086 0 0 0 0 -1190.7261832402146 1236.5285200371873 0 1236.5285200371873 -494.9350730535225 0 0 0 0 -253.65679739012558 -96.562537729099859 0 -96.562537729099859 252.75036373990588 0 0 0 0 -190.13540393740914 317.84273377574573 0 317.84273377574573 -1209.4252680212376 0 0 0 0 -413.86591215811495 930.15937893274531 0 930.15937893274531 -2005.963424333384 0 0 0 0 -924.32318878572551 510.83919265196892 0 510.83919265196892 -296.5290789452265 0 0 0 0 -1110.5374869518564 253.96052626434539 0 253.96052626434539 21.253686355281388 0 0 0 0 -775.71190672235389 438.81617889148765 0 438.81617889148765 -595.49520344368648 0 0 0 0 -1516.5891556885035 1074.4650779505173 0 1074.4650779505173 -599.13689571182476 0 0 0 0 -967.95242467556716 -269.37625713665739 0 -269.37625713665739 255.636192416423 0 0 0 0 -1725.0525036347281 378.28986229624934 0 378.28986229624934 233.19079311401583 0 0 0 0 -1206.8205851929233 850.38678357351455 0 850.38678357351455 -226.90345862790127 0 0 0 0 -959.93887862880365 341.59752502710035 0 341.59752502710035 -388.66297802753979 0 0 0 0 -137.56149696394277 -71.768709393589234 0 -71.768709393589234 -39.391196629934711 0 0 0 0 -262.98246360220946 45.598996006607194 0 45.598996006607194 -98.375490476315463 0 0 0 0 401.27386264430243 150.0731852491881 0 150.0731852491881 -122.85976786681567 0 0 0 0 -5.852962600341499 4.2735034548242936 0 4.2735034548242936 -1.6183756559652238 0 0 0 0 -757.77648189054889 124.73323375135806 0 124.73323375135806 847.49375067758956 0 0 0 0 -154.92640078859404 622.03426098894852 0 622.03426098894852 -1801.3501006932929 0 0 0 0 -1165.7344409107754 1043.5861946015502 0 1043.5861946015502 -2150.4340768248658 0 0 0 0 -1187.5665290870566 1380.744749084748 0 1380.744749084748 -822.38443899856065 0 0 0 0 -1826.0925997582817 438.381434732466 0 438.381434732466 -12.219449113414157 0 0 0 0 -512.71267206109769 672.58332979996339 0 672.58332979996339 -163.2400429425179 0 0 0 0 -520.77819905272918 736.14085382415215 0 736.14085382415215 -570.97341734215297 0 0 0 0 -63.211912039827439 115.4727849507326 0 115.4727849507326 -204.31256964660133 0 0 0 0 -331.58715704182396 513.73618452796654 0 513.73618452796654 -555.85727208817116 0 0 0 0 -186.61412446366739 170.96742619160796 0 170.96742619160796 -47.776670438499423 0 0 0 0 -194.3395779666098 147.01373090613197 0 147.01373090613197 -73.257810511131538 0 0 0 0 67.474317114290898 55.860483247888624 0 55.860483247888624 -373.18742952702451 0 0 0 0 83.626027924430673 309.47276830992632 0 309.47276830992632 346.01753148365242 0 0 0 0 156.31528389289451 18.933950671591447 0 18.933950671591447 -86.914956434149644 0 0 0 0 116.79147366867983 106.48442345621879 0 106.48442345621879 -3.4372968241805211 0 0 0 0 78.266308863581799 138.02960122880904 0 138.02960122880904 157.99451410755864 0 0 0 0 191.02701072872151 160.80259091421613 0 160.80259091421613 160.3874791292983 0 0 0 0 -14.421870225652043 8.5005357302916309 0 8.5005357302916309 -1.836929308243981 0 0 0 0 -3.040685128188187 2.3282537730940049 0 2.3282537730940049 -0.57409210003561384 0 0 0 0 22.514169809583109 55.015554083041934 0 55.015554083041934 18.31327464824426 0 0 0 0 -10.441361265991873 10.809650017523381 0 10.809650017523381 -0.043200069747399539 0 0 0 0 -17.123793667796605 9.3066576067647873 0 9.3066576067647873 -1.799117820454029 0 0 0 0 -96.606159676912284 83.189400089744595 0 83.189400089744595 212.46940121595981 0 0 0 0 113.10769311589502 121.54724670672476 0 121.54724670672476 14.225142095267074 0 0 0 0 -6.4303078561287563 1.7106211435614682 0 1.7106211435614682 2.1035178196744937 0 0 0 0 -17.493191236259008 8.4554358660680009 0 8.4554358660680009 -0.090873325214488432 0 0 0 0 -11.122234472677519 5.4881044462526916 0 5.4881044462526916 -5.0068759846617468 0 0 0 0 -11.842891931872146 2.4973050896678615 0 2.4973050896678615 -3.8607208323664963 0 0 0 0 -2.8518886339187759 -1.5449143359965944 0 -1.5449143359965944 -1.4990939162901213 0 0 0 0 -430.50019498113397 215.46306862703932 0 215.46306862703932 -33.513638963340782 0 0 0 0 -2.3291617060910781 3.4403983195572607 0 3.4403983195572607 -4.8676411956054153 0 0 0 0 307.48377761159645 44.286051126437087 0 44.286051126437087 -48.860572120611323 0 0 0 0 -3.5864588631887244 -1.9737417398160915 0 -1.9737417398160915 1.5154340105242454 0 0 0 0 -8.9045439081310178 11.091645266336855 0 11.091645266336855 0.0079351292695122051 0 0 0 0 -0.51708993020994853 -0.30882633118990555 0 -0.30882633118990555 -3.8465880881940961 0 0 0 0 -1572.1893892049411 53.114994637915515 0 53.114994637915515 94.703301193250809 0 0 0 0 -671.88607099321234 605.0098752621343 0 605.0098752621343 -0.37149194865196478 0 0 0 0 -792.8470012704056 149.32179456876474 0 149.32179456876474 55.356106070994429 0 0 0 0 -1137.7870025283919 555.0168477799125 0 555.0168477799125 73.077763057575794 0 0 0 0 -646.97932163629594 609.21349948785792 0 609.21349948785792 -1.6151622036413755 0 0 0 0 -514.26920592348324 485.56592295115115 0 485.56592295115115 40.780135118802718 0 0 0 0 -905.74715314082277 529.12904271064326 0 529.12904271064326 43.009409606893314 0 0 0 0 -615.31123132126231 370.22603921042173 0 370.22603921042173 -88.210260578372981 0 0 0 0 -573.41573498454818 623.98576428300294 0 623.98576428300294 -148.13193626637803 0 0 0 0 -876.99306454301404 893.36957243896904 0 893.36957243896904 -45.171920271008275 0 0 0 0 -548.16671850296552 557.48377616405196 0 557.48377616405196 49.503629140395788 0 0 0 0 -628.51471861316531 576.80313593444589 0 576.80313593444589 371.22753395675682 0 0 0 0 -646.33299340730446 673.28566457634588 0 673.28566457634588 69.569302942982176 0 0 0 0 -586.51282083588012 506.84649326177896 0 506.84649326177896 90.692926988309409 0 0 0 0 -445.65079088277707 530.72095803390403 0 530.72095803390403 -25.274072325832094 0 0 0 0 -187.75119266491674 354.2506742918049 0 354.2506742918049 38.749444542190759 0 0 0 0 -293.04799756466673 256.65255453188365 0 256.65255453188365 228.46083683255711 0 0 0 0 -0.68201000063851325 4.3830132663355528 0 4.3830132663355528 0.83719896898827528 0 0 0 0 66.235664258856559 575.79282652717666 0 575.79282652717666 0.74805174960438403 0 0 0 0 254.34782262242516 323.62472022505244 0 323.62472022505244 -640.26557474173023 0 0 0 0 212.10955078937695 474.54471888774424 0 474.54471888774424 -457.87398989655776 0 0 0 0 -1.3865633694986172 74.087261079415839 0 74.087261079415839 272.52565708890324 0 0 0 0 2.8928426456165255 3.251303481831286 0 3.251303481831286 4.0903153234023364 0 0 0 0 -66.606001883963472 318.7861173813435 0 318.7861173813435 112.09363479411695 0 0 0 0 47.535503735562088 -214.46903648031002 0 -214.46903648031002 -74.27447914172626 0 0 0 0 -695.37464818327862 280.6343164343125 0 280.6343164343125 -92.426895327676903 0 0 0 0 16.944584133525495 574.92362481396412 0 574.92362481396412 -42.900945700632292 0 0 0 0 18.94781730003524 18.860045972171065 0 18.860045972171065 5.3837421372300014 0 0 0 0 12.635471295856405 30.081037080708484 0 30.081037080708484 9.4807246225318522 0 0 0 0 4.3770227190799602 3.7772924495896802 0 3.7772924495896802 -4.8402092940561374 0 0 0 0 6.8875561937893508 2.5358813678176375 0 2.5358813678176375 -5.1638083679335978 0 0 0 0 21.790133858701665 12.338998170536797 0 12.338998170536797 -4.7764849279483315 0 0 0 0 0.71170363598503172 18.426229049451649 0 18.426229049451649 -6.8690700828447007 0 0 0 0 1.2174441521706285 -0.45413090924668609 0 -0.45413090924668609 -0.35248934197124981 0 0 0 0 40.350547762423957 17.438419653815799 0 17.438419653815799 -6.5934085769113153 0 0 0 0 18.209712595667952 6.5479708099228446 0 6.5479708099228446 -1.0835927112639183 0 0 0 0 11.15073153037148 10.519866853536513 0 10.519866853536513 4.4599716357388388 0 0 0 0 38.262365446734293 16.059631889434968 0 16.059631889434968 1.4042153836926445 0 0 0 0 47.314934059892948 8.6883789222356427 0 8.6883789222356427 -3.4803541703440715 0 0 0 0 -1.4047434811291168 11.385422675826703 0 11.385422675826703 5.479098125215387 0 0 0 0 1.9374831975561282 0.6576200547281843 0 0.6576200547281843 -0.30480167047829809 0 0 0 0 14.620493740335903 -5.0349969522775524 0 -5.0349969522775524 -6.8826695562523241 0 0 0 0 16.918374537092461 12.167562134870636 0 12.167562134870636 -3.4039567367541963 0 0 0 0 31.725489567972545 9.1143157428014092 0 9.1143157428014092 2.8405583792482503 0 0 0 0 21.882800253996415 1.4223488046254431 0 1.4223488046254431 -6.647284078776579 0 0 0 0 16.262286644962344 3.6935792773945622 0 3.6935792773945622 -3.8789798368092647 0 0 0 0 21.842187928574276 13.523040431966365 0 13.523040431966365 -8.0929126519476995 0 0 0 0 16.796082557363466 9.1651641551900553 0 9.1651641551900553 -2.5753825073631447 0 0 0 0 14.31999486447603 7.5049813508230727 0 7.5049813508230727 -3.0301559637882747 0 0 0 0 21.347068306214901 12.643297616994403 0 12.643297616994403 -3.5540639607366131 0 0 0 0 28.205328783747973 24.456119616312208 0 24.456119616312208 11.430866568844067 0 0 0 0 19.569472019770494 15.724208883251407 0 15.724208883251407 4.0772347062996346 0 0 0 0 19.099898182706966 16.100386605219683 0 16.100386605219683 -6.5056271819339599 0 0 0 0 17.281861617564573 35.425513369395048 0 35.425513369395048 2.524693443410797 0 0 0 0 13.043824351904362 20.998563147653812 0 20.998563147653812 -5.692010223292769 0 0 0 0 -4.2713125669906731 10.655444332733168 0 10.655444332733168 -3.4659410935419146 0 0 0 0 -7.4232558378282363 9.4706726075909344 0 9.4706726075909344 -8.6948250912177514 0 0 0 0 8.059247319422866 42.030498618099955 0 42.030498618099955 20.747302742645843 0 0 0 0 12.347503427405172 32.861616881178634 0 32.861616881178634 15.561529198101198 0 0 0 0 8.7751885332618258 40.986823116138112 0 40.986823116138112 9.5580448386899661 0 0 0 0 -102.96953072488395 -7.1672212332196068 0 -7.1672212332196068 36.531517086474196 0 0 0 0 7.44959286863741 27.772041947726393 0 27.772041947726393 10.309256005682983 0 0 0 0 5.2884437849716051 25.65948502322135 0 25.65948502322135 32.232525116320176 0 0 0 0 76.610938255213114 82.341485571087105 0 82.341485571087105 4.0137582520255819 0 0 0 0 -156.59678943015751 35.520979321037885 0 35.520979321037885 -0.059411270995042287 0 0 0 0 135.76842239759571 146.01580728068075 0 146.01580728068075 -42.470684214080393 0 0 0 0 -61.134588914777851 154.67213292978522 0 154.67213292978522 48.659004188870313 0 0 0 0 62.12319408194162 54.726567165154847 0 54.726567165154847 29.032159652895643 0 0 0 0 18.632827143468603 20.809913115619565 0 20.809913115619565 -4.9184021335095167 0 0 0 0 17.218098755125538 11.402072199016402 0 11.402072199016402 -0.021850609744433314 0 0 0 0 -33.201507555306307 41.44949819977046 0 41.44949819977046 -13.12767850777891 0 0 0 0 1.5663682272881232 -0.16433705107974106 0 -0.16433705107974106 -4.0007225671273545 0 0 0 0 14.947911565024697 8.6228409228424425 0 8.6228409228424425 -2.7871136429166654 0 0 0 0 13.55905536445789 3.9444323138959589 0 3.9444323138959589 -0.54999972938094288 0 0 0 0 21.736084557707727 4.8812760478322161 0 4.8812760478322161 -0.75832047068979591 0 0 0 0 12.268315679222724 9.446385046121577 0 9.446385046121577 -0.10793328608269803 0 0 0 0 13.716608642127539 5.4895995017068344 0 5.4895995017068344 10.484731306030881 0 0 0 0 -3.4621788001386449 8.3584385621434194 0 8.3584385621434194 -2.9708412936306559 0 0 0 0 -0.74290524421667214 8.8688334768085042 0 8.8688334768085042 3.5762986810295843 0 0 0 0 8.8622570178995375 12.440691156924004 0 12.440691156924004 4.9927942047070246 0 0 0 0 8.1525839722162345 5.8640820622094907 0 5.8640820622094907 1.8666514789365465 0 0 0 0 7.1113195326615823 9.1597642965061823 0 9.1597642965061823 -3.1581123586802278 0 0 0 0 6.5130444203859952 9.1922687194746686 0 9.1922687194746686 0.0019043466309085488 0 0 0 0 -1.6562205371992604 5.3109795075142756 0 5.3109795075142756 2.011140451511892 0 0 0 0 -10.455452393292944 8.7410549851629185 0 8.7410549851629185 -0.0015563032193741358 0 0 0 0 -3.0278791070495572 1.2449179392551741 0 1.2449179392551741 -3.6660469040507451 0 0 0 0 -2.8534119148435408 -0.41001944577007521 0 -0.41001944577007521 3.5118712754427293 0 0 0 0 259.48319942722082 -43.270256912386685 0 -43.270256912386685 -17.460180346359266 0 0 0 0 52.324020172996825 -17.251168542177766 0 -17.251168542177766 51.587153902939463 0 0 0 0 132.87557129379275 0.051196874592278618 0 0.051196874592278618 24.222686800232623 0 0 0 0 -0.21981410928903244 -0.61849978290192098 0 -0.61849978290192098 4.0243735293842064 0 0 0 0 0.13368950003405189 10.642600113311346 0 10.642600113311346 -2.3938769127998967 0 0 0 0 59.362489425791864 -29.917253136554791 0 -29.917253136554791 10.174585194865358 0 0 0 0 -36.511057449506325 38.99358996906949 0 38.99358996906949 -0.056393940016278066 0 0 0 0 -2.3187011016714862 1.9899200890789075 0 1.9899200890789075 3.0388739822804496 0 0 0 0 183.30048514371992 14.666496011413983 0 14.666496011413983 -20.878501066505123 0 0 0 0 139.23349483006768 50.581523871151148 0 50.581523871151148 0.086283719763741829 0 0 0 0 -29.502913051135693 -24.052599532602471 0 -24.052599532602471 -17.299002067336914 0 0 0 0 -2.1227379943853464 1.8817976787503881 0 1.8817976787503881 2.8140793002544058 0 0 0 0 39.169874393235659 105.36450566838903 0 105.36450566838903 1.9519652760027384 0 0 0 0 30.445468745972903 94.025149908455205 0 94.025149908455205 3.1364062493375968 0 0 0 0 174.03644562058253 39.768536395567935 0 39.768536395567935 -26.5432305647264 0 0 0 0 -218.67825833316965 -149.53229686818668 0 -149.53229686818668 26.545426542899804 0 0 0 0 -63.962573522869206 -40.630154414757271 0 -40.630154414757271 -67.667806088080397 0 0 0 0 253.98601735871489 48.89919525719597 0 48.89919525719597 -42.496522130044468 0 0 0 0 54.706463352173159 -343.61446328985039 0 -343.61446328985039 -213.66919953591423 0 0 0 0 -55.072769724320096 -80.424630689361948 0 -80.424630689361948 38.069068363198312 0 0 0 0 39.431458328253939 -210.36145379066147 0 -210.36145379066147 1.3729735549131874 0 0 0 0 6.5962223372150177 5.7237201802357731 0 5.7237201802357731 4.9185323238375247 0 0 0 0 415.21766817903335 271.13622017906164 0 271.13622017906164 -79.868089389401575 0 0 0 0 114.90211890359933 -194.04000086799897 0 -194.04000086799897 -184.09378906677011 0 0 0 0 153.26973314897987 -181.72874593250162 0 -181.72874593250162 -181.60165025985043 0 0 0 0 69.248267032609874 120.78708409956016 0 120.78708409956016 1.0795250788651174 0 0 0 0 -0.51645579963347643 3.2223729403761467 0 3.2223729403761467 4.2387775791122522 0 0 0 0 10.797118195685471 122.14871909086651 0 122.14871909086651 1.0843356176410168 0 0 0 0 -186.80351965602313 -132.92740000040067 0 -132.92740000040067 23.763822366629029 0 0 0 0 34.108551176165157 12.367534767491804 0 12.367534767491804 4.1338740601035795 0 0 0 0 164.32819789124733 7.1963977721061383 0 7.1963977721061383 -92.816409438564733 0 0 0 0 56.174274255636192 28.625544648253708 0 28.625544648253708 -16.319912353239488 0 0 0 0 -166.35295989943552 -4.9199812215520069 0 -4.9199812215520069 208.40419980400475 0 0 0 0 -96.31803147559549 40.590434485973674 0 40.590434485973674 211.51548095513135 0 0 0 0 119.67951904155234 -118.30025730813213 0 -118.30025730813213 -197.1285900499206 0 0 0 0 204.3186500031461 -162.86077474674676 0 -162.86077474674676 63.934478163377662 0 0 0 0 -47.409655802359339 109.01902288816927 0 109.01902288816927 -98.000003528839443 0 0 0 0 22.351575660484151 7.8012209731236908 0 7.8012209731236908 2.0912850055323418 0 0 0 0 90.786174453458443 -40.030115198809654 0 -40.030115198809654 58.244876645476324 0 0 0 0 56.096514990863398 27.432363696687389 0 27.432363696687389 -6.3129197903035674 0 0 0 0 257.35916724347044 -59.074072023417102 0 -59.074072023417102 -84.158597021305468 0 0 0 0 47.67907517155254 -28.652890988872969 0 -28.652890988872969 11.330724286814075 0 0 0 0 53.518097875115927 -5.3987007749310578 0 -5.3987007749310578 -23.075638424423232 0 0 0 0 43.699229245132301 -32.287477291713003 0 -32.287477291713003 -62.548187953812885 0 0 0 0 65.502140798445907 -44.917108282068511 0 -44.917108282068511 12.561672524068854 0 0 0 0 127.6939545713758 57.258981480095827 0 57.258981480095827 -2.0472334439691622 0 0 0 0 -53.044104048865847 31.897010600674548 0 31.897010600674548 -2.826601382366789 0 0 0 0 33.206911065877648 -25.448182164022001 0 -25.448182164022001 16.55196559621254 0 0 0 0 14.156911956703965 6.8141760832167222 0 6.8141760832167222 3.4287169703524114 0 0 0 0 10.812328989473635 4.1262831299315792 0 4.1262831299315792 3.0998473222488485 0 0 0 0 6.6586424935085233 -30.650205201745848 0 -30.650205201745848 4.5673478919052286 0 0 0 0 131.88373329649039 96.72163280301902 0 96.72163280301902 -9.5082937311899514 0 0 0 0 51.293291614008922 1.8252450908403262 0 1.8252450908403262 -28.406998899095925 0 0 0 0 32.656203246566292 -7.6101353419944644 0 -7.6101353419944644 -2.8555102614336647 0 0 0 0 50.988218763410259 22.075915379726212 0 22.075915379726212 -74.754031726239191 0 0 0 0 48.639303733436464 9.1653298912497121 0 9.1653298912497121 -9.0306810682814103 0 0 0 0 8.9364306627539918 -7.3137284810945857 0 -7.3137284810945857 -12.644378261291422 0 0 0 0 58.394399751440801 19.727895885816295 0 19.727895885816295 -9.5002645806355872 0 0 0 0 34.728453885621235 -0.92165717218912846 0 -0.92165717218912846 -12.022393428701264 0 0 0 0 30.201028871961171 -4.2160534670692869 0 -4.2160534670692869 -22.686802497555618 0 0 0 0 44.290044186506748 -7.1827146574478036 0 -7.1827146574478036 -14.804859683056719 0 0 0 0 29.867913440390637 7.7210727495623246 0 7.7210727495623246 2.0771665303320077 0 0 0 0 44.057645396059343 7.5062997808745422 0 7.5062997808745422 -15.862930890085408 0 0 0 0 26.996613058441053 -0.072997659066004417 0 -0.072997659066004417 -7.2872329586087403 0 0 0 0 48.529510455456602 8.9501651067403145 0 8.9501651067403145 1.8715681154571939 0 0 0 0 38.383139841257375 11.368400277680877 0 11.368400277680877 -4.5230681813575018 0 0 0 0 30.016342835917683 -5.9906178550927933 0 -5.9906178550927933 -4.8325838362090963 0 0 0 0 47.964705880790348 -3.5751371671285597 0 -3.5751371671285597 18.477782406669576 0 0 0 0 47.875652493296002 -0.27143059134687064 0 -0.27143059134687064 -7.5825227788300253 0 0 0 0 2.9807550674306436 4.4361383972232673 0 4.4361383972232673 -2.3585209445685109 0 0 0 0 9.9789875799801848 43.58234680203168 0 43.58234680203168 -27.047902187863656 0 0 0 0 44.150334282963286 44.638566358433309 0 44.638566358433309 67.006425712868804 0 0 0 0 16.419737533491343 10.432281869667349 0 10.432281869667349 3.2724022205657093 0 0 0 0 -67.882398460664945 63.023345104316832 0 63.023345104316832 -32.157792611524201 0 0 0 0 18.639469908150659 38.728055045416113 0 38.728055045416113 -42.285572119435528 0 0 0 0 4.0340302360813212 36.514250890220865 0 36.514250890220865 -18.305140905256849 0 0 0 0 27.207729285080177 16.691235036654689 0 16.691235036654689 5.2452483092492912 0 0 0 0 39.218489093354606 8.4954968360761995 0 8.4954968360761995 -13.01401858907775 0 0 0 0 42.555226620567737 15.02896414231509 0 15.02896414231509 -6.5417712733033113 0 0 0 0 19.825609307129952 0.17512953038385604 0 0.17512953038385604 4.0740081080766686 0 0 0 0 26.108742156822405 7.9334265058184315 0 7.9334265058184315 -1.8546819543540778 0 0 0 0 15.767508031534817 21.054119159321999 0 21.054119159321999 -31.028232186043169 0 0 0 0 22.235131995881666 25.324380212520566 0 25.324380212520566 9.8113554315432907 0 0 0 0 35.865829083323206 27.013921048157499 0 27.013921048157499 15.196627271478064 0 0 0 0 3.7986710559052792 10.019012361898149 0 10.019012361898149 1.4576611478394597 0 0 0 0 45.269219289453758 23.848527657683007 0 23.848527657683007 -6.5194669730553869 0 0 0 0 53.327890416681839 26.539278560929233 0 26.539278560929233 -5.791287496307632 0 0 0 0 35.801201643706008 32.028954297071323 0 32.028954297071323 4.0246751118684188 0 0 0 0 64.561744360823468 18.651081561329192 0 18.651081561329192 -19.858515824889764 0 0 0 0 45.430355057022553 46.157472918566782 0 46.157472918566782 -53.411853691155557 0 0 0 0 43.641586486014376 67.805754634267942 0 67.805754634267942 -47.559755510621471 0 0 0 0 40.472438676346883 79.267405393184163 0 79.267405393184163 -69.712538618954568 0 0 0 0 57.028098486946874 47.582920612090675 0 47.582920612090675 -37.582295894593699 0 0 0 0 28.418098242869746 65.549858310434502 0 65.549858310434502 -15.377575577993412 0 0 0 0 200.80180112334165 47.114504343233421 0 47.114504343233421 -176.8761136662506 0 0 0 0 138.61157650397035 51.742254570795922 0 51.742254570795922 -136.16717214231176 0 0 0 0 80.265774955631969 46.045394073735224 0 46.045394073735224 -92.494613937680242 0 0 0 0 132.31903449562867 -9.7199463542792728 0 -9.7199463542792728 -33.281603267765604 0 0 0 0 81.72613596660176 110.1848312295333 0 110.1848312295333 -120.26183011656394 0 0 0 0 77.789565316592416 76.027824407618027 0 76.027824407618027 -92.370080371472113 0 0 0 0 54.329209736533812 101.45666505121335 0 101.45666505121335 -119.67196271673311 0 0 0 0 54.576348463784598 151.51361622090917 0 151.51361622090917 -175.27144770800078 0 0 0 0 143.97941890282436 91.080764708356583 0 91.080764708356583 -157.81138306693174 0 0 0 0 115.06805099022904 142.62850027230161 0 142.62850027230161 -235.14507811749354 0 0 0 0 109.30378033740089 170.88102601158607 0 170.88102601158607 -208.13445771273109 0 0 0 0 67.588014443210341 244.81113981008821 0 244.81113981008821 -201.2982414928556 0 0 0 0 43.684085105554914 225.70374485614593 0 225.70374485614593 -214.58464502563584 0 0 0 0 100.30408739209179 175.12825848712237 0 175.12825848712237 -203.59517312096432 0 0 0 0 52.628644749093837 209.08786403392878 0 209.08786403392878 -185.00515220704256 0 0 0 0 13.581230467202658 170.15434518865368 0 170.15434518865368 -141.40890114803187 0 0 0 0 -15.013907563517932 233.61418597665033 0 233.61418597665033 -142.49274135916494 0 0 0 0 -38.51436569321595 268.64699627633672 0 268.64699627633672 -178.83897692528262 0 0 0 0 25.433695233114122 233.56862527152407 0 233.56862527152407 -160.83108480945521 0 0 0 0 -6.0989891445415196 284.53626115749648 0 284.53626115749648 -218.42524721403606 0 0 0 0 -5.1131279561668634 304.40427303918113 0 304.40427303918113 -186.66638527758187 0 0 0 0 11.171445863910094 94.214398247575446 0 94.214398247575446 -55.847177915478824 0 0 0 0 -17.782679909027138 76.296219009600463 0 76.296219009600463 -36.83720324170099 0 0 0 0 29.063419149731317 148.29839791608538 0 148.29839791608538 -115.27161462791264 0 0 0 0 -6.1512483707520005 122.19193588991766 0 122.19193588991766 -76.048505339291296 0 0 0 0 -58.87295022316539 198.18640241460525 0 198.18640241460525 -119.61407901595157 0 0 0 0 -33.551363689642585 166.55545005793829 0 166.55545005793829 -90.131919834471773 0 0 0 0 -76.641162380825563 144.99233700205514 0 144.99233700205514 -76.05725789481221 0 0 0 0 -119.01365079110565 212.70486676003202 0 212.70486676003202 -86.793225290708506 0 0 0 0 -91.674013956994713 276.55250199706643 0 276.55250199706643 -147.57978552111308 0 0 0 0 -130.1177757726249 239.74598908676853 0 239.74598908676853 -131.79275259489077 0 0 0 0 -67.256568197391971 306.35046086195507 0 306.35046086195507 -166.48208562073705 0 0 0 0 -28.443573241072045 285.78877583770372 0 285.78877583770372 -155.6535408620839 0 0 0 0 -50.008844075156048 325.36466827646655 0 325.36466827646655 -196.44248387246625 0 0 0 0 -77.901631285035364 262.99913539280533 0 262.99913539280533 -134.24943475596592 0 0 0 0 -115.3754394658481 270.56940973299788 0 270.56940973299788 -148.01518494384072 0 0 0 0 -84.800462497975786 311.50571005069651 0 311.50571005069651 -156.01143506608787 0 0 0 0 -112.52365362092678 317.49179796954559 0 317.49179796954559 -153.88775843865005 0 0 0 0 -87.239519834564305 342.74257138863686 0 342.74257138863686 -156.85972206422593 0 0 0 0 -111.13380945405981 328.83750186217549 0 328.83750186217549 -143.8559178916621 0 0 0 0 -113.13211607880447 306.9087295547979 0 306.9087295547979 -165.6988455435785 0 0 0 0 -137.38642117918567 278.44873914206619 0 278.44873914206619 -201.25827016393305 0 0 0 0 -191.95476930296104 265.24116392397264 0 265.24116392397264 -195.84891579578107 0 0 0 0 -145.93998534488765 310.85768595708942 0 310.85768595708942 -161.46826825503376 0 0 0 0 -114.37397001177283 294.50746612215153 0 294.50746612215153 -207.13100030957139 0 0 0 0 -180.0008981550875 218.8647254843745 0 218.8647254843745 -139.96446317815571 0 0 0 0 -156.31347457267998 296.34935679090995 0 296.34935679090995 -164.243048413613 0 0 0 0 -2.1610510419432378 2.5929953940678914 0 2.5929953940678914 -0.38411010489511455 0 0 0 0 -396.86171108964948 189.70420575247044 0 189.70420575247044 -49.289615189933102 0 0 0 0 -222.86890961351912 285.71487175625953 0 285.71487175625953 -224.30254273278115 0 0 0 0 114.87581527709892 26.739984069718048 0 26.739984069718048 -92.185084967975854 0 0 0 0 95.818355533469116 72.422326980102298 0 72.422326980102298 13.257901754943305 0 0 0 0 30.201914146111278 48.294999629011727 0 48.294999629011727 11.808541390812024 0 0 0 0 1.5910600895695097 33.062541136619984 0 33.062541136619984 -37.558561165526044 0 0 0 0 -201.66440100086572 73.050624294672161 0 73.050624294672161 16.669460369288572 0 0 0 0 -67.657758924728114 139.21010686221416 0 139.21010686221416 61.520981625631975 0 0 0 0 -75.497410654750638 89.339629064023029 0 89.339629064023029 103.31435898340715 0 0 0 0 -230.79775877429074 221.89584448091773 0 221.89584448091773 54.483403607941 0 0 0 0 -259.5481623208907 206.80655321893573 0 206.80655321893573 70.766775531727035 0 0 0 0 -79.555834393902842 28.264264412326156 0 28.264264412326156 32.34508595027728 0 0 0 0 54.687300459812832 137.21457189085777 0 137.21457189085777 26.341130456945393 0 0 0 0 145.31184926498645 -70.728048985532951 0 -70.728048985532951 -88.159099786775187 0 0 0 0 136.37544358327978 127.69245116021921 0 127.69245116021921 9.5221341148135252 0 0 0 0 20.647203878923392 72.755541807364352 0 72.755541807364352 65.668033918365836 0 0 0 0 -12.854099463277761 39.136887997241978 0 39.136887997241978 61.357977378700582 0 0 0 0 21.617751502612258 51.70595720766093 0 51.70595720766093 64.94147088161489 0 0 0 0 -9.2574891650110658 143.53137861230789 0 143.53137861230789 147.63968553180166 0 0 0 0 -4.0650200857198797 8.5245675861660857 0 8.5245675861660857 180.56004497465619 0 0 0 0 -182.01950427387692 212.55818023679603 0 212.55818023679603 57.577456069571781 0 0 0 0 -16.067239163064414 125.13884563279225 0 125.13884563279225 27.824212840525433 0 0 0 0 -43.030939056166972 122.73485763605277 0 122.73485763605277 48.115730807650834 0 0 0 0 -117.0780960863176 201.34721585470834 0 201.34721585470834 -6.7283019766182406 0 0 0 0 -86.569601776928266 252.83599164675979 0 252.83599164675979 -90.721156021987554 0 0 0 0 -73.637126567236919 224.13084044845164 0 224.13084044845164 -53.039606129284948 0 0 0 0 -118.07097880509718 271.89889993242105 0 271.89889993242105 -22.363376287248684 0 0 0 0 -116.18616608583147 294.49937864520689 0 294.49937864520689 -147.52527203745558 0 0 0 0 -86.135530025356275 287.96667672280455 0 287.96667672280455 -183.83919329536366 0 0 0 0 -88.684985981033606 272.95774328685366 0 272.95774328685366 -143.64040773297893 0 0 0 0 -86.406990194655009 243.45753220524057 0 243.45753220524057 -78.886675435853249 0 0 0 0 -110.30127983751663 300.82650029889192 0 300.82650029889192 -122.62036157030889 0 0 0 0 -73.896648394395015 252.8188193324022 0 252.8188193324022 -116.48230953881284 0 0 0 0 -95.081938910983808 269.18626039687661 0 269.18626039687661 -63.029692157171667 0 0 0 0 -138.5532400115153 317.85409822808288 0 317.85409822808288 -94.977573301672237 0 0 0 0 -110.2457236691389 327.27623121725628 0 327.27623121725628 -111.59678589360556 0 0 0 0 -109.46603103836969 329.25656843512843 0 329.25656843512843 -146.6009892282309 0 0 0 0 -102.7476169392412 303.88993126289279 0 303.88993126289279 -125.7714876223763 0 0 0 0 -110.35102089483007 332.65842218356556 0 332.65842218356556 -129.09195649475805 0 0 0 0 -104.45726859965362 312.09705718478654 0 312.09705718478654 -165.07459722002386 0 0 0 0 -92.637727781613648 344.90228643677256 0 344.90228643677256 -146.14837253966834 0 0 0 0 -106.78550223142975 358.61849095924117 0 358.61849095924117 -152.19488749484299 0 0 0 0 -143.4042170508983 374.86323599495518 0 374.86323599495518 -128.34635254534078 0 0 0 0 -120.04551708769941 355.62212221635855 0 355.62212221635855 -114.45466332421711 0 0 0 0 -110.77353620633949 384.0500541608053 0 384.0500541608053 -125.83047070063185 0 0 0 0 -103.55194515647781 387.65181806969485 0 387.65181806969485 -174.09428521461086 0 0 0 0 -76.80073781862302 362.92759808641858 0 362.92759808641858 -151.67153846323708 0 0 0 0 -51.961324673238778 380.02212795801461 0 380.02212795801461 -179.61814978096663 0 0 0 0 -42.179479743295815 338.22503040943411 0 338.22503040943411 -175.79601768839348 0 0 0 0 -83.296445142304947 349.15525692241499 0 349.15525692241499 -166.92628781168605 0 0 0 0 -139.65806263575178 228.68244391294138 0 228.68244391294138 26.387929217133205 0 0 0 0 -170.14556969077057 319.48103446543973 0 319.48103446543973 -59.565545671823202 0 0 0 0 -149.88387004387369 333.341072685158 0 333.341072685158 -50.210260055493563 0 0 0 0 -139.77774931341992 415.74235726593179 0 415.74235726593179 -160.345917808183 0 0 0 0 -231.3168516481046 396.70900508909835 0 396.70900508909835 -79.085155822598608 0 0 0 0 -319.2078210940781 324.74122150814219 0 324.74122150814219 11.474359951651422 0 0 0 0 -204.99686982373987 358.85032029978174 0 358.85032029978174 -47.603095475613372 0 0 0 0 -203.3880210144107 454.84269161069824 0 454.84269161069824 -170.10519740520976 0 0 0 0 -375.75512219323173 440.11541944219789 0 440.11541944219789 -62.900303714468464 0 0 0 0 -205.12796925572673 494.86500804873958 0 494.86500804873958 -223.20268349439721 0 0 0 0 -8.2473221732416278 485.97243573013111 0 485.97243573013111 -385.56033858814772 0 0 0 0 -178.45779862622203 567.13391729332216 0 567.13391729332216 -357.3727810397686 0 0 0 0 -33.255380334674555 448.36943799688015 0 448.36943799688015 -260.23453820408031 0 0 0 0 -359.02479451203726 525.64503651743871 0 525.64503651743871 -186.28754429225228 0 0 0 0 -362.89144515072803 535.57175067583739 0 535.57175067583739 -211.76731581595959 0 0 0 0 7.1577070645125787 334.69201722773141 0 334.69201722773141 -223.79948652465828 0 0 0 0 -58.648509426286182 359.18733588913165 0 359.18733588913165 -198.46615049164393 0 0 0 0 -16.306972151210857 342.69004730393135 0 342.69004730393135 -225.50808257219614 0 0 0 0 -4.0296606355095719 385.06795643553778 0 385.06795643553778 -257.28098449880781 0 0 0 0 -107.13797107606115 416.44993456517113 0 416.44993456517113 -160.5596687868092 0 0 0 0 -98.953599908052638 426.01059965476452 0 426.01059965476452 -223.11498721540556 0 0 0 0 -42.8373033611349 426.24827683810145 0 426.24827683810145 -291.18845167345717 0 0 0 0 72.952195969179229 370.98950169666205 0 370.98950169666205 -319.44582930678735 0 0 0 0 64.088717946537145 349.52225349305445 0 349.52225349305445 -361.94545600743731 0 0 0 0 88.275809840977672 271.65128856836236 0 271.65128856836236 -251.54044677488855 0 0 0 0 35.544222633433492 304.93880752883706 0 304.93880752883706 -270.48075844743289 0 0 0 0 137.04843094737498 224.69055074200151 0 224.69055074200151 -291.92578815802699 0 0 0 0 138.8330509845041 234.50707707267065 0 234.50707707267065 -308.75059547065757 0 0 0 0 195.011233090936 255.71044019394321 0 255.71044019394321 -347.22492252924349 0 0 0 0 156.3836576768017 362.35430217525573 0 362.35430217525573 -485.50371465290664 0 0 0 0 -29.486167892157027 451.52651466187672 0 451.52651466187672 -382.50665785360616 0 0 0 0 153.09153498915657 311.81932034122292 0 311.81932034122292 -434.2106668514898 0 0 0 0 332.15768174396908 197.79866214841604 0 197.79866214841604 -600.49454210628755 0 0 0 0 315.19811407350971 -0.02440500253578648 0 -0.02440500253578648 -213.43797441724746 0 0 0 0 216.40137126800016 142.41733027449845 0 142.41733027449845 -356.72916696357424 0 0 0 0 -244.16689397494724 668.71438288526042 0 668.71438288526042 -523.7893325178884 0 0 0 0 -468.36846054994749 701.1495118214807 0 701.1495118214807 -525.76892792046419 0 0 0 0 -241.40141243151794 638.80906046379732 0 638.80906046379732 -485.57587827066891 0 0 0 0 219.64703137124707 429.45882738065848 0 429.45882738065848 -643.9262726735833 0 0 0 0 -58.216235022841829 722.74355747379013 0 722.74355747379013 -910.79850122195785 0 0 0 0 -1094.2267754964059 1222.5876914376131 0 1222.5876914376131 -951.73816878983052 0 0 0 0 -526.42542432139817 911.25580213690409 0 911.25580213690409 -784.0394376910117 0 0 0 0 -1566.9439310359357 326.91162145383714 0 326.91162145383714 -7.9621670636988711 0 0 0 0 -1488.3800537139205 1015.4228317676534 0 1015.4228317676534 -472.62924600800034 0 0 0 0 -685.30687100611976 577.76806677979766 0 577.76806677979766 -223.15726794875809 0 0 0 0 -1176.1237220469593 689.68435601920646 0 689.68435601920646 -248.47530770680169 0 0 0 0 -711.40402830483799 635.26256605249364 0 635.26256605249364 -233.63022583446582 0 0 0 0 -546.6156591963736 313.41545834604767 0 313.41545834604767 20.9771146724961 0 0 0 0 -814.23209824658079 -134.33050685328635 0 -134.33050685328635 96.500969174783677 0 0 0 0 -1033.4519436058163 506.79517551303434 0 506.79517551303434 -55.177805679879384 0 0 0 0 -1063.7318382764752 177.77568061444617 0 177.77568061444617 97.826949405251071 0 0 0 0 -748.0436400363742 206.13820578008017 0 206.13820578008017 87.939416496781632 0 0 0 0 -343.52729350286609 37.543481816974236 0 37.543481816974236 40.018225305400847 0 0 0 0 -571.12296551943291 -85.472446690393554 0 -85.472446690393554 135.35608996450901 0 0 0 0 -540.92103491883245 33.260637911676895 0 33.260637911676895 137.04196187922207 0 0 0 0 -304.6940586162782 88.886098529590527 0 88.886098529590527 106.35407720666262 0 0 0 0 -331.29634343927046 359.98916361131705 0 359.98916361131705 -13.699735057598446 0 0 0 0 -648.17039355007182 482.48087709855463 0 482.48087709855463 -44.239732187386835 0 0 0 0 -493.51598241544707 302.6916359779716 0 302.6916359779716 50.490627240299546 0 0 0 0 33.601403711147213 -272.63452667954698 0 -272.63452667954698 13.284142578369938 0 0 0 0 -33.891548814157431 -137.10915700934129 0 -137.10915700934129 61.78409698640462 0 0 0 0 -273.88076652286327 -278.72966062306659 0 -278.72966062306659 134.37336820241762 0 0 0 0 -190.22922017530072 -116.09507808776107 0 -116.09507808776107 58.974644650443224 0 0 0 0 -69.44362008166172 -323.58236083476368 0 -323.58236083476368 31.320443339645863 0 0 0 0 -15.583898297910764 18.036541919689626 0 18.036541919689626 103.1858844145172 0 0 0 0 7.0831166088219062 15.60486530770423 0 15.60486530770423 -15.048887444637842 0 0 0 0 209.86795746796508 253.83336317824796 0 253.83336317824796 -58.462730088009266 0 0 0 0 43.258528115002377 0.17545127087214496 0 0.17545127087214496 65.193024195352336 0 0 0 0 -19.111257245036313 -30.364656977699269 0 -30.364656977699269 -259.47636967808648 0 0 0 0 177.70810143536437 96.487028261404703 0 96.487028261404703 -815.46514833597757 0 0 0 0 40.729688958351282 632.04981945948748 0 632.04981945948748 -755.90065786711057 0 0 0 0 -124.74800640662352 1055.4833465696684 0 1055.4833465696684 -1413.8977141723735 0 0 0 0 -1134.8275124939601 1132.9666156056337 0 1132.9666156056337 -516.11776464870491 0 0 0 0 -940.96750519032014 -147.64183948623759 0 -147.64183948623759 -506.11928020240157 0 0 0 0 -77.587935434466999 715.94845230037754 0 715.94845230037754 -1794.0410565359343 0 0 0 0 -374.89875281507921 523.68546651345969 0 523.68546651345969 1.635767792846309 0 0 0 0 152.82836389961994 638.14444340841874 0 638.14444340841874 2.7841106881242013 0 0 0 0 -214.17573053885553 -35.862921557032678 0 -35.862921557032678 561.17834899883746 0 0 0 0 -515.09910121283792 520.60542355463258 0 520.60542355463258 35.354235849808902 0 0 0 0 -325.82252463698035 686.58726472399576 0 686.58726472399576 -741.99296105041867 0 0 0 0 355.40124848285905 -74.813234192391974 0 -74.813234192391974 -127.58402413130261 0 0 0 0 208.16204821650126 21.087463282870885 0 21.087463282870885 -131.77813690970652 0 0 0 0 502.17552273945785 -149.03107922470372 0 -149.03107922470372 -277.50657726021018 0 0 0 0 256.67716108175955 -20.847308784184861 0 -20.847308784184861 75.596312376466813 0 0 0 0 339.98517574776884 367.9652718655434 0 367.9652718655434 -690.27352767760749 0 0 0 0 70.961219186178823 188.10806487919763 0 188.10806487919763 -758.23772343213568 0 0 0 0 981.22444613098014 -387.00309359445237 0 -387.00309359445237 -456.12084253318244 0 0 0 0 7.7098762894322199 2.6841724596920642 0 2.6841724596920642 1.3060746823146019 0 0 0 0 324.42845216717797 378.72467652318301 0 378.72467652318301 -171.67936142500093 0 0 0 0 546.40404495366488 -772.96177306985919 0 -772.96177306985919 497.43953205039725 0 0 0 0 44.140604888109237 117.53699732517362 0 117.53699732517362 160.61251203829306 0 0 0 0 -328.33847301270725 -79.731877948142937 0 -79.731877948142937 56.566873217961984 0 0 0 0 488.8169590434245 -196.79815985306777 0 -196.79815985306777 218.61642385682717 0 0 0 0 -85.942782046292223 211.08372860831878 0 211.08372860831878 44.93195067383931 0 0 0 0 1.2210633807012385 2.429039736003574 0 2.429039736003574 3.6525693376457298 0 0 0 0 833.49064793495359 98.545979215050465 0 98.545979215050465 118.63447402510792 0 0 0 0 806.70388386599006 186.04798077994928 0 186.04798077994928 -157.5886313310084 0 0 0 0 679.01009947559351 135.71398874555962 0 135.71398874555962 -0.53530436483561061 0 0 0 0 186.99975281683146 20.824170503830828 0 20.824170503830828 232.24383960112755 0 0 0 0 435.30151935187678 338.70227420733136 0 338.70227420733136 31.57964174440167 0 0 0 0 -309.10015972829615 219.72684037424187 0 219.72684037424187 256.83643505845248 0 0 0 0 -422.52354762282187 442.5314257141581 0 442.5314257141581 30.551154167362256 0 0 0 0 148.56953975082854 156.68475974301509 0 156.68475974301509 25.810386657467461 0 0 0 0 -150.0215092922044 290.07413430023735 0 290.07413430023735 0.41167665583634516 0 0 0 0 -337.53871373112861 343.49391938541157 0 343.49391938541157 0.00089590566494734958 0 0 0 0 -236.56527110863408 238.38049564835455 0 238.38049564835455 86.86057991279813 0 0 0 0 -304.38014339663755 405.84210974384769 0 405.84210974384769 -161.54337578119885 0 0 0 0 -319.75051216813608 428.68326797682676 0 428.68326797682676 -111.80395085924101 0 0 0 0 -298.7817778726826 342.08478682815621 0 342.08478682815621 -54.178989996267774 0 0 0 0 -296.79542905739004 337.4161038808752 0 337.4161038808752 -77.395346127537778 0 0 0 0 -259.899816567573 276.31767186355137 0 276.31767186355137 -0.13141942655696343 0 0 0 0 -260.11127734925594 255.5372574398898 0 255.5372574398898 -99.14845713521936 0 0 0 0 -176.3379213926346 249.89644914812379 0 249.89644914812379 -108.10831018811587 0 0 0 0 -186.67051692180394 249.3586332952691 0 249.3586332952691 -103.81164685597469 0 0 0 0 -175.82594198069091 289.2079911694309 0 289.2079911694309 -144.77880381086288 0 0 0 0 -56.976441652686844 193.68024954261637 0 193.68024954261637 -325.39270261162164 0 0 0 0 -199.85673347589648 312.48595370842122 0 312.48595370842122 -164.48597164488456 0 0 0 0 -70.323573915118686 130.3018641963281 0 130.3018641963281 -114.80944612441817 0 0 0 0 -132.47148985679939 228.64614586019343 0 228.64614586019343 -161.99411608689115 0 0 0 0 -77.354307005007286 153.49207621044479 0 153.49207621044479 -153.20503113492305 0 0 0 0 -108.29128197695536 158.88804880091629 0 158.88804880091629 -100.01575297358795 0 0 0 0 -69.274627978131321 124.76597760386358 0 124.76597760386358 -91.732082510468899 0 0 0 0 22.676801377408992 30.135218505936791 0 30.135218505936791 39.294947620866878 0 0 0 0 -93.807034839204789 125.64098916758667 0 125.64098916758667 -81.500003288849257 0 0 0 0 18.507490904365113 -8.3596597817959264 0 -8.3596597817959264 56.891583137730777 0 0 0 0 10.480798697225076 12.821473845951857 0 12.821473845951857 4.5503209897588306 0 0 0 0 -107.83511870994221 298.07682089276932 0 298.07682089276932 -471.60393325016776 0 0 0 0 13.467018862666009 32.667113741510548 0 32.667113741510548 128.44010915586841 0 0 0 0 6.0199575117324251 10.278146453416412 0 10.278146453416412 3.0023734170218006 0 0 0 0 1.0347047830853544 500.45310781337321 0 500.45310781337321 -1055.9340428533505 0 0 0 0 1.294636412020759 6.1640097735935058 0 6.1640097735935058 1.5996222603693724 0 0 0 0 -167.57690535072766 341.59534908062051 0 341.59534908062051 -749.6757570919217 0 0 0 0 -302.958330217916 529.89725017694582 0 529.89725017694582 -210.76881448196946 0 0 0 0 -167.97445586920321 310.60526725687669 0 310.60526725687669 -320.17775510132196 0 0 0 0 -202.58538877901492 341.93461956548936 0 341.93461956548936 -339.39403695265355 0 0 0 0 157.52658467410583 22.613762998320453 0 22.613762998320453 -2.8986925429198891 0 0 0 0 170.7541524184453 25.504745285034005 0 25.504745285034005 -48.583432681992235 0 0 0 0 140.59085590094946 146.87009662791388 0 146.87009662791388 0.10183128835342359 0 0 0 0 25.562765485847194 12.342587142971752 0 12.342587142971752 -39.47245173191186 0 0 0 0 360.42657432300439 -9.4125809088436654 0 -9.4125809088436654 -47.479185784235597 0 0 0 0 -2.384061918258773 -0.40543349249622906 0 -0.40543349249622906 3.6026258878638373 0 0 0 0 80.021640001730702 55.817036139782431 0 55.817036139782431 17.717110368786962 0 0 0 0 2.3083746132194065 -1.0936681461600699 0 -1.0936681461600699 -3.6754199859900041 0 0 0 0 5.9248251148592317 31.775631274372245 0 31.775631274372245 -61.555118513555499 0 0 0 0 -315.4964043451273 103.81338360348309 0 103.81338360348309 -7.5834461181075312 0 0 0 0 -10.418820240440255 -34.563434207448154 0 -34.563434207448154 18.316759852605173 0 0 0 0 -2.2877751536468978 0.91106634121544516 0 0.91106634121544516 4.4764528051225625 0 0 0 0 -42.318994699089671 34.909018723396002 0 34.909018723396002 -0.15660097392537864 0 0 0 0 -185.93477208383774 195.44677232517279 0 195.44677232517279 -132.33142499113455 0 0 0 0 -386.60222851144499 128.2561226481921 0 128.2561226481921 -0.093917835902513874 0 0 0 0 -273.33034112154201 215.490091915417 0 215.490091915417 -85.047953767483705 0 0 0 0 -231.24833974266585 225.29515146228005 0 225.29515146228005 -86.415835339590558 0 0 0 0 -207.70795911767482 185.99414686671662 0 185.99414686671662 -74.28386223569396 0 0 0 0 -250.55511939900316 66.3457821765478 0 66.3457821765478 12.433712814643513 0 0 0 0 -139.2924818858155 176.45948889738065 0 176.45948889738065 -84.98413075679855 0 0 0 0 -138.92537949206803 161.69232215021657 0 161.69232215021657 -71.583476014871849 0 0 0 0 -118.9662672192062 11.868857254419709 0 11.868857254419709 20.983373228271375 0 0 0 0 21.346850787151197 -28.24063469786779 0 -28.24063469786779 -55.512731959082885 0 0 0 0 -15.399999689383549 -19.592512010363862 0 -19.592512010363862 -20.422334510541987 0 0 0 0 -125.33622447141533 153.8994402702956 0 153.8994402702956 -86.857515175535809 0 0 0 0 44.844315022372029 86.317987408328918 0 86.317987408328918 -94.290196964968345 0 0 0 0 -97.288782454171269 99.281220043034409 0 99.281220043034409 -73.14054601942189 0 0 0 0 -80.720858824719471 106.72788646641129 0 106.72788646641129 -74.393874041757954 0 0 0 0 8.2555368165922118 -8.3346863438782748 0 -8.3346863438782748 64.520194998127408 0 0 0 0 0.40940377954459706 0.32402941847915656 0 0.32402941847915656 -0.57439430132831149 0 0 0 0 1.7595605226797488 14.627937624711194 0 14.627937624711194 98.200604911195114 0 0 0 0 5.1091239033012243 22.266093093552627 0 22.266093093552627 71.321979295928031 0 0 0 0 6.5467616889291094 17.992425170814386 0 17.992425170814386 39.444756782832883 0 0 0 0 7.5845171445605644 29.3284350623112 0 29.3284350623112 19.424742432590335 0 0 0 0 3.9127569456904894 10.910868660983397 0 10.910868660983397 -7.9362493326407275 0 0 0 0 9.4488261327278451 -11.271527641314606 0 -11.271527641314606 41.199973764043534 0 0 0 0 9.0091299108096692 9.1460629548673751 0 9.1460629548673751 11.949993365671332 0 0 0 0 -0.68561010107340081 1.9585956620826153 0 1.9585956620826153 0.96647145516101318 0 0 0 0 14.266948938733549 21.935688002136885 0 21.935688002136885 10.707690617491608 0 0 0 0 8.4625900045531566 11.461698617674287 0 11.461698617674287 -3.9022993684663732 0 0 0 0 15.193679984146002 21.705721724181785 0 21.705721724181785 -4.3466342574392911 0 0 0 0 5.557364338790876 5.1614562680800873 0 5.1614562680800873 3.810840494278068 0 0 0 0 6.0816635995979595 10.470661585728521 0 10.470661585728521 2.2023017842439003 0 0 0 0 3.3069642428786707 0.71355075096829523 0 0.71355075096829523 -5.0392579110959446 0 0 0 0 3.2620389104067726 -2.0124889717189944 0 -2.0124889717189944 -12.230286941543454 0 0 0 0 109.13402395798767 -17.351773529851926 0 -17.351773529851926 -16.689616434166965 0 0 0 0 -1.8378833788160733 1.7706231067889746 0 1.7706231067889746 2.397152936378717 0 0 0 0 1.2332938471836314 8.0651439414486958 0 8.0651439414486958 25.043727783806389 0 0 0 0 26.059830381695065 34.964734747030889 0 34.964734747030889 -44.081197805142438 0 0 0 0 12.80042890545883 36.447422116048983 0 36.447422116048983 0.059008555661421269 0 0 0 0 -2.2731195480341704 16.811329299862138 0 16.811329299862138 -25.645463044808537 0 0 0 0 -31.272365489334334 83.98821848075022 0 83.98821848075022 -36.003544717270415 0 0 0 0 25.934560596697338 103.92564317589859 0 103.92564317589859 -46.081226208887529 0 0 0 0 14.452961600298295 60.248888504997012 0 60.248888504997012 41.845260991321993 0 0 0 0 96.241743732954319 120.16427492353159 0 120.16427492353159 -34.44049209325749 0 0 0 0 -14.275800383176829 28.78570124329417 0 28.78570124329417 59.887666694035261 0 0 0 0 -14.847945346619035 16.856834927348473 0 16.856834927348473 8.0980314744298596 0 0 0 0 14.426238786496043 37.466838415802357 0 37.466838415802357 -34.32781193498279 0 0 0 0 -3.1612008447555127 21.478979676721792 0 21.478979676721792 15.714220105612185 0 0 0 0 15.032587724810583 72.156239821662894 0 72.156239821662894 72.154178532331571 0 0 0 0 -23.977347989430889 15.519161780586273 0 15.519161780586273 34.315081101498691 0 0 0 0 -28.720539757901861 42.028454467828851 0 42.028454467828851 95.032274671975756 0 0 0 0 -0.082712072406636139 4.0369191732442005 0 4.0369191732442005 -10.471137889032473 0 0 0 0 51.106182950595212 60.004820895308512 0 60.004820895308512 -83.294050080119632 0 0 0 0 -0.15738563457396992 39.043408670530368 0 39.043408670530368 18.075643894586506 0 0 0 0 -1.9717777639816632 66.514199029508745 0 66.514199029508745 11.959359053017579 0 0 0 0 21.109335017546982 90.4341633576405 0 90.4341633576405 -90.160790022171568 0 0 0 0 -29.281958986517566 65.935818106474471 0 65.935818106474471 -70.855476911288861 0 0 0 0 -19.077804530403228 54.968296151666436 0 54.968296151666436 -50.594093711872119 0 0 0 0 18.148851373916841 28.402232959226239 0 28.402232959226239 6.0361945694312453 0 0 0 0 5.215973309003104 43.236787985301106 0 43.236787985301106 -25.678141006714554 0 0 0 0 -15.453101589296473 13.206517868983795 0 13.206517868983795 14.119581261595954 0 0 0 0 21.357649059872372 13.876641095014975 0 13.876641095014975 -34.638941105159603 0 0 0 0 -2.468001718664901 3.2308554956854323 0 3.2308554956854323 8.0749033447048646 0 0 0 0 32.752113994005413 56.215343608400872 0 56.215343608400872 1.7061516248359112 0 0 0 0 -8.5410386352705245 73.381919461418875 0 73.381919461418875 14.264219713273633 0 0 0 0 32.47241462304919 62.195305071047187 0 62.195305071047187 8.9791485772875603 0 0 0 0 -17.604508674198676 26.18477982524233 0 26.18477982524233 -1.6826672283041262 0 0 0 0 26.623707744020066 70.265461676088307 0 70.265461676088307 41.06911688103628 0 0 0 0 14.885543165835237 39.992223557341177 0 39.992223557341177 -6.0110754398464472 0 0 0 0 -18.636368270478002 26.952953644718264 0 26.952953644718264 39.207545340922024 0 0 0 0 15.915810891827277 67.573428528878139 0 67.573428528878139 91.000721330055967 0 0 0 0 -55.397586820210563 69.797764584101969 0 69.797764584101969 27.955985815264285 0 0 0 0 13.82074028641 47.074810639009229 0 47.074810639009229 27.143861674849177 0 0 0 0 2.8662932750739856 29.964001275249757 0 29.964001275249757 6.044632654171437 0 0 0 0 8.1215346198805491 55.827691349630186 0 55.827691349630186 18.752987702777318 0 0 0 0 -12.687115792382762 24.195912952277666 0 24.195912952277666 6.5215181706656722 0 0 0 0 -3.0289786943608306 14.726226877797103 0 14.726226877797103 -10.775255182834314 0 0 0 0 1.420722587590717 47.522004225764249 0 47.522004225764249 65.01292935192032 0 0 0 0 13.609598262700274 68.867725764472198 0 68.867725764472198 10.415291888362844 0 0 0 0 17.891675129447322 11.824411673187569 0 11.824411673187569 84.764082792025874 0 0 0 0 -6.1751861054952712 3.4767868636870958 0 3.4767868636870958 13.242625586286749 0 0 0 0 7.9032659089673487 49.067034618063261 0 49.067034618063261 -4.7342207237047678 0 0 0 0 92.226924745078577 59.081518822800717 0 59.081518822800717 -192.51837365112078 0 0 0 0 81.194420315844582 153.98479921173202 0 153.98479921173202 61.829018765733053 0 0 0 0 -39.425101910872399 45.651597921918437 0 45.651597921918437 11.319522506571957 0 0 0 0 56.372243554327724 187.64220298907094 0 187.64220298907094 267.12270249913854 0 0 0 0 38.2926716181355 99.552374925715412 0 99.552374925715412 273.40065147618589 0 0 0 0 136.97953955300545 172.1276449780089 0 172.1276449780089 119.85831561555824 0 0 0 0 11.323979022564345 59.557395549834837 0 59.557395549834837 197.18711287108454 0 0 0 0 -7.3719585699100207 27.470723918229851 0 27.470723918229851 63.331207569754042 0 0 0 0 8.7729441944156861 88.440137588062498 0 88.440137588062498 -51.390220493733068 0 0 0 0 8.776680799086467 -64.200432377526042 0 -64.200432377526042 -130.87799374220049 0 0 0 0 62.611617078804557 102.80434732290814 0 102.80434732290814 8.9193397165072383 0 0 0 0 -12.387179374357331 9.1452956076249308 0 9.1452956076249308 -9.5158239805989808 0 0 0 0 -55.636858612830565 -126.16098114186843 0 -126.16098114186843 -83.082700203973218 0 0 0 0 151.95773821709736 182.34517617490565 0 182.34517617490565 34.20856130143693 0 0 0 0 30.568306389754071 52.977982823060302 0 52.977982823060302 52.377541589579778 0 0 0 0 21.247465594847654 62.336763545089525 0 62.336763545089525 50.650974484829931 0 0 0 0 20.121486451887669 58.363330408090235 0 58.363330408090235 26.710476365042453 0 0 0 0 32.517018791718336 57.821670329641535 0 57.821670329641535 42.878479756466177 0 0 0 0 10.784607471357958 83.879541459464235 0 83.879541459464235 40.853836694495385 0 0 0 0 23.808562095230627 81.120372800389305 0 81.120372800389305 141.76043769375246 0 0 0 0 10.836344229148381 56.775370198054588 0 56.775370198054588 92.107396281105139 0 0 0 0 115.16985477736716 57.523614376521436 0 57.523614376521436 86.91679843403108 0 0 0 0 58.732276663388348 40.948850841625244 0 40.948850841625244 102.08348986068449 0 0 0 0 38.508893918227855 57.158691816227446 0 57.158691816227446 3.0908020209897948 0 0 0 0 -27.561930013036999 61.394703860787558 0 61.394703860787558 461.95619576832541 0 0 0 0 44.877786594542016 40.770100728950638 0 40.770100728950638 153.48208540171618 0 0 0 0 76.071628410047396 238.30979806341929 0 238.30979806341929 292.22281482322433 0 0 0 0 17.679930230382524 18.861460627471388 0 18.861460627471388 213.99860265688039 0 0 0 0 20.389273882584348 33.65853236307521 0 33.65853236307521 125.90028454030107 0 0 0 0 20.330117315365214 100.96871601611747 0 100.96871601611747 185.5542095269484 0 0 0 0 -5.6892426962549507 -0.28576378437719541 0 -0.28576378437719541 94.791022833698662 0 0 0 0 31.620576560271729 43.726152537899907 0 43.726152537899907 99.069419699939317 0 0 0 0 31.821220088500922 72.276405964592414 0 72.276405964592414 150.40125958594581 0 0 0 0 22.925727190562611 10.357904764357954 0 10.357904764357954 71.119149366335478 0 0 0 0 23.42891877114198 15.905348250817042 0 15.905348250817042 87.488393229788926 0 0 0 0 -1.1239189072139482 39.603306251689332 0 39.603306251689332 54.46288683233783 0 0 0 0 6.306857827170461 23.637647606403334 0 23.637647606403334 114.22064273172873 0 0 0 0 -10.771462479528054 62.116997379089298 0 62.116997379089298 47.888609007583 0 0 0 0 118.41318756084002 95.180751453677658 0 95.180751453677658 -125.0403754868637 0 0 0 0 11.075917955590349 51.518455462075792 0 51.518455462075792 25.526106673921021 0 0 0 0 18.990546423062014 54.251184588903513 0 54.251184588903513 35.546527893659231 0 0 0 0 -7.8763264361505207 197.73738231095467 0 197.73738231095467 6.5056890607338573 0 0 0 0 45.962775307798438 21.931240155303385 0 21.931240155303385 52.176628107448778 0 0 0 0 39.250135483780468 61.115304443475907 0 61.115304443475907 140.94406738262478 0 0 0 0 -3.2659553323264845 61.680848904285085 0 61.680848904285085 326.23285830549139 0 0 0 0 171.67039608085179 232.10832023055264 0 232.10832023055264 225.91448302871868 0 0 0 0 -106.89501401845519 145.420206129691 0 145.420206129691 296.62826824311924 0 0 0 0 -114.90500013274141 5.7542793388311111 0 5.7542793388311111 511.52360383712585 0 0 0 0 35.495770702604204 -21.87086877906404 0 -21.87086877906404 227.21664774179408 0 0 0 0 26.16621218081491 83.331359303621866 0 83.331359303621866 28.433743127643538 0 0 0 0 35.830175986697213 40.400334198808196 0 40.400334198808196 53.410964988812339 0 0 0 0 25.547975628434415 60.040917678961215 0 60.040917678961215 80.625240956731574 0 0 0 0 -39.081056368602731 195.14527780595381 0 195.14527780595381 95.738079597751494 0 0 0 0 -11.489246226727541 34.755081870485107 0 34.755081870485107 86.411754671922608 0 0 0 0 -48.411685100811155 39.543036850205681 0 39.543036850205681 153.24571759886385 0 0 0 0 -19.356472651807053 19.494295376520313 0 19.494295376520313 34.366832365602022 0 0 0 0 -6.6723359422030626 21.754942437804857 0 21.754942437804857 26.634345558064524 0 0 0 0 -9.2051821596978698 23.588395297156239 0 23.588395297156239 31.119290068905684 0 0 0 0 -10.244186785057032 14.214494865439178 0 14.214494865439178 24.927477156273397 0 0 0 0 -18.187264013911772 78.27626784392487 0 78.27626784392487 202.43400870257756 0 0 0 0 -31.64894556857017 2.450166055551378 0 2.450166055551378 23.858839416959384 0 0 0 0 -16.455991319558962 23.726882892166032 0 23.726882892166032 38.081420083428384 0 0 0 0 2.3001366920652799 0.85210571326135209 0 0.85210571326135209 1.9341537559371886 0 0 0 0 -39.966921905441268 1.5904014269144682 0 1.5904014269144682 34.672153446925222 0 0 0 0 43.952515933160612 47.419303932263574 0 47.419303932263574 -24.875094306840765 0 0 0 0 -8.9342596474194238 12.910927767954085 0 12.910927767954085 22.850912785231571 0 0 0 0 -31.282001749987103 -3.6210804000293138 0 -3.6210804000293138 31.814753277925774 0 0 0 0 -9.9765141483512707 -11.639250098789489 0 -11.639250098789489 28.802760088947252 0 0 0 0 -24.262381671756884 11.865579033721588 0 11.865579033721588 11.591201353425276 0 0 0 0 -2.8425863202355686 40.583994372718735 0 40.583994372718735 7.7293613905403618 0 0 0 0 10.764293274073438 18.336560298982988 0 18.336560298982988 9.7855144753571892 0 0 0 0 -1.875217434375827 14.525955136981338 0 14.525955136981338 23.273291496472666 0 0 0 0 -9.0022763219847093 9.1453056452503034 0 9.1453056452503034 16.373236482425163 0 0 0 0 -1.1117239731642936 20.760648981158383 0 20.760648981158383 14.649816792840625 0 0 0 0 -12.443839618710626 13.32606097322423 0 13.32606097322423 124.98674906656015 0 0 0 0 -12.262891895548819 17.126527884480311 0 17.126527884480311 23.98849851822888 0 0 0 0 -6.9405497931029387 23.866416374931717 0 23.866416374931717 23.74863429512272 0 0 0 0 -10.355783406121191 33.571161840372952 0 33.571161840372952 34.077259377856535 0 0 0 0 -14.391076246876302 20.543272984727878 0 20.543272984727878 47.019559138665471 0 0 0 0 -1.9383623929278073 27.70441558795531 0 27.70441558795531 14.887032456997602 0 0 0 0 -4.1182162048344253 29.346074209383005 0 29.346074209383005 28.385157169774175 0 0 0 0 18.364583961949393 37.85214432340581 0 37.85214432340581 7.573052687512245 0 0 0 0 13.651715776772107 42.3054088376648 0 42.3054088376648 14.768634766019204 0 0 0 0 -2.5518034012256976 42.949332769456305 0 42.949332769456305 46.463051219616318 0 0 0 0 -6.3291991402710952 26.913999105527445 0 26.913999105527445 13.56459693857127 0 0 0 0 0.62091849243734032 43.951968000401394 0 43.951968000401394 -11.778376000358548 0 0 0 0 -0.42806907762204194 33.08633421031508 0 33.08633421031508 -3.0662123635230216 0 0 0 0 -3.6347149375951631 36.353210811747886 0 36.353210811747886 -14.810024506121408 0 0 0 0 1.1798008314526669 44.427295884133855 0 44.427295884133855 -14.104456855580793 0 0 0 0 39.683928231170285 113.13783018363756 0 113.13783018363756 -143.30350548737624 0 0 0 0 -27.944971004439587 91.495737013893944 0 91.495737013893944 -26.648337240507903 0 0 0 0 -1.7753707037660167 59.759622121578744 0 59.759622121578744 -45.153965468660743 0 0 0 0 -16.002833479113178 47.303492007747991 0 47.303492007747991 11.174270052544671 0 0 0 0 -36.847368075009044 67.808673074208087 0 67.808673074208087 -14.892949149472273 0 0 0 0 49.79851593154217 69.288294160635814 0 69.288294160635814 -39.331859149475349 0 0 0 0 -5.3002327580036876 64.540096753558174 0 64.540096753558174 20.287969375691166 0 0 0 0 131.13477216022511 159.63786369528043 0 159.63786369528043 -264.2560884768086 0 0 0 0 -132.13008307012751 -18.895745646966134 0 -18.895745646966134 -197.89168130076723 0 0 0 0 -0.7359880100339069 108.2466509681326 0 108.2466509681326 -299.15429220792066 0 0 0 0 -19.288727926170395 160.47427250299734 0 160.47427250299734 -218.28340830333036 0 0 0 0 -38.141127171489643 154.04297654531547 0 154.04297654531547 -215.44250319722414 0 0 0 0 -37.895193738753733 161.32870963271125 0 161.32870963271125 -143.67887902558141 0 0 0 0 -8.257573192124255 89.859929738944629 0 89.859929738944629 -199.75599836313268 0 0 0 0 0.88488789422262926 114.14853406010661 0 114.14853406010661 -135.38597505670077 0 0 0 0 -0.88679994291305775 56.752494130560081 0 56.752494130560081 11.20847426059845 0 0 0 0 28.308090233453783 21.203142642133358 0 21.203142642133358 -1.9022162931002242 0 0 0 0 1.3598009585766704 51.194807848361961 0 51.194807848361961 -44.452622370601603 0 0 0 0 64.881924980945769 73.646220991337032 0 73.646220991337032 -40.502541853922594 0 0 0 0 23.39437254349501 7.9709730404845658 0 7.9709730404845658 3.512706917350684 0 0 0 0 -55.307070651142567 -27.777227189420955 0 -27.777227189420955 58.90169694020733 0 0 0 0 75.010253968109737 -16.058208814043155 0 -16.058208814043155 -67.140286133959307 0 0 0 0 2.5616781194948999 147.30315323483956 0 147.30315323483956 -324.62492129389102 0 0 0 0 -0.7792685949743543 -1.8577714454551426 0 -1.8577714454551426 -0.021434877008420727 0 0 0 0 5.5208926025434124 1.0782084367625373 0 1.0782084367625373 0.35112845916877689 0 0 0 0 -21.180084341879478 -50.889938604270014 0 -50.889938604270014 81.187270286056446 0 0 0 0 35.04934464811231 -1.1873211884521879 0 -1.1873211884521879 -183.89899418845744 0 0 0 0 -34.038140016993566 94.066719272792398 0 94.066719272792398 -8.4106837725557853 0 0 0 0 -16.299281182669802 -42.459252938919235 0 -42.459252938919235 -71.94174417796421 0 0 0 0 -1.6809588991920918 -0.028817324278577416 0 -0.028817324278577416 3.6547930371375372 0 0 0 0 -9.9908057740103686 64.375715761387255 0 64.375715761387255 33.84292088100301 0 0 0 0 6.9743200599634321 2.1443194236585867 0 2.1443194236585867 1.9360285936141715 0 0 0 0 22.357694861639175 13.259370507767017 0 13.259370507767017 23.127595534659122 0 0 0 0 21.813033702657776 41.141005999721528 0 41.141005999721528 -75.837871435876878 0 0 0 0 41.075859416763706 -11.134904097678373 0 -11.134904097678373 47.983412787121779 0 0 0 0 57.343720506544742 201.80421237591509 0 201.80421237591509 266.26287692064943 0 0 0 0 96.312741014353378 130.32558953936314 0 130.32558953936314 106.03946434261161 0 0 0 0 -19.196065678464947 155.74126883220742 0 155.74126883220742 365.08766829356864 0 0 0 0 15.799679799967635 87.985358553223705 0 87.985358553223705 262.94539264205378 0 0 0 0 3.1456026434143496 60.917133445016589 0 60.917133445016589 208.10776258344413 0 0 0 0 -26.175630920622098 140.6127159887501 0 140.6127159887501 353.95514744223328 0 0 0 0 2.4363011819537093 -0.52220116473969824 0 -0.52220116473969824 0.045401203070198903 0 0 0 0 -32.566994210086705 70.404594894753245 0 70.404594894753245 764.18766284230878 0 0 0 0 -10.458167504271842 67.704439027242188 0 67.704439027242188 310.11716450162203 0 0 0 0 130.56407604111155 307.59851904804236 0 307.59851904804236 422.64358472636013 0 0 0 0 200.42453442291298 139.99711185338674 0 139.99711185338674 188.48082615066596 0 0 0 0 40.70106971934365 -1.5136231061514991 0 -1.5136231061514991 167.44761356570234 0 0 0 0 142.43087918544097 170.82338601811898 0 170.82338601811898 68.609365147873177 0 0 0 0 138.66892833120255 86.638442097426378 0 86.638442097426378 -210.15899166587042 0 0 0 0 105.18326000238449 -25.819564334269671 0 -25.819564334269671 -51.730313451016627 0 0 0 0 -42.348139621870359 6.8239063111395808 0 6.8239063111395808 -41.405079455122177 0 0 0 0 -0.14722677787176508 452.0801350114707 0 452.0801350114707 583.37512820345364 0 0 0 0 23.713330229174971 172.20638334657269 0 172.20638334657269 434.57646310007112 0 0 0 0 83.347652049302269 96.178189539517916 0 96.178189539517916 170.03293930002837 0 0 0 0 16.546166383166565 131.79286093232076 0 131.79286093232076 441.18136275742108 0 0 0 0 -90.643300162922969 127.38827011429476 0 127.38827011429476 903.58648416641518 0 0 0 0 122.76524201668144 384.1401448253564 0 384.1401448253564 -654.17378690499027 0 0 0 0 6.439291693441497 0.34334327183296409 0 0.34334327183296409 -0.2512400578562719 0 0 0 0 38.537164198874962 234.49614340044354 0 234.49614340044354 -229.44611907907529 0 0 0 0 -18.220574578521337 103.05366236690679 0 103.05366236690679 -479.26317201948223 0 0 0 0 -136.27009800751034 107.48476500870299 0 107.48476500870299 -309.71225224976661 0 0 0 0 -129.15643746259161 199.73979596707568 0 199.73979596707568 -374.99196515839867 0 0 0 0 -32.587738791818992 81.318293994190753 0 81.318293994190753 -306.30395811974086 0 0 0 0 -64.145911545896524 157.65618538253511 0 157.65618538253511 -263.519634084274 0 0 0 0 -68.882450710826561 121.11759816275116 0 121.11759816275116 -116.85866662878107 0 0 0 0 -61.162466336302259 140.7739026421832 0 140.7739026421832 -242.28596674201981 0 0 0 0 -97.065301418326271 120.81407667791427 0 120.81407667791427 3.1628419816479436 0 0 0 0 -25.155098024799372 95.573750494164415 0 95.573750494164415 -413.70348900222234 0 0 0 0 -46.488342167929659 134.32111359417104 0 134.32111359417104 -296.53727436951885 0 0 0 0 14.672962343267173 6.0492800817542687 0 6.0492800817542687 1.5472826133921345 0 0 0 0 -21.735736934249871 195.15019873560232 0 195.15019873560232 -504.18282129157524 0 0 0 0 -59.247155689211013 173.30317653873863 0 173.30317653873863 -316.30321106755582 0 0 0 0 -48.71751245775522 114.75377488764934 0 114.75377488764934 -333.2894920143317 0 0 0 0 -49.077665350631378 98.471642994268677 0 98.471642994268677 -189.49037946468889 0 0 0 0 -60.60339794718675 154.95304781950108 0 154.95304781950108 -248.37253874866656 0 0 0 0 -26.111553611277486 131.68495065359457 0 131.68495065359457 -290.22315402469394 0 0 0 0 -33.374575054918296 186.73840301613041 0 186.73840301613041 -238.77931044375873 0 0 0 0 -8.4013902952283388 148.48722071896918 0 148.48722071896918 -299.43284717569259 0 0 0 0 -21.973624926198681 173.12092604403369 0 173.12092604403369 -230.46577885316401 0 0 0 0 2.0726169746631058 161.65013543912937 0 161.65013543912937 -98.000497555623951 0 0 0 0 6.8079051201639231 241.13731793899933 0 241.13731793899933 -132.02171354030725 0 0 0 0 0.10741187219127823 150.78706306845379 0 150.78706306845379 -252.14710556907812 0 0 0 0 23.446641160239778 40.778770606254511 0 40.778770606254511 -207.33506453475275 0 0 0 0 9.0328028113726759 92.160271588054457 0 92.160271588054457 -326.20863452145568 0 0 0 0 -1.087892636492839 -2.893601687169145 0 -2.893601687169145 1.2939261822446895 0 0 0 0 54.597872752065086 41.448091772574116 0 41.448091772574116 -18.698134873378876 0 0 0 0 129.47217069227918 147.61522931484069 0 147.61522931484069 129.47264195143453 0 0 0 0 -22.792324397763878 152.20408531114845 0 152.20408531114845 43.337701277025189 0 0 0 0 90.840186678824466 239.46375625500605 0 239.46375625500605 -67.815345605136827 0 0 0 0 -21.465541073449913 130.07872027744639 0 130.07872027744639 -106.82932913298282 0 0 0 0 38.710102142110372 10.531341207602964 0 10.531341207602964 -2.7500408109481214 0 0 0 0 7.9931025043954733 3.5807418115150753 0 3.5807418115150753 -3.9881794022834498 0 0 0 0 38.199318464368844 5.5592894691180845 0 5.5592894691180845 18.570467428435222 0 0 0 0 -5.693483705726976 7.6095333491084602 0 7.6095333491084602 -124.66879849347333 0 0 0 0 -42.293971835299089 63.417324838244895 0 63.417324838244895 -54.958882117240137 0 0 0 0 58.791685609341584 29.31580639729782 0 29.31580639729782 15.472694420968764 0 0 0 0 -0.14782023194035787 -1.9167016842520042 0 -1.9167016842520042 3.0548998249367862 0 0 0 0 8.1896364707492921 5.9108062588233992 0 5.9108062588233992 1.6528077215705252 0 0 0 0 18.524590023389464 -33.303441137428308 0 -33.303441137428308 39.206895604545025 0 0 0 0 22.871462319388229 9.0365800938161556 0 9.0365800938161556 -1.5370282825679169 0 0 0 0 11.484413052166929 12.129266096861102 0 12.129266096861102 33.876312679480179 0 0 0 0 -6.8643234806295368 44.888333147373487 0 44.888333147373487 3.7268068896373734 0 0 0 0 9.3317562703006089 2.6589937467853986 0 2.6589937467853986 5.8717173679142256 0 0 0 0 1.9803059873543134 19.054002282512101 0 19.054002282512101 29.428527889576799 0 0 0 0 -7.6711456480406923 11.670508888244512 0 11.670508888244512 -20.525011334364535 0 0 0 0 -0.07310770035814329 -0.72236963276828092 0 -0.72236963276828092 1.3915141780576192 0 0 0 0 9.2590544564017634 13.104533568182527 0 13.104533568182527 12.785634076552171 0 0 0 0 -46.662347174198658 27.967575320706601 0 27.967575320706601 39.909348564959146 0 0 0 0 -11.00726234177273 95.835883007930533 0 95.835883007930533 -18.506362021314999 0 0 0 0 -39.787734191500931 98.745246139922529 0 98.745246139922529 -15.253610507933445 0 0 0 0 40.053760205191793 -43.67163384847845 0 -43.67163384847845 29.263588860552773 0 0 0 0 -38.008674675354996 -20.758175774555639 0 -20.758175774555639 44.80965127917716 0 0 0 0 -96.278607262419428 -144.61050271040267 0 -144.61050271040267 425.80526303072475 0 0 0 0 5.1972243404996519 4.1085516279755314 0 4.1085516279755314 3.8971483308582719 0 0 0 0 369.90249207766465 211.21618631757337 0 211.21618631757337 68.485496554872952 0 0 0 0 -12.975510132267118 45.726016761221672 0 45.726016761221672 39.063201222310454 0 0 0 0 -28.003349438331497 73.859717852208632 0 73.859717852208632 80.90563264604134 0 0 0 0 -267.00859846096137 99.42781809758344 0 99.42781809758344 362.70714107008644 0 0 0 0 253.34418744139839 291.27664917717084 0 291.27664917717084 83.297189134527798 0 0 0 0 414.0524477050858 14.008280795049359 0 14.008280795049359 -26.193944208392168 0 0 0 0 4.0342326922931022 2.1672914832867463 0 2.1672914832867463 -0.44818200667515384 0 0 0 0 394.71283692352699 242.93332729371423 0 242.93332729371423 -398.76860181437587 0 0 0 0 -21.859791131180756 34.973326336893948 0 34.973326336893948 -31.678889012536153 0 0 0 0 -149.74473841446252 -79.395046182133228 0 -79.395046182133228 -65.182350302813575 0 0 0 0 3.4078548066481744 42.362614934373141 0 42.362614934373141 -40.32830578724861 0 0 0 0 -54.539433803445718 149.28223938880092 0 149.28223938880092 181.61102456191702 0 0 0 0 -106.74155890982729 56.860330735720709 0 56.860330735720709 87.160304512508446 0 0 0 0 -34.915636026427606 45.314821058285425 0 45.314821058285425 -44.589980294353566 0 0 0 0 -105.71263770181031 138.88798845337624 0 138.88798845337624 -83.583573991072626 0 0 0 0 -123.07539496106983 43.034586355368219 0 43.034586355368219 100.70263239512542 0 0 0 0 78.994880225082852 126.14970857824358 0 126.14970857824358 39.735098356347407 0 0 0 0 -9.9820207457346548 10.310195499996219 0 10.310195499996219 -3.2782264227715587 0 0 0 0 59.158424474284402 116.69241878009143 0 116.69241878009143 56.906593516893622 0 0 0 0 62.533395518752513 134.66242041067369 0 134.66242041067369 35.506855303525981 0 0 0 0 15.490235386001586 148.32896046806815 0 148.32896046806815 52.344062361392162 0 0 0 0 -29.484973567345151 179.13182099830635 0 179.13182099830635 44.021786472685221 0 0 0 0 4.2441740314316121 139.4187780773677 0 139.4187780773677 86.39512064553594 0 0 0 0 -23.917794262129974 146.04216882370497 0 146.04216882370497 126.02981756191923 0 0 0 0 10.622915257801651 142.32347304562967 0 142.32347304562967 57.966279448041774 0 0 0 0 17.95574627422684 76.014777622747488 0 76.014777622747488 106.40843755069386 0 0 0 0 14.585452954743232 100.5841349051716 0 100.5841349051716 132.4007554277818 0 0 0 0 -5.3793739600296249 122.86574379410968 0 122.86574379410968 118.95606182555912 0 0 0 0 10.843115512798249 120.85314200590801 0 120.85314200590801 85.678013739079972 0 0 0 0 14.821559222589713 82.447154112058342 0 82.447154112058342 126.76405562779564 0 0 0 0 9.6185978194371273 99.743031243567543 0 99.743031243567543 70.207854657321604 0 0 0 0 37.752600977131806 70.335716356712965 0 70.335716356712965 108.01862200851383 0 0 0 0 57.666673124900626 99.229129688761986 0 99.229129688761986 31.023545526337784 0 0 0 0 12.918798357946798 122.36083936468037 0 122.36083936468037 74.888506018283124 0 0 0 0 34.206753215239587 130.69521290490252 0 130.69521290490252 64.143144000648704 0 0 0 0 17.705510811589193 66.489804416048173 0 66.489804416048173 91.772058390536131 0 0 0 0 -1.4748273848749278 35.28078362200084 0 35.28078362200084 -25.147691507769949 0 0 0 0 19.053367386892205 35.134217061491654 0 35.134217061491654 -25.745682483144037 0 0 0 0 59.585002628439725 397.21519240712496 0 397.21519240712496 -412.65975140280807 0 0 0 0 -0.73287742479260487 48.719364906076407 0 48.719364906076407 -3.5305010514348396 0 0 0 0 -210.52123374667644 -385.66707286178644 0 -385.66707286178644 365.99086830256056 0 0 0 0 -34.231254705426181 125.69802000212621 0 125.69802000212621 -125.95069671008241 0 0 0 0 41.735357589635981 27.860564425073118 0 27.860564425073118 -46.099108848725997 0 0 0 0 -24.4746316155654 66.040268698847825 0 66.040268698847825 -65.493945620914047 0 0 0 0 -23.294299167177012 46.449279107099606 0 46.449279107099606 -37.591022752161578 0 0 0 0 -103.50970118882469 648.63029403817654 0 648.63029403817654 -817.89876320666372 0 0 0 0 341.16283147748254 -41.564672185974814 0 -41.564672185974814 -208.48882918849631 0 0 0 0 55.412666283823455 338.03741523846475 0 338.03741523846475 -1251.1296145888045 0 0 0 0 -714.44007561851686 827.79524762584697 0 827.79524762584697 -503.99194326621273 0 0 0 0 665.3271605559421 -172.58395196945821 0 -172.58395196945821 -566.03707595549713 0 0 0 0 -158.5854243043832 787.6569548889629 0 787.6569548889629 -1114.4206620135628 0 0 0 0 -270.98353604117074 932.39891168630038 0 932.39891168630038 -754.41691162728966 0 0 0 0 -101.93538818928937 782.96102428085396 0 782.96102428085396 -1421.9095545869786 0 0 0 0 -226.70981454906359 1039.6480901327523 0 1039.6480901327523 -1240.6615930439584 0 0 0 0 20.218037407764974 16.012786557260867 0 16.012786557260867 -4.4276818609656949 0 0 0 0 149.4554495762859 574.52970191748318 0 574.52970191748318 -1607.095361319627 0 0 0 0 3.3246243014896528 4.0302503713359865 0 4.0302503713359865 0.65953266043470471 0 0 0 0 -225.41437162218972 15.539689172799626 0 15.539689172799626 1064.6907776054268 0 0 0 0 -216.6444170629693 372.71323701382971 0 372.71323701382971 -778.68274471010136 0 0 0 0 -18.481557070841518 81.424872930484526 0 81.424872930484526 -1049.6343182334058 0 0 0 0 -150.84229624122236 758.04943086577987 0 758.04943086577987 -950.55198332794771 0 0 0 0 -108.40784485267432 757.97900237342947 0 757.97900237342947 -1211.0997722496359 0 0 0 0 -171.9178255467159 774.86756973191586 0 774.86756973191586 -916.73264704851317 0 0 0 0 43.445579886605174 229.70138358963732 0 229.70138358963732 38.008017340445804 0 0 0 0 -55.75635112913551 136.61832903414142 0 136.61832903414142 550.89305668432758 0 0 0 0 113.01953186457831 461.9743818359475 0 461.9743818359475 619.26527555359462 0 0 0 0 7.2539105729974835 202.22104327413763 0 202.22104327413763 345.44632144336902 0 0 0 0 -108.79734750478156 12.365557656686406 0 12.365557656686406 241.08102831878568 0 0 0 0 -341.7154878182173 21.003401144077543 0 21.003401144077543 157.18452770632575 0 0 0 0 46.48061355021855 152.80939088170999 0 152.80939088170999 -144.18411048369308 0 0 0 0 -21.243507497938339 62.719140247097904 0 62.719140247097904 -64.028142784605052 0 0 0 0 -15.004282714135664 11.881747962828834 0 11.881747962828834 -8.3680174009681778 0 0 0 0 28.61116235110967 126.16690084674337 0 126.16690084674337 -125.95514255854505 0 0 0 0 -20.767409011124982 148.90627605451664 0 148.90627605451664 -117.33879088688991 0 0 0 0 -21.415657670906057 144.74221599537032 0 144.74221599537032 -130.07347878465225 0 0 0 0 -85.213234704748174 154.84128203967521 0 154.84128203967521 -103.53713842929392 0 0 0 0 -91.755941369287029 186.51628008747866 0 186.51628008747866 -109.28978749266753 0 0 0 0 -26.654094396715664 208.67617668310845 0 208.67617668310845 -136.16872875944682 0 0 0 0 -43.393835536648112 228.98421257230075 0 228.98421257230075 -82.040232944869786 0 0 0 0 -3.0911227629790119 7.3311426539144335 0 7.3311426539144335 -15.846365655597008 0 0 0 0 -43.30378825660955 126.13926300124422 0 126.13926300124422 -84.57762036810891 0 0 0 0 24.345347645305992 65.594284373615665 0 65.594284373615665 -200.74996655447103 0 0 0 0 -272.07970530532475 -112.37535657060835 0 -112.37535657060835 -15.436559552189465 0 0 0 0 506.25657100234821 -254.55239759106553 0 -254.55239759106553 -741.54453242710406 0 0 0 0 -26.913399225540701 12.513402168457986 0 12.513402168457986 -9.3421010302258622 0 0 0 0 -66.415927165944595 -49.843973531606025 0 -49.843973531606025 -41.107144785204582 0 0 0 0 -180.93278419124545 -58.662259618660755 0 -58.662259618660755 95.533973764933762 0 0 0 0 -259.01560632402834 -22.301362650439842 0 -22.301362650439842 77.501796215321519 0 0 0 0 -160.46782659547171 13.663341774263245 0 13.663341774263245 151.29591389788402 0 0 0 0 -200.4725178671215 38.060406492026232 0 38.060406492026232 136.9952606021252 0 0 0 0 -187.00892672284681 132.54793845913036 0 132.54793845913036 212.3157090110617 0 0 0 0 -597.06885902001522 5.788506845554366 0 5.788506845554366 93.802811083345659 0 0 0 0 113.37126618536422 -25.671029027680561 0 -25.671029027680561 -100.85574901645668 0 0 0 0 -3.6590629439541829 14.523608835583559 0 14.523608835583559 -10.816976407464411 0 0 0 0 -26.048904946976108 20.465066921922698 0 20.465066921922698 41.029623883201566 0 0 0 0 -97.756830541038653 20.164068603509804 0 20.164068603509804 108.98239658610692 0 0 0 0 -9.0895681352667452 81.638199164549405 0 81.638199164549405 71.588702180233668 0 0 0 0 -86.203618073879625 128.99936439628073 0 128.99936439628073 54.014768976667256 0 0 0 0 -85.410183792541829 97.957685371875812 0 97.957685371875812 176.20565626773168 0 0 0 0 -40.173817209244589 192.26806740970642 0 192.26806740970642 279.42466386630622 0 0 0 0 -30.058272554568248 98.124423367575218 0 98.124423367575218 164.40546791639827 0 0 0 0 -67.953900182321377 121.63792225901125 0 121.63792225901125 99.898442422796506 0 0 0 0 -94.064381081905594 35.130772768137376 0 35.130772768137376 118.91799302148866 0 0 0 0 -132.85942696472921 33.694392922927364 0 33.694392922927364 192.65008189224318 0 0 0 0 -56.691710928280372 149.55817697047314 0 149.55817697047314 196.48154535953654 0 0 0 0 -72.884219089552062 83.519252974074334 0 83.519252974074334 165.20340094442781 0 0 0 0 -116.97000121996098 113.2141301489246 0 113.2141301489246 252.76568115514237 0 0 0 0 -6.0585973362030927 129.90086112567224 0 129.90086112567224 233.27447174123154 0 0 0 0 -50.65187267489091 169.5178477326026 0 169.5178477326026 326.9744016258046 0 0 0 0 43.846268037887057 206.36542278321576 0 206.36542278321576 298.93105547063169 0 0 0 0 52.683677398366854 176.19285853247493 0 176.19285853247493 384.81900528440019 0 0 0 0 138.34295637716423 292.77037824616127 0 292.77037824616127 390.84338667210977 0 0 0 0 32.832456371048465 203.26218000330118 0 203.26218000330118 333.47283207402143 0 0 0 0 152.89020444260677 228.96243734462769 0 228.96243734462769 316.50785017132512 0 0 0 0 254.90049478353467 357.92345007638505 0 357.92345007638505 413.67566757978602 0 0 0 0 154.42803941723514 317.25618532026334 0 317.25618532026334 425.44236664935306 0 0 0 0 252.08320137822011 320.44749597710143 0 320.44749597710143 574.13805803364812 0 0 0 0 202.00581873906776 259.63246787411845 0 259.63246787411845 326.57755923526565 0 0 0 0 270.85543262906867 418.71053089581801 0 418.71053089581801 301.79680463425757 0 0 0 0 171.35204076141235 329.67853483351428 0 329.67853483351428 264.59940310040474 0 0 0 0 270.86764340495574 485.94971249753871 0 485.94971249753871 159.33156654165214 0 0 0 0 152.53107858089788 368.34515507092692 0 368.34515507092692 187.72461071882572 0 0 0 0 7.6618062694033142 280.586702400793 0 280.586702400793 206.19044267952995 0 0 0 0 -82.028212773846462 158.00524503925772 0 158.00524503925772 255.70818404827605 0 0 0 0 26.054971648067294 230.16417961344905 0 230.16417961344905 267.14080282890063 0 0 0 0 26.640566819027299 247.3502407368469 0 247.3502407368469 262.21649403618358 0 0 0 0 131.75415723540937 318.11195966031664 0 318.11195966031664 279.64728184423439 0 0 0 0 367.46816698757175 486.61710827507977 0 486.61710827507977 289.8772077235044 0 0 0 0 5.6436406716583747 6.0419557953514982 0 6.0419557953514982 -5.7467285514117847 0 0 0 0 419.72365707553399 375.98890522301008 0 375.98890522301008 298.95346610290471 0 0 0 0 252.2687533069693 475.37704869202025 0 475.37704869202025 253.90278756571206 0 0 0 0 278.61606511927675 408.51113715659812 0 408.51113715659812 189.05312201379638 0 0 0 0 355.97175419891573 477.99814524399517 0 477.99814524399517 66.967596318107098 0 0 0 0 292.00486239840393 405.28642768818099 0 405.28642768818099 102.89806519673584 0 0 0 0 209.86924767841992 370.17707581916875 0 370.17707581916875 -8.6981285951187601 0 0 0 0 362.85342948117614 458.16267758533286 0 458.16267758533286 -164.02087460947223 0 0 0 0 490.81595791653672 293.99626824666484 0 293.99626824666484 41.963948352855368 0 0 0 0 -235.32880853011739 264.71505602599427 0 264.71505602599427 134.31530115390342 0 0 0 0 -446.97830381267704 161.43732417221327 0 161.43732417221327 185.62541002678336 0 0 0 0 -162.60230176450568 115.87725306884749 0 115.87725306884749 166.25676316042882 0 0 0 0 -210.00511520294822 314.02778919156844 0 314.02778919156844 162.79507782009387 0 0 0 0 -36.5468570013727 227.75879763686316 0 227.75879763686316 183.2982633649226 0 0 0 0 -63.451765422021708 380.42331729319039 0 380.42331729319039 192.47710123596335 0 0 0 0 143.06445328591508 489.15423887458746 0 489.15423887458746 56.183340484723885 0 0 0 0 134.67567988374503 388.42409503695671 0 388.42409503695671 72.183021792887303 0 0 0 0 -191.74224798093201 506.09074503639204 0 506.09074503639204 36.169419165194995 0 0 0 0 -296.56668422866642 684.59623882724463 0 684.59623882724463 -234.42923208479624 0 0 0 0 164.23987373612181 470.43455820008785 0 470.43455820008785 -142.28395448555784 0 0 0 0 -765.59790506694117 331.05830467479427 0 331.05830467479427 114.974814202875 0 0 0 0 -294.39585529145552 306.13755990083519 0 306.13755990083519 116.29281237939722 0 0 0 0 308.76436225773796 433.69286723037112 0 433.69286723037112 -395.63127755420737 0 0 0 0 -0.017329734483666925 3.1111308698177425 0 3.1111308698177425 -3.9757773892272716 0 0 0 0 -2968.1119307763875 -304.50707668309769 0 -304.50707668309769 2305.4750547232543 0 0 0 0 -42.032745308861195 191.36101785629126 0 191.36101785629126 -716.51339636455759 0 0 0 0 417.21708089073945 234.18206340015877 0 234.18206340015877 -162.70598571298069 0 0 0 0 583.51441001849889 309.38086845478392 0 309.38086845478392 -301.52534165810539 0 0 0 0 -61.763145172721124 437.53772427449439 0 437.53772427449439 229.17362714425326 0 0 0 0 823.75108347485366 -85.083907771610484 0 -85.083907771610484 -328.72903291484181 0 0 0 0 -322.92408669543511 308.49485875615983 0 308.49485875615983 -91.050225701957061 0 0 0 0 42.776590361361741 535.11241873189738 0 535.11241873189738 -330.41548139832048 0 0 0 0 -317.38357462842396 536.87330692332853 0 536.87330692332853 377.24816971823566 0 0 0 0 -15.778942406001107 22.325810643066006 0 22.325810643066006 -3.9807284551262612 0 0 0 0 -24.745373206344084 37.498956077855837 0 37.498956077855837 7.1951331583991305 0 0 0 0 -4.9874984559353948 23.079526031450001 0 23.079526031450001 -13.347873877083671 0 0 0 0 0.44423755082243588 13.871810968700629 0 13.871810968700629 -22.669058875475912 0 0 0 0 2627.9462159967879 1761.5099250475114 0 1761.5099250475114 -1022.497955493016 0 0 0 0 -23.364671852805117 20.65421957334631 0 20.65421957334631 -9.8517651045287398 0 0 0 0 8.6511637551520835 41.728880766969269 0 41.728880766969269 -2.0228903276497476 0 0 0 0 -22.25734049845812 15.00427429673735 0 15.00427429673735 -0.283559684691431 0 0 0 0 -179.13372173529933 -18.529586573147753 0 -18.529586573147753 -4.5896689566211535 0 0 0 0 -214.87932307460142 -48.945994024751144 0 -48.945994024751144 30.760044235985333 0 0 0 0 -51.457989428017754 51.946028551168183 0 51.946028551168183 11.954768387546039 0 0 0 0 -95.745942307408768 20.413094072457227 0 20.413094072457227 44.922951372304397 0 0 0 0 -164.50772630846041 89.508093641751145 0 89.508093641751145 115.55548760037755 0 0 0 0 -94.30798227123887 188.24666006586745 0 188.24666006586745 94.826881011887991 0 0 0 0 -42.435857487246722 147.54922757487213 0 147.54922757487213 101.89290441198204 0 0 0 0 -346.98930102302984 184.59230696789382 0 184.59230696789382 102.39434157876053 0 0 0 0 82.511472305886855 592.286755797767 0 592.286755797767 208.17908049977268 0 0 0 0 -54.287434888468852 352.20594186557173 0 352.20594186557173 190.83209862205695 0 0 0 0 -207.62594533915399 -25.29034548007894 0 -25.29034548007894 80.745700542403029 0 0 0 0 -163.57993427441397 9.6312225801248132 0 9.6312225801248132 43.089217383345385 0 0 0 0 53.374018620541719 49.933178110778627 0 49.933178110778627 43.231717194199362 0 0 0 0 -6.6425568069971632 40.698070577331237 0 40.698070577331237 81.413731853412173 0 0 0 0 -2.8540354964861763 62.877148443505575 0 62.877148443505575 48.837306482637359 0 0 0 0 -76.420996001655112 177.49595351486087 0 177.49595351486087 -5.4974632964431294 0 0 0 0 -41.093131279943918 148.76889831798599 0 148.76889831798599 -0.76657731094542214 0 0 0 0 -64.955307941585488 119.00550638381765 0 119.00550638381765 -36.841203093874356 0 0 0 0 43.971079903667224 47.767845057703454 0 47.767845057703454 36.357691825717595 0 0 0 0 -17.697972483350895 98.441550109015225 0 98.441550109015225 -0.68832828461017925 0 0 0 0 192.49271385252359 195.20659198156363 0 195.20659198156363 -42.576619934530243 0 0 0 0 97.832179595950947 101.47480340132734 0 101.47480340132734 -134.45562931390305 0 0 0 0 -246.9603191128117 -205.04173352794351 0 -205.04173352794351 115.31227687032515 0 0 0 0 -58.54168804688743 39.432315449370435 0 39.432315449370435 -53.495932024548893 0 0 0 0 -0.051799577962810872 121.6249039226559 0 121.6249039226559 85.33365434557345 0 0 0 0 -34.492443363411439 83.045775061053973 0 83.045775061053973 61.07286541700887 0 0 0 0 -1.7150675635421067 94.355451647290465 0 94.355451647290465 -22.855479782781913 0 0 0 0 52.162232108647004 -2.4192867701713112 0 -2.4192867701713112 19.267771958468074 0 0 0 0 62.32703789662628 -0.9552302240190329 0 -0.9552302240190329 18.469145886476326 0 0 0 0 -3.4200598477924018 3.0748721184301857 0 3.0748721184301857 4.4629205257156492 0 0 0 0 64.900262106510127 16.781916797818667 0 16.781916797818667 -201.472615104336 0 0 0 0 -24.420870836936956 61.266640506371914 0 61.266640506371914 -9.8583153961453718 0 0 0 0 -8.2011172981448368 18.980911969544945 0 18.980911969544945 22.530057358203877 0 0 0 0 -1.9436219005801831 6.1324476812369539 0 6.1324476812369539 22.778754583912814 0 0 0 0 -128.51825602757162 49.19368106822003 0 49.19368106822003 45.010826680059836 0 0 0 0 8.3144279123443994 38.705166628022198 0 38.705166628022198 16.669437009666581 0 0 0 0 25.788759387185564 61.744223113222688 0 61.744223113222688 45.668580867400124 0 0 0 0 -353.36667810030849 474.83139197283163 0 474.83139197283163 0.016164585307706147 0 0 0 0 13.511067526475017 266.50320229690533 0 266.50320229690533 6.5948314471024787 0 0 0 0 -48.09325942029318 123.63502230171252 0 123.63502230171252 52.930467097918154 0 0 0 0 46.902388769933168 219.66370833108795 0 219.66370833108795 26.373239731547073 0 0 0 0 80.438716595053847 141.89089780106315 0 141.89089780106315 27.537297687020327 0 0 0 0 56.453512345727177 235.15492773692949 0 235.15492773692949 51.397897967115568 0 0 0 0 118.30383801346034 236.38063287602563 0 236.38063287602563 25.230915812113381 0 0 0 0 36.819138764489658 38.150061009045693 0 38.150061009045693 22.161415800282299 0 0 0 0 212.16850259929925 170.2419140246293 0 170.2419140246293 7.4167762415090692 0 0 0 0 -68.461060164714581 422.32825112962746 0 422.32825112962746 420.96672461183334 0 0 0 0 68.171503392761224 130.65865960628435 0 130.65865960628435 42.427604226424592 0 0 0 0 128.69073637213296 50.673109496736288 0 50.673109496736288 15.452820683582104 0 0 0 0 -55.442368309057201 13.479340840684017 0 13.479340840684017 -82.337401236436563 0 0 0 0 1.4561091274732689 3.945164000881455 0 3.945164000881455 4.785588097255733 0 0 0 0 140.47568049952679 20.317518311880121 0 20.317518311880121 9.5456137744622538 0 0 0 0 69.975061839260889 27.394359279613127 0 27.394359279613127 -17.029529283103329 0 0 0 0 28.543865396769206 39.085371754470088 0 39.085371754470088 -10.88540176270908 0 0 0 0 27.187882034541488 23.68804664033172 0 23.68804664033172 16.680704780820641 0 0 0 0 -659.07478867039026 -73.518398254676868 0 -73.518398254676868 171.74223916702067 0 0 0 0 -633.58610769917141 -545.5352071904681 0 -545.5352071904681 -388.97190336138146 0 0 0 0 397.240512395525 1077.6847791911478 0 1077.6847791911478 -172.19395484185043 0 0 0 0 902.93751416742452 206.21944364264345 0 206.21944364264345 -1558.2944628574423 0 0 0 0 -12.380482774037944 8.0973073612714686 0 8.0973073612714686 -2.2012447545391804 0 0 0 0 -9.9497469235048186 32.08791878159635 0 32.08791878159635 30.724916191145091 0 0 0 0 -1043.4055118414399 -1146.3603296079764 0 -1146.3603296079764 -1795.1279769537214 0 0 0 0 -1263.9419724428881 -175.53259721110589 0 -175.53259721110589 809.2083624776842 0 0 0 0 -925.37491694926575 659.55178732146715 0 659.55178732146715 1557.3990828953229 0 0 0 0 2308.1402447790606 1189.1656903920193 0 1189.1656903920193 74.733769087419205 0 0 0 0 7.229608109736251 10.674249588601569 0 10.674249588601569 -1.2718089014006253 0 0 0 0 12.76282521848043 91.751727495658997 0 91.751727495658997 -16.179071027592727 0 0 0 0 5.2814580833636215 44.854634671155999 0 44.854634671155999 -3.1332539308016578 0 0 0 0 -12.949596485520487 57.243535218569605 0 57.243535218569605 0.95673345728573622 0 0 0 0 -4.1183633278306502 49.749578324429478 0 49.749578324429478 -9.5910250871856064 0 0 0 0 -70.239451930953237 49.064861958892166 0 49.064861958892166 -10.701382504278428 0 0 0 0 -125.53716100698512 177.57004874234553 0 177.57004874234553 45.899077445825583 0 0 0 0 -69.460694366811367 134.16867353868111 0 134.16867353868111 46.251145647631347 0 0 0 0 1065.8558526506094 821.24951565128686 0 821.24951565128686 -1494.3408105758276 0 0 0 0 5.0452614847527002 119.66683094231848 0 119.66683094231848 -39.237654853408458 0 0 0 0 54.768961562594413 65.357776607419922 0 65.357776607419922 22.825335791072192 0 0 0 0 44.551101972232573 96.370399224186258 0 96.370399224186258 -44.18378063819182 0 0 0 0 26.810499344639538 89.102371039105492 0 89.102371039105492 -28.491683292275411 0 0 0 0 9.368813149163822 48.376097612353803 0 48.376097612353803 -16.029790260792723 0 0 0 0 24.004512579202128 82.163220966467634 0 82.163220966467634 -13.646222357543593 0 0 0 0 76.660618995127152 22.016085920546175 0 22.016085920546175 -36.760741766855062 0 0 0 0 -4.7540508878409611 20.021042281855177 0 20.021042281855177 10.122205688829155 0 0 0 0 -44.921328644704772 162.75919059332227 0 162.75919059332227 -81.149704933486646 0 0 0 0 78.473900339045997 105.2324524602532 0 105.2324524602532 -122.49729600439241 0 0 0 0 5.7852334526669438 86.09258932972989 0 86.09258932972989 -3.2026934461755445 0 0 0 0 5.0957630678391332 1.6283754240090005 0 1.6283754240090005 -3.927394610616247 0 0 0 0 206.58321399094166 -91.415919769482571 0 -91.415919769482571 -17.096851928306023 0 0 0 0 273.49537748114562 81.488983532570273 0 81.488983532570273 -185.81748783184594 0 0 0 0 -10.388848529271854 175.95086007689497 0 175.95086007689497 -15.803435314890521 0 0 0 0 -1.5960099382721182 58.267587774925687 0 58.267587774925687 -10.179104614348034 0 0 0 0 -1.6691685077589682 73.329771087264817 0 73.329771087264817 8.5122585486242315 0 0 0 0 -9.6006479088719061 161.09348342089652 0 161.09348342089652 -82.262269452890905 0 0 0 0 48.053044214000693 104.74710108789441 0 104.74710108789441 -161.77592455251579 0 0 0 0 12.272186425485714 12.558080555765983 0 12.558080555765983 0.87444620869365508 0 0 0 0 8.5203790391236964 51.129829649262355 0 51.129829649262355 -12.622319813654485 0 0 0 0 -101.17482847631618 -559.55998072111106 0 -559.55998072111106 0.84221283003091685 0 0 0 0 32.113895232992917 51.086197178781802 0 51.086197178781802 -7.2265969215681594 0 0 0 0 53.754773258402565 69.511229963238293 0 69.511229963238293 -44.244998968082655 0 0 0 0 -79.25047760522466 110.53252539116875 0 110.53252539116875 21.804432492830529 0 0 0 0 -0.14011074761219788 126.75673672593257 0 126.75673672593257 14.735672996095673 0 0 0 0 -86.526752771669635 213.29896433125032 0 213.29896433125032 38.473533230797329 0 0 0 0 118.10872858766015 190.52867260257335 0 190.52867260257335 -18.069192740174913 0 0 0 0 141.41328990296461 493.37364714822797 0 493.37364714822797 -157.32356652090675 0 0 0 0 118.878482040991 184.01774622379889 0 184.01774622379889 -199.00607373640378 0 0 0 0 0.0019595206140365917 417.31852565500958 0 417.31852565500958 267.21580216228176 0 0 0 0 -484.97148888255379 324.55309709614812 0 324.55309709614812 354.93420407736994 0 0 0 0 -335.31802555743974 -159.01278117773745 0 -159.01278117773745 163.73434905736212 0 0 0 0 119.18088113048634 -22.45131894487713 0 -22.45131894487713 73.447918744601338 0 0 0 0 -90.931502662140701 350.72156270323467 0 350.72156270323467 -157.28613800402309 0 0 0 0 374.98620913980312 273.45599407426744 0 273.45599407426744 -219.71865245573281 0 0 0 0 -279.48890459202448 250.01865171939426 0 250.01865171939426 -41.511786827679316 0 0 0 0 -192.06836087173133 -208.35895676955806 0 -208.35895676955806 -123.35458603771258 0 0 0 0 -7.1024036661242285 3.1470152156827851 0 3.1470152156827851 0.74324931549774931 0 0 0 0 7.3610982482083642 2.849849337479661 0 2.849849337479661 2.8190881203133102 0 0 0 0 299.66637988416915 -120.21504389518304 0 -120.21504389518304 -77.361017966082727 0 0 0 0 19.293627735781588 72.472893008639886 0 72.472893008639886 -13.127306431972329 0 0 0 0 -38.591189262893749 9.607779800069693 0 9.607779800069693 31.959712684671103 0 0 0 0 -104.59715529872119 61.190578377047132 0 61.190578377047132 -6.5286511896556476 0 0 0 0 -102.30311337593594 138.11322545844087 0 138.11322545844087 132.43504867979209 0 0 0 0 -53.343232147930394 144.79192692123797 0 144.79192692123797 30.397681597081828 0 0 0 0 -3.843234224054493 77.065091264178974 0 77.065091264178974 21.000756496639781 0 0 0 0 360.72075195920206 91.588881092571683 0 91.588881092571683 -570.27173887307436 0 0 0 0 -91.036667963533546 149.14151798072271 0 149.14151798072271 102.21125769698847 0 0 0 0 -42.493521628118287 -26.247931334727582 0 -26.247931334727582 291.13574838103523 0 0 0 0 -71.474406453238771 205.06258397779129 0 205.06258397779129 380.17882015156647 0 0 0 0 -73.885785016915179 124.56311492184977 0 124.56311492184977 118.53185390678118 0 0 0 0 -101.41116191977926 160.74005630444299 0 160.74005630444299 112.6849120193001 0 0 0 0 346.51833291914227 287.27891037341033 0 287.27891037341033 -90.71046036838743 0 0 0 0 -210.20735859980778 -28.992929968804674 0 -28.992929968804674 373.43893114451203 0 0 0 0 -228.24065935715771 50.000633043177004 0 50.000633043177004 29.009526393369015 0 0 0 0 81.555744379980752 334.4695666661114 0 334.4695666661114 -379.77294937841361 0 0 0 0 53.113959576802188 38.161064301232955 0 38.161064301232955 9.3083829026295177 0 0 0 0 168.66893776036886 -229.98808970494247 0 -229.98808970494247 -117.89544641969042 0 0 0 0 -237.55607194483309 329.56309514765599 0 329.56309514765599 -42.943441744220763 0 0 0 0 170.91686144199048 -32.448695972965652 0 -32.448695972965652 -28.933274504965084 0 0 0 0 61.949232678148718 46.554358669062879 0 46.554358669062879 20.225141729000327 0 0 0 0 164.97725525887654 285.33758358723571 0 285.33758358723571 -82.620439573394833 0 0 0 0 164.36386149241298 356.22650373750002 0 356.22650373750002 -561.45501292675362 0 0 0 0 -21.830004876392195 284.78997400595836 0 284.78997400595836 240.60077990619538 0 0 0 0 63.664955526139238 723.97486268370994 0 723.97486268370994 59.398963900544913 0 0 0 0 -51.933328897706815 192.79856954635397 0 192.79856954635397 387.45601064915536 0 0 0 0 22.207935445883777 196.55158821470104 0 196.55158821470104 346.19167786861362 0 0 0 0 71.695888417365495 382.22828694784039 0 382.22828694784039 335.22566410775471 0 0 0 0 -43.330260445989552 297.17635021040951 0 297.17635021040951 248.39067174826778 0 0 0 0 -48.202823132116464 208.75729632028742 0 208.75729632028742 -102.97745355976076 0 0 0 0 -116.3448862832447 129.09670362546785 0 129.09670362546785 73.298896091768256 0 0 0 0 4.6257313871465158 172.51327106921963 0 172.51327106921963 -216.2421295447366 0 0 0 0 40.968425393701182 55.262677312039159 0 55.262677312039159 -181.26496904463693 0 0 0 0 -9.4791197008817107 123.05757051372893 0 123.05757051372893 -155.99646466183185 0 0 0 0 -87.328498619128368 -31.146946146043774 0 -31.146946146043774 30.060042225915822 0 0 0 0 -1.412772926080919 -1.4528765169391136 0 -1.4528765169391136 2.4134069537026832 0 0 0 0 283.63247935925028 536.28042809244653 0 536.28042809244653 771.73505973949796 0 0 0 0 -9.7676746393770486 6.6026492029207446 0 6.6026492029207446 -0.046976381111505816 0 0 0 0 419.69319495081436 722.09748691838104 0 722.09748691838104 742.82166780510852 0 0 0 0 253.3130383446769 323.58010049488348 0 323.58010049488348 492.00196251561283 0 0 0 0 642.76768758843536 495.36491079464759 0 495.36491079464759 457.02357286782353 0 0 0 0 206.95600363984704 213.09676659372781 0 213.09676659372781 475.53700247195957 0 0 0 0 131.40656706568552 294.35366095270729 0 294.35366095270729 409.72006189523745 0 0 0 0 237.49426183311152 422.87539737913175 0 422.87539737913175 583.16137656663341 0 0 0 0 339.82439820835134 360.30578427101136 0 360.30578427101136 438.42869698379945 0 0 0 0 175.00069628990605 254.98391065522446 0 254.98391065522446 429.53897377965041 0 0 0 0 75.189804346824531 335.72138950758381 0 335.72138950758381 557.63607062067604 0 0 0 0 311.17323510019924 251.18152818614908 0 251.18152818614908 559.11817387281189 0 0 0 0 260.60270657169167 590.30681623892451 0 590.30681623892451 564.48080370793468 0 0 0 0 74.425748634648698 639.96296282971434 0 639.96296282971434 643.4954727924196 0 0 0 0 4.3840444652596489 -42.59496944964485 0 -42.59496944964485 -217.67347293231796 0 0 0 0 186.37128604447935 -55.779368967865594 0 -55.779368967865594 -44.277240844356129 0 0 0 0 108.6580501999415 61.218926843517693 0 61.218926843517693 -436.7209325410804 0 0 0 0 30.480481289298041 -65.288323362467054 0 -65.288323362467054 -494.83584749703004 0 0 0 0 120.12344487519294 -50.649452705914882 0 -50.649452705914882 -728.42138756885834 0 0 0 0 97.022971566882916 -262.30004728707718 0 -262.30004728707718 -1185.7161137347648 0 0 0 0 -5.6957261839852436 1.6992324249505089 0 1.6992324249505089 1.0854090751539189 0 0 0 0 202.86653793505684 237.49903593220733 0 237.49903593220733 -975.61273799204901 0 0 0 0 244.73931964376243 182.39776841500134 0 182.39776841500134 -914.51269415244678 0 0 0 0 163.97670349359396 287.82915892108213 0 287.82915892108213 -535.68393942362309 0 0 0 0 230.01069029183964 234.85879760438638 0 234.85879760438638 -611.6267450209707 0 0 0 0 -218.05096028383923 192.70341642409221 0 192.70341642409221 -118.88275548445381 0 0 0 0 229.26949721408891 192.01883257145528 0 192.01883257145528 -573.71857407019706 0 0 0 0 145.4624370096135 204.54130162710499 0 204.54130162710499 -608.71483429415821 0 0 0 0 86.325579795644444 113.63206663675737 0 113.63206663675737 -558.94040624564514 0 0 0 0 -90.998770911362953 329.79892059053054 0 329.79892059053054 -474.80503901587508 0 0 0 0 154.87630218475852 335.0653303160916 0 335.0653303160916 -636.25966853866703 0 0 0 0 266.3385566471261 250.52982521970989 0 250.52982521970989 -638.44219960744022 0 0 0 0 270.47277092805598 231.51539597412193 0 231.51539597412193 -539.84458486405492 0 0 0 0 226.11984288983513 248.66284997799085 0 248.66284997799085 -495.95574573467457 0 0 0 0 206.11485157631978 224.64870868959406 0 224.64870868959406 -513.39251769735711 0 0 0 0 -6.7608355156553444 -75.985312796281505 0 -75.985312796281505 -280.29452076050075 0 0 0 0 -18.061036164479447 195.20368339254128 0 195.20368339254128 34.043017224197683 0 0 0 0 243.61360754120687 89.143789497884427 0 89.143789497884427 -368.86920929486223 0 0 0 0 314.44914038080606 -260.90047761089954 0 -260.90047761089954 163.06067787581378 0 0 0 0 718.98713042074814 -152.68039850226342 0 -152.68039850226342 116.43264208873734 0 0 0 0 42.085616385031088 28.583554290752225 0 28.583554290752225 2.7903224109729621 0 0 0 0 -302.30648749379179 458.39270280355231 0 458.39270280355231 -289.0330462121201 0 0 0 0 205.73661821459245 222.63274823556867 0 222.63274823556867 124.85043249746377 0 0 0 0 -12.186022109744954 -116.11114462958358 0 -116.11114462958358 430.12665885088427 0 0 0 0 -35.864275081734377 -44.011366937970706 0 -44.011366937970706 765.06094980613125 0 0 0 0 288.16539091883169 -217.87537924090066 0 -217.87537924090066 188.48801558138075 0 0 0 0 97.597460884662723 202.39460771085032 0 202.39460771085032 623.87538255407708 0 0 0 0 181.03232663136441 31.10170101912081 0 31.10170101912081 534.77070464882127 0 0 0 0 103.49669646294205 -64.888598904813989 0 -64.888598904813989 573.14560554471973 0 0 0 0 113.64041039120639 118.07181139598833 0 118.07181139598833 146.04307969353977 0 0 0 0 76.526110165412632 80.731836464956388 0 80.731836464956388 41.57627009274939 0 0 0 0 251.00083562073996 177.94943683864767 0 177.94943683864767 -453.67865615915071 0 0 0 0 4.9972030496282969 -108.31960737629561 0 -108.31960737629561 52.625604437685979 0 0 0 0 153.39014791593218 186.75702880699828 0 186.75702880699828 -338.12405674953698 0 0 0 0 84.233072454741261 84.595112633349643 0 84.595112633349643 46.383130359243509 0 0 0 0 291.32812582269253 334.77171552923755 0 334.77171552923755 -491.55592643165437 0 0 0 0 -67.137298686648137 340.93763135082554 0 340.93763135082554 113.90788217558293 0 0 0 0 453.07661217162968 328.69339274114463 0 328.69339274114463 95.071629679474427 0 0 0 0 76.301288425063831 114.84614749736284 0 114.84614749736284 391.524506736896 0 0 0 0 166.65337440739677 25.469705113482632 0 25.469705113482632 928.03354299208149 0 0 0 0 564.76095678549609 -87.106203871386242 0 -87.106203871386242 455.88155872424613 0 0 0 0 639.86117249040399 202.10799951898662 0 202.10799951898662 177.97592002277088 0 0 0 0 4.0299872894902364 423.7405894678559 0 423.7405894678559 720.6889340118214 0 0 0 0 -60.031580855090851 9.5616834671125162 0 9.5616834671125162 1.9547652584382291 0 0 0 0 -118.50726332707563 -46.337214161474549 0 -46.337214161474549 375.91243482572099 0 0 0 0 -59.163039828621862 19.958789758314353 0 19.958789758314353 16.041451271560661 0 0 0 0 8.1447181732946774 343.72312159672219 0 343.72312159672219 75.685310446224321 0 0 0 0 358.47464522244991 -111.0430987736363 0 -111.0430987736363 -235.22601114737336 0 0 0 0 90.095577720923757 358.77430102294238 0 358.77430102294238 144.8032390700173 0 0 0 0 41.164338559698081 84.7208462862327 0 84.7208462862327 -104.63426412668196 0 0 0 0 110.54201405694039 113.39359337969654 0 113.39359337969654 -247.48079647521445 0 0 0 0 82.784609841799551 91.639847897720713 0 91.639847897720713 24.948243695055112 0 0 0 0 63.595218474174544 76.195031752740761 0 76.195031752740761 -94.875059564059484 0 0 0 0 140.14080783200188 156.47208447855519 0 156.47208447855519 -36.069301079260185 0 0 0 0 122.32371192133905 37.700772930429139 0 37.700772930429139 -94.905344581391546 0 0 0 0 287.02074092264957 58.723208950737899 0 58.723208950737899 -24.544316961757431 0 0 0 0 136.15203391522664 278.55324218484748 0 278.55324218484748 167.9068192210907 0 0 0 0 43.343738787392795 91.016435768091469 0 91.016435768091469 76.260081162763527 0 0 0 0 170.26415552632898 281.39125042354863 0 281.39125042354863 104.36554104548122 0 0 0 0 59.508944726501795 180.66198964056002 0 180.66198964056002 337.12278772251739 0 0 0 0 93.750442991207819 363.2077107548248 0 363.2077107548248 318.65857660262827 0 0 0 0 -74.964278325453051 20.750335748285579 0 20.750335748285579 750.99182464291516 0 0 0 0 4.0299907841516358 -0.040221854235937826 0 -0.040221854235937826 -0.48574597823235877 0 0 0 0 174.09557179684634 220.73953308085038 0 220.73953308085038 -352.52627785909863 0 0 0 0 158.81782666997037 384.4287131287856 0 384.4287131287856 121.71444492535375 0 0 0 0 136.69080543178279 18.12806570034445 0 18.12806570034445 3.0102554822151433 0 0 0 0 69.34189784151522 312.01695983212085 0 312.01695983212085 107.67020064989629 0 0 0 0 -9.2016411776381943 2.2836491177295528 0 2.2836491177295528 1.5399765209947986 0 0 0 0 46.346130472106552 64.044282278874562 0 64.044282278874562 21.955184140584606 0 0 0 0 -322.70545750768849 301.16342403095814 0 301.16342403095814 555.62697007261158 0 0 0 0 -225.00998498270019 -231.97708377697199 0 -231.97708377697199 95.078569274861366 0 0 0 0 -11.401837011497264 176.85035323176271 0 176.85035323176271 130.68093574373779 0 0 0 0 -52.360849850759202 62.84731277738085 0 62.84731277738085 -3.7797938789532282 0 0 0 0 -6.5639119152911007 99.582860248759971 0 99.582860248759971 8.8814444473828189 0 0 0 0 11.93609888570063 65.507976965469425 0 65.507976965469425 23.376582523524121 0 0 0 0 -69.758283787882434 47.10356266628105 0 47.10356266628105 -10.447096354695276 0 0 0 0 5.7737247542172554 86.062002067585126 0 86.062002067585126 -70.285322523232026 0 0 0 0 -0.95947000407250016 86.635875289422984 0 86.635875289422984 -11.07479344814783 0 0 0 0 33.413219729758566 143.81223419838352 0 143.81223419838352 152.54084296291694 0 0 0 0 8.6429888952060736 14.849892103415783 0 14.849892103415783 -2.4824525951559337 0 0 0 0 -32.850066591827328 93.381692379745203 0 93.381692379745203 89.110630235674421 0 0 0 0 -62.054841414603288 175.71590740748434 0 175.71590740748434 -79.213199861813337 0 0 0 0 -39.989239369868301 180.14687696977489 0 180.14687696977489 -134.11811610979203 0 0 0 0 632.60383839393035 -277.75541962520219 0 -277.75541962520219 405.01107054995373 0 0 0 0 -57.098990123165095 187.63145361973511 0 187.63145361973511 98.294000808135024 0 0 0 0 19.145873228375507 20.788853300349388 0 20.788853300349388 9.2462345392050196 0 0 0 0 1.0647686483145833 7.4399570498852157 0 7.4399570498852157 -20.930938423601603 0 0 0 0 116.061601354304 140.68690902478556 0 140.68690902478556 -61.716471326562896 0 0 0 0 -755.25325493060518 593.78373603208456 0 593.78373603208456 448.35927533984068 0 0 0 0 -115.03306288352178 177.62358899026731 0 177.62358899026731 148.8135573977379 0 0 0 0 -122.71754763439822 242.11150006323442 0 242.11150006323442 -49.713462203988456 0 0 0 0 75.863124431853066 297.27808847126471 0 297.27808847126471 -53.507866618791013 0 0 0 0 16.872694830478196 83.753028287026865 0 83.753028287026865 -21.659370230144461 0 0 0 0 58.673578747329884 55.817521788849263 0 55.817521788849263 -105.07720723166858 0 0 0 0 77.633219277065564 24.010103786385116 0 24.010103786385116 -54.709911605430534 0 0 0 0 69.103653317717544 64.561790067622496 0 64.561790067622496 -7.9811735348848742 0 0 0 0 0.60489127384062158 46.033858407659864 0 46.033858407659864 12.330415080039529 0 0 0 0 -40.018466698071279 45.377987184638187 0 45.377987184638187 -2.3274199206207413 0 0 0 0 1.2768370407346481 34.441058873477914 0 34.441058873477914 -19.665123961822303 0 0 0 0 15.449886069864988 68.346213168175836 0 68.346213168175836 -38.068380176933715 0 0 0 0 -0.034078661392413778 60.01557081129431 0 60.01557081129431 -70.846578536686138 0 0 0 0 8.3260914138121791 40.605671199040749 0 40.605671199040749 -46.894714476134311 0 0 0 0 -12.709316491498612 67.793658973736456 0 67.793658973736456 -13.940201752251596 0 0 0 0 -18.545793012770446 59.989181476696103 0 59.989181476696103 -20.984853612550069 0 0 0 0 -4.2192589682672406 57.973214755540539 0 57.973214755540539 -27.161095935909543 0 0 0 0 15.505977986846826 32.223534592118021 0 32.223534592118021 -4.074852832478939 0 0 0 0 -18.35382761560686 49.800160873543064 0 49.800160873543064 -13.66388533358986 0 0 0 0 -15.728638612545183 44.663491899882501 0 44.663491899882501 -30.686938092079799 0 0 0 0 -22.256362312719048 29.344154318131785 0 29.344154318131785 31.4990587064121 0 0 0 0 -38.687132028814631 99.260548318602559 0 99.260548318602559 -53.479363258433295 0 0 0 0 -45.010717323515564 61.797782376437681 0 61.797782376437681 -25.961415351252072 0 0 0 0 -16.471781561958778 42.07410125239403 0 42.07410125239403 -12.344560247802292 0 0 0 0 -26.89073742234541 73.498735115907039 0 73.498735115907039 64.234869887062814 0 0 0 0 -34.798307484743418 83.173807918123202 0 83.173807918123202 5.5864155077651958 0 0 0 0 -141.35534743477365 79.499445158973685 0 79.499445158973685 206.25072193870437 0 0 0 0 -17.26308004718625 37.713520942007449 0 37.713520942007449 -29.221510443717875 0 0 0 0 -12.28122946262738 60.013536457016016 0 60.013536457016016 -40.06719223294931 0 0 0 0 4.9245624806190662 37.196902507369458 0 37.196902507369458 9.5395994128467692 0 0 0 0 -25.205158902230323 67.458010614274826 0 67.458010614274826 8.7728840507625137 0 0 0 0 -27.821002417065756 85.691130970015365 0 85.691130970015365 -46.670637376766535 0 0 0 0 -127.78696092634164 142.13687112222033 0 142.13687112222033 -9.9433125079376623 0 0 0 0 -17.975240103236644 12.967907780447035 0 12.967907780447035 12.175483010305754 0 0 0 0 -3.4024515599659111 12.517558237472922 0 12.517558237472922 22.671440352629531 0 0 0 0 -31.329640797695902 27.443407898044825 0 27.443407898044825 7.9353167445515282 0 0 0 0 -79.113874096583459 76.30437413162872 0 76.30437413162872 -40.925251662287337 0 0 0 0 -0.45192855962294587 13.059749448089953 0 13.059749448089953 3.9534829254609463 0 0 0 0 -26.643282477834873 21.356791818790953 0 21.356791818790953 11.052568079001503 0 0 0 0 83.227304656073102 107.57766542805439 0 107.57766542805439 74.162478889134945 0 0 0 0 6.8259858937860685 12.196777428515986 0 12.196777428515986 0.24715234545200815 0 0 0 0 76.218856309911644 50.123649841181759 0 50.123649841181759 -43.076787863377831 0 0 0 0 74.686414100604907 55.883491575724292 0 55.883491575724292 35.013937101597548 0 0 0 0 162.48602763880444 459.29525788009414 0 459.29525788009414 845.3281720688683 0 0 0 0 5.7795088229628249 0.9536555254862833 0 0.9536555254862833 -0.33167226801026573 0 0 0 0 28.214360953788855 103.84481180440343 0 103.84481180440343 148.68861198390368 0 0 0 0 595.83183451977675 404.17245249048574 0 404.17245249048574 176.14616019014102 0 0 0 0 322.50910006173581 676.97867877416138 0 676.97867877416138 59.021038065649918 0 0 0 0 866.92336183254338 692.50754003626753 0 692.50754003626753 24.945992968423525 0 0 0 0 -577.45056205002766 934.18010714098637 0 934.18010714098637 487.3784278715757 0 0 0 0 972.61370884262578 1413.0140389271255 0 1413.0140389271255 -1.1159794771665474 0 0 0 0 763.74892957096017 409.94105717614912 0 409.94105717614912 -73.046034690429224 0 0 0 0 2795.863645187972 164.20527437451528 0 164.20527437451528 -269.60121173040534 0 0 0 0 -299.4549894323136 90.973058640862291 0 90.973058640862291 0.03633005783194676 0 0 0 0 0.27388013606298944 1.1156713317919369 0 1.1156713317919369 -0.2031907264918118 0 0 0 0 -0.37875658521279121 2.2657139954364602 0 2.2657139954364602 4.7831901284509968 0 0 0 0 -207.82682777916489 136.39867419953225 0 136.39867419953225 -72.574678111355752 0 0 0 0 -206.6604768399302 126.67314156045904 0 126.67314156045904 -53.721800858082133 0 0 0 0 -390.88637527161927 67.994803744166347 0 67.994803744166347 -29.773266865522601 0 0 0 0 -2.9051052868290128 -0.84413643910112057 0 -0.84413643910112057 12.21720385410481 0 0 0 0 -246.10882348922678 147.78949018648564 0 147.78949018648564 -1.5026262654573657 0 0 0 0 712.11635295207816 389.60636709531536 0 389.60636709531536 0.26862860270193778 0 0 0 0 2.364149869956317 9.223997529464107 0 9.223997529464107 5.0547966580574553 0 0 0 0 -42.493664605706726 10.761440465576015 0 10.761440465576015 4.9400476064402028 0 0 0 0 -244.58988606054413 128.71482041229319 0 128.71482041229319 32.824549475102685 0 0 0 0 -163.65475151099963 52.828474178302713 0 52.828474178302713 -7.6522040254494641 0 0 0 0 -60.127819409255608 143.25913586864772 0 143.25913586864772 -0.06187818408776527 0 0 0 0 23.257834685944545 52.871431970255799 0 52.871431970255799 -7.5413594676065259 0 0 0 0 69.397204183791473 118.3500428431289 0 118.3500428431289 -34.702267495929846 0 0 0 0 -54.681523941493651 135.05507655841211 0 135.05507655841211 36.878064241900574 0 0 0 0 -74.47288298940839 168.09011981773801 0 168.09011981773801 271.40602723741904 0 0 0 0 -48.901744209764729 3.1340435323509155 0 3.1340435323509155 11.028994900996622 0 0 0 0 -33.580710978489776 22.117735716345607 0 22.117735716345607 -14.825337026798934 0 0 0 0 182.35133029329882 204.19202641458105 0 204.19202641458105 -146.65643837834068 0 0 0 0 -55.496618900486283 60.522277935926468 0 60.522277935926468 81.658180522033945 0 0 0 0 88.986439890562906 327.8164479269326 0 327.8164479269326 215.74540468625491 0 0 0 0 10.241573346283985 272.54146957175544 0 272.54146957175544 466.07308164502319 0 0 0 0 302.94675524058403 379.12300669768592 0 379.12300669768592 131.84968024672708 0 0 0 0 32.281023206138343 195.39311377060949 0 195.39311377060949 154.47008688112328 0 0 0 0 418.58249590440391 549.64558296482573 0 549.64558296482573 383.09281923803792 0 0 0 0 704.90802508198249 55.126189980357594 0 55.126189980357594 -141.30374107985699 0 0 0 0 347.45395803767315 -52.80867061355093 0 -52.80867061355093 359.3923485450141 0 0 0 0 97.351863728101307 400.11682173084409 0 400.11682173084409 652.66041237145691 0 0 0 0 727.58691206673393 531.34043529947667 0 531.34043529947667 231.92649176903069 0 0 0 0 -19.874763291544468 13.297855282556668 0 13.297855282556668 -8.5012701476704819 0 0 0 0 -124.94464372181756 129.46199736999552 0 129.46199736999552 310.81452265618282 0 0 0 0 -58.691061569844805 -139.69766417622941 0 -139.69766417622941 -93.025492933869828 0 0 0 0 240.39533109912372 297.11997424167203 0 297.11997424167203 74.081083831857541 0 0 0 0 50.82647049750085 367.40612983421306 0 367.40612983421306 192.73451871609723 0 0 0 0 -5.5730450845873207 4.4733822923832065 0 4.4733822923832065 -4.1196443375866352 0 0 0 0 -691.06210622869276 -262.59149609049564 0 -262.59149609049564 -129.68649250276212 0 0 0 0 173.93055360453582 115.73871198439156 0 115.73871198439156 0.36453688938191092 0 0 0 0 151.18220013703467 93.348403486394091 0 93.348403486394091 97.344355155175435 0 0 0 0 77.140510974219069 179.69568248303403 0 179.69568248303403 -0.47277127117558848 0 0 0 0 79.326114299382425 14.327510673632787 0 14.327510673632787 -21.625518257496879 0 0 0 0 -34.798075835424243 318.0993908629971 0 318.0993908629971 183.34802501906597 0 0 0 0 -73.920379820323433 165.74379376161232 0 165.74379376161232 165.45686713734904 0 0 0 0 -566.74893535751107 -106.59411607905349 0 -106.59411607905349 49.246719731396297 0 0 0 0 1.4064801982163573 0.57815480832150001 0 0.57815480832150001 -3.4092006472142202 0 0 0 0 56.450510128473979 54.672616995929275 0 54.672616995929275 -0.079210708924270248 0 0 0 0 40.464656849122548 48.551733442567638 0 48.551733442567638 41.599494574009441 0 0 0 0 13.734444767156674 81.719600867363624 0 81.719600867363624 0.46324632622417994 0 0 0 0 11.193707238890056 31.161882267955662 0 31.161882267955662 33.807370206748601 0 0 0 0 -0.9052103015453099 2.5213745931791038 0 2.5213745931791038 -6.0627969453053652 0 0 0 0 -163.05693324485765 -86.513857865866157 0 -86.513857865866157 3.7199335324985441 0 0 0 0 25.576268359247479 55.81046325477655 0 55.81046325477655 42.486694071534657 0 0 0 0 -68.300114301724534 63.766752471390646 0 63.766752471390646 124.06720087265421 0 0 0 0 1.6050267488099053 27.632768338698952 0 27.632768338698952 32.807945154578192 0 0 0 0 -4.1882534275503218 10.404708331254568 0 10.404708331254568 0.92611117211799865 0 0 0 0 -73.56246193802599 5.788244940840741 0 5.788244940840741 41.864419144767453 0 0 0 0 -17.682594386293204 49.516921142087085 0 49.516921142087085 29.917620401953172 0 0 0 0 -19.312063398238024 35.168187721094696 0 35.168187721094696 14.218295734992466 0 0 0 0 -18.713412144570611 46.669816885900218 0 46.669816885900218 31.198297029121022 0 0 0 0 -60.394281679436062 84.785342571854017 0 84.785342571854017 -5.4319207708613249 0 0 0 0 -46.368520432832085 33.132493262352824 0 33.132493262352824 -14.07316237970312 0 0 0 0 -0.012125709838684884 13.028876945554771 0 13.028876945554771 -1.0290497491123176 0 0 0 0 -11.19835170049555 30.939092134227394 0 30.939092134227394 13.412656562184566 0 0 0 0 0.71756163623649627 37.870085843896959 0 37.870085843896959 18.6804866740531 0 0 0 0 2.36923277441241 26.892651339878512 0 26.892651339878512 4.330838009623271 0 0 0 0 -2.5312196911800129 35.487913023557667 0 35.487913023557667 12.81195731934713 0 0 0 0 -2.8858583256951533 40.76228088606149 0 40.76228088606149 19.450154805883358 0 0 0 0 -4.182314392470289 13.190155185526237 0 13.190155185526237 7.4938592110993341 0 0 0 0 -3.9311538071849554 21.859166979294969 0 21.859166979294969 16.851073099159201 0 0 0 0 3.1878741766540202 31.243213729029662 0 31.243213729029662 6.4355229494988748 0 0 0 0 -5.5886837776051834 20.846158438449493 0 20.846158438449493 -35.333405413897708 0 0 0 0 0.18471772134773801 5.9650794696039924 0 5.9650794696039924 -6.5026618565840977 0 0 0 0 -18.216192156352918 47.072912591131171 0 47.072912591131171 16.010949497067486 0 0 0 0 16.988878978532739 29.618903214694001 0 29.618903214694001 -3.7125540055567399 0 0 0 0 -2.4223927448060465 9.2344475412930649 0 9.2344475412930649 7.2378637563890678 0 0 0 0 -6.3056283300827829 24.658426845697335 0 24.658426845697335 4.9299467186741026 0 0 0 0 -16.404872323895447 25.47173438769147 0 25.47173438769147 11.938786988514636 0 0 0 0 -13.097618085856084 31.803959324606694 0 31.803959324606694 30.943741358118132 0 0 0 0 -0.90510382800590605 25.517699130678835 0 25.517699130678835 17.417282585806561 0 0 0 0 -15.754688357785199 33.178873337095865 0 33.178873337095865 30.559595745173283 0 0 0 0 6.3880231703660684 40.925844160621637 0 40.925844160621637 -5.5219075063723722 0 0 0 0 -14.999099747665241 34.604456730430684 0 34.604456730430684 10.518131212229491 0 0 0 0 -7.9988789847155033 21.180662929869698 0 21.180662929869698 17.441190756226234 0 0 0 0 -2.8872844862853526 37.226499358468573 0 37.226499358468573 1.7272958369394473 0 0 0 0 -67.063549321821483 31.159017374018731 0 31.159017374018731 39.560543916930328 0 0 0 0 1.1509074463712778 2.9081752250282307 0 2.9081752250282307 1.8164991582317498 0 0 0 0 -19.400320007596747 8.6968684771854896 0 8.6968684771854896 166.43297958720359 0 0 0 0 -19.418062080527307 -14.808798486788874 0 -14.808798486788874 -58.086690461495891 0 0 0 0 17.308660238442826 12.716013739198388 0 12.716013739198388 18.956209515443334 0 0 0 0 -5.3929959874003544 12.952171943019493 0 12.952171943019493 95.116210416104877 0 0 0 0 -87.548508058505831 10.898672101335251 0 10.898672101335251 379.5042761789955 0 0 0 0 -30.853718484388082 87.88038733688154 0 87.88038733688154 109.34695766953519 0 0 0 0 1.9223221840967284 -3.7763403717970903 0 -3.7763403717970903 -1.8817748506330076 0 0 0 0 104.41516118980144 -25.565802877965325 0 -25.565802877965325 -316.93091216366156 0 0 0 0 -40.863172078199568 -89.675712852447759 0 -89.675712852447759 132.24345211163745 0 0 0 0 -49.136549520553672 -107.76997297024354 0 -107.76997297024354 111.78151729655656 0 0 0 0 -85.386034228475182 116.76077695305867 0 116.76077695305867 -158.92040048236959 0 0 0 0 43.275235290158889 -16.828465195736499 0 -16.828465195736499 0.25595330775831826 0 0 0 0 140.52555918958387 23.948594694840722 0 23.948594694840722 -376.54804698040243 0 0 0 0 2.1047362403365995 -1.084689918474794 0 -1.084689918474794 -1.7107167351556427 0 0 0 0 10.749455843451869 10.354885258715512 0 10.354885258715512 -14.401935689573293 0 0 0 0 15.177900441340171 4.0469160982465837 0 4.0469160982465837 -12.287493439624086 0 0 0 0 0.29187226096515673 16.548825786492387 0 16.548825786492387 -7.3514825655445293 0 0 0 0 10.643900378902202 13.832284679174052 0 13.832284679174052 -4.0060163035680034 0 0 0 0 4.8629880730150035 21.174954858288402 0 21.174954858288402 1.830465722567169 0 0 0 0 5.2208955277019413 13.921760242417804 0 13.921760242417804 6.1543191581731662 0 0 0 0 0.6997775602096965 15.690354248000403 0 15.690354248000403 0.056156874709131444 0 0 0 0 1.4049186894569061 17.113816895928707 0 17.113816895928707 9.5070192324944287 0 0 0 0 -44.756001881542034 -1.2399030020169448 0 -1.2399030020169448 36.063187170773745 0 0 0 0 11.11874315784371 34.29255225747329 0 34.29255225747329 11.604682093464362 0 0 0 0 -0.33462028490612283 11.326066528330557 0 11.326066528330557 -10.700407455042296 0 0 0 0 -1.3453181659818938 2.2928773122143014 0 2.2928773122143014 2.3669964058720439 0 0 0 0 61.354630528599955 21.892375615308993 0 21.892375615308993 -88.657862689455214 0 0 0 0 2.3578146468353225 -2.879710108260042 0 -2.879710108260042 -10.962294494209345 0 0 0 0 26.984352348926166 16.761152229360121 0 16.761152229360121 3.2723373530929507 0 0 0 0 0.69993384081772092 3.5297034903422144 0 3.5297034903422144 -0.46776259601162451 0 0 0 0 -53.48747988633113 63.405760382926019 0 63.405760382926019 -9.2310582956415601 0 0 0 0 -32.696637440974882 20.255517062676518 0 20.255517062676518 48.364639249281026 0 0 0 0 -14.669497742303065 -111.23414642836724 0 -111.23414642836724 47.312026167957811 0 0 0 0 -0.85242518990708049 48.625086349602498 0 48.625086349602498 -5.395633264688513 0 0 0 0 0.52456930902553722 32.406635877858207 0 32.406635877858207 -4.5144246104027843 0 0 0 0 -11.749900074156784 18.443185717937752 0 18.443185717937752 -8.7538194798990787 0 0 0 0 14.497541050189341 32.336090219155295 0 32.336090219155295 -6.422769235463889 0 0 0 0 -2.5077432231993271 23.431196167842131 0 23.431196167842131 -3.5566830562448501 0 0 0 0 -7.9784882288804511 45.472795547160786 0 45.472795547160786 -44.339781954593491 0 0 0 0 -0.41357165734333989 35.038776630458131 0 35.038776630458131 -10.905572346196664 0 0 0 0 11.136095298759756 52.14477549525327 0 52.14477549525327 -24.326046758244047 0 0 0 0 -5.7095749905565754 35.010922410554485 0 35.010922410554485 -56.606457004047115 0 0 0 0 -3.9834869358226115 23.445812777319077 0 23.445812777319077 -8.2800853355913659 0 0 0 0 -2.7962198269815417 32.357728383896756 0 32.357728383896756 4.045987263583811 0 0 0 0 -5.2712595608583186 20.949348134182628 0 20.949348134182628 1.7454761942138362 0 0 0 0 -3.0831402155090473 31.492160127680108 0 31.492160127680108 4.1289619799604225 0 0 0 0 -4.8061459655073122 25.359027941973181 0 25.359027941973181 -18.770584105630405 0 0 0 0 0.78948476281220792 27.138788061929517 0 27.138788061929517 14.530645597813418 0 0 0 0 -5.5913036477216167 17.757276341963518 0 17.757276341963518 1.0362939054024309 0 0 0 0 -2.300292720879952 21.828627539143781 0 21.828627539143781 3.4796220205389545 0 0 0 0 -3.8084999334342058 5.1552521297660547 0 5.1552521297660547 0.29039168039977881 0 0 0 0 2.3841889743152933 21.736926620970053 0 21.736926620970053 -2.6822567905123833 0 0 0 0 -1.4577490599440353 32.330045983297168 0 32.330045983297168 3.4060644744167803 0 0 0 0 -7.8830596887419233 40.06563842666219 0 40.06563842666219 3.9040900922991568 0 0 0 0 -0.0074010514974531816 25.996576052998591 0 25.996576052998591 2.106835581663141 0 0 0 0 -3.5069011648847663 38.320412701008536 0 38.320412701008536 0.088171192954177968 0 0 0 0 -8.7516339248104487 42.215029371713172 0 42.215029371713172 2.6337399950789404 0 0 0 0 -14.198392537284235 9.9919028502954461 0 9.9919028502954461 49.748772952749277 0 0 0 0 5.5520953815729115 28.302320721850137 0 28.302320721850137 11.999400414484626 0 0 0 0 -7.3823234186056652 34.290824868212439 0 34.290824868212439 19.183969339283067 0 0 0 0 -1.312529263360922 11.379110010878861 0 11.379110010878861 5.1045519015027025 0 0 0 0 87.151977708461345 81.736521399408957 0 81.736521399408957 -62.72116980831197 0 0 0 0 -113.20331112883287 89.410078868437267 0 89.410078868437267 -17.172325848492619 0 0 0 0 -6.2505944520686185 25.6602690317238 0 25.6602690317238 4.7095711205258795 0 0 0 0 -5.9541528328118147 41.837035842399928 0 41.837035842399928 -0.86202708911514492 0 0 0 0 -40.983243555616355 56.366999399193446 0 56.366999399193446 -4.6647185342735611 0 0 0 0 -16.515142288749246 29.956902607167052 0 29.956902607167052 13.30987515425177 0 0 0 0 -9.176646931045525 92.550562315816819 0 92.550562315816819 -96.950047097314382 0 0 0 0 -8.1014350495147482 60.107430990766034 0 60.107430990766034 -34.399745749877184 0 0 0 0 -0.12060293363174424 36.599227878352394 0 36.599227878352394 -28.982310821207648 0 0 0 0 9.4847040594613645 69.597482557132025 0 69.597482557132025 -20.637503530990216 0 0 0 0 2.1315423255437054 13.591054959935718 0 13.591054959935718 -60.231295969788334 0 0 0 0 -24.795691089500906 130.27090796947596 0 130.27090796947596 -166.5879047206181 0 0 0 0 101.5340790450864 -24.754809695441509 0 -24.754809695441509 -81.262935851889779 0 0 0 0 -12.956703094103432 172.59631322189125 0 172.59631322189125 -139.4921426314977 0 0 0 0 -66.658391328113794 63.24785608907041 0 63.24785608907041 25.453488530023606 0 0 0 0 20.243420500315551 67.127099666302456 0 67.127099666302456 -7.9847834614338353 0 0 0 0 0.69707921372901183 68.780209701719286 0 68.780209701719286 -39.00998448926839 0 0 0 0 40.086395974612969 60.175189627880172 0 60.175189627880172 -32.670046038005239 0 0 0 0 -3.2208392020038445 63.078043519300991 0 63.078043519300991 -43.326191916778043 0 0 0 0 -16.010632229312691 39.331462809106768 0 39.331462809106768 -34.705434145454404 0 0 0 0 19.406808853382245 42.067415451791021 0 42.067415451791021 -42.410641423528432 0 0 0 0 -25.75219639671559 58.364708398512448 0 58.364708398512448 -24.712748074471165 0 0 0 0 -5.5261818726357887 72.567256403717693 0 72.567256403717693 -43.946571156266145 0 0 0 0 5.4554992427502498 25.269727298959111 0 25.269727298959111 17.896618751296501 0 0 0 0 -11.41757096127963 37.583245572663515 0 37.583245572663515 -39.367539023222633 0 0 0 0 34.129954922958859 76.023433834960088 0 76.023433834960088 -0.74184153959504329 0 0 0 0 -12.282951721003201 47.024531799870346 0 47.024531799870346 -52.779537637342628 0 0 0 0 393.75475942844696 545.36010144649936 0 545.36010144649936 -145.8535588422892 0 0 0 0 48.70662709636963 99.582950345502468 0 99.582950345502468 6.7181567434199678 0 0 0 0 78.002880200889194 124.73712233035258 0 124.73712233035258 -5.4706693957705284 0 0 0 0 -18.608241519593548 7.3700234337002541 0 7.3700234337002541 3.3035970541407664 0 0 0 0 -41.253579296404496 76.56735541249509 0 76.56735541249509 -12.800954690148501 0 0 0 0 -36.199714505742989 56.90273873569879 0 56.90273873569879 -2.0680881383058534 0 0 0 0 -34.593138039723272 89.946689169795718 0 89.946689169795718 -20.5870317966328 0 0 0 0 33.996259646941326 105.20807237421832 0 105.20807237421832 41.210461354385188 0 0 0 0 -60.560523453124915 35.854907039662066 0 35.854907039662066 90.699125350278337 0 0 0 0 104.37986502095373 134.03401440961807 0 134.03401440961807 69.538508532103151 0 0 0 0 -51.610441799544788 378.65197478293703 0 378.65197478293703 466.24860831996921 0 0 0 0 31.192248292616569 73.166965731310484 0 73.166965731310484 0.60145980789457099 0 0 0 0 -12.012187941392767 109.89133578949259 0 109.89133578949259 75.005520280247765 0 0 0 0 -28.661995699381691 42.656550117334788 0 42.656550117334788 -50.368191035005438 0 0 0 0 -292.59992598668032 -62.976517712180794 0 -62.976517712180794 372.81551873048011 0 0 0 0 197.97016827511834 -2.7108716522761824 0 -2.7108716522761824 -101.46862919998239 0 0 0 0 -89.50432509649545 25.155827050708467 0 25.155827050708467 75.737271246769524 0 0 0 0 -28.911533535982016 95.004323214936448 0 95.004323214936448 -146.8797923764796 0 0 0 0 -45.186215065783472 -42.814368574945547 0 -42.814368574945547 -69.658068340882892 0 0 0 0 8.7104036775126588 82.414987844895222 0 82.414987844895222 -71.240673392021563 0 0 0 0 -15.941127485784818 65.392664487600996 0 65.392664487600996 -67.480141284977435 0 0 0 0 -80.692272296946612 127.03486638854883 0 127.03486638854883 21.126979591181225 0 0 0 0 -23.960510158583929 47.33466296707229 0 47.33466296707229 174.89940528807347 0 0 0 0 -8.3881734377791872 62.695371589008573 0 62.695371589008573 48.502793066101731 0 0 0 0 -69.168231719784671 53.079246278321079 0 53.079246278321079 137.19803756509145 0 0 0 0 -79.465596728093317 30.561593138325037 0 30.561593138325037 77.491256306020659 0 0 0 0 -25.665978892051498 38.322893986030977 0 38.322893986030977 74.76762220144883 0 0 0 0 -195.80038392606366 153.78736533792107 0 153.78736533792107 491.14733304611582 0 0 0 0 1.1697100696293745 2.2669147158804321 0 2.2669147158804321 7.8957051664660582 0 0 0 0 403.54724247707054 31.960566020594342 0 31.960566020594342 32.349233948487381 0 0 0 0 117.03820991363318 -186.02970533521875 0 -186.02970533521875 278.82704404868491 0 0 0 0 8.4168413644802058 3.5630038282070018 0 3.5630038282070018 39.145451496111491 0 0 0 0 133.69151759020315 26.735896803435026 0 26.735896803435026 -181.88213691095734 0 0 0 0 -67.746113056393369 -0.15878530757436238 0 -0.15878530757436238 97.62441978228162 0 0 0 0 17.271722908090695 22.60033626306052 0 22.60033626306052 2.6985154857501072 0 0 0 0 44.358029845112469 22.06319510738831 0 22.06319510738831 101.69734063630131 0 0 0 0 -75.350201550569182 221.41705602910952 0 221.41705602910952 261.66314450795471 0 0 0 0 -23.043616946888505 211.80234919214854 0 211.80234919214854 -4.8585465545547777 0 0 0 0 57.381582973131231 78.253700544490528 0 78.253700544490528 55.820531160329281 0 0 0 0 -23.591487449887609 97.555476502091551 0 97.555476502091551 170.29182799128466 0 0 0 0 -42.390347307838965 65.725688692837139 0 65.725688692837139 235.33661486831988 0 0 0 0 -32.058747264174599 82.379985165955077 0 82.379985165955077 100.99524972980726 0 0 0 0 -7.0511426898301579 129.68095831868413 0 129.68095831868413 118.9664113064573 0 0 0 0 -34.654466390446487 23.409573138614547 0 23.409573138614547 13.403143941969745 0 0 0 0 23.716100716944979 61.846927473686677 0 61.846927473686677 46.888572868738891 0 0 0 0 -11.056219738335372 28.141680013957334 0 28.141680013957334 35.167633568300971 0 0 0 0 -20.137112561715185 30.179597055597696 0 30.179597055597696 42.530888046112523 0 0 0 0 4.446106853441961 52.363630444711816 0 52.363630444711816 40.800602652801899 0 0 0 0 -0.36464052074370557 56.677669596956548 0 56.677669596956548 11.603256683200016 0 0 0 0 -7.7905336743206135 50.307698507858731 0 50.307698507858731 45.188904879061738 0 0 0 0 -8.556619028935728 40.437680523097583 0 40.437680523097583 25.438289419646651 0 0 0 0 1.3131482392927865 54.306440540036419 0 54.306440540036419 46.09636647291336 0 0 0 0 11.967209306065342 34.038378798650228 0 34.038378798650228 20.268742278833088 0 0 0 0 -11.199773616501204 20.781317791389057 0 20.781317791389057 12.148464790097279 0 0 0 0 0.95239130556001328 34.647839406905405 0 34.647839406905405 17.841025257657748 0 0 0 0 4.7372206420259317 39.304667534321197 0 39.304667534321197 17.437310414839885 0 0 0 0 2.0673169679794228 53.295133221763535 0 53.295133221763535 40.473449319499196 0 0 0 0 21.658449650449683 35.458242653727638 0 35.458242653727638 -13.264619771706123 0 0 0 0 28.901419838817674 37.69576422451064 0 37.69576422451064 39.107431754586287 0 0 0 0 -19.301391794972005 146.03239012297126 0 146.03239012297126 217.68231507599648 0 0 0 0 -22.873974087967468 47.308550296705548 0 47.308550296705548 -38.170366209311069 0 0 0 0 4.4292800190160051 179.06198156751907 0 179.06198156751907 -67.653170936806418 0 0 0 0 2.3319824055928962 6.9814502008206318 0 6.9814502008206318 8.9062761248774791 0 0 0 0 11.212041335034883 97.075953723680868 0 97.075953723680868 133.66511245478796 0 0 0 0 10.389897811856258 52.215440720793971 0 52.215440720793971 27.592421007303642 0 0 0 0 -10.250589738254348 65.465955385876441 0 65.465955385876441 93.972296890759026 0 0 0 0 0.28473340095661115 2677.0607012276505 0 2677.0607012276505 1468.6254104725012 0 0 0 0 1044.2654841078693 1569.843202422036 0 1569.843202422036 1231.0820776784385 0 0 0 0 2409.9439442228249 2412.1355776694945 0 2412.1355776694945 -1.5267452254374803 0 0 0 0 4504.6675394074991 1450.9963450159339 0 1450.9963450159339 463.98695581397624 0 0 0 0 3604.4999165449262 1690.1017968242377 0 1690.1017968242377 428.28243015040789 0 0 0 0 1396.1724309343081 2460.9533743981638 0 2460.9533743981638 2138.5945250560253 0 0 0 0 3991.4459746641296 2269.8997637357461 0 2269.8997637357461 533.38236498116748 0 0 0 0 4317.319944766823 -324.05110999533645 0 -324.05110999533645 -217.51775423310755 0 0 0 0 369.33841643593041 104.02029094689351 0 104.02029094689351 -476.02724693697382 0 0 0 0 735.79385883719078 -214.60357288973319 0 -214.60357288973319 -296.15288419625722 0 0 0 0 1446.2847184711427 1985.0295294829702 0 1985.0295294829702 1789.5533505523126 0 0 0 0 -74.796704378866707 -22.310355365305441 0 -22.310355365305441 326.70220143214101 0 0 0 0 -379.9749574982925 299.40005939748517 0 299.40005939748517 908.32665347616421 0 0 0 0 23.202197488041833 18.177913398982554 0 18.177913398982554 18.607418354880565 0 0 0 0 3706.5977918504068 1458.9791205893707 0 1458.9791205893707 2.7382916595670395 0 0 0 0 4105.3574306801784 2763.8178535564111 0 2763.8178535564111 591.33532630668196 0 0 0 0 3888.334030764021 2117.2491287972844 0 2117.2491287972844 359.46764560336305 0 0 0 0 2622.7765293590346 2215.6373619004808 0 2215.6373619004808 568.79905760024121 0 0 0 0 2984.6114725013358 1505.0411328373521 0 1505.0411328373521 190.39591941192339 0 0 0 0 168.01516550718225 382.43183958277223 0 382.43183958277223 725.07098350882006 0 0 0 0 1338.3253884442311 -112.30238660908799 0 -112.30238660908799 -491.43114675988909 0 0 0 0 -10.834760500059929 -291.76488533217344 0 -291.76488533217344 487.3247725418114 0 0 0 0 -331.2164149586315 13.471355065485113 0 13.471355065485113 615.6607174066412 0 0 0 0 9.8864070979012695 6.4448578235456182 0 6.4448578235456182 3.5157812332431035 0 0 0 0 166.70917634488433 620.6356765745295 0 620.6356765745295 1071.6561636663537 0 0 0 0 40.800052043909091 -78.464872844742786 0 -78.464872844742786 -61.404534378852986 0 0 0 0 119.27950690684884 128.01314771189027 0 128.01314771189027 -184.24795188085409 0 0 0 0 -205.73160628396727 276.69026406527701 0 276.69026406527701 -188.91110988998844 0 0 0 0 -377.3275068038638 161.21665850628051 0 161.21665850628051 416.23263368115295 0 0 0 0 23.388544218303394 13.047148742569803 0 13.047148742569803 6.4066177457797551 0 0 0 0 -41.795753638536553 -20.443116746659143 0 -20.443116746659143 -26.880216220917646 0 0 0 0 -127.22567033904488 -45.93227213753562 0 -45.93227213753562 11.746013703843346 0 0 0 0 -69.359827070031315 -66.289997822837904 0 -66.289997822837904 37.040114380099112 0 0 0 0 0.014899130736012012 -161.88615369758918 0 -161.88615369758918 98.285963785237982 0 0 0 0 455.42720243018994 -146.508264863769 0 -146.508264863769 63.158208855165867 0 0 0 0 309.30298223243153 -19.462565680696571 0 -19.462565680696571 -493.42894893563061 0 0 0 0 -2.0644557403973067 2.2381610758253601 0 2.2381610758253601 -0.81122320842356999 0 0 0 0 -69.082268711965298 -52.256929468014278 0 -52.256929468014278 56.688245347153497 0 0 0 0 -3.5410938594141044 -122.2228963675152 0 -122.2228963675152 -331.18875295040198 0 0 0 0 -4.440621478136336 4.5883106651472474 0 4.5883106651472474 -2.7086575463717821 0 0 0 0 3.5003199364291504 -34.861832144422806 0 -34.861832144422806 9.0534090812725481 0 0 0 0 61.353542383236345 -9.567904887284385 0 -9.567904887284385 -34.392813064368966 0 0 0 0 111.24449799547438 -211.5665824112657 0 -211.5665824112657 223.43017174247507 0 0 0 0 148.58501311513828 -97.560627601531451 0 -97.560627601531451 -98.974898502870928 0 0 0 0 60.775705866108183 -9.5509037292213179 0 -9.5509037292213179 -171.36543371256266 0 0 0 0 -2.5689686397236073 17.347199419855315 0 17.347199419855315 -51.153438218228985 0 0 0 0 13.242127145902487 0.68307067184650805 0 0.68307067184650805 -88.733861039909243 0 0 0 0 -6.6868180688707639 9.2317290814538353 0 9.2317290814538353 -4.2676691946602787 0 0 0 0 -2.6039095429200643 -4.1359540351289468 0 -4.1359540351289468 -16.057494434039597 0 0 0 0 21.636631930217845 -9.8036487052013399 0 -9.8036487052013399 -85.71710237757361 0 0 0 0 1.0034472658471998 37.189237990077999 0 37.189237990077999 -55.98412134889054 0 0 0 0 -4.0724122422543587 44.848041089775506 0 44.848041089775506 -17.269507140808855 0 0 0 0 42.24350943492027 60.503825200496067 0 60.503825200496067 -72.286252014535421 0 0 0 0 25.238627261700458 79.85101279601804 0 79.85101279601804 -119.40546336187981 0 0 0 0 19.953430298755961 57.029859518111749 0 57.029859518111749 -60.944456412507037 0 0 0 0 54.285213713374105 286.09121325240994 0 286.09121325240994 -356.48116997846955 0 0 0 0 -14.653959114555619 140.12366978455248 0 140.12366978455248 -28.687425542710116 0 0 0 0 99.078701950638788 29.590320516770589 0 29.590320516770589 -79.650780574673263 0 0 0 0 65.180232851788418 55.356087214035632 0 55.356087214035632 -34.322741550171372 0 0 0 0 97.29411737684859 47.957381810825609 0 47.957381810825609 -8.6310787447873736 0 0 0 0 -42.573838152689859 98.712335549920681 0 98.712335549920681 -51.317029468295004 0 0 0 0 -40.339219913934357 102.65604932577116 0 102.65604932577116 -46.466310471886572 0 0 0 0 -22.126905267272377 117.30744480331487 0 117.30744480331487 -97.988839230471058 0 0 0 0 -121.83914242580977 116.9925898498343 0 116.9925898498343 -48.359897519345395 0 0 0 0 17.070630522390658 2.3596648036867407 0 2.3596648036867407 -0.19036912712260801 0 0 0 0 -1.8992041279416298 65.916339299386891 0 65.916339299386891 -42.125309012364596 0 0 0 0 5.7553548403948867 21.475225696323321 0 21.475225696323321 15.64734194588155 0 0 0 0 15.053124674062241 55.03579151698645 0 55.03579151698645 -33.233239867386544 0 0 0 0 -15.934328180113425 70.993704328366903 0 70.993704328366903 -37.656190926107229 0 0 0 0 -27.370630896402872 52.793621423086734 0 52.793621423086734 -18.382374431901553 0 0 0 0 27.455600451357896 69.996083218524291 0 69.996083218524291 -34.769969480454165 0 0 0 0 64.817501450859709 114.84683330741245 0 114.84683330741245 -17.516637739965518 0 0 0 0 -3.2931288415171176 53.526378160359258 0 53.526378160359258 -21.782513305046223 0 0 0 0 133.05136788886011 104.41975859637387 0 104.41975859637387 -24.812529337563319 0 0 0 0 144.19161185046505 74.727409817620128 0 74.727409817620128 -91.947987139763427 0 0 0 0 158.33722561859759 97.341716564431408 0 97.341716564431408 -101.44365210630349 0 0 0 0 785.32645201937703 115.01720803604258 0 115.01720803604258 -172.07485372227893 0 0 0 0 72.984142918736325 -143.46429723168876 0 -143.46429723168876 -265.83121080573619 0 0 0 0 -2.0021657622222619 -2.3793827106019023 0 -2.3793827106019023 2.8137012709247244 0 0 0 0 1521.3128729350574 621.32573658003821 0 621.32573658003821 215.468171976745 0 0 0 0 482.48887629341152 469.58691795902769 0 469.58691795902769 196.50629189856409 0 0 0 0 118.99742757395143 4.9872187698856578 0 4.9872187698856578 -130.63882935549191 0 0 0 0 17.424213155621715 8.4998471054692857 0 8.4998471054692857 3.3363291974862364 0 0 0 0 526.56903382884047 -128.86253470488009 0 -128.86253470488009 7.0954306372150313 0 0 0 0 57.191756246445493 54.996182342225886 0 54.996182342225886 34.362872828115314 0 0 0 0 477.91712029161863 323.25104718861257 0 323.25104718861257 44.467327681719325 0 0 0 0 502.68314390466276 -5.5591732075608888 0 -5.5591732075608888 154.1010759495839 0 0 0 0 2107.5913738216768 175.2993541489559 0 175.2993541489559 -85.518570606036519 0 0 0 0 1.6912142183282413 974.75307948858608 0 974.75307948858608 489.56397698691035 0 0 0 0 1970.0461152991047 1192.0672899219171 0 1192.0672899219171 317.83099983775173 0 0 0 0 1678.7682679360732 1363.54294927519 0 1363.54294927519 219.55715301586679 0 0 0 0 1522.7676640036102 643.62465081577909 0 643.62465081577909 -4.1823452755634207 0 0 0 0 1094.6675297581241 815.55194731359734 0 815.55194731359734 167.75855198737918 0 0 0 0 842.18555890198331 618.76636497973595 0 618.76636497973595 39.668340651183826 0 0 0 0 1091.0219802928318 1503.1670342797509 0 1503.1670342797509 707.60056049500417 0 0 0 0 1644.5972041923862 1749.6950194056697 0 1749.6950194056697 581.67182618921652 0 0 0 0 134.91042705572181 592.60879710743211 0 592.60879710743211 340.22186258702277 0 0 0 0 239.68385111761745 605.85022322076838 0 605.85022322076838 276.98394685392122 0 0 0 0 110.31373858338338 483.99946291125889 0 483.99946291125889 367.35568415882881 0 0 0 0 646.80669241964642 767.99826658750681 0 767.99826658750681 238.36017831493518 0 0 0 0 556.96154017765912 483.39636167743083 0 483.39636167743083 -10.570937210031843 0 0 0 0 515.36720287828939 421.0349730175476 0 421.0349730175476 135.47801019221515 0 0 0 0 389.5326844122028 350.63187729021956 0 350.63187729021956 111.40765472075145 0 0 0 0 306.46349398310122 323.34636703250726 0 323.34636703250726 191.76015400343749 0 0 0 0 362.15968202927615 326.93633079724532 0 326.93633079724532 94.256082030842663 0 0 0 0 409.89965002429381 484.9086921005437 0 484.9086921005437 210.96792978742451 0 0 0 0 126.14529619386303 441.58873877164297 0 441.58873877164297 242.34044322933914 0 0 0 0 246.95323324357742 315.48036392956055 0 315.48036392956055 327.21146898217557 0 0 0 0 212.09402352054894 241.2311706394612 0 241.2311706394612 169.10131774685397 0 0 0 0 -14.914954398632062 12.345262762636793 0 12.345262762636793 -8.7164760609939549 0 0 0 0 -1.9130515854758414 63.716508628064275 0 63.716508628064275 -112.50529578623537 0 0 0 0 246.11342462149332 228.649835109587 0 228.649835109587 142.24018111818077 0 0 0 0 0.85957854860629368 2.5966676486958988 0 2.5966676486958988 -5.5372706404665308 0 0 0 0 230.24243331712205 249.97476056458254 0 249.97476056458254 110.79593595846745 0 0 0 0 57.108503136092622 -63.473541303032107 0 -63.473541303032107 -27.947700555996562 0 0 0 0 9.7617085397796473 19.277653938515869 0 19.277653938515869 -45.366757692740066 0 0 0 0 -45.749953287828248 42.085508036649117 0 42.085508036649117 86.712465590309876 0 0 0 0 -6.618316269795514 13.491158063644022 0 13.491158063644022 -9.0276363057091409 0 0 0 0 -15.334207874558729 11.856116537734522 0 11.856116537734522 -4.3912421722280328 0 0 0 0 -13.105568612809293 17.928770539554534 0 17.928770539554534 -1.1163485060787934 0 0 0 0 110.69915181829128 -13.021241741800623 0 -13.021241741800623 -32.374932781443931 0 0 0 0 330.42605638716486 129.59235173484922 0 129.59235173484922 37.161135717073194 0 0 0 0 -22.890813751933607 28.814321240079352 0 28.814321240079352 -5.2369153816360381 0 0 0 0 113.62442066934614 203.39626755795916 0 203.39626755795916 133.85032783768838 0 0 0 0 237.32477346339147 242.21775639407861 0 242.21775639407861 100.38882791071956 0 0 0 0 350.2808358478942 321.22305577150837 0 321.22305577150837 123.96001221189363 0 0 0 0 295.35002529076883 190.32824704364612 0 190.32824704364612 58.197596825455548 0 0 0 0 456.31853649781988 204.71292091764917 0 204.71292091764917 53.111125934548909 0 0 0 0 275.7947477180569 228.08505854589384 0 228.08505854589384 114.90234692230297 0 0 0 0 278.86287536931923 105.26790352711032 0 105.26790352711032 1.4528494855003373 0 0 0 0 216.02414002802107 242.56883542226933 0 242.56883542226933 16.245722973806551 0 0 0 0 -3.2861177775675401 5.9157796631610893 0 5.9157796631610893 -2.4312563169880264 0 0 0 0 -78.500533860074938 54.419241790965316 0 54.419241790965316 59.908707295442582 0 0 0 0 -38.094341406016611 149.6044649387768 0 149.6044649387768 133.46345612002915 0 0 0 0 -41.991979574959259 5.7344699210898398 0 5.7344699210898398 -36.693179574547685 0 0 0 0 -8.2542246956727467 96.222820975715877 0 96.222820975715877 -25.294489270822851 0 0 0 0 -100.1975678748986 97.044642075139109 0 97.044642075139109 60.412482514060684 0 0 0 0 95.421809675666736 96.12909857363411 0 96.12909857363411 -40.908337700981065 0 0 0 0 -12.090354010138308 57.744693180851954 0 57.744693180851954 -10.042193890690129 0 0 0 0 6.5095206041587517 54.007901356224465 0 54.007901356224465 -2.7996548396622529 0 0 0 0 51.692154316086089 66.302872377705626 0 66.302872377705626 -21.423268534694216 0 0 0 0 0.30391573809930605 32.722207926753498 0 32.722207926753498 -34.217476821647892 0 0 0 0 19.184872232654016 65.484215518445126 0 65.484215518445126 -31.262830520572606 0 0 0 0 21.997956233186414 54.457499113023005 0 54.457499113023005 -21.120125804809504 0 0 0 0 85.926194042171119 72.480162789550377 0 72.480162789550377 -66.418843122661201 0 0 0 0 12.356072491275143 35.534491852738299 0 35.534491852738299 -16.322695099264347 0 0 0 0 -4.9343857903731987 66.149384140695474 0 66.149384140695474 -24.645210050486639 0 0 0 0 11.239293137303321 58.012806923887183 0 58.012806923887183 -27.997298810914799 0 0 0 0 17.51703648565308 63.855384978945949 0 63.855384978945949 -31.813421351966099 0 0 0 0 -11.910522980743968 33.281116324478774 0 33.281116324478774 -11.171200826659089 0 0 0 0 -3.7364843628020026 35.089850093821951 0 35.089850093821951 -11.896134433140105 0 0 0 0 -31.644856956633021 34.257217699933562 0 34.257217699933562 -15.592927835437905 0 0 0 0 -9.0194011478915854 26.108779412187417 0 26.108779412187417 -10.554125127554876 0 0 0 0 -6.9826972876326181 46.188416887678613 0 46.188416887678613 -6.6727015484430012 0 0 0 0 -22.486346497302293 36.818496378786222 0 36.818496378786222 -11.711915287356533 0 0 0 0 8.6483211669895326 17.368924276001323 0 17.368924276001323 -12.371244660824743 0 0 0 0 13.723869133158587 28.708955643465742 0 28.708955643465742 -26.072790670921677 0 0 0 0 -2.3200224186861478 26.090583334709606 0 26.090583334709606 -22.325140276059329 0 0 0 0 -2.3114036727929488 40.249218697383185 0 40.249218697383185 -19.664261271896976 0 0 0 0 11.347266354910971 43.534723729888356 0 43.534723729888356 3.8500560818938538 0 0 0 0 -2.5567833197856658 20.680002684160655 0 20.680002684160655 -32.922679305866922 0 0 0 0 75.532941000521532 27.107783317012945 0 27.107783317012945 -39.283174788688484 0 0 0 0 -5.8180042551466613 58.376258018284716 0 58.376258018284716 29.22360191673215 0 0 0 0 5.5500512229928063 32.052817556196544 0 32.052817556196544 -7.6948537009382392 0 0 0 0 2.2288466462984502 13.481491868878564 0 13.481491868878564 -7.9590849425190662 0 0 0 0 73.406302958726883 26.830581549525959 0 26.830581549525959 -37.33045174725703 0 0 0 0 48.198751152434852 96.009971804378438 0 96.009971804378438 23.084558666538214 0 0 0 0 -2.4358870378896142 16.808731848455409 0 16.808731848455409 -25.730749293617862 0 0 0 0 87.390710700507043 48.388776291896647 0 48.388776291896647 -26.221137995642493 0 0 0 0 22.611783466847555 34.087140041223392 0 34.087140041223392 -19.720421245772741 0 0 0 0 92.43342888035113 47.875294281053357 0 47.875294281053357 -31.044938258361071 0 0 0 0 91.700687273551011 47.214784674531984 0 47.214784674531984 -31.472739809934865 0 0 0 0 62.983331522438675 18.672112930795265 0 18.672112930795265 -31.326898712184629 0 0 0 0 -7.2214495341613656 30.091989866785298 0 30.091989866785298 -20.522582466996937 0 0 0 0 -11.129808257232071 8.3653270963513933 0 8.3653270963513933 -14.076415220595663 0 0 0 0 64.177453369717114 176.66976386771057 0 176.66976386771057 -234.45000803122821 0 0 0 0 7.0954113208547476 20.08162659852897 0 20.08162659852897 -18.032098511337722 0 0 0 0 3.3822253324842109 17.91266329163814 0 17.91266329163814 -15.430716855576236 0 0 0 0 111.01685624098172 74.269843810894599 0 74.269843810894599 -94.661364317435073 0 0 0 0 85.717817627428303 39.818288773672975 0 39.818288773672975 -20.18663942150306 0 0 0 0 6.191525866003758 89.377783811436075 0 89.377783811436075 13.748755841806997 0 0 0 0 -3.7985832991797821 10.614979877649574 0 10.614979877649574 -5.7998055919657361 0 0 0 0 -65.215075289044762 55.505750626354711 0 55.505750626354711 1.0553859535721131 0 0 0 0 -43.900872933732899 60.328792996463108 0 60.328792996463108 -14.352957713825163 0 0 0 0 37.687717494687092 20.414850692885651 0 20.414850692885651 -39.555253866689213 0 0 0 0 90.747666632663822 33.301956357679501 0 33.301956357679501 -22.719493893790059 0 0 0 0 -2.8859995870833082 54.11521469475673 0 54.11521469475673 -29.505300679741538 0 0 0 0 19.120962224728387 8.9859312594815606 0 8.9859312594815606 -23.037110879816737 0 0 0 0 79.866878016007831 30.649381650262512 0 30.649381650262512 -22.002006969451031 0 0 0 0 20.643244277307531 19.949525752859699 0 19.949525752859699 -25.56708287508809 0 0 0 0 21.980648313301231 16.934840902492354 0 16.934840902492354 -32.556275817562785 0 0 0 0 10.873234921626391 25.31580459687126 0 25.31580459687126 -12.47279992230807 0 0 0 0 111.55418670602376 22.336401900509372 0 22.336401900509372 -33.000708378240233 0 0 0 0 89.37232406300609 59.297109079438087 0 59.297109079438087 -10.420862447586842 0 0 0 0 1.1288298389616216 3.1643690176815227 0 3.1643690176815227 -4.6248872551844329 0 0 0 0 34.506941632113012 27.860433365054632 0 27.860433365054632 -17.227590217524266 0 0 0 0 18.559397413642728 28.265762559643917 0 28.265762559643917 -33.735116987012589 0 0 0 0 19.084073424323208 6.9876123456992616 0 6.9876123456992616 -30.238415344280384 0 0 0 0 26.053343314404628 26.083185444157607 0 26.083185444157607 -38.424155983128003 0 0 0 0 25.394096462889138 30.554051853095189 0 30.554051853095189 -34.324511046084808 0 0 0 0 15.709415443114324 16.48385995929246 0 16.48385995929246 -18.047098060055099 0 0 0 0 23.307332934549947 11.808430343550356 0 11.808430343550356 -34.597133106174411 0 0 0 0 24.761188703720109 24.532323678920875 0 24.532323678920875 -61.025715871459397 0 0 0 0 13.941079829179216 26.619161140159122 0 26.619161140159122 -55.812327978203029 0 0 0 0 33.546108840964735 22.22718315844395 0 22.22718315844395 -54.832161333484692 0 0 0 0 34.691825588961365 36.739303348233079 0 36.739303348233079 -47.482667049473093 0 0 0 0 3.293475310413271 11.974898155849189 0 11.974898155849189 -7.2197555666414388 0 0 0 0 3.3625720390846254 30.199605848531064 0 30.199605848531064 -45.468961342325201 0 0 0 0 -2.3822501867398387 9.1964243904330942 0 9.1964243904330942 -56.518513069109758 0 0 0 0 -7.6819829575251788 23.20862092815878 0 23.20862092815878 -23.719082544619596 0 0 0 0 4.9716409548320826 11.397656392438932 0 11.397656392438932 -27.370925650608569 0 0 0 0 12.298798841307871 10.081324225495337 0 10.081324225495337 -102.36701837461442 0 0 0 0 -3.7049743742401233 7.1371496438667918 0 7.1371496438667918 4.1689730391007913 0 0 0 0 -51.815071701392299 92.22613553516203 0 92.22613553516203 3.4895558778371196 0 0 0 0 -3.6813585472369823 36.89260620315882 0 36.89260620315882 -23.985872162710173 0 0 0 0 -7.335577906225808 28.300923785369378 0 28.300923785369378 -31.198176692851121 0 0 0 0 -7.5807615580931156 20.520636532508647 0 20.520636532508647 -14.105207501744964 0 0 0 0 -11.107156321580987 29.45697470651794 0 29.45697470651794 -28.381207282480318 0 0 0 0 -8.7396988751479512 38.121923699420222 0 38.121923699420222 -17.695849597745109 0 0 0 0 -3.4093156545826702 23.982579536456797 0 23.982579536456797 -14.410059414858807 0 0 0 0 6.5768306392419618 22.782087479128677 0 22.782087479128677 -10.551228395077487 0 0 0 0 3.8011058770061936 48.929362960610888 0 48.929362960610888 -24.73325443547219 0 0 0 0 -9.2144178055168595 46.585804774345888 0 46.585804774345888 -19.078721793397563 0 0 0 0 -4.7219972461952153 25.875669427762972 0 25.875669427762972 -16.963071070494664 0 0 0 0 -27.726589540282532 32.821222599387013 0 32.821222599387013 -16.819150830415751 0 0 0 0 -27.911661011392425 41.837993037036995 0 41.837993037036995 -11.134034240967594 0 0 0 0 49.264489067601971 11.859525661056978 0 11.859525661056978 -6.1431974008592078 0 0 0 0 -22.87168384535471 38.391805290935736 0 38.391805290935736 -12.206342630801373 0 0 0 0 4.037191779944493 5.9666960042740982 0 5.9666960042740982 0.28173967824866963 0 0 0 0 16.642279580235481 20.281823746918235 0 20.281823746918235 -24.291268749235314 0 0 0 0 -3.1933909417553537 26.399806373164338 0 26.399806373164338 -20.36810740086861 0 0 0 0 -26.850264386477647 34.664237915363628 0 34.664237915363628 17.71271556794818 0 0 0 0 -10.774269729948344 19.111712218097026 0 19.111712218097026 -8.5313759647400431 0 0 0 0 4.9374456682567143 7.6062167475243712 0 7.6062167475243712 -12.245306312598103 0 0 0 0 -5.7271075514508993 24.617613574823736 0 24.617613574823736 -27.699111069559876 0 0 0 0 -8.621297226032766 26.624648881996109 0 26.624648881996109 -26.724806723563233 0 0 0 0 -0.32146058007492684 19.039815339452616 0 19.039815339452616 -28.286947436781702 0 0 0 0 -2.558663247715856 16.94446428773297 0 16.94446428773297 -7.901920637386354 0 0 0 0 2.2311063263914548 16.772868089065014 0 16.772868089065014 -24.814839835753446 0 0 0 0 1.5804551337572548 15.258394535055984 0 15.258394535055984 -8.3687672482391307 0 0 0 0 -0.4490742116772708 16.337863370354057 0 16.337863370354057 -20.151472865298274 0 0 0 0 -1.5474025250565546 16.277754106336303 0 16.277754106336303 -7.2335673782038938 0 0 0 0 19.404047590098344 14.904359101354203 0 14.904359101354203 -37.679177213591174 0 0 0 0 0.8350472937596578 3.2620106875678374 0 3.2620106875678374 -9.3384613347152765 0 0 0 0 -6.2501165223002317 14.644277041743408 0 14.644277041743408 62.751382461443427 0 0 0 0 41.250899001635844 32.907653851383657 0 32.907653851383657 56.201911031603231 0 0 0 0 -2.4454765104164835 1.5099318944703555 0 1.5099318944703555 59.510661542488378 0 0 0 0 -4.0980021849791228 6.8124951594545564 0 6.8124951594545564 49.807414723138209 0 0 0 0 -70.677233966765925 32.504380574464449 0 32.504380574464449 52.002032957894698 0 0 0 0 -90.849077856400982 36.17835549449228 0 36.17835549449228 77.105546285929449 0 0 0 0 -98.947040461061988 83.435211413801881 0 83.435211413801881 39.115107956014981 0 0 0 0 25.601488879874523 68.412144349873415 0 68.412144349873415 37.283978726831265 0 0 0 0 -159.89781712787226 100.64046347991825 0 100.64046347991825 42.080171232981229 0 0 0 0 -137.91213727160357 184.55216750256659 0 184.55216750256659 -41.477210439494229 0 0 0 0 5.3265146166031627 100.2257666058199 0 100.2257666058199 -1.6144005962705705 0 0 0 0 -61.373043255298398 43.19202262442559 0 43.19202262442559 61.890783226146596 0 0 0 0 -2.4584576699322156 0.93314176208804156 0 0.93314176208804156 -0.40870073214017566 0 0 0 0 -201.96625933988253 -88.867898461961886 0 -88.867898461961886 30.026681059665862 0 0 0 0 -87.903989308051678 149.37408064811279 0 149.37408064811279 -135.2938159386249 0 0 0 0 22.217225299507845 37.709024771851546 0 37.709024771851546 -274.01331298658988 0 0 0 0 42.528265983448364 16.622906539254473 0 16.622906539254473 -109.82770401165908 0 0 0 0 23.876124328016886 0.79990720183559461 0 0.79990720183559461 -80.385203309968347 0 0 0 0 16.958310265239561 11.610558777949336 0 11.610558777949336 -32.609953114370001 0 0 0 0 0.18944514185756386 304.85664406535039 0 304.85664406535039 568.60508644163201 0 0 0 0 -28.740091875719372 -160.47742520191969 0 -160.47742520191969 -202.58310756956053 0 0 0 0 30.337400027521653 33.780342231133545 0 33.780342231133545 -78.228777770040324 0 0 0 0 -5.3701521012032458 3.8971853165581933 0 3.8971853165581933 -2.6930672450343422 0 0 0 0 -96.17627506867575 420.59758239547773 0 420.59758239547773 500.06764964970353 0 0 0 0 -18.061306998686632 278.67144667757748 0 278.67144667757748 322.2579231530317 0 0 0 0 264.12731023246306 -42.230166093679145 0 -42.230166093679145 -250.86034541158006 0 0 0 0 -8.3009481042969924 4.8247423241102183 0 4.8247423241102183 1.0068819885853202 0 0 0 0 -227.69875879703613 415.46114634547848 0 415.46114634547848 146.65090593738933 0 0 0 0 17.537593084853142 42.617222327171476 0 42.617222327171476 66.033711734424287 0 0 0 0 -42.556350573257077 77.961362903355621 0 77.961362903355621 -7.5453749951484497 0 0 0 0 1.2103589856415056 18.966797326313099 0 18.966797326313099 56.264842069747829 0 0 0 0 -6.6895535676309237 2.7286738586153945 0 2.7286738586153945 -1.1641961355548602 0 0 0 0 0.77143207238907507 16.86946305978546 0 16.86946305978546 -6.606562663870271 0 0 0 0 13.428082155500306 24.54298998680315 0 24.54298998680315 -14.371034020543448 0 0 0 0 2.1346906745384331 48.965423903451665 0 48.965423903451665 15.791830116257188 0 0 0 0 0.13125334409414791 19.130920703042648 0 19.130920703042648 -25.755338314644177 0 0 0 0 1.2601191645808285 13.404315501697738 0 13.404315501697738 -25.665566487237811 0 0 0 0 0.66959424567176029 18.75501387568147 0 18.75501387568147 -16.766580302006332 0 0 0 0 6.9626870622436456 7.1480949187946834 0 7.1480949187946834 -11.938854005064115 0 0 0 0 -4.5241767889092444 4.7654790613341902 0 4.7654790613341902 -30.675936105802975 0 0 0 0 -1.077071179592167 17.527799576873804 0 17.527799576873804 -21.688332813275338 0 0 0 0 9.6778508361231843 5.4495254909719506 0 5.4495254909719506 -16.268819159447077 0 0 0 0 -8.8936940650859242 12.959129172227875 0 12.959129172227875 -4.0927431473398315 0 0 0 0 10.415945863122033 13.595930838202769 0 13.595930838202769 -0.40043453386388705 0 0 0 0 -51.055919458623976 57.414024618730764 0 57.414024618730764 20.83332985008019 0 0 0 0 -2.6108945969081105 33.97817068117547 0 33.97817068117547 20.482992468067096 0 0 0 0 0.15072728459199425 23.391897052482818 0 23.391897052482818 17.015388384279504 0 0 0 0 -17.344188545801444 22.052156200283207 0 22.052156200283207 -26.240748697724484 0 0 0 0 -1.5898718884616301 0.71282629128867825 0 0.71282629128867825 4.1129207937032817 0 0 0 0 41.531034207495395 -67.927204885638275 0 -67.927204885638275 -24.842475410943734 0 0 0 0 19.03453351240023 72.776076946036483 0 72.776076946036483 -45.739369389790227 0 0 0 0 1.083742746411815 2.3679568618866824 0 2.3679568618866824 -3.6124923305426933 0 0 0 0 23.401781319320435 32.591079299245393 0 32.591079299245393 27.844433146208758 0 0 0 0 15.273758352705045 18.175669621687121 0 18.175669621687121 -57.632930457297334 0 0 0 0 23.765535978760454 7.1561780172523868 0 7.1561780172523868 -66.496264835579495 0 0 0 0 -0.21860161726624483 -1.6946813003543753 0 -1.6946813003543753 -0.55245398545439173 0 0 0 0 -0.051929227483924478 60.259475518907493 0 60.259475518907493 -15.424752367878682 0 0 0 0 184.91412617155584 152.51776128723941 0 152.51776128723941 60.191242467604752 0 0 0 0 -2.3538977455224881 -2.1834201015868757 0 -2.1834201015868757 2.3395492895080281 0 0 0 0 53.02960492305283 -47.716110710585781 0 -47.716110710585781 -155.6392785247881 0 0 0 0 3.5709772613247424 3.2335615462549896 0 3.2335615462549896 0.65558899142735072 0 0 0 0 133.83356584643116 -411.78384414730954 0 -411.78384414730954 254.01786769890168 0 0 0 0 140.82832557908841 -6.3320365069521358 0 -6.3320365069521358 6.7650791431078687 0 0 0 0 109.23822693286638 578.139084585815 0 578.139084585815 466.30894728035491 0 0 0 0 -30.108900899183936 519.68822722174809 0 519.68822722174809 591.1035474436303 0 0 0 0 54.828235445228984 -57.689900784860356 0 -57.689900784860356 -151.84499423716261 0 0 0 0 135.46103492028487 208.65816211988204 0 208.65816211988204 69.619260379891784 0 0 0 0 1.2289869612770872 -0.92361046905571698 0 -0.92361046905571698 0.50037028844734621 0 0 0 0 14.69385144046646 122.14096654559489 0 122.14096654559489 -26.041866434869007 0 0 0 0 219.21605085178453 -38.380296706571244 0 -38.380296706571244 -38.808468789124163 0 0 0 0 157.19200892510344 89.375924540886444 0 89.375924540886444 -0.62084195487113902 0 0 0 0 34.953571855963673 -10.363677787099732 0 -10.363677787099732 -6.8404925675858976 0 0 0 0 -231.12293333061098 16.619068102823803 0 16.619068102823803 408.98166765489077 0 0 0 0 29.269870074422215 10.425495237275754 0 10.425495237275754 -25.874997028688085 0 0 0 0 -64.299349559012626 166.29110756930459 0 166.29110756930459 91.50021254722742 0 0 0 0 -11.423454499657964 316.99303191098807 0 316.99303191098807 172.58805831897007 0 0 0 0 5.8007922426870522 1.8837648126601465 0 1.8837648126601465 -6.038271249954434 0 0 0 0 -21.350544489701861 110.47237355354446 0 110.47237355354446 -65.665731601584412 0 0 0 0 95.436311312601902 -136.90685219928127 0 -136.90685219928127 -237.59080404573615 0 0 0 0 412.72294216929004 124.42035943447263 0 124.42035943447263 -112.07928091395297 0 0 0 0 170.74739325077098 -27.735310155745537 0 -27.735310155745537 -527.64555495565946 0 0 0 0 40.134797470287594 2.7034676782004681 0 2.7034676782004681 35.640355928557256 0 0 0 0 77.284177029679995 134.52288144766499 0 134.52288144766499 -82.162165645800997 0 0 0 0 41.38124182158208 -50.393368437155004 0 -50.393368437155004 -38.918927712100412 0 0 0 0 14.804393081532908 8.7864834372958285 0 8.7864834372958285 -31.454061797703616 0 0 0 0 -15.466219162146444 -92.307868148571288 0 -92.307868148571288 -30.433349642436951 0 0 0 0 -1.7321912751745572 3.1576678680297903 0 3.1576678680297903 -4.6609715913992034 0 0 0 0 78.376590158391991 91.266843861268626 0 91.266843861268626 267.00099683436565 0 0 0 0 86.326587519040913 19.708756902688037 0 19.708756902688037 -265.85778068062791 0 0 0 0 210.62809399183607 -56.288973855145741 0 -56.288973855145741 195.74254724755883 0 0 0 0 111.92344503306231 73.009592593443813 0 73.009592593443813 47.22556747654744 0 0 0 0 127.34324134650524 -54.059356359422964 0 -54.059356359422964 0.8568408942228416 0 0 0 0 74.179718469706131 -93.666737436284166 0 -93.666737436284166 406.17263141930016 0 0 0 0 -239.15978601638926 -46.732685494545876 0 -46.732685494545876 -608.38908610445651 0 0 0 0 -318.1405212093814 512.14243946165152 0 512.14243946165152 915.32374363482086 0 0 0 0 442.6445557531988 137.79614921589382 0 137.79614921589382 -1691.0020722373374 0 0 0 0 100.35767129629676 827.5607989010532 0 827.5607989010532 -826.89089378989593 0 0 0 0 -1.5888347272231726 2.254146217698235 0 2.254146217698235 -1.1341609207276875 0 0 0 0 -220.72058876968003 1077.738063114949 0 1077.738063114949 61.360273953287106 0 0 0 0 489.13276398818562 282.91019139843047 0 282.91019139843047 -630.11787789606024 0 0 0 0 -12.707258188194828 496.45022353748209 0 496.45022353748209 217.38827077283349 0 0 0 0 59.677173292522639 421.36303470179519 0 421.36303470179519 -365.85901287578599 0 0 0 0 -93.487697280368593 65.596798362133995 0 65.596798362133995 10.514002304284077 0 0 0 0 -21.706075994370622 134.29614292002225 0 134.29614292002225 -257.69342864772625 0 0 0 0 -156.49751328250568 194.14651432975734 0 194.14651432975734 -27.493012761598948 0 0 0 0 -26.11369278901293 174.99821311812275 0 174.99821311812275 -225.87172856228426 0 0 0 0 -48.191898417833727 138.47350281182298 0 138.47350281182298 -257.36481931831713 0 0 0 0 -89.19915263891744 259.4055697646063 0 259.4055697646063 -438.5303884959867 0 0 0 0 -4.6234272017262299 8.1636365741964454 0 8.1636365741964454 -2.5223228166422444 0 0 0 0 72.057484366712742 128.79070878497441 0 128.79070878497441 -644.37785247471402 0 0 0 0 -12.02486282855898 196.37614933413533 0 196.37614933413533 -407.34785168836243 0 0 0 0 39.027800236588519 28.004413551792823 0 28.004413551792823 -266.05023779263138 0 0 0 0 43.359047067089705 36.601570054655895 0 36.601570054655895 -440.61356863901892 0 0 0 0 46.762847848134697 102.40353228364256 0 102.40353228364256 -365.04163380648242 0 0 0 0 21.336396293954749 82.892221133755811 0 82.892221133755811 -223.22173283886514 0 0 0 0 39.616280507885676 103.97404465619911 0 103.97404465619911 -355.24816217328771 0 0 0 0 25.531833084707614 99.272395662563213 0 99.272395662563213 -221.15960515793995 0 0 0 0 32.640513254664256 144.50221950740161 0 144.50221950740161 -318.35808665486184 0 0 0 0 29.650949093644158 116.79812612024762 0 116.79812612024762 -286.84931487616268 0 0 0 0 18.771187700833252 101.87167565000709 0 101.87167565000709 -299.35812549283582 0 0 0 0 27.174409552520956 42.737202863427228 0 42.737202863427228 -320.76802307958133 0 0 0 0 25.191482736365288 77.438021112408023 0 77.438021112408023 -357.13686390738985 0 0 0 0 16.988663377444027 154.94430610630661 0 154.94430610630661 -384.63294235290959 0 0 0 0 26.802676121660625 125.56894275906961 0 125.56894275906961 -328.60367984087497 0 0 0 0 -111.49862964955537 265.42303660901962 0 265.42303660901962 -546.74391955393367 0 0 0 0 -86.142511108628241 189.47327671715175 0 189.47327671715175 -337.60884423834796 0 0 0 0 -42.823856987641193 155.55064546757785 0 155.55064546757785 -311.89753320817545 0 0 0 0 -38.480607634890475 149.19055386730179 0 149.19055386730179 -311.25202579400502 0 0 0 0 19.396246040880214 122.73378708193923 0 122.73378708193923 -603.64502415356401 0 0 0 0 35.070992361259414 95.980776002725179 0 95.980776002725179 -557.98420737741981 0 0 0 0 -254.51783581987547 -92.853875489829079 0 -92.853875489829079 -853.91634820436593 0 0 0 0 -279.62145235923526 -126.60888158903253 0 -126.60888158903253 -294.4935755925253 0 0 0 0 -491.73677957558539 98.728642590271193 0 98.728642590271193 -67.860519548123193 0 0 0 0 185.22077939041628 433.19120382958863 0 433.19120382958863 -778.41868765791878 0 0 0 0 -123.73629406109831 -215.3031650291141 0 -215.3031650291141 -350.72881005344971 0 0 0 0 -96.254805388154637 303.66478324564014 0 303.66478324564014 -644.77509360824661 0 0 0 0 0.44698674052450826 -0.8003604280243195 0 -0.8003604280243195 -4.6863269916908905 0 0 0 0 -197.16451208408762 232.65246673734691 0 232.65246673734691 -253.94796654460515 0 0 0 0 -0.26663537297002193 2.8849791710457708 0 2.8849791710457708 -1.6722540287793493 0 0 0 0 36.951428405132901 13.904008292967774 0 13.904008292967774 -21.983532062149607 0 0 0 0 6.756277506169134 4.0062985765067367 0 4.0062985765067367 -11.913947988947768 0 0 0 0 -9.8918672136205714 -21.291443164784141 0 -21.291443164784141 -43.060420038716984 0 0 0 0 -155.37016409692296 167.98067789855122 0 167.98067789855122 -134.98761931086847 0 0 0 0 -163.98473917623414 175.7013699977033 0 175.7013699977033 -141.64684775232308 0 0 0 0 -197.31988654317684 228.40973571371615 0 228.40973571371615 -216.91616606744719 0 0 0 0 39.695472430808877 115.96898700302336 0 115.96898700302336 -322.52798048597469 0 0 0 0 -48.115741352114128 100.90013415101566 0 100.90013415101566 -153.2377849991808 0 0 0 0 -120.37377912267402 209.6123067995577 0 209.6123067995577 -313.99181000237877 0 0 0 0 285.84245078091044 48.695227338055702 0 48.695227338055702 -84.403668638671661 0 0 0 0 3.4828165129665649 82.371596131215938 0 82.371596131215938 -45.730846758640837 0 0 0 0 55.126731651107548 80.382316773626371 0 80.382316773626371 -2.7840099142340478 0 0 0 0 -23.697350643102681 46.912672491511174 0 46.912672491511174 -27.429016329554713 0 0 0 0 -5.7039288186037993 41.387199451990597 0 41.387199451990597 -41.296616552916149 0 0 0 0 95.57562815331039 314.99172451241611 0 314.99172451241611 30.958316211224883 0 0 0 0 110.74068328419526 -24.887249851351953 0 -24.887249851351953 -95.01415837543027 0 0 0 0 43.431487284935429 -3.4685802037201938 0 -3.4685802037201938 -33.632424888441165 0 0 0 0 74.001389864398334 33.180350260724026 0 33.180350260724026 -21.115231189658516 0 0 0 0 63.277461291931104 -25.275417182616366 0 -25.275417182616366 -53.157272032727633 0 0 0 0 8.7098969140934059 -8.1662176385834755 0 -8.1662176385834755 -31.196908083860762 0 0 0 0 -9.7763515512273358 41.703128708572535 0 41.703128708572535 -37.240642926857731 0 0 0 0 23.467886182726943 34.990653245258727 0 34.990653245258727 -31.920300851985303 0 0 0 0 139.45475603909654 40.311444768782167 0 40.311444768782167 -67.439205385933747 0 0 0 0 47.443081781110124 19.134652488759485 0 19.134652488759485 -15.096595294647791 0 0 0 0 27.193328277802038 11.609018473549369 0 11.609018473549369 -7.0915270790712484 0 0 0 0 37.014548161689163 1.1099760066481394 0 1.1099760066481394 -41.890035780255857 0 0 0 0 22.427260540702264 16.580830628503463 0 16.580830628503463 -22.103943451487794 0 0 0 0 55.790120904282958 -8.5217136205137649 0 -8.5217136205137649 -63.752899110797443 0 0 0 0 30.483224652352277 19.422751446988173 0 19.422751446988173 -7.8274401164211813 0 0 0 0 21.569154483106104 25.218589418038391 0 25.218589418038391 -16.23708565394918 0 0 0 0 38.761038766751881 32.083604055012984 0 32.083604055012984 -18.492291821380604 0 0 0 0 22.701257679662376 27.270062512883669 0 27.270062512883669 -38.701485443605634 0 0 0 0 13.6873605436665 21.799270854767926 0 21.799270854767926 -9.1231902490523993 0 0 0 0 19.148009514829027 32.677723391581821 0 32.677723391581821 -35.370609855859129 0 0 0 0 -7.1427931179895552 11.09896925270742 0 11.09896925270742 -4.6945018904328215 0 0 0 0 -3.1280716613691766 28.320518769563932 0 28.320518769563932 18.612215292516339 0 0 0 0 43.663692572998116 41.88566079827433 0 41.88566079827433 -95.341333059732278 0 0 0 0 -17.32463646447286 79.794027736734279 0 79.794027736734279 35.953668730864592 0 0 0 0 -118.68100243185108 79.242943336597818 0 79.242943336597818 -49.708072110101057 0 0 0 0 23.139230943808798 92.75311685919587 0 92.75311685919587 -68.749732623735326 0 0 0 0 15.760873751827177 13.372932416174393 0 13.372932416174393 -15.461539085860458 0 0 0 0 31.740300700133957 8.5950763869877846 0 8.5950763869877846 -0.48828210549254436 0 0 0 0 18.846201641552678 12.618163507776728 0 12.618163507776728 -13.055410722478172 0 0 0 0 24.851874090629281 26.257538360128819 0 26.257538360128819 -10.797076835049666 0 0 0 0 19.629602397122653 22.414121007608628 0 22.414121007608628 -7.5754194664696115 0 0 0 0 4.7244736873773139 18.689210417597238 0 18.689210417597238 -11.641765034684056 0 0 0 0 8.3542893301782897 -19.951542149330635 0 -19.951542149330635 -30.73333170670594 0 0 0 0 45.71152694306511 21.117928072822906 0 21.117928072822906 -6.5206426518561784 0 0 0 0 4.979279738887584 19.241697430303603 0 19.241697430303603 -7.7242847508312167 0 0 0 0 4.0355757078214083 28.346308545857028 0 28.346308545857028 33.568939865384891 0 0 0 0 49.685831837981823 24.860636467194126 0 24.860636467194126 -10.741241637065286 0 0 0 0 3.6327958800017832 15.473529527401297 0 15.473529527401297 -7.473554459576718 0 0 0 0 24.052510545758338 19.88001798410572 0 19.88001798410572 -13.822753872734655 0 0 0 0 49.596717456282931 83.868079043437319 0 83.868079043437319 85.148975707475984 0 0 0 0 5.8020713844445027 3.5597005009053078 0 3.5597005009053078 -1.8391716381156069 0 0 0 0 46.353412008960731 45.736137884581694 0 45.736137884581694 3.2753161158789226 0 0 0 0 42.31117656384211 26.079517779770292 0 26.079517779770292 -19.885425889051355 0 0 0 0 59.187598720818642 61.042867860765909 0 61.042867860765909 -4.9600132899795426 0 0 0 0 55.575279562336618 45.450917231876474 0 45.450917231876474 -18.907737149143941 0 0 0 0 51.346103697607759 33.978296515353577 0 33.978296515353577 -15.565420194870967 0 0 0 0 4.6185262158601184 21.437593507145806 0 21.437593507145806 -20.980091701964383 0 0 0 0 44.890937872492941 29.804159793187864 0 29.804159793187864 -9.4209841079709804 0 0 0 0 6.7149182083443222 25.786647729146338 0 25.786647729146338 -0.99107088320958781 0 0 0 0 25.160915110284144 28.797476671756996 0 28.797476671756996 -29.588844576990923 0 0 0 0 55.831370109182899 47.708865525526562 0 47.708865525526562 -54.269265775797976 0 0 0 0 54.529237971320981 46.504425739814906 0 46.504425739814906 -19.052446728797804 0 0 0 0 53.804546897124965 31.838540592376376 0 31.838540592376376 -24.351008359393745 0 0 0 0 38.907561838093415 22.01958635391415 0 22.01958635391415 -20.408940112324924 0 0 0 0 67.042642504784453 43.501224028841534 0 43.501224028841534 -64.867018264369108 0 0 0 0 48.570235099570709 43.810831815273559 0 43.810831815273559 -20.268332714984354 0 0 0 0 46.161753621941727 41.565552859270525 0 41.565552859270525 -35.010545642487934 0 0 0 0 47.736290643551911 47.183049348066561 0 47.183049348066561 -14.918786318889033 0 0 0 0 41.752158218136174 44.899884820744774 0 44.899884820744774 -15.762303529952078 0 0 0 0 8.6038275160899502 30.314935265874738 0 30.314935265874738 -24.756044212670531 0 0 0 0 23.863393446968985 33.905768380100199 0 33.905768380100199 -24.262830871124606 0 0 0 0 19.960506762043224 38.545139004207158 0 38.545139004207158 -20.988730563401987 0 0 0 0 12.443328874284646 29.448528615957841 0 29.448528615957841 -15.270797731295552 0 0 0 0 -39.131078374251956 50.334490690795064 0 50.334490690795064 -26.104032216448104 0 0 0 0 17.27030568193004 30.801633944127389 0 30.801633944127389 -30.499679170137824 0 0 0 0 3.5071671191918128 12.761180655722271 0 12.761180655722271 3.3483219059260421 0 0 0 0 46.959385748206842 53.447702319491782 0 53.447702319491782 -67.128491336523439 0 0 0 0 7.0700070998282172 91.728362168229069 0 91.728362168229069 -67.067074042795724 0 0 0 0 42.694512283487711 14.0463094496954 0 14.0463094496954 -65.702671338178334 0 0 0 0 18.260853201346436 29.603148202466471 0 29.603148202466471 -17.54379560413512 0 0 0 0 17.301679765584481 34.246839017547387 0 34.246839017547387 -18.193070968496613 0 0 0 0 23.809781086252769 35.936410317051923 0 35.936410317051923 -18.203621424319863 0 0 0 0 43.615873317670776 9.3293747002026066 0 9.3293747002026066 -77.170319964425289 0 0 0 0 32.079940176554373 11.32319383090362 0 11.32319383090362 -38.714225422285381 0 0 0 0 21.811586750028084 11.573215222765 0 11.573215222765 -17.881015300077596 0 0 0 0 25.368565316188324 23.376616186078536 0 23.376616186078536 -57.731561328153475 0 0 0 0 19.752904537344875 56.728020004060454 0 56.728020004060454 -59.234077804503613 0 0 0 0 28.848683408455287 23.806560280115256 0 23.806560280115256 -34.09945869347564 0 0 0 0 27.084140764214681 26.689286524764611 0 26.689286524764611 -37.277326049553267 0 0 0 0 -35.145986986572098 91.969428340406012 0 91.969428340406012 -50.561933890887303 0 0 0 0 8.1511026163232572 8.2971533070614356 0 8.2971533070614356 -4.5685969421933805 0 0 0 0 42.332178486874909 -3.7856425336067332 0 -3.7856425336067332 -52.890893537856755 0 0 0 0 11.753198736152541 11.784869627301632 0 11.784869627301632 -40.78858566532287 0 0 0 0 82.065028842829634 37.198349936774321 0 37.198349936774321 -47.459380452384721 0 0 0 0 22.626962000656931 -11.065211508295306 0 -11.065211508295306 -75.446823464575573 0 0 0 0 -40.718749937426765 -16.356625497359346 0 -16.356625497359346 -23.189390855510283 0 0 0 0 8.1935040826756449 2.6480318233051889 0 2.6480318233051889 -9.9421233310494941 0 0 0 0 20.049240337269623 6.6770857195568709 0 6.6770857195568709 -32.280925231247579 0 0 0 0 20.850649148662342 12.387560084862344 0 12.387560084862344 -56.315652533321554 0 0 0 0 18.318215325232842 21.877998843428561 0 21.877998843428561 -46.686739995791868 0 0 0 0 18.330905578332022 26.61353190540467 0 26.61353190540467 -53.736513915428077 0 0 0 0 38.014965039037634 167.65954293004324 0 167.65954293004324 -13.689693041498231 0 0 0 0 170.33616990774317 89.863358301722201 0 89.863358301722201 -73.913944368808188 0 0 0 0 58.226977365549828 21.905531742791027 0 21.905531742791027 -46.682928081800128 0 0 0 0 11.126867246322455 10.974119050998979 0 10.974119050998979 -57.20974838755545 0 0 0 0 201.05286108170276 113.38865380605581 0 113.38865380605581 -63.204131898041396 0 0 0 0 180.21936364613066 74.181499879655121 0 74.181499879655121 -7.8123316506690728 0 0 0 0 65.715586390520912 121.10940906612177 0 121.10940906612177 -15.511860986527154 0 0 0 0 177.18774682629737 165.41678102776925 0 165.41678102776925 -15.043043009285782 0 0 0 0 -48.868080146959983 116.36820802944567 0 116.36820802944567 -15.680093586551436 0 0 0 0 -10.569418476399733 214.78976414723866 0 214.78976414723866 36.521916629502812 0 0 0 0 -37.098551385337487 225.66826941171996 0 225.66826941171996 108.70467554867145 0 0 0 0 -3.0304785415064543 195.11081104920729 0 195.11081104920729 51.624822874405083 0 0 0 0 9.7129390294430777 168.92899394829874 0 168.92899394829874 -16.906250764257038 0 0 0 0 -69.833773913516779 188.88391389995058 0 188.88391389995058 111.92328223547304 0 0 0 0 -27.048448323039338 131.19245035311815 0 131.19245035311815 64.44191369959708 0 0 0 0 10.697145264319261 162.44841803543022 0 162.44841803543022 23.086378494027031 0 0 0 0 -33.844711162200838 103.96508211621642 0 103.96508211621642 56.924795331516179 0 0 0 0 22.138115434789142 81.824065911304785 0 81.824065911304785 18.347152034886676 0 0 0 0 3.9108713925743359 78.681191863028289 0 78.681191863028289 17.846706798351079 0 0 0 0 25.704197913386452 109.99355328094936 0 109.99355328094936 -38.01666955499968 0 0 0 0 73.354130948311649 58.097228298816844 0 58.097228298816844 -6.1276803614691744 0 0 0 0 13.576925139757805 52.570913209108767 0 52.570913209108767 83.613153332073125 0 0 0 0 5.2010822459997144 219.85466809380887 0 219.85466809380887 -82.222539365497141 0 0 0 0 66.144305277681269 90.022668160027251 0 90.022668160027251 -146.2970930450565 0 0 0 0 3.2609635692508618 2.5301597135545677 0 2.5301597135545677 -4.3377966142412738 0 0 0 0 35.789505036416813 67.647411570113036 0 67.647411570113036 147.97533673312864 0 0 0 0 35.508093216805719 33.569867808400886 0 33.569867808400886 7.7083398943759676 0 0 0 0 40.20132930935506 38.650243184561077 0 38.650243184561077 -6.9161833079506323 0 0 0 0 34.307220381730332 49.065672063416358 0 49.065672063416358 -12.166854907392926 0 0 0 0 41.857934666069923 96.91417202014145 0 96.91417202014145 170.8771928630058 0 0 0 0 61.622752705210587 94.462428064131018 0 94.462428064131018 154.42876483190048 0 0 0 0 3.7952326864906354 107.1275790958116 0 107.1275790958116 89.150633457977506 0 0 0 0 5.447603079004864 13.236534235400413 0 13.236534235400413 16.059369940811248 0 0 0 0 5.0987790099146935 9.1527865591135367 0 9.1527865591135367 14.749640778039783 0 0 0 0 43.088795402516553 15.239766714850703 0 15.239766714850703 -253.94764030703664 0 0 0 0 35.99561737132899 50.70789314236572 0 50.70789314236572 -1.3067397908471321 0 0 0 0 0.095394192496627284 4.3796771196828104 0 4.3796771196828104 4.5306665804162307 0 0 0 0 33.167369265065645 70.307546201038349 0 70.307546201038349 71.719822751896572 0 0 0 0 25.632431443362464 38.99225557715716 0 38.99225557715716 23.378576333965896 0 0 0 0 76.175350162367977 -10.608228602062809 0 -10.608228602062809 -39.424273876837105 0 0 0 0 34.385259727614397 27.722665527397368 0 27.722665527397368 -6.1161878156009983 0 0 0 0 58.704409585589019 0.31510888030243223 0 0.31510888030243223 -43.852406796588184 0 0 0 0 32.053158244976657 45.557396429921937 0 45.557396429921937 15.567519254225772 0 0 0 0 36.10660989274038 59.094049793100567 0 59.094049793100567 67.407996912254021 0 0 0 0 -8.1420136070858291 8.1017050930130239 0 8.1017050930130239 7.0465494558477744 0 0 0 0 150.54794663318899 45.841974918359483 0 45.841974918359483 -98.159563158056699 0 0 0 0 384.18394805131538 356.64505955455024 0 356.64505955455024 324.02754660280425 0 0 0 0 94.363453186168044 179.62295409059561 0 179.62295409059561 220.72148933663993 0 0 0 0 -0.8793882321861588 -1.1694081808422538 0 -1.1694081808422538 0.59822401441627449 0 0 0 0 3.1900504946865027 13.479257728217235 0 13.479257728217235 -11.049055831125415 0 0 0 0 22.647888353057056 28.52349784689936 0 28.52349784689936 -15.700504470210149 0 0 0 0 87.776273293246049 85.139294078020612 0 85.139294078020612 35.075627183512552 0 0 0 0 20.981150101986714 77.343203279699082 0 77.343203279699082 111.80921124794986 0 0 0 0 -8.6599986300778511 36.477284843041446 0 36.477284843041446 43.786111916528768 0 0 0 0 41.151639597665053 79.48172758751025 0 79.48172758751025 78.249876754387515 0 0 0 0 56.005994772713166 70.854441409812353 0 70.854441409812353 58.829819108475931 0 0 0 0 45.796380285581108 60.828403316969343 0 60.828403316969343 105.60234158315143 0 0 0 0 -0.84932336922662444 -2.2556227072433117 0 -2.2556227072433117 -4.4505037215583627 0 0 0 0 30.94623645588581 83.319472685887376 0 83.319472685887376 138.20634030947167 0 0 0 0 69.04564648019732 88.894516719798048 0 88.894516719798048 94.938130998931229 0 0 0 0 2.1857620936461046 15.078259054694172 0 15.078259054694172 18.387831379254933 0 0 0 0 14.20598865901411 37.035189590298614 0 37.035189590298614 44.050076755080227 0 0 0 0 -2.7297793022677297 19.280411364556258 0 19.280411364556258 30.870980533912082 0 0 0 0 15.769932670635171 33.929368747332774 0 33.929368747332774 34.851295731898063 0 0 0 0 46.138042056540144 60.113033782465209 0 60.113033782465209 49.615457546839025 0 0 0 0 50.048503117985092 83.160755081387833 0 83.160755081387833 107.34397895011352 0 0 0 0 28.127065428611445 32.299892992128186 0 32.299892992128186 -8.2645647044453305 0 0 0 0 27.013254140177878 61.750202018552102 0 61.750202018552102 22.408163718204712 0 0 0 0 57.82929896240239 57.205591556426953 0 57.205591556426953 90.604953535810637 0 0 0 0 10.846799785303446 39.89535440512023 0 39.89535440512023 49.800622180250855 0 0 0 0 -9.9574529224601989 17.886334999031561 0 17.886334999031561 30.15311703359653 0 0 0 0 516.7142407372703 241.21660188217265 0 241.21660188217265 99.758163411337591 0 0 0 0 499.58038454555208 320.8507951311185 0 320.8507951311185 7.7391568992661632 0 0 0 0 683.52047856632271 106.0479175722985 0 106.0479175722985 -31.206252360061626 0 0 0 0 645.11781638633693 142.20790046611728 0 142.20790046611728 -61.076829859694044 0 0 0 0 587.98319817602169 114.29632695905639 0 114.29632695905639 14.070217298236457 0 0 0 0 619.89310931755608 81.783127689822322 0 81.783127689822322 43.562407188512225 0 0 0 0 7.600922849419419 21.254683189666594 0 21.254683189666594 38.91155170047135 0 0 0 0 -9.3590717386541655 68.941881841707982 0 68.941881841707982 21.98752632736705 0 0 0 0 0.48433542833663523 16.02518053331346 0 16.02518053331346 39.573304621703812 0 0 0 0 -9.3931327868340304 68.849983900151074 0 68.849983900151074 28.758379022030567 0 0 0 0 -0.38061766981432044 21.13996375495384 0 21.13996375495384 33.590380381574448 0 0 0 0 3.1332840027927844 11.623648343097798 0 11.623648343097798 5.7300245675419248 0 0 0 0 -123.34874518681318 89.717844118094945 0 89.717844118094945 25.428489497977353 0 0 0 0 -42.793240332975984 62.830143172262069 0 62.830143172262069 28.305239029154677 0 0 0 0 -9.8486652590509038 72.538941320842014 0 72.538941320842014 4.6650682984145533 0 0 0 0 -8.2219464656227501 81.2588132562596 0 81.2588132562596 40.235662544185743 0 0 0 0 -22.110774677450536 79.317318269565931 0 79.317318269565931 21.200919775568764 0 0 0 0 -57.386813950142823 45.455656097248266 0 45.455656097248266 65.188005350513322 0 0 0 0 -63.921561821149226 86.34868347267772 0 86.34868347267772 121.38652585586954 0 0 0 0 -47.389814323716564 58.414336072078882 0 58.414336072078882 148.12285723357655 0 0 0 0 -43.410818407603074 71.810325498015857 0 71.810325498015857 94.632806849141986 0 0 0 0 13.60847189536004 24.578010727568696 0 24.578010727568696 38.584114343655813 0 0 0 0 863.68123257429397 -180.19912850120681 0 -180.19912850120681 -45.509989732423264 0 0 0 0 -27.204984133222752 65.206688730825775 0 65.206688730825775 29.450342225572626 0 0 0 0 766.02366878948669 -49.974107590551284 0 -49.974107590551284 12.002274252921779 0 0 0 0 1855.0802125974442 -631.22202532751999 0 -631.22202532751999 139.42711889339046 0 0 0 0 6.7692802614119216 7.8281636329943183 0 7.8281636329943183 12.72406538511072 0 0 0 0 -2.4438962926797103 -228.27390956024419 0 -228.27390956024419 767.30237761761828 0 0 0 0 -31.014728434107383 29.33269155254925 0 29.33269155254925 94.09949294993271 0 0 0 0 -42.867760479115532 -2.8155921152231258 0 -2.8155921152231258 237.59839394832443 0 0 0 0 -131.195034077522 27.253916584380022 0 27.253916584380022 426.94569187058505 0 0 0 0 -273.61222985856148 337.84659371784971 0 337.84659371784971 502.57004163393731 0 0 0 0 -24.469624634453794 323.50892449173602 0 323.50892449173602 68.654774362768876 0 0 0 0 1607.4907723993747 254.97949627128401 0 254.97949627128401 -404.93748215568212 0 0 0 0 223.31065134326491 848.04675262029127 0 848.04675262029127 1176.3041785103237 0 0 0 0 304.85508092815871 95.680103071288158 0 95.680103071288158 -477.64895717814125 0 0 0 0 -366.32814082023833 544.53899304219885 0 544.53899304219885 157.32124365313234 0 0 0 0 -69.719111928556231 557.43653251105229 0 557.43653251105229 -719.28111043827448 0 0 0 0 -240.19004028142808 354.60383252625343 0 354.60383252625343 -915.92756595195169 0 0 0 0 -738.62973948071158 1013.903069769347 0 1013.903069769347 -570.87818315206187 0 0 0 0 -377.73667212235523 344.58513980684847 0 344.58513980684847 -449.71968790023311 0 0 0 0 949.55639313533902 482.54855503911858 0 482.54855503911858 -334.31331623791141 0 0 0 0 2245.0164216342309 -88.305077161408917 0 -88.305077161408917 -354.19038720819481 0 0 0 0 -2207.7349772542802 358.07188900520759 0 358.07188900520759 -322.01213320763054 0 0 0 0 0.55339596337643115 2.6156540884509241 0 2.6156540884509241 -6.829796788815905 0 0 0 0 -276.5316831428936 310.43729677552801 0 310.43729677552801 -7.9233530344836254 0 0 0 0 -271.91922158643138 566.40444396148814 0 566.40444396148814 -38.758043232084674 0 0 0 0 308.65188786112412 680.08293394582688 0 680.08293394582688 -353.71767561824709 0 0 0 0 201.16774784969311 372.0747890778423 0 372.0747890778423 -54.458270400853507 0 0 0 0 134.72461745733017 488.15551549042107 0 488.15551549042107 -38.102531249653111 0 0 0 0 -153.45573527236411 424.68210043928138 0 424.68210043928138 60.409273380414561 0 0 0 0 35.838970780183445 357.22217018347931 0 357.22217018347931 83.612717604730278 0 0 0 0 206.47515179769835 360.07154616186745 0 360.07154616186745 -50.772871474242493 0 0 0 0 -120.52674451790517 373.10186816487476 0 373.10186816487476 -16.306186018634662 0 0 0 0 -233.29339026460366 418.48825298339113 0 418.48825298339113 131.87764224096713 0 0 0 0 -133.13547745339747 273.64592776091064 0 273.64592776091064 289.19716956075422 0 0 0 0 -129.56057933622469 318.97447027257954 0 318.97447027257954 106.21294535322158 0 0 0 0 -120.73729053982242 174.5426404492419 0 174.5426404492419 184.19399238080746 0 0 0 0 -150.58709472288319 119.66495346668989 0 119.66495346668989 221.34004489910512 0 0 0 0 173.46419131124276 270.42236167723877 0 270.42236167723877 23.616779359023212 0 0 0 0 34.102674758905778 327.77928348226192 0 327.77928348226192 13.938416616625318 0 0 0 0 -7.1211120787484106 261.89415352406741 0 261.89415352406741 132.62813291690921 0 0 0 0 24.379315644604503 229.77031954423234 0 229.77031954423234 73.437383006064294 0 0 0 0 56.250963255311945 247.68532333854512 0 247.68532333854512 19.376650526018693 0 0 0 0 281.32820628531044 179.0548248890872 0 179.0548248890872 -41.947661144743137 0 0 0 0 133.59227821291279 167.74134652079272 0 167.74134652079272 -11.483138507473015 0 0 0 0 162.4235401017504 235.64793969787451 0 235.64793969787451 -66.833689462215261 0 0 0 0 272.86863470228309 130.48250910798802 0 130.48250910798802 -125.13639096534553 0 0 0 0 489.03998544649221 147.96433808246002 0 147.96433808246002 -129.46000575570247 0 0 0 0 67.741429751577925 -31.35322584266396 0 -31.35322584266396 -2.5150926367641659 0 0 0 0 344.37971938151168 -13.472865553819247 0 -13.472865553819247 -154.83710719397823 0 0 0 0 -1.0921897587383746 -0.91987835336354351 0 -0.91987835336354351 -19.672072112435778 0 0 0 0 370.91072846864699 39.062897296438905 0 39.062897296438905 -51.336546477468801 0 0 0 0 267.62990718647052 131.63416284470895 0 131.63416284470895 -389.82426305020363 0 0 0 0 639.6080322417256 -109.45386135509216 0 -109.45386135509216 -441.00647319594646 0 0 0 0 479.51255201360618 122.60250037677361 0 122.60250037677361 -195.9994827419323 0 0 0 0 665.24692591893108 221.45441589435745 0 221.45441589435745 -306.77372609135091 0 0 0 0 432.14523859706242 -1071.8447874578633 0 -1071.8447874578633 1000.7140022372951 0 0 0 0 8.5435661506571705 5.9224589605604052 0 5.9224589605604052 -60.616565826496554 0 0 0 0 6.1481677187180139 5.9424908147828575 0 5.9424908147828575 -9.5329088736197338 0 0 0 0 -1459.7406920473732 -158.4032172451407 0 -158.4032172451407 2324.7354898436497 0 0 0 0 -2.3823447487348517 4.8181941249540472 0 4.8181941249540472 -5.4393319994885019 0 0 0 0 603.14354322574218 106.52687065188366 0 106.52687065188366 -22.165348380739488 0 0 0 0 679.88649630834698 50.176172443591895 0 50.176172443591895 -68.832288554480328 0 0 0 0 521.6745019616792 161.49234677881122 0 161.49234677881122 217.66463299807219 0 0 0 0 1539.9606075167248 283.38618656300969 0 283.38618656300969 -873.43031907471959 0 0 0 0 749.83019847114338 473.33667387976493 0 473.33667387976493 295.99607922354699 0 0 0 0 661.64838253421476 -124.82553861824272 0 -124.82553861824272 461.43889002863943 0 0 0 0 505.09982228305307 152.21093488276802 0 152.21093488276802 -5.6847231030387775 0 0 0 0 525.31196702853777 240.18858455774625 0 240.18858455774625 -109.35341732467714 0 0 0 0 410.73156723109423 363.615545389217 0 363.615545389217 -230.86969094734377 0 0 0 0 341.49421099449683 251.72523518658636 0 251.72523518658636 -76.921560891320496 0 0 0 0 327.92592065444478 231.03260533789899 0 231.03260533789899 -84.507682607362767 0 0 0 0 -1.4665517957473639 33.267357143746267 0 33.267357143746267 -18.481033000834941 0 0 0 0 2.3445895097520406 17.926826201439326 0 17.926826201439326 -47.571520086283272 0 0 0 0 3.5537130483591568 19.338117923183006 0 19.338117923183006 -29.155610252365101 0 0 0 0 -5.9810886525228852 29.011258884733252 0 29.011258884733252 -22.446540603221365 0 0 0 0 4.7340862948286144 8.1392702857716728 0 8.1392702857716728 -17.998367082270256 0 0 0 0 7.2473366608257805 7.165514970455547 0 7.165514970455547 -31.745803316287926 0 0 0 0 0.83324247659766115 29.87788242782608 0 29.87788242782608 -47.867405198943743 0 0 0 0 -0.78416082586045377 12.511350082526405 0 12.511350082526405 -59.835807191455388 0 0 0 0 -7.8168848125476416 26.877411922814737 0 26.877411922814737 -16.689265479076543 0 0 0 0 -15.039687065858743 27.378355065309734 0 27.378355065309734 -67.557626526124295 0 0 0 0 11.970449981919955 29.254717408903161 0 29.254717408903161 -53.345212021878979 0 0 0 0 -1.1191220812906977 28.538437207706011 0 28.538437207706011 -47.254872734132732 0 0 0 0 15.091843269052333 22.189987292182195 0 22.189987292182195 -44.780658525614854 0 0 0 0 17.971423619041161 16.960305601835444 0 16.960305601835444 -81.059664663245712 0 0 0 0 19.375968116779404 11.563769172066259 0 11.563769172066259 -66.271666245515007 0 0 0 0 3.381651648345553 26.586846573026065 0 26.586846573026065 -18.556275680564127 0 0 0 0 32.173586548189633 31.423065534777379 0 31.423065534777379 -87.773511376299211 0 0 0 0 -40.843084568332415 46.954034802704882 0 46.954034802704882 -35.251028902275266 0 0 0 0 -9.5466373787057819 74.490480399553235 0 74.490480399553235 -123.11982891234038 0 0 0 0 231.65218467860541 -4.1529061179917335 0 -4.1529061179917335 -117.39320377703086 0 0 0 0 8.3240014999173582 21.19600840467956 0 21.19600840467956 -52.54539213478165 0 0 0 0 6.7856102105633909 16.749836154518334 0 16.749836154518334 -48.871605782202096 0 0 0 0 631.68180065447814 157.96360884626574 0 157.96360884626574 -304.40776183133084 0 0 0 0 709.38123840216576 247.79238744696704 0 247.79238744696704 -211.2623656220585 0 0 0 0 693.75456300757651 66.390067190302489 0 66.390067190302489 -172.52813416172648 0 0 0 0 -3.5134199800126709 0.9991632259498715 0 0.9991632259498715 -1.9751191415914633 0 0 0 0 666.79120487266846 2.7695943497158169 0 2.7695943497158169 -27.808688846658697 0 0 0 0 -76.460425042954739 84.341307049315674 0 84.341307049315674 -63.760821892346939 0 0 0 0 646.14171409017581 -24.013199712930145 0 -24.013199712930145 -27.227522006971412 0 0 0 0 639.97633495707123 -96.896253282264297 0 -96.896253282264297 -167.90364533602951 0 0 0 0 266.30404886673205 -126.12720221007748 0 -126.12720221007748 130.92318691040236 0 0 0 0 932.38305793712789 -173.00004611583154 0 -173.00004611583154 -204.30427483036965 0 0 0 0 1143.2171554359957 77.049050392512981 0 77.049050392512981 -333.73075334939017 0 0 0 0 269.44399688077101 42.178607812720657 0 42.178607812720657 77.557868885504377 0 0 0 0 246.97701606695773 -4.4125777069702963 0 -4.4125777069702963 -12.601497964777082 0 0 0 0 -79.797149784753856 510.4549328983594 0 510.4549328983594 -1217.8830248151608 0 0 0 0 4.4737457335470197 3.737831307575405 0 3.737831307575405 1.8622662093603211 0 0 0 0 9.857561382471431 1064.9361260872513 0 1064.9361260872513 -687.52639964702394 0 0 0 0 1268.553993927082 -527.42627717270716 0 -527.42627717270716 77.889787222466111 0 0 0 0 0.94330760842119332 -5.5114112990517299 0 -5.5114112990517299 -15.593909832521135 0 0 0 0 -134.22935947060614 -235.64556710003671 0 -235.64556710003671 -389.09423197986325 0 0 0 0 18.332095933094877 10.459625407182699 0 10.459625407182699 -5.6405337552793213 0 0 0 0 13.978004262466243 5.1423248381143907 0 5.1423248381143907 1.37309329801095 0 0 0 0 -3.5355209387053037 -28.029649633743247 0 -28.029649633743247 12.916389900801732 0 0 0 0 170.48239113975978 666.34601650401737 0 666.34601650401737 -1986.3196381047383 0 0 0 0 80.045733379738522 371.89145453289348 0 371.89145453289348 -1119.0558829518559 0 0 0 0 -523.6847560745955 1446.3599978750244 0 1446.3599978750244 -965.8384383320099 0 0 0 0 -580.2505606043087 -128.94890806314422 0 -128.94890806314422 -1080.5710034248295 0 0 0 0 109.84600182876602 100.91448453588146 0 100.91448453588146 32.293120263282617 0 0 0 0 -1475.0903857012308 822.47136184729561 0 822.47136184729561 -132.55982933663108 0 0 0 0 1530.0795465862611 961.48458693850989 0 961.48458693850989 -943.23659212969505 0 0 0 0 -0.11152838750550842 1.8179715183226506 0 1.8179715183226506 -1.3355405824147795 0 0 0 0 -285.55591458258277 586.03869627162203 0 586.03869627162203 360.9778913127484 0 0 0 0 1226.1644847666394 701.69037533244136 0 701.69037533244136 -716.92924270166623 0 0 0 0 44.490284442392294 251.81158320209215 0 251.81158320209215 56.432220789432904 0 0 0 0 312.74047713636537 1008.6717385207285 0 1008.6717385207285 -171.51151166193631 0 0 0 0 1041.0587167731792 63.969301683127924 0 63.969301683127924 -25.430102863334469 0 0 0 0 925.12833296926692 195.19632303746766 0 195.19632303746766 -160.1686269312122 0 0 0 0 4.2403961876322498 20.373921090530217 0 20.373921090530217 -47.59875493390939 0 0 0 0 -1232.8674462808121 620.1155667269968 0 620.1155667269968 -1.8766512035763299 0 0 0 0 -964.78962697016323 544.70481293789317 0 544.70481293789317 -318.18563317849475 0 0 0 0 -1208.3702964897675 331.85853685913753 0 331.85853685913753 37.665061682220994 0 0 0 0 11.819792971233255 110.61120751467774 0 110.61120751467774 -435.41418145739044 0 0 0 0 -3.6648605467365769 3.1819682633211812 0 3.1819682633211812 -3.2556940667817678 0 0 0 0 -136.65250255376668 113.05007333022559 0 113.05007333022559 -61.958242252954733 0 0 0 0 8.2954567402075554 9.8318153596829738 0 9.8318153596829738 0.51478538789891459 0 0 0 0 -0.29027178307319446 11.668138241651917 0 11.668138241651917 -8.009318703283661 0 0 0 0 -267.42895747817965 -8.7944926822519847 0 -8.7944926822519847 -55.500725480701931 0 0 0 0 -577.40231200874405 683.33171246462098 0 683.33171246462098 -275.52589648798585 0 0 0 0 -585.15555266526644 -143.49330222465323 0 -143.49330222465323 1060.4671357562938 0 0 0 0 -699.19088909665152 115.22633183283051 0 115.22633183283051 959.64593552195583 0 0 0 0 -96.151805789733771 347.14706402421052 0 347.14706402421052 -931.5839706700026 0 0 0 0 -284.50226540742005 -3.6580391125116876 0 -3.6580391125116876 -310.18400701833889 0 0 0 0 1528.7364927928429 212.28218570262288 0 212.28218570262288 -32.944827303407692 0 0 0 0 1571.2074224063199 180.16113838546551 0 180.16113838546551 -12.052114305308351 0 0 0 0 2.5635621629599257 13.06606260067521 0 13.06606260067521 -23.299259860095717 0 0 0 0 -1924.4834377116276 104.00516878494409 0 104.00516878494409 759.50912275708106 0 0 0 0 -48.230552426583017 743.40738108412006 0 743.40738108412006 -1326.1468946880477 0 0 0 0 0.2666228473681258 515.15412987981108 0 515.15412987981108 -1923.1387882249401 0 0 0 0 -38.773179189374787 699.75726158559337 0 699.75726158559337 -2633.476550277861 0 0 0 0 -89.382868710694311 261.67067806226805 0 261.67067806226805 -592.13200431960286 0 0 0 0 -787.72430733031069 1153.7704939365904 0 1153.7704939365904 -969.66679024928271 0 0 0 0 -0.25115365492820274 480.33097895484934 0 480.33097895484934 -1192.1091344606111 0 0 0 0 -316.85949014160724 542.52987253043102 0 542.52987253043102 -414.29248480455135 0 0 0 0 -2.7922098758599532 -1.9717375362409797 0 -1.9717375362409797 1.0496132617765142 0 0 0 0 4.2676887725101551 39.699271238589063 0 39.699271238589063 44.966709846987214 0 0 0 0 9.5958447113389411 33.37644533980756 0 33.37644533980756 -13.4987019254404 0 0 0 0 -8.3161156852875138 124.03369554768142 0 124.03369554768142 -710.28356357539815 0 0 0 0 -31.778000348640489 66.813265225520354 0 66.813265225520354 -37.186228361359099 0 0 0 0 17.849078397543053 16.631756329503332 0 16.631756329503332 -37.848420022965001 0 0 0 0 -21.263084009260638 1.8980996772443177 0 1.8980996772443177 26.957293256569756 0 0 0 0 -461.76873450906714 151.22768987720701 0 151.22768987720701 -79.072165793202657 0 0 0 0 3.3118285257211255 -3.4223666210124435 0 -3.4223666210124435 -0.92633857522256946 0 0 0 0 -4.9758419456484262 9.5390664563674363 0 9.5390664563674363 -38.459499485601555 0 0 0 0 -3.4920655464222818 0.66636130087576362 0 0.66636130087576362 -4.7458813718158481 0 0 0 0 18.280298492012662 5.4394205912212783 0 5.4394205912212783 -94.799316286276735 0 0 0 0 3.4131869768980323 46.027843047432157 0 46.027843047432157 -84.602410975057865 0 0 0 0 0.86934388655083694 3.3495192571560892 0 3.3495192571560892 -7.9166959496984646 0 0 0 0 -3.4871311999268073 17.465711118650631 0 17.465711118650631 -16.058437619087755 0 0 0 0 4.9513427307538223 14.410757381559961 0 14.410757381559961 -51.991124456930265 0 0 0 0 10.409371167427821 0.78866491479629985 0 0.78866491479629985 -26.976877923630241 0 0 0 0 7.6844364984609115 2.2625668000790427 0 2.2625668000790427 -5.7714591136158475 0 0 0 0 -9.5182078059297055 19.447269833057362 0 19.447269833057362 -19.711900765814789 0 0 0 0 42.437020501136431 -31.215543146465279 0 -31.215543146465279 -92.863839243145776 0 0 0 0 6.0026792762218975 -5.1436195334281365 0 -5.1436195334281365 -24.240843134684837 0 0 0 0 18.410149396302359 4.5951370563861076 0 4.5951370563861076 -17.689319686738969 0 0 0 0 51.164461270760512 24.353243394260062 0 24.353243394260062 -171.27145313908022 0 0 0 0 94.843135533272289 174.92143468587528 0 174.92143468587528 -146.93693436170634 0 0 0 0 87.619220333879639 6.7141009965034755 0 6.7141009965034755 -294.08048930731456 0 0 0 0 -789.12252757529495 438.87997382401772 0 438.87997382401772 -66.374740162090347 0 0 0 0 48.598792040444096 505.10543501495886 0 505.10543501495886 -4142.8408310759532 0 0 0 0 -248.64335153628781 -0.099388929142151028 0 -0.099388929142151028 269.34183812107221 0 0 0 0 -14.034451456184343 3.9925700994540705 0 3.9925700994540705 -3.5416296068082964 0 0 0 0 -136.75303122412879 239.2372063583698 0 239.2372063583698 -2035.6000462667835 0 0 0 0 -36.954501750766326 20.818797303341483 0 20.818797303341483 -9.5496543759975552 0 0 0 0 -44.291726949857548 16.577108050922106 0 16.577108050922106 -1932.2876915795373 0 0 0 0 -258.57501607137965 624.80353340669535 0 624.80353340669535 -1573.2345922268141 0 0 0 0 -7.3728804784406066 -2.3557975847324997 0 -2.3557975847324997 10.852736501749959 0 0 0 0 -18.794991493836278 366.27355874874411 0 366.27355874874411 -1941.506351254644 0 0 0 0 36.815053097605414 296.86788101770344 0 296.86788101770344 -1868.6642266143681 0 0 0 0 39.09190384260728 299.76483865668433 0 299.76483865668433 -1870.6258040946195 0 0 0 0 112.08400793363398 196.45103565595309 0 196.45103565595309 -1248.511093010784 0 0 0 0 -171.82613161792688 262.00393206354056 0 262.00393206354056 -1709.1938591046892 0 0 0 0 -130.54863836974255 567.66239566481454 0 567.66239566481454 -1117.1723985416074 0 0 0 0 -4.9774397603863463 5.1462457413453677 0 5.1462457413453677 -10.247264773714818 0 0 0 0 3.8502279921594891 21.593083911425765 0 21.593083911425765 -19.333326714346185 0 0 0 0 -1.1657124679671824 13.81940431485944 0 13.81940431485944 -10.355288474827624 0 0 0 0 -172.29480029674596 -127.99850253436671 0 -127.99850253436671 -169.25187053233458 0 0 0 0 1.3278476706493052 12.287441469520047 0 12.287441469520047 -8.3969244581945617 0 0 0 0 0.41089438676135615 23.013662214238138 0 23.013662214238138 -13.024625615042169 0 0 0 0 8.6764122491523494 9.8603518624997051 0 9.8603518624997051 -6.6528337851362522 0 0 0 0 18.654701327643238 16.967941845741819 0 16.967941845741819 -22.148592159598394 0 0 0 0 3.6686259842244908 23.316202229696501 0 23.316202229696501 -33.282441867238958 0 0 0 0 25.985141684010159 70.042103915151529 0 70.042103915151529 -14.897150675224111 0 0 0 0 13.223907886378583 162.39575897146278 0 162.39575897146278 51.251726606686134 0 0 0 0 4.7903563639993081 35.771031512857007 0 35.771031512857007 -38.042358953149233 0 0 0 0 7.6309674788309394 15.735519245112418 0 15.735519245112418 -3.8708777285939391 0 0 0 0 2.800559913230245 24.707338925600197 0 24.707338925600197 -11.54187190416269 0 0 0 0 2.1964301343250554 6.0494593193070614 0 6.0494593193070614 -36.432556952257073 0 0 0 0 13.585743621079018 25.549497272215376 0 25.549497272215376 -65.42656491654634 0 0 0 0 2.1175027301942464 11.086686487033148 0 11.086686487033148 -54.364762754208641 0 0 0 0 3.3564351623499533 24.413531773378054 0 24.413531773378054 -42.711253643312375 0 0 0 0 11.971322204470198 27.271108134911628 0 27.271108134911628 -42.353268104627205 0 0 0 0 7.9532397500661318 28.698730882901145 0 28.698730882901145 -42.435546445267391 0 0 0 0 2.3073463452456053 24.595769759987888 0 24.595769759987888 -34.606572256299842 0 0 0 0 9.6133089107315755 26.081761444151198 0 26.081761444151198 -40.476679042818432 0 0 0 0 2.5283450137354748 22.447453880533629 0 22.447453880533629 -28.106372652080097 0 0 0 0 2.5891641391062876 25.10214368817833 0 25.10214368817833 -46.965778899974794 0 0 0 0 20.670001141326793 17.637500067830842 0 17.637500067830842 -40.245183998427819 0 0 0 0 2.6846012976184284 26.060210876630208 0 26.060210876630208 -37.983780258546176 0 0 0 0 -0.1725810183561407 28.155235309213822 0 28.155235309213822 -39.103358911430405 0 0 0 0 -5.0386676405469188 33.675096466704417 0 33.675096466704417 -44.818550348289136 0 0 0 0 -28.837383952632081 38.291100412741798 0 38.291100412741798 2.5509828901122091 0 0 0 0 7.9176224663863479 16.417933831437125 0 16.417933831437125 -23.933092784954781 0 0 0 0 -1.2696478582220152 38.084361135541258 0 38.084361135541258 -38.648788114747731 0 0 0 0 10.074129852895567 20.105083425496559 0 20.105083425496559 -34.653283292478591 0 0 0 0 64.791548677720129 -8.4242273488489445 0 -8.4242273488489445 -31.293727758073601 0 0 0 0 -6.1056917549342984 5.9134410851599313 0 5.9134410851599313 -3.9041809612902938 0 0 0 0 72.808245717082173 -9.780806484632194 0 -9.780806484632194 -1.4162290288877557 0 0 0 0 71.566755024512531 66.096152348403848 0 66.096152348403848 -58.034233661142935 0 0 0 0 6.9282551961385366 18.945542224365511 0 18.945542224365511 -32.995054719568216 0 0 0 0 11.254660548554966 28.395478032234678 0 28.395478032234678 -49.623412503589861 0 0 0 0 5.0311488266491438 15.800068104337186 0 15.800068104337186 -28.537537751440141 0 0 0 0 0.22152116837969515 40.039407627992659 0 40.039407627992659 -38.853270103099931 0 0 0 0 14.458773843134622 31.343846101365614 0 31.343846101365614 -48.441947494506167 0 0 0 0 7.4784511027100962 25.264947030111216 0 25.264947030111216 -66.274382741719819 0 0 0 0 -6.8904855236469302 47.749049165573524 0 47.749049165573524 -103.66987848655572 0 0 0 0 9.7253747222857783 12.578068371487731 0 12.578068371487731 -17.391135861936277 0 0 0 0 39.036184668104397 19.054659363268001 0 19.054659363268001 -46.083016116281215 0 0 0 0 -1.2470255415991005 4.9611823942766904 0 4.9611823942766904 -8.991006733598276 0 0 0 0 -13.995946515235119 2.7033422636741307 0 2.7033422636741307 -1.1986474594323226 0 0 0 0 99.982073845065315 -54.17678992987021 0 -54.17678992987021 -370.70503329762141 0 0 0 0 -45.901834649179364 587.75042321277579 0 587.75042321277579 -945.95584263528508 0 0 0 0 -81.718374349089572 185.52024882507612 0 185.52024882507612 -482.6874144438807 0 0 0 0 13.254432427056599 17.416924797203137 0 17.416924797203137 -61.105111324272002 0 0 0 0 -1.1401437213227723 5.3203439416180913 0 5.3203439416180913 -9.7716739212750099 0 0 0 0 11.464161660435948 5.1423784883691894 0 5.1423784883691894 -45.455164415544914 0 0 0 0 -1016.2953114346237 1252.4134239281811 0 1252.4134239281811 -1358.7972303556016 0 0 0 0 -482.29415012283425 605.41975296320925 0 605.41975296320925 -679.9456988006059 0 0 0 0 113.6973306361906 677.89450124594805 0 677.89450124594805 -1500.0433617089184 0 0 0 0 107.93705815059366 669.13950593937352 0 669.13950593937352 -1369.4404158769794 0 0 0 0 -99.786116538976785 875.7744258188668 0 875.7744258188668 -1325.4463408594238 0 0 0 0 36.939722881332273 553.56260528532221 0 553.56260528532221 -999.37823730996024 0 0 0 0 73.403961436935788 603.82069430169395 0 603.82069430169395 -1370.9336598940026 0 0 0 0 5.1335950118518667 425.22433082068892 0 425.22433082068892 -1189.4311390220701 0 0 0 0 -25.382488503877539 660.5453884711078 0 660.5453884711078 -2175.1902599211789 0 0 0 0 -183.87278131589119 585.70700733662852 0 585.70700733662852 -575.17344063901692 0 0 0 0 -290.77152811594715 492.58231547449941 0 492.58231547449941 166.04494815561338 0 0 0 0 -166.71137653275218 679.28331835713288 0 679.28331835713288 -207.28194127068218 0 0 0 0 -42.306449558542226 596.50273578710039 0 596.50273578710039 -1056.2596316967483 0 0 0 0 -308.5848891557871 272.61135483407816 0 272.61135483407816 -341.21513742935349 0 0 0 0 -175.24871757948131 807.12653199394845 0 807.12653199394845 -411.39874929591133 0 0 0 0 -43.626167827996142 494.30166812476438 0 494.30166812476438 -728.18059970183458 0 0 0 0 -220.12808949535247 438.4927667460488 0 438.4927667460488 -105.14243851282481 0 0 0 0 -195.08012385913389 728.29089388087095 0 728.29089388087095 171.06537348562415 0 0 0 0 -275.77603099106636 858.64489897240128 0 858.64489897240128 -546.91729590140858 0 0 0 0 -127.91825116284599 486.17431248959997 0 486.17431248959997 -236.03296656340899 0 0 0 0 -100.81514879968017 703.01902983150649 0 703.01902983150649 -1160.7771522545227 0 0 0 0 -82.637391536642099 819.63332960956541 0 819.63332960956541 -1723.9507323985017 0 0 0 0 34.45486027446168 588.06594115914049 0 588.06594115914049 -1090.3531602582734 0 0 0 0 -1.4209831826883601 775.90417421689199 0 775.90417421689199 -1133.5755558304736 0 0 0 0 -20.486746527763898 620.00677365047522 0 620.00677365047522 -1172.2540350997097 0 0 0 0 39.917684977917816 665.93983645054686 0 665.93983645054686 -1556.2919762536258 0 0 0 0 -56.369460590154631 500.93482176051111 0 500.93482176051111 -1448.8915781218166 0 0 0 0 24.970653727650642 465.10289703631497 0 465.10289703631497 -1899.0307300616578 0 0 0 0 -18.783717122947564 560.84676523532471 0 560.84676523532471 -1586.8887239979958 0 0 0 0 14.32583196129417 632.84418308012391 0 632.84418308012391 -2343.416023156944 0 0 0 0 -509.46025916410144 1065.3560759395477 0 1065.3560759395477 -1597.6998099785596 0 0 0 0 -950.67250878157938 1021.339270741968 0 1021.339270741968 -1876.9355001638887 0 0 0 0 -502.79595233863319 373.83308858351171 0 373.83308858351171 -1248.6514935199593 0 0 0 0 -73.667815504355531 762.14025538325586 0 762.14025538325586 -1076.5769270883538 0 0 0 0 -326.85346329581807 654.22052240298217 0 654.22052240298217 -966.00490159138644 0 0 0 0 -106.85885488909844 758.4128933442862 0 758.4128933442862 -960.68233266986556 0 0 0 0 -203.52978126217204 402.82569799520388 0 402.82569799520388 512.5065547539416 0 0 0 0 -178.05881590058561 771.78943751096085 0 771.78943751096085 -27.953865338437936 0 0 0 0 22.868209387350362 653.97676505654454 0 653.97676505654454 -245.89457390175721 0 0 0 0 -426.74700990728525 538.16522202295982 0 538.16522202295982 -265.65090235424577 0 0 0 0 228.37391480356746 396.7358761377227 0 396.7358761377227 -405.8191443174419 0 0 0 0 -341.72620898902824 276.16109088303892 0 276.16109088303892 -418.13773188936966 0 0 0 0 -303.40647425007046 385.37976951764813 0 385.37976951764813 479.36085486163211 0 0 0 0 -0.17701507316814968 693.14007395822046 0 693.14007395822046 401.42548247285777 0 0 0 0 0.086021637340309098 644.90713331408915 0 644.90713331408915 -1275.9800760769867 0 0 0 0 -358.31599386797461 77.193950902856159 0 77.193950902856159 -1903.7613071308588 0 0 0 0 -266.90189846485009 267.83798828905947 0 267.83798828905947 -1515.2197809773679 0 0 0 0 0.36107983688998502 479.37002033115459 0 479.37002033115459 -1510.8249769271229 0 0 0 0 -1.0296883990803281 -1.2205099766617113 0 -1.2205099766617113 -1.7951839145315995 0 0 0 0 -31.000684587575961 -82.012581305938511 0 -82.012581305938511 99.740459901450777 0 0 0 0 195.128922612319 398.58284350056238 0 398.58284350056238 -1357.062804814328 0 0 0 0 9.2054952030562731 13.999789867900112 0 13.999789867900112 3.3364917491173323 0 0 0 0 -5.522043916708185 3.4294107712830932 0 3.4294107712830932 3.1854010613531627 0 0 0 0 -31.000684587211065 96.705127512013817 0 96.705127512013817 25.807623468213933 0 0 0 0 232.56090666499585 -281.70674593928925 0 -281.70674593928925 2098.6126865350161 0 0 0 0 0.058495378092629835 140.76972902357738 0 140.76972902357738 -7.9490673648806478 0 0 0 0 -160.09080108071794 -640.34999497677745 0 -640.34999497677745 4091.8577279596393 0 0 0 0 3.3942181337451416 2.6043187546214384 0 2.6043187546214384 6.1479614217025045 0 0 0 0 400.64488491395605 315.58167947407583 0 315.58167947407583 1177.5052957628286 0 0 0 0 0.78925418692961102 559.24432796569272 0 559.24432796569272 2485.3729017150763 0 0 0 0 -162.33568424763507 203.02776484681272 0 203.02776484681272 1156.8722354782749 0 0 0 0 199.2145190211595 525.74106317006135 0 525.74106317006135 517.14665121925646 0 0 0 0 -189.8103708184135 269.03200161342011 0 269.03200161342011 2381.0721874972114 0 0 0 0 -247.62079043687845 311.97903160363421 0 311.97903160363421 1782.5190836807087 0 0 0 0 11.112008770971443 227.71923476210031 0 227.71923476210031 1263.4282191588645 0 0 0 0 -196.35565407336981 372.56224336538071 0 372.56224336538071 1329.2592578686917 0 0 0 0 -86.124772605900944 590.84270271496916 0 590.84270271496916 665.03319026385361 0 0 0 0 -189.10983786108136 427.82000310192052 0 427.82000310192052 1235.8098210803182 0 0 0 0 -154.62976065104885 130.02251374013031 0 130.02251374013031 1247.921313156874 0 0 0 0 -138.78051879625127 -88.649198826597967 0 -88.649198826597967 1925.3239746048566 0 0 0 0 78.538990492466837 -180.19840795397431 0 -180.19840795397431 1754.9059179542692 0 0 0 0 -98.795547664922196 -291.79745825087048 0 -291.79745825087048 2440.5407644665065 0 0 0 0 148.70068276005622 252.72186861229147 0 252.72186861229147 -1045.7633240852829 0 0 0 0 -32.629469221399631 575.00346480419876 0 575.00346480419876 -685.90493906542042 0 0 0 0 6.7213092937207648 28.298910308861089 0 28.298910308861089 8.0808577214266055 0 0 0 0 1.0609293362358585 -63.904971460520755 0 -63.904971460520755 -470.73893896883055 0 0 0 0 72.233519044035347 190.76308497728223 0 190.76308497728223 -620.33758463095819 0 0 0 0 -0.010338491944139605 -0.11991975195046223 0 -0.11991975195046223 -10.798536344848053 0 0 0 0 34.488623788231052 203.12509819777188 0 203.12509819777188 -291.54356196337176 0 0 0 0 9.2752333632300861 34.080275991261196 0 34.080275991261196 4.933486675176427 0 0 0 0 -11.860937300632941 178.16289285711082 0 178.16289285711082 -291.64649556029701 0 0 0 0 -156.34655407087121 60.802099090111369 0 60.802099090111369 1791.8691808858803 0 0 0 0 133.3172324333209 34.149161202565665 0 34.149161202565665 957.40935894492577 0 0 0 0 62.880244983229204 -73.07437941939861 0 -73.07437941939861 1318.2479121284487 0 0 0 0 -36.903818130114814 238.90516419881533 0 238.90516419881533 654.10988219535284 0 0 0 0 -275.5355218337354 472.03442260767406 0 472.03442260767406 660.55228093901314 0 0 0 0 -197.10169431248505 371.89187376572045 0 371.89187376572045 480.33580466775493 0 0 0 0 -159.46971742453752 206.94956550642564 0 206.94956550642564 1077.3094195450649 0 0 0 0 -79.686603921820279 556.69097887461055 0 556.69097887461055 629.81767697174291 0 0 0 0 -62.514150297734886 469.1675392490688 0 469.1675392490688 454.0514680729375 0 0 0 0 -205.67918656815664 676.42781516397213 0 676.42781516397213 279.4172315707292 0 0 0 0 -275.43444340211863 490.32601283304029 0 490.32601283304029 501.34143798171135 0 0 0 0 -254.76320503174611 489.10311792737002 0 489.10311792737002 66.390637545613572 0 0 0 0 -560.31880892837216 64.220340083863903 0 64.220340083863903 244.84892218522509 0 0 0 0 -7.1881393109069904 -72.672644980200857 0 -72.672644980200857 831.06994501684972 0 0 0 0 -396.36683254239324 400.25597412001389 0 400.25597412001389 878.33721820741994 0 0 0 0 17.333053575694521 39.724845886432782 0 39.724845886432782 7.1820337160433851 0 0 0 0 -194.77958150156337 186.18197797414177 0 186.18197797414177 1667.3181966974262 0 0 0 0 -126.30354736407753 105.58929924413314 0 105.58929924413314 7.0077625377093682 0 0 0 0 -174.43817259175194 619.24468870368764 0 619.24468870368764 804.41860522524803 0 0 0 0 -162.1843770234409 296.08036849187829 0 296.08036849187829 -161.00099427033092 0 0 0 0 68.27202330007276 132.6722784621868 0 132.6722784621868 -232.70809208951869 0 0 0 0 -294.74453027397249 84.676178998436399 0 84.676178998436399 633.45672410492398 0 0 0 0 -0.25825889400425694 1.5598310864775939 0 1.5598310864775939 0.49108478406992884 0 0 0 0 41.91208003799693 218.93243422214618 0 218.93243422214618 -634.38985652739939 0 0 0 0 -155.30118833935967 28.171686174050137 0 28.171686174050137 33.033806429561082 0 0 0 0 -240.42211557723226 251.4371474673608 0 251.4371474673608 260.50173220642864 0 0 0 0 -246.91204509912131 -0.90466970527604929 0 -0.90466970527604929 65.424975998501395 0 0 0 0 -385.36803859850625 19.660165928316019 0 19.660165928316019 -32.814242388672028 0 0 0 0 -158.55687661854608 -0.43375456031571957 0 -0.43375456031571957 267.80890417885712 0 0 0 0 -76.013002475097892 179.21923010681212 0 179.21923010681212 -10.3823222797173 0 0 0 0 -134.44234792712086 277.49185961439525 0 277.49185961439525 100.40757536883666 0 0 0 0 -245.98182530072518 348.94788002262612 0 348.94788002262612 -94.796498477514774 0 0 0 0 -184.84696611830441 226.37072030028207 0 226.37072030028207 66.429025425332838 0 0 0 0 -195.37679484690125 183.93701787030415 0 183.93701787030415 84.65934826614648 0 0 0 0 -221.87655637409989 383.33258149986375 0 383.33258149986375 -21.580969542746061 0 0 0 0 0.19065114140028072 4.1176314765221065 0 4.1176314765221065 1.0646336465272306 0 0 0 0 -25.05510914955812 209.21885313208713 0 209.21885313208713 -240.39052343433241 0 0 0 0 53.702497909311205 116.89542319391558 0 116.89542319391558 -234.69399398531823 0 0 0 0 -110.96330104245862 159.57681527840305 0 159.57681527840305 -225.80158069909066 0 0 0 0 -42.212514454993652 244.73221167637803 0 244.73221167637803 -283.41255879249729 0 0 0 0 0.80545548903506869 1.724816147821798 0 1.724816147821798 -0.15965721762679941 0 0 0 0 -111.99734419880133 -28.851513317003992 0 -28.851513317003992 194.30772739300028 0 0 0 0 -309.76356226231292 270.34028039488658 0 270.34028039488658 48.500400753581744 0 0 0 0 121.87716681460734 765.2150401583549 0 765.2150401583549 -952.25125624649672 0 0 0 0 -119.58946602464857 264.14412030612698 0 264.14412030612698 -301.49051875934128 0 0 0 0 345.55022799344442 137.63130569289433 0 137.63130569289433 -493.41453149045265 0 0 0 0 -195.75113743782276 99.926120670327691 0 99.926120670327691 255.12976017996664 0 0 0 0 -292.76777894107727 341.19112757827656 0 341.19112757827656 314.3652742651675 0 0 0 0 -49.600779535154288 38.260610018875241 0 38.260610018875241 49.596279518653319 0 0 0 0 -242.33578519137518 0.20003516307519931 0 0.20003516307519931 55.112933031220564 0 0 0 0 0.58032766559037441 -2.0551883043772818 0 -2.0551883043772818 5.1758895486127976 0 0 0 0 -336.03439527771843 201.18708598271132 0 201.18708598271132 480.2679223422565 0 0 0 0 231.21624808388879 673.05234949345095 0 673.05234949345095 613.85154121099004 0 0 0 0 -76.22948523391824 364.66310352066864 0 364.66310352066864 663.9969028730161 0 0 0 0 19.486396688138484 66.49205569602077 0 66.49205569602077 475.7210472502361 0 0 0 0 5.0339108103740955 1.3765105285545047 0 1.3765105285545047 2.1194790607321194 0 0 0 0 -36.819381423221785 -73.906368608041447 0 -73.906368608041447 955.86167869744054 0 0 0 0 51.589343360752537 332.80296906138267 0 332.80296906138267 196.7920736000051 0 0 0 0 -0.21807807126606349 573.79250330079276 0 573.79250330079276 765.13146436262014 0 0 0 0 -0.05929883623321075 549.39164117856035 0 549.39164117856035 -431.5567108017367 0 0 0 0 -111.55752733883855 212.15044262794709 0 212.15044262794709 168.97797186234311 0 0 0 0 13.571025301280315 517.6550482766711 0 517.6550482766711 -11.437545283990403 0 0 0 0 -82.187333507812582 429.5352790379352 0 429.5352790379352 -858.46270389222809 0 0 0 0 -72.061050559532305 255.95966998086215 0 255.95966998086215 -300.22366565749871 0 0 0 0 -110.48505412739905 98.508970028532843 0 98.508970028532843 -629.54896547740009 0 0 0 0 -23.232449467883271 135.69621756144988 0 135.69621756144988 -50.378192492686139 0 0 0 0 -48.032850542522567 54.85557473725472 0 54.85557473725472 6.923537193947201 0 0 0 0 -29.266041529903305 129.69632745248691 0 129.69632745248691 -40.476604286806833 0 0 0 0 61.195894981974561 94.999935329666187 0 94.999935329666187 -135.03150192031171 0 0 0 0 5.2498511424723056 26.479281064571779 0 26.479281064571779 -97.531475905721379 0 0 0 0 -27.948519946482691 64.49511105460455 0 64.49511105460455 -4.8942556461966706 0 0 0 0 -350.36771030604723 305.04043687684498 0 305.04043687684498 -295.47003897023569 0 0 0 0 -175.30360707087857 130.72432976946448 0 130.72432976946448 -123.02501836732699 0 0 0 0 -171.622323491938 -440.45114355655824 0 -440.45114355655824 397.76864626659153 0 0 0 0 -593.21857952259597 173.27590882820277 0 173.27590882820277 82.926435680020177 0 0 0 0 410.75548925726616 334.1367117070663 0 334.1367117070663 -530.19175590855684 0 0 0 0 -238.92053675914212 732.57651872760698 0 732.57651872760698 -732.54177814770082 0 0 0 0 -241.4961641968257 -69.597249221606035 0 -69.597249221606035 131.9903472904814 0 0 0 0 -326.54273271852435 62.050672447231591 0 62.050672447231591 -71.790355778435696 0 0 0 0 -468.64341105454514 103.96483675653326 0 103.96483675653326 -37.153540023483856 0 0 0 0 -419.76868298298359 210.02680010541553 0 210.02680010541553 -260.54332468649409 0 0 0 0 -103.12702927148348 517.01351733846695 0 517.01351733846695 -480.3325372715226 0 0 0 0 -594.29910163791283 986.14133587420883 0 986.14133587420883 -525.99405743709576 0 0 0 0 -445.0928701521334 723.54431155298153 0 723.54431155298153 -169.345264363149 0 0 0 0 -982.38788547011791 676.82234099060588 0 676.82234099060588 -93.274653107834638 0 0 0 0 -486.40720554995642 693.46367569101801 0 693.46367569101801 -414.93037299120624 0 0 0 0 -790.90606909726557 10.189607325813881 0 10.189607325813881 -307.78688642264569 0 0 0 0 4.9184782102410907 20.14260844773878 0 20.14260844773878 -74.157722601589626 0 0 0 0 368.58473435823998 203.88209018417956 0 203.88209018417956 -104.34620983648347 0 0 0 0 14.940271700201265 117.05142027331203 0 117.05142027331203 -44.702577794909303 0 0 0 0 334.19571293860645 134.11273497261755 0 134.11273497261755 -18.623332426892375 0 0 0 0 394.08599165806845 697.53740234361521 0 697.53740234361521 233.15099413979988 0 0 0 0 1226.5718849469631 712.30403174106868 0 712.30403174106868 125.29796872596307 0 0 0 0 2.3417434227495875 -3.6006654091446251 0 -3.6006654091446251 3.0061877620914572 0 0 0 0 2.2542220873547194 187.87547195840239 0 187.87547195840239 -46.095272889517219 0 0 0 0 -854.76712148320803 258.26005334724687 0 258.26005334724687 157.28948037926602 0 0 0 0 -59.623406591061212 682.44801076257318 0 682.44801076257318 405.62855766606663 0 0 0 0 -1.9420365575412006 6.0784578680744517 0 6.0784578680744517 2.2075313210698795 0 0 0 0 -93.487676239165012 658.51706988025944 0 658.51706988025944 215.87343475731723 0 0 0 0 768.77270666912227 681.46330612287329 0 681.46330612287329 181.09328215632559 0 0 0 0 1134.2217673590894 1094.4887419191773 0 1094.4887419191773 448.76890383981663 0 0 0 0 -1539.6131727738975 234.12695368626919 0 234.12695368626919 863.82323094522144 0 0 0 0 -0.68021796641643562 1.9246153596652675 0 1.9246153596652675 2.6344070104385366 0 0 0 0 111.50569711512071 810.21504274666222 0 810.21504274666222 1161.1151020576399 0 0 0 0 24.269224718903445 73.776732418650312 0 73.776732418650312 17.962286272497632 0 0 0 0 366.23141135849073 359.98327621851877 0 359.98327621851877 203.09079868231493 0 0 0 0 61.883210607309593 87.085550040200587 0 87.085550040200587 51.013489138295654 0 0 0 0 -3.4953310236742254 93.44808349523737 0 93.44808349523737 62.940257226604444 0 0 0 0 -5.643343744431661 27.681869791393325 0 27.681869791393325 21.672997992783763 0 0 0 0 34.020114910711072 45.355442504309266 0 45.355442504309266 -3.075224575195179 0 0 0 0 -46.74836126754235 365.29581021086051 0 365.29581021086051 1063.0179753502489 0 0 0 0 -3.7549854579301609 8.9740942547458644 0 8.9740942547458644 66.769313249162224 0 0 0 0 281.00006726937136 280.59632462500304 0 280.59632462500304 442.1971346167702 0 0 0 0 -95.605915750777058 190.28322532919265 0 190.28322532919265 -37.213178415172479 0 0 0 0 350.7197013519035 405.08796204185637 0 405.08796204185637 432.84469755027931 0 0 0 0 -7.1487727410546853 12.144073862802912 0 12.144073862802912 20.428509390244898 0 0 0 0 -228.27264069936791 78.575898463723206 0 78.575898463723206 99.764904456598742 0 0 0 0 -70.184445178485248 65.497525611486878 0 65.497525611486878 11.72708620406873 0 0 0 0 -91.685046047045034 85.311757797800965 0 85.311757797800965 15.309145668276415 0 0 0 0 -68.76998828361684 68.369626717189021 0 68.369626717189021 39.330201655067071 0 0 0 0 -61.330465250244742 70.789782558753586 0 70.789782558753586 7.3325055671321024 0 0 0 0 -92.521970660291117 83.130103588814791 0 83.130103588814791 14.986997117059218 0 0 0 0 -85.779330713412492 92.435183529486494 0 92.435183529486494 -11.597035348278951 0 0 0 0 -109.16939903436287 88.382644549617908 0 88.382644549617908 13.425784198130714 0 0 0 0 -99.27546593338775 82.215967094927692 0 82.215967094927692 15.755294174076198 0 0 0 0 -16.563244058343429 28.70364246324641 0 28.70364246324641 32.23149163312172 0 0 0 0 -90.489920566738874 74.049578590675196 0 74.049578590675196 5.6175753913457811 0 0 0 0 -90.002371215974563 76.197762834077821 0 76.197762834077821 6.6661888751934839 0 0 0 0 -68.991689433474676 81.875578477993258 0 81.875578477993258 8.055487738861757 0 0 0 0 169.37269543831349 186.37698892452315 0 186.37698892452315 -3.8011997648295619 0 0 0 0 39.448792162758764 97.911954545576918 0 97.911954545576918 -77.400414301548153 0 0 0 0 -2.7111180172373395 22.249432088563026 0 22.249432088563026 -17.736240739580275 0 0 0 0 -37.04423047083057 75.640914487338136 0 75.640914487338136 26.881073532727282 0 0 0 0 -53.435397172230296 138.13994121548194 0 138.13994121548194 143.31680579640488 0 0 0 0 168.71640317410538 155.54046969234636 0 155.54046969234636 43.478230908715432 0 0 0 0 -35.192627671354842 3.2918895101315115 0 3.2918895101315115 3.8107435964818279 0 0 0 0 142.24864878191147 203.59042779950937 0 203.59042779950937 -27.011383617110369 0 0 0 0 -64.624867247053771 106.01852129439749 0 106.01852129439749 -39.170653876875804 0 0 0 0 39.453719374811044 59.952442933685234 0 59.952442933685234 26.478650084015669 0 0 0 0 -20.893616587222766 55.115281650928907 0 55.115281650928907 -30.673377349403925 0 0 0 0 52.847781883348944 118.59225813921398 0 118.59225813921398 152.65087046041822 0 0 0 0 -5.4409132926525956 8.183050988569903 0 8.183050988569903 -15.830725132465568 0 0 0 0 319.95522343046105 206.87017344293395 0 206.87017344293395 -78.199341075581742 0 0 0 0 -61.01499789916852 42.409509113089371 0 42.409509113089371 -2.6376741368840158 0 0 0 0 -25.68703315183474 53.905459645815512 0 53.905459645815512 -47.17941018090481 0 0 0 0 55.63617108285689 98.294391882955551 0 98.294391882955551 -82.805559797267051 0 0 0 0 32.86776095458481 30.804407788413073 0 30.804407788413073 77.092179754385143 0 0 0 0 -87.293390524326242 74.042223856481655 0 74.042223856481655 -3.8980077593232778 0 0 0 0 -56.28596469845138 20.188183564785568 0 20.188183564785568 42.633037790959293 0 0 0 0 -96.199523491537548 62.634059178666121 0 62.634059178666121 -7.4355981220624017 0 0 0 0 -75.590163210494211 71.396499750258954 0 71.396499750258954 -5.6274009446233322 0 0 0 0 -85.461317994791898 78.49504997817462 0 78.49504997817462 3.5113762745140775 0 0 0 0 -85.734614995089942 71.97002071633915 0 71.97002071633915 -3.7378235347346163 0 0 0 0 -99.57062332060741 111.52201619859852 0 111.52201619859852 -72.49122617233661 0 0 0 0 -71.253148463671096 44.940120679975735 0 44.940120679975735 27.48657612707575 0 0 0 0 -11.222156347830605 59.455664234846111 0 59.455664234846111 4.0844824324741715 0 0 0 0 -119.22146733459158 130.94314143160091 0 130.94314143160091 -47.999266099956003 0 0 0 0 36.230989784769292 34.32886173515422 0 34.32886173515422 -43.43134638694147 0 0 0 0 -112.48578807939339 112.09131907203482 0 112.09131907203482 -54.433010264971017 0 0 0 0 -89.945296872585459 112.6481351083803 0 112.6481351083803 -71.716686038027547 0 0 0 0 -86.649066287762253 79.138993246920109 0 79.138993246920109 -45.831285615556453 0 0 0 0 -58.338995798324163 14.588299999670355 0 14.588299999670355 39.032118778238477 0 0 0 0 -143.02839247394149 61.065094335848698 0 61.065094335848698 38.526666676842069 0 0 0 0 -75.402082945409347 57.306770096402488 0 57.306770096402488 -42.388296690755624 0 0 0 0 -87.658694841549732 38.07601342335397 0 38.07601342335397 -6.2835495892697963 0 0 0 0 -87.920536559453467 50.650779435051845 0 50.650779435051845 -49.005427062601825 0 0 0 0 -93.126324935568846 60.219204434213225 0 60.219204434213225 -16.403458354471013 0 0 0 0 -104.29745867979364 60.677783790586716 0 60.677783790586716 -26.113599162776154 0 0 0 0 -73.548207162733888 60.033044427177174 0 60.033044427177174 -30.461518500907914 0 0 0 0 -73.93513066459127 49.210949952495525 0 49.210949952495525 0.95300143962731454 0 0 0 0 -51.941366873121297 41.946655828938106 0 41.946655828938106 -13.257137704846173 0 0 0 0 -87.796218261559261 60.802381245208835 0 60.802381245208835 -12.482300007514823 0 0 0 0 -59.347940159845166 56.998154226293536 0 56.998154226293536 -13.830628133646883 0 0 0 0 -84.548741862192401 65.801257587376995 0 65.801257587376995 3.6900305866201961 0 0 0 0 -63.481069502377068 72.079661431492241 0 72.079661431492241 5.2429066011632131 0 0 0 0 -72.504018492237265 64.27015527782774 0 64.27015527782774 16.845909952621696 0 0 0 0 -44.300587492547493 39.21927894616374 0 39.21927894616374 3.8933551442501084 0 0 0 0 -46.906808140265639 50.830637094767098 0 50.830637094767098 47.547505207306131 0 0 0 0 -22.298359957894718 51.766012101260912 0 51.766012101260912 10.970517502074017 0 0 0 0 -33.618844875680225 65.815692282516693 0 65.815692282516693 15.191066351256723 0 0 0 0 -50.103578404141444 -101.96002571511769 0 -101.96002571511769 -12.288161575870618 0 0 0 0 519.73227511310324 791.45237473775751 0 791.45237473775751 -331.67332334810999 0 0 0 0 -10.963995972611386 29.269586465527468 0 29.269586465527468 -49.217670002774469 0 0 0 0 -217.68365717800043 -13.757283537349394 0 -13.757283537349394 87.260425897529785 0 0 0 0 -72.097461814177223 -42.732678012003817 0 -42.732678012003817 -167.32941942214597 0 0 0 0 -7.6951529687187588 11.085651573231564 0 11.085651573231564 -14.790457021514847 0 0 0 0 -0.92504448693958352 35.651028579790861 0 35.651028579790861 3.8864418256197375 0 0 0 0 -93.861399142129812 48.790337724341725 0 48.790337724341725 -146.75084880361055 0 0 0 0 -99.468262843794946 128.20227758723058 0 128.20227758723058 387.9302875066528 0 0 0 0 -11.3916695392668 32.099928886960868 0 32.099928886960868 -59.397029099870942 0 0 0 0 442.19628565576022 117.02971180603481 0 117.02971180603481 -303.15346760287866 0 0 0 0 239.19340811799339 198.69456819555239 0 198.69456819555239 -65.025089926385817 0 0 0 0 6.7962243105656128 24.953848007017172 0 24.953848007017172 -3.9159868165553107 0 0 0 0 -267.78890933637012 114.95028130559075 0 114.95028130559075 199.83815656316369 0 0 0 0 16.158126209491456 -98.418070448699041 0 -98.418070448699041 -61.022310431686719 0 0 0 0 -37.897882738194312 172.94442344772347 0 172.94442344772347 -31.537134500852062 0 0 0 0 -527.99640700383316 -33.901635197384167 0 -33.901635197384167 168.96038715956274 0 0 0 0 216.60068063028666 -118.12476964158395 0 -118.12476964158395 -255.21997713214296 0 0 0 0 -531.65971168648684 -29.002968651548144 0 -29.002968651548144 407.44751929931044 0 0 0 0 -339.38197795410815 -518.04481218290675 0 -518.04481218290675 878.67323902079534 0 0 0 0 92.401564897934804 307.88507065146496 0 307.88507065146496 178.47177354043015 0 0 0 0 -760.00278152038663 708.891766079028 0 708.891766079028 -163.55769167480685 0 0 0 0 -1100.716572616624 -446.18167431380198 0 -446.18167431380198 102.72235103841376 0 0 0 0 -734.40951596637024 556.44431011937286 0 556.44431011937286 -1168.8240808205619 0 0 0 0 -771.65857014999347 546.37336257163406 0 546.37336257163406 108.43058437067884 0 0 0 0 -38.87474572625797 487.1266052084211 0 487.1266052084211 -218.19130478876104 0 0 0 0 -59.777237221871474 497.37140779963829 0 497.37140779963829 50.821874971516081 0 0 0 0 -1.5250584199093282 207.85819474600794 0 207.85819474600794 106.18089197767586 0 0 0 0 -25.689958202216076 568.75202554416501 0 568.75202554416501 -87.820637005373101 0 0 0 0 33.476346090552397 351.25073551170135 0 351.25073551170135 -963.90164326946069 0 0 0 0 13.514000156363181 357.01058184529757 0 357.01058184529757 -210.26765328115289 0 0 0 0 0.98179650890233461 363.52416687822915 0 363.52416687822915 -204.31591048032305 0 0 0 0 -15.501185672175779 344.16217143680569 0 344.16217143680569 -204.39894514279513 0 0 0 0 398.2502267087475 266.58545472596415 0 266.58545472596415 -242.04232587202569 0 0 0 0 -117.8211346925309 428.88716560530156 0 428.88716560530156 110.39328369291616 0 0 0 0 -30.489253486499365 -250.89944119110532 0 -250.89944119110532 -260.12251066623139 0 0 0 0 -319.35901283626299 -24.52722611401532 0 -24.52722611401532 -414.17557671746181 0 0 0 0 -91.156055251543876 200.82685161594213 0 200.82685161594213 57.510253248583467 0 0 0 0 149.04214521900576 204.74452341178039 0 204.74452341178039 -20.028055332545591 0 0 0 0 -171.4874014500092 -261.73509323291637 0 -261.73509323291637 -182.99848941471282 0 0 0 0 -181.95320302423534 -17.934238103353891 0 -17.934238103353891 43.55626838743774 0 0 0 0 -2.7892881009147317 2.2073455626246385 0 2.2073455626246385 -3.994614201524989 0 0 0 0 549.22500987071544 -153.77726993609031 0 -153.77726993609031 -377.48950551152393 0 0 0 0 -1496.0468917750404 839.82383995489272 0 839.82383995489272 156.38565629789105 0 0 0 0 -422.44382454240258 -241.16724769859138 0 -241.16724769859138 388.33062939291449 0 0 0 0 -5.1475624949481471 7.7112956207873253 0 7.7112956207873253 -9.8470278348446669 0 0 0 0 158.34195248319884 -84.837856162495882 0 -84.837856162495882 -625.57244242363504 0 0 0 0 -1387.1800029879923 596.64632310568686 0 596.64632310568686 47.185260267559897 0 0 0 0 -747.65085818682564 491.85086545166132 0 491.85086545166132 -97.24844483283232 0 0 0 0 -165.60135956874001 -129.28452340236709 0 -129.28452340236709 -96.347225971178062 0 0 0 0 -790.83950177512452 1015.3360174278438 0 1015.3360174278438 -1421.2546715547544 0 0 0 0 -324.1426754524291 433.14662417370164 0 433.14662417370164 -600.25581392507252 0 0 0 0 -1140.3487645026835 1082.3118440569615 0 1082.3118440569615 -537.2731493492829 0 0 0 0 -2149.0384353539011 -464.41456705962844 0 -464.41456705962844 259.10254531076225 0 0 0 0 -39.819655336123105 90.727941031382898 0 90.727941031382898 -207.81888972006527 0 0 0 0 -6.8930740254951814 10.821049562488923 0 10.821049562488923 -7.8035759911566753 0 0 0 0 4.2136864704916661 1428.3431549273419 0 1428.3431549273419 -2748.449421988882 0 0 0 0 -2757.4521991382608 -775.89476859523279 0 -775.89476859523279 1848.3564741863884 0 0 0 0 1029.9036225124219 -23.309313473591828 0 -23.309313473591828 -513.72521280880028 0 0 0 0 -6.5791736364302906 13.037039742463861 0 13.037039742463861 -18.733752095806125 0 0 0 0 -271.02119761786162 40.890525660948697 0 40.890525660948697 61.207818955413131 0 0 0 0 -6.3946806190761549 14.44075360203982 0 14.44075360203982 -18.886950338237067 0 0 0 0 -65.879967804306943 -4.9280746783900042 0 -4.9280746783900042 4.1803724058354419 0 0 0 0 -64.755698409331671 -10.76357451251215 0 -10.76357451251215 30.704567182854589 0 0 0 0 71.515763845702168 -47.845176746215998 0 -47.845176746215998 -176.24725353989379 0 0 0 0 -134.60327250865521 -30.303970268218109 0 -30.303970268218109 32.498351697352973 0 0 0 0 -9.1387705518801425 16.324209308158444 0 16.324209308158444 -27.930773933408954 0 0 0 0 117.71971421087255 83.03943011100489 0 83.03943011100489 -42.917288683413517 0 0 0 0 -16.212936295127292 22.105725382414676 0 22.105725382414676 -1.3613958296227793 0 0 0 0 -6.5858083628700115 44.514000911047333 0 44.514000911047333 34.425511168135927 0 0 0 0 43.584407590880801 14.768112976704288 0 14.768112976704288 -9.0130277646203467 0 0 0 0 27.800863550226893 25.92439676968381 0 25.92439676968381 -1.9095181347737515 0 0 0 0 16.501969947625184 55.173991688182468 0 55.173991688182468 -15.900842254757663 0 0 0 0 26.186794253568223 74.090979952396083 0 74.090979952396083 8.9576569420860324 0 0 0 0 72.890498855136684 61.175414608680967 0 61.175414608680967 -79.17331065797498 0 0 0 0 -6.5495869166540217 23.954717332962986 0 23.954717332962986 -38.174189592358964 0 0 0 0 67.42017492256673 35.632236166877988 0 35.632236166877988 -50.792680135672526 0 0 0 0 106.8838694355436 24.157614837247365 0 24.157614837247365 -60.704074828913917 0 0 0 0 91.985108556582418 1.2208122764576501 0 1.2208122764576501 -23.930581749768862 0 0 0 0 -1.6923232121708338 8.4707706801049341 0 8.4707706801049341 -10.79706228700371 0 0 0 0 -34.775817528148764 59.380740174696712 0 59.380740174696712 212.53710112332743 0 0 0 0 39.915898061070038 49.94744467991336 0 49.94744467991336 -40.666029671780962 0 0 0 0 38.653413086132787 49.856630276548913 0 49.856630276548913 -40.543223985057011 0 0 0 0 -16.932950661351967 36.663011687728471 0 36.663011687728471 -34.818445719718923 0 0 0 0 6.6231056928882026 84.467120401522152 0 84.467120401522152 77.085215677199812 0 0 0 0 19.540553905244451 174.54321772176354 0 174.54321772176354 -7.7773723026048174 0 0 0 0 144.43585504311341 139.98262178500818 0 139.98262178500818 -77.845082247125902 0 0 0 0 183.61623863346176 157.76331327445223 0 157.76331327445223 -80.413062989526225 0 0 0 0 48.343250841724512 54.562336353159026 0 54.562336353159026 -36.307525789399051 0 0 0 0 125.02462600760919 123.72645952283438 0 123.72645952283438 -62.068501680259942 0 0 0 0 -1.3856321325528 44.384957849177987 0 44.384957849177987 -40.812534953003883 0 0 0 0 -93.011197949643247 260.19921993412936 0 260.19921993412936 187.52586930824395 0 0 0 0 13.676630901856697 161.71691734009346 0 161.71691734009346 42.110031656271531 0 0 0 0 126.00181533867726 144.47980232504415 0 144.47980232504415 -78.919693352781906 0 0 0 0 81.006452356203226 149.84969951747553 0 149.84969951747553 -52.195977977287839 0 0 0 0 -166.82750658295117 307.09579664798457 0 307.09579664798457 -73.708770884768455 0 0 0 0 10.418646517617162 154.10281309418497 0 154.10281309418497 -200.7798398990235 0 0 0 0 -762.64767591396958 50.377212752903688 0 50.377212752903688 71.232605230456102 0 0 0 0 -300.42773043794568 -253.64780188115742 0 -253.64780188115742 78.90906317867757 0 0 0 0 -708.28397830962786 -8.1463252689627552 0 -8.1463252689627552 90.894256883955677 0 0 0 0 748.50291221428051 -248.8368828285802 0 -248.8368828285802 -111.51754351099407 0 0 0 0 810.189259543753 65.5710834884012 0 65.5710834884012 -275.10942704263289 0 0 0 0 -2.2334000277998101 5.7507986145750323 0 5.7507986145750323 -9.744330994120677 0 0 0 0 179.63169941920205 -320.25427100625325 0 -320.25427100625325 17.555586363097063 0 0 0 0 136.52292740674602 -549.38353506933561 0 -549.38353506933561 398.30381828169811 0 0 0 0 38.971396788590937 61.609246198639994 0 61.609246198639994 -96.290289889529959 0 0 0 0 -371.09100247626702 191.26528009214167 0 191.26528009214167 412.44739223046417 0 0 0 0 -923.16728789034778 194.82781446577613 0 194.82781446577613 1127.9336012321455 0 0 0 0 -964.79937062204408 911.36706511286866 0 911.36706511286866 71.343692023961921 0 0 0 0 -29.557303797864733 264.96315286033791 0 264.96315286033791 -88.245624722347202 0 0 0 0 -75.8625790267306 147.81993634206628 0 147.81993634206628 -31.172870588601654 0 0 0 0 27.01630737294181 78.65533024679462 0 78.65533024679462 -7.8060896512652107 0 0 0 0 31.782682326331269 5.1137488166568801 0 5.1137488166568801 42.914908331244078 0 0 0 0 27.964832964920788 70.420195765855169 0 70.420195765855169 -59.913948238721787 0 0 0 0 -46.533808096025496 87.24573612914628 0 87.24573612914628 40.613174047743087 0 0 0 0 -49.84449707449221 65.826094667137113 0 65.826094667137113 -12.865959899907466 0 0 0 0 -18.604026277298544 79.133627331088064 0 79.133627331088064 -27.694297304486099 0 0 0 0 -9.3077540170243083 35.721202192095006 0 35.721202192095006 -58.48862491264299 0 0 0 0 -23.813653643068392 55.198016255648326 0 55.198016255648326 -86.602588866917358 0 0 0 0 -7.5187940593314124 28.250075933510743 0 28.250075933510743 -41.383727068244298 0 0 0 0 -12.34714722726774 17.349278792032194 0 17.349278792032194 7.9999090766492351 0 0 0 0 -0.77205274273001123 32.083602970602442 0 32.083602970602442 -23.27687788205003 0 0 0 0 61.902292347307593 55.055902136621626 0 55.055902136621626 -83.386479616456199 0 0 0 0 0.91037473516675504 24.96723541825688 0 24.96723541825688 -10.480636062194346 0 0 0 0 -1.4761552321343103 11.529938762883141 0 11.529938762883141 -18.236618988308166 0 0 0 0 -0.77205274271545932 32.083602970604261 0 32.083602970604261 -23.27687788205003 0 0 0 0 47.836954779104417 34.837765210491852 0 34.837765210491852 -111.89454255917371 0 0 0 0 6.6144030998368208 24.40235166717801 0 24.40235166717801 -11.106964931299618 0 0 0 0 19.864341147102095 28.129691672326771 0 28.129691672326771 -18.824684348899609 0 0 0 0 -1.7899056831818001 27.599572028897988 0 27.599572028897988 -31.826763583468125 0 0 0 0 12.925467482780206 29.418884337455054 0 29.418884337455054 -20.906995747763329 0 0 0 0 37.580446861829842 53.148998828142339 0 53.148998828142339 -36.389994576672507 0 0 0 0 41.007635676705831 49.685468610473663 0 49.685468610473663 -33.109535769362083 0 0 0 0 39.62128686671349 52.465087752681484 0 52.465087752681484 -35.203101123023316 0 0 0 0 41.58677225343672 49.555429702008041 0 49.555429702008041 -43.649126001117111 0 0 0 0 36.31746266787377 45.589645535019372 0 45.589645535019372 -42.646347506758502 0 0 0 0 152.5373432557426 31.768172152946136 0 31.768172152946136 -134.05478270048479 0 0 0 0 6.7448352836310619 23.433166412943535 0 23.433166412943535 -35.55324611000988 0 0 0 0 5.2472679900243051 29.308476040745475 0 29.308476040745475 -24.647538266831582 0 0 0 0 29.625954852728682 32.189706948057164 0 32.189706948057164 -26.531284420951124 0 0 0 0 2.2244618164768326 37.357199553340251 0 37.357199553340251 -27.488879091320996 0 0 0 0 17.360495983159076 21.048269171487043 0 21.048269171487043 -24.072589517077148 0 0 0 0 2.1152512649339172 11.770204006318409 0 11.770204006318409 -11.007771826055979 0 0 0 0 44.824627243680879 22.88888664934484 0 22.88888664934484 -95.840082562621319 0 0 0 0 57.599959246152139 51.789406186254382 0 51.789406186254382 -46.649124102244969 0 0 0 0 27.179414042541566 23.272185842329115 0 23.272185842329115 -9.4268425669164202 0 0 0 0 199.30431448098534 -220.48125054653792 0 -220.48125054653792 80.058530774539463 0 0 0 0 -7.3103064750477387 11.353228469214137 0 11.353228469214137 -1.316349209366976 0 0 0 0 -424.97362406211323 3.3469017152783636 0 3.3469017152783636 93.14394038737737 0 0 0 0 -0.6277303424327183 -2.9082967429555708 0 -2.9082967429555708 -3.5782509627556607 0 0 0 0 178.11545268404461 -27.084756099636706 0 -27.084756099636706 -102.46929012828332 0 0 0 0 452.60236979890033 122.0133926183089 0 122.0133926183089 -368.82880074940476 0 0 0 0 -417.62130567816348 188.86529142892869 0 188.86529142892869 125.75995269952182 0 0 0 0 142.44799692504967 45.09770474009747 0 45.09770474009747 -245.59863888307154 0 0 0 0 87.067349841268879 75.387662280907534 0 75.387662280907534 -70.954150333234793 0 0 0 0 62.658384495760401 180.33992387114131 0 180.33992387114131 -263.35122630219848 0 0 0 0 271.07754889611533 63.739915208549064 0 63.739915208549064 -251.4877742547078 0 0 0 0 73.444517222586001 138.28852775901942 0 138.28852775901942 -112.09334908405799 0 0 0 0 130.21853487909448 193.02245682156354 0 193.02245682156354 -79.840156940041197 0 0 0 0 -8.9142569746614768 7.2537046161400536 0 7.2537046161400536 -7.4630607327181124 0 0 0 0 -98.694583940285156 -235.58281503832222 0 -235.58281503832222 240.63179116519677 0 0 0 0 107.76449595458689 255.06496431655796 0 255.06496431655796 123.57006824313862 0 0 0 0 70.572729337320197 56.520862629644398 0 56.520862629644398 148.42487488093775 0 0 0 0 204.46823944954667 216.26750588446976 0 216.26750588446976 -140.27025983265776 0 0 0 0 22.517964947840909 34.067263310296795 0 34.067263310296795 -24.157723365393366 0 0 0 0 -13.381088655522035 119.69473791889322 0 119.69473791889322 132.90018784151471 0 0 0 0 -44.977515181990384 58.986887836003916 0 58.986887836003916 24.807062852145464 0 0 0 0 114.3848409170605 141.97679672414233 0 141.97679672414233 8.597632361424985 0 0 0 0 135.51382963050855 92.739977886816632 0 92.739977886816632 -230.6869617262455 0 0 0 0 106.16558036930655 3.0623324395182863 0 3.0623324395182863 -196.17166174042904 0 0 0 0 -33.798906961197645 66.978150430673395 0 66.978150430673395 11.500682934973156 0 0 0 0 75.936760779200995 42.464790558127788 0 42.464790558127788 -108.10266595785833 0 0 0 0 13.464995209906022 20.510905840725513 0 20.510905840725513 -21.035833877341432 0 0 0 0 19.897104839984834 39.701782349427987 0 39.701782349427987 -20.800831726429905 0 0 0 0 118.19292685299297 110.03072545277246 0 110.03072545277246 -93.375105296195215 0 0 0 0 35.159895181604952 69.886892839906068 0 69.886892839906068 -103.79249764383985 0 0 0 0 102.45653452860279 116.21732666136086 0 116.21732666136086 -94.145005246467008 0 0 0 0 29.352434036798513 26.327314066691542 0 26.327314066691542 10.696325087992591 0 0 0 0 86.395375226595206 86.594596560214995 0 86.594596560214995 -1.119359432879719 0 0 0 0 159.61109930279781 111.60464702190075 0 111.60464702190075 -95.14041434480896 0 0 0 0 173.4048172219309 47.417963306339516 0 47.417963306339516 -27.440325703486451 0 0 0 0 33.428540312161203 62.03282006113659 0 62.03282006113659 -19.212526645538674 0 0 0 0 174.90512305942684 102.69192753440802 0 102.69192753440802 -54.753342367152072 0 0 0 0 -1.1134526603127597 48.019301196010929 0 48.019301196010929 -38.69777592565697 0 0 0 0 16.581332159317753 63.548021544468384 0 63.548021544468384 -30.46992788699572 0 0 0 0 10.271899553340461 16.527752365776863 0 16.527752365776863 -7.6871542833432809 0 0 0 0 -25.84714853890182 65.236613637858682 0 65.236613637858682 3.4852541384316282 0 0 0 0 33.651401675262605 80.989677423717694 0 80.989677423717694 -14.976809528183367 0 0 0 0 55.070313981304935 195.39434198830941 0 195.39434198830941 257.47148218919938 0 0 0 0 6.2175437653520191 -1.4170035502232494 0 -1.4170035502232494 0.30351668057248382 0 0 0 0 213.28577885558479 -16.110255408109879 0 -16.110255408109879 -113.78117046207626 0 0 0 0 -8.2713011717787595 47.300454448124583 0 47.300454448124583 -121.58883311421596 0 0 0 0 59.866504023622838 -32.221772372939995 0 -32.221772372939995 -48.962736695953936 0 0 0 0 121.71817010473751 174.09621597643127 0 174.09621597643127 -26.018805058066391 0 0 0 0 62.53341357325553 17.360382031987683 0 17.360382031987683 -32.063624639187765 0 0 0 0 76.01975112719083 114.54148412439099 0 114.54148412439099 -46.417762677587234 0 0 0 0 1.8817554746937049 17.584151280430206 0 17.584151280430206 -14.628583912586983 0 0 0 0 93.259480196056757 154.5028037944553 0 154.5028037944553 -28.333201828430902 0 0 0 0 -587.76879415661097 82.743314235174694 0 82.743314235174694 84.325407741696836 0 0 0 0 3.5554138637380674 -160.64975574764867 0 -160.64975574764867 75.455423131863881 0 0 0 0 -7.2042126144602037 3.1281002087198644 0 3.1281002087198644 -2.9442153077171298 0 0 0 0 -131.03622396310675 14.085818262070461 0 14.085818262070461 89.798183061033342 0 0 0 0 -333.88989589414268 306.74918005774271 0 306.74918005774271 -62.300395480057887 0 0 0 0 15.093003401484182 18.339208031067891 0 18.339208031067891 -19.253268149375117 0 0 0 0 38.587159530121482 15.959646507634012 0 15.959646507634012 -10.291218618727189 0 0 0 0 11.363345534526161 32.726905568822986 0 32.726905568822986 -21.424599626027884 0 0 0 0 9.9215630934850196 363.74862042587847 0 363.74862042587847 145.4591231731174 0 0 0 0 9.3502558553833524 23.652146312133894 0 23.652146312133894 -9.6256183794893673 0 0 0 0 62.533413573259168 17.360382031976769 0 17.360382031976769 -32.063624639227783 0 0 0 0 62.53341357325553 17.360382031989502 0 17.360382031989502 -32.063624639204136 0 0 0 0 17.295607061234477 71.210233036528734 0 71.210233036528734 -286.94653615699917 0 0 0 0 -16.693573507695021 23.450041341092142 0 23.450041341092142 -19.940950238864424 0 0 0 0 -42.742145753123623 93.520591817439708 0 93.520591817439708 3.3764413908793358 0 0 0 0 -6.2843979925928437 6.0436725997959684 0 6.0436725997959684 0.62581243011723586 0 0 0 0 544.27260238750478 214.34313363497859 0 214.34313363497859 89.270861282631813 0 0 0 0 -124.51434247681027 488.52511796276667 0 488.52511796276667 10.978935338030169 0 0 0 0 51.657905596228375 735.31788703502025 0 735.31788703502025 -85.389831907184998 0 0 0 0 237.61280638181779 190.53252336962032 0 190.53252336962032 -1070.0891921736738 0 0 0 0 7.8494200985642237 600.87086618922058 0 600.87086618922058 739.01218055494246 0 0 0 0 129.35640245020022 37.077695603190477 0 37.077695603190477 170.42358237792359 0 0 0 0 -8.9862267053067626 85.303012632430182 0 85.303012632430182 -179.91643936326 0 0 0 0 29.011812573628234 12.098515377517842 0 12.098515377517842 0.95139666538717194 0 0 0 0 2.6336059399945952 86.283668859219688 0 86.283668859219688 -181.3060120580958 0 0 0 0 -10.073598692200903 153.88205650249074 0 153.88205650249074 729.04242163557501 0 0 0 0 3.2334531523192709 -26.280565035300242 0 -26.280565035300242 -325.67990061626188 0 0 0 0 7.4071739762055842 4.115323720658278 0 4.115323720658278 -3.4544845945451783 0 0 0 0 1129.496069676381 -301.37982408249809 0 -301.37982408249809 -18.685348799770509 0 0 0 0 10.046336129929827 5.3743678627856468 0 5.3743678627856468 3.5507134602055004 0 0 0 0 328.39664890854328 -332.69076017794214 0 -332.69076017794214 95.350164897929062 0 0 0 0 106.88442749850219 258.83782739564231 0 258.83782739564231 390.73809897532192 0 0 0 0 147.26121493403025 589.05751134430557 0 589.05751134430557 2389.2531063914867 0 0 0 0 1671.2288299279171 513.23556135317449 0 513.23556135317449 2418.3681249793153 0 0 0 0 -15.945300134128047 -225.28434497014314 0 -225.28434497014314 355.83594966388955 0 0 0 0 1511.884001031849 1388.3865582785147 0 1388.3865582785147 589.82438909460325 0 0 0 0 0.99671395621786019 0.097082113771278955 0 0.097082113771278955 7.6989678485387003 0 0 0 0 -97.287873009052419 2.2543977892546536 0 2.2543977892546536 386.55582790376502 0 0 0 0 105.97021934061195 27.686012462520011 0 27.686012462520011 243.04046073637619 0 0 0 0 106.0556455280821 4.1896020560234319 0 4.1896020560234319 -70.964621253117002 0 0 0 0 -112.74126167950271 -74.830852927829255 0 -74.830852927829255 451.07297446066877 0 0 0 0 -123.93106748053015 -124.76592955702836 0 -124.76592955702836 1055.6917802777243 0 0 0 0 72.79811462113139 667.06335010584735 0 667.06335010584735 1325.7378543042832 0 0 0 0 -83.787705487271523 273.58321752685606 0 273.58321752685606 341.86200912624918 0 0 0 0 2132.4173280639188 537.23856746312231 0 537.23856746312231 -29.264863273558149 0 0 0 0 936.27187424241856 141.22259402376949 0 141.22259402376949 -131.41620401772889 0 0 0 0 703.34666275755808 -49.266310634328875 0 -49.266310634328875 -210.34777354911785 0 0 0 0 1069.7709315264874 75.41739307507487 0 75.41739307507487 -191.69456431906292 0 0 0 0 377.50526217224979 324.7214182228563 0 324.7214182228563 20.438540115189994 0 0 0 0 1299.3354738750531 641.51489025041337 0 641.51489025041337 30.497837481663737 0 0 0 0 856.38619418842063 115.12478715377529 0 115.12478715377529 -431.97708250927826 0 0 0 0 -208.78205843338219 443.96016413808866 0 443.96016413808866 389.32175975079372 0 0 0 0 425.63321427126721 348.69411960199886 0 348.69411960199886 -226.97481842437264 0 0 0 0 -447.22738442708578 359.37975689895393 0 359.37975689895393 -205.27592598789397 0 0 0 0 340.06953481608252 -114.52484001332778 0 -114.52484001332778 -758.80582257383139 0 0 0 0 689.33496594004828 264.62868046893163 0 264.62868046893163 -199.40510577444365 0 0 0 0 707.34118649341326 267.2929791004899 0 267.2929791004899 -462.06684123120795 0 0 0 0 1151.6955369019452 542.88692343823641 0 542.88692343823641 -663.34971750105615 0 0 0 0 -1.1763901335829985 6.0943618692978134 0 6.0943618692978134 1.2583902653429107 0 0 0 0 -284.95960922479571 362.94663660684273 0 362.94663660684273 -171.7861313238451 0 0 0 0 -9.4885816448004334 6.2717782180880022 0 6.2717782180880022 153.40436485141981 0 0 0 0 62.884620091695979 21.801386980849202 0 21.801386980849202 -45.5722268792018 0 0 0 0 158.16200911021224 211.43467146112744 0 211.43467146112744 -45.881093311283578 0 0 0 0 25.352783957108841 -9.9782526258422877 0 -9.9782526258422877 -41.790652603740455 0 0 0 0 3.7444016253793961 18.049451889532065 0 18.049451889532065 -7.7013851534866262 0 0 0 0 44.280086372113146 15.998853810733635 0 15.998853810733635 -51.416594784444897 0 0 0 0 -63.018632799838088 64.61303555376071 0 64.61303555376071 -72.791209007933503 0 0 0 0 -16.789143480136772 -14.789403433808729 0 -14.789403433808729 -42.141958662512479 0 0 0 0 -66.527428741555923 11.962769679888879 0 11.962769679888879 24.880105215102958 0 0 0 0 400.17353868703867 147.73254090961564 0 147.73254090961564 -246.17376141605564 0 0 0 0 63.9810937132861 6.6593128910317319 0 6.6593128910317319 -151.15729935873446 0 0 0 0 239.55614460369543 -158.32003299166536 0 -158.32003299166536 -35.220713636328583 0 0 0 0 -1.1414813739347522 3.8219548618637802 0 3.8219548618637802 4.3524226718822874 0 0 0 0 -667.52536421523632 387.34014216008035 0 387.34014216008035 -610.97378073374057 0 0 0 0 -300.98881473763322 251.46386370687105 0 251.46386370687105 814.0704007884251 0 0 0 0 -269.25739735246498 -41.453294983240994 0 -41.453294983240994 955.26180125020619 0 0 0 0 -225.36435121710019 255.23848531501244 0 255.23848531501244 581.452629975538 0 0 0 0 -215.97649382709278 155.99904436811994 0 155.99904436811994 677.24488685761207 0 0 0 0 -278.17622612044943 307.28965710849661 0 307.28965710849661 497.53617085829683 0 0 0 0 -253.1036877142833 339.69004200549716 0 339.69004200549716 528.91881980043581 0 0 0 0 -170.01213721837667 45.129346856303528 0 45.129346856303528 570.64241294495969 0 0 0 0 -377.24586608439677 162.30664425073519 0 162.30664425073519 495.22794180785786 0 0 0 0 -207.51234950264097 211.19630673882421 0 211.19630673882421 149.68448099346278 0 0 0 0 -168.31595626455237 174.49173196940683 0 174.49173196940683 495.7219463450856 0 0 0 0 -268.81114410992632 255.9235391800853 0 255.9235391800853 431.18360581641537 0 0 0 0 -161.39486637951723 149.29545202270356 0 149.29545202270356 379.40349987299851 0 0 0 0 -321.35706996041699 132.85552838960939 0 132.85552838960939 784.17711838092509 0 0 0 0 -281.5831079213458 240.79932922777698 0 240.79932922777698 251.00642023169712 0 0 0 0 -121.35613160254252 333.3597127786079 0 333.3597127786079 -464.54530735697699 0 0 0 0 -405.85190684583358 165.03823143807313 0 165.03823143807313 221.84028392300661 0 0 0 0 -205.75941126878342 837.45186436817494 0 837.45186436817494 -628.66641690122196 0 0 0 0 -171.23725146461402 143.27087382379432 0 143.27087382379432 -99.706241146619504 0 0 0 0 6.8545459762522825 9.571080578464489 0 9.571080578464489 6.8601632675499715 0 0 0 0 -255.78778665616483 284.64291909228996 0 284.64291909228996 -228.95361883191617 0 0 0 0 -367.75269981545785 388.21496085999183 0 388.21496085999183 71.692842918884708 0 0 0 0 2.133399751422715 8.478911832842833 0 8.478911832842833 7.7342964563186385 0 0 0 0 -259.36791320423617 328.12635211805627 0 328.12635211805627 -270.32143835926217 0 0 0 0 -270.74348152367884 377.2386767542298 0 377.2386767542298 -365.04606151908956 0 0 0 0 -508.5880518615013 374.60519562778973 0 374.60519562778973 -127.74095124116502 0 0 0 0 -470.39983598592517 605.2798100526561 0 605.2798100526561 -615.39775722995773 0 0 0 0 -10.327851193009337 5.4924039645419782 0 5.4924039645419782 6.2559624797602247 0 0 0 0 -141.54405454059088 114.91985046737682 0 114.91985046737682 -32.331020215201534 0 0 0 0 -16.719335774356296 77.126897835260024 0 77.126897835260024 51.269433742834281 0 0 0 0 -214.73583370620327 195.4795419670736 0 195.4795419670736 -42.519405449529586 0 0 0 0 -133.04975796348481 186.21890466400828 0 186.21890466400828 -139.71421512536472 0 0 0 0 -384.45159421728658 344.82062332531041 0 344.82062332531041 -159.06908728387498 0 0 0 0 -350.9552434344514 380.5450945015873 0 380.5450945015873 -216.05334155176388 0 0 0 0 -480.34652880798967 407.36937567267978 0 407.36937567267978 -196.62474383693188 0 0 0 0 -271.72723719511305 449.93071073313331 0 449.93071073313331 -567.48385442408107 0 0 0 0 -3.5193920820680802 0.15409453893689573 0 0.15409453893689573 -0.29238979701052514 0 0 0 0 -81.185484778444334 180.65517875239766 0 180.65517875239766 -190.37534766597673 0 0 0 0 -378.88650732341603 150.39996381267338 0 150.39996381267338 -143.35955317299522 0 0 0 0 -154.3646761290529 275.80204119355585 0 275.80204119355585 -166.06850662662418 0 0 0 0 -69.488946487961584 578.87092827299693 0 578.87092827299693 70.588355247073196 0 0 0 0 -146.33037469163173 428.82345978032117 0 428.82345978032117 -183.08105743831766 0 0 0 0 172.44375623224369 434.98989438901845 0 434.98989438901845 -183.94246204581577 0 0 0 0 27.265412770773764 497.87962421983411 0 497.87962421983411 -104.24223952131433 0 0 0 0 -94.832647983124843 198.84419940713633 0 198.84419940713633 -111.90560133012696 0 0 0 0 -105.38165641968226 173.28449414380702 0 173.28449414380702 -36.093551842982379 0 0 0 0 -457.08397190230971 248.00035339548594 0 248.00035339548594 22.249304262404621 0 0 0 0 -156.78095428490269 473.31783857157825 0 473.31783857157825 -318.39539011997658 0 0 0 0 -254.42823953356128 -16.908668332482193 0 -16.908668332482193 197.44144272659059 0 0 0 0 -6.4632455162754923 40.475513408375264 0 40.475513408375264 -28.771787053246953 0 0 0 0 10.28909008204846 12.980092482862482 0 12.980092482862482 16.235067871486891 0 0 0 0 -31.480400462289253 99.808083939253265 0 99.808083939253265 -19.488860808262643 0 0 0 0 -133.67297244011525 56.029847116992187 0 56.029847116992187 -29.12927080758891 0 0 0 0 2.7459212131998356 37.587737353966077 0 37.587737353966077 -30.370628385848249 0 0 0 0 7.8834918829818434 50.691376029692719 0 50.691376029692719 -38.095775221070653 0 0 0 0 16.885770494321939 22.531228522107625 0 22.531228522107625 20.999339147203571 0 0 0 0 38.232971283172446 153.25126029340254 0 153.25126029340254 169.53400447330205 0 0 0 0 -3.4283657307224473 7.111968323330295 0 7.111968323330295 26.047380304181686 0 0 0 0 -270.00134408185113 -320.83417046814429 0 -320.83417046814429 -552.80424555686113 0 0 0 0 -53.589641119939188 412.95402022485723 0 412.95402022485723 -216.30852051558941 0 0 0 0 -86.220400388199778 231.40207447766079 0 231.40207447766079 158.03236882665806 0 0 0 0 -85.412232971611957 238.01847077723505 0 238.01847077723505 44.377779671158351 0 0 0 0 31.723466279934655 -7.3112744204427145 0 -7.3112744204427145 -563.98581230517448 0 0 0 0 9.0039793219839339 70.895529488512693 0 70.895529488512693 -158.44391772907693 0 0 0 0 -1.7281422288633266 2.6763021475257531 0 2.6763021475257531 -3.9163210762227862 0 0 0 0 -498.65021150265966 119.39784672293172 0 119.39784672293172 142.79522158465261 0 0 0 0 -439.41687158026252 282.18190061700534 0 282.18190061700534 218.48007502074324 0 0 0 0 -527.28381642962358 229.48841953143392 0 229.48841953143392 320.71119324194296 0 0 0 0 1029.7103560477044 604.2916377819347 0 604.2916377819347 -243.2611994537292 0 0 0 0 4.6489481856994104 4.2489427886324833 0 4.2489427886324833 2.5139576035269684 0 0 0 0 910.64405113275279 325.48984079515503 0 325.48984079515503 -895.67697910849438 0 0 0 0 -13.25597318477412 367.41577892887835 0 367.41577892887835 542.76145548428758 0 0 0 0 -60.617438206783845 166.53397827961726 0 166.53397827961726 -48.496816195005522 0 0 0 0 0.4337539621230988 7.2568623109664934 0 7.2568623109664934 -29.382197095295609 0 0 0 0 857.27886741060138 -33.326929869434025 0 -33.326929869434025 512.89395741286717 0 0 0 0 752.96289608221923 449.80852643892104 0 449.80852643892104 -14.466456862743144 0 0 0 0 -114.15641065624732 301.07806045317557 0 301.07806045317557 127.23283650722442 0 0 0 0 -23.461186630458542 647.12361595671791 0 647.12361595671791 -190.65889260220865 0 0 0 0 21.510461056619533 464.68563851398358 0 464.68563851398358 -273.60413729318316 0 0 0 0 -68.292113450259421 694.85457807597868 0 694.85457807597868 -855.58274991171493 0 0 0 0 280.60856491346021 -96.449751094626663 0 -96.449751094626663 -555.17444947176955 0 0 0 0 0.0014878597146612549 1.2420815167773895 0 1.2420815167773895 -11.838824179856189 0 0 0 0 -422.13830954255172 544.1443279137402 0 544.1443279137402 -64.597131608825293 0 0 0 0 463.22165514777936 -60.455466215082623 0 -60.455466215082623 -784.768188832124 0 0 0 0 455.10283601811886 233.39403600924885 0 233.39403600924885 -947.37227304479165 0 0 0 0 -16.710490405333985 198.98420858255122 0 198.98420858255122 149.07024112504041 0 0 0 0 -162.29492052918795 493.22151396833488 0 493.22151396833488 -444.35585889191498 0 0 0 0 -7.3055365191911861 4.2937743991724417 0 4.2937743991724417 16.912206225106374 0 0 0 0 -66.030449829624558 58.61030164649128 0 58.61030164649128 80.904415082371997 0 0 0 0 -1311.0678268914926 -1483.302756822317 0 -1483.302756822317 171.97925416292856 0 0 0 0 -77.918375681365433 117.39710021428982 0 117.39710021428982 11.790546917975007 0 0 0 0 -82.73255368633545 126.80918400236988 0 126.80918400236988 165.8314845601908 0 0 0 0 -66.240005604446196 41.95483289981712 0 41.95483289981712 -14.940166461856279 0 0 0 0 -49.456425422918983 2994.2240694952052 0 2994.2240694952052 -966.16794545564699 0 0 0 0 -49.456425422962639 2994.2240694951579 0 2994.2240694951579 -966.16794545570156 0 0 0 0 11.536003335100794 8.0208442629403791 0 8.0208442629403791 -21.259402492610391 0 0 0 0 1324.573614208759 482.37704999556445 0 482.37704999556445 -601.93862785970123 0 0 0 0 -49.456425422962639 2994.2240694951834 0 2994.2240694951834 -966.16794545555604 0 0 0 0 -810.45689174109975 529.53533111692514 0 529.53533111692514 39.765533067507931 0 0 0 0 -6.7568572946035275 12.308768403324915 0 12.308768403324915 -19.91087186317408 0 0 0 0 -2308.6395101790786 950.57507703738474 0 950.57507703738474 626.77050759983285 0 0 0 0 -836.5852510839859 415.03448672111438 0 415.03448672111438 236.2386138999791 0 0 0 0 -773.53117845865927 302.78064133883231 0 302.78064133883231 268.94581495286548 0 0 0 0 -733.34626736078462 404.38827109100475 0 404.38827109100475 128.34111394895081 0 0 0 0 -117.31315557732523 206.0462451908179 0 206.0462451908179 -70.558038566612595 0 0 0 0 -12.688400892000772 28.007772159897868 0 28.007772159897868 -58.620191273799591 0 0 0 0 377.04939407271559 988.63481751144832 0 988.63481751144832 -154.19368716003009 0 0 0 0 578.65470426750471 388.70239022824171 0 388.70239022824171 -62.642694167774607 0 0 0 0 782.30364735821422 101.9760933006346 0 101.9760933006346 -895.74773484942671 0 0 0 0 605.11746791317637 -103.82093785214693 0 -103.82093785214693 -774.15241531101492 0 0 0 0 -399.05526549777278 496.81754895996892 0 496.81754895996892 12.98805319078383 0 0 0 0 -459.31259063645484 -183.1530959824504 0 -183.1530959824504 -214.63256218151946 0 0 0 0 -202.2185591675161 66.867221028804124 0 66.867221028804124 69.737844128787401 0 0 0 0 -194.8871303327569 82.659943020839819 0 82.659943020839819 37.980217592757981 0 0 0 0 -83.214749370209574 80.911223942861398 0 80.911223942861398 -214.35160810544039 0 0 0 0 -241.67170038688346 141.19835816888008 0 141.19835816888008 7.9319066526823008 0 0 0 0 -68.747496469542966 5.8945124846786712 0 5.8945124846786712 -98.379855990118813 0 0 0 0 -22.881359793631418 -104.66949864656635 0 -104.66949864656635 31.682410258548771 0 0 0 0 -393.97530310096136 193.93628381006693 0 193.93628381006693 226.83369270350522 0 0 0 0 -357.03536078474644 275.02605011423475 0 275.02605011423475 -118.13976856754743 0 0 0 0 -55.993605259074684 62.95802460926825 0 62.95802460926825 137.50371604478278 0 0 0 0 212.64656430032574 644.40137704321205 0 644.40137704321205 -280.07879274684819 0 0 0 0 -37.118796762006241 174.59433117245862 0 174.59433117245862 -303.14129436041549 0 0 0 0 0.60563580178913412 15.142523589002996 0 15.142523589002996 30.19991397857531 0 0 0 0 32.633049667612795 24.92161672284692 0 24.92161672284692 -269.16035955316329 0 0 0 0 21.579891745084751 34.009741348170792 0 34.009741348170792 -194.05014683234549 0 0 0 0 -28.027332169914466 35.916832275724737 0 35.916832275724737 -3.4114028966407286 0 0 0 0 -37.732381402448482 149.04071085571707 0 149.04071085571707 116.70036902646552 0 0 0 0 -91.377883984405344 59.152278365816983 0 59.152278365816983 63.206830266587531 0 0 0 0 0.53838232151396426 72.492693057295028 0 72.492693057295028 24.946781353472087 0 0 0 0 7.6940934770545937 46.924400773441562 0 46.924400773441562 46.398955157717864 0 0 0 0 62.844746947623207 38.315332071805642 0 38.315332071805642 -108.79025663700713 0 0 0 0 256.00406743851636 -571.66593892102355 0 -571.66593892102355 268.04468584082042 0 0 0 0 29.028893891511032 23.54837433527873 0 23.54837433527873 0.46463646343349657 0 0 0 0 308.76922853487486 -845.66599776158398 0 -845.66599776158398 -1288.2194422075245 0 0 0 0 24.775497869261017 786.06577575743199 0 786.06577575743199 -1634.4193648459759 0 0 0 0 -1241.1808094528724 1095.1965060079378 0 1095.1965060079378 -251.66214487744583 0 0 0 0 -9.1189863697270468 51.23821794941685 0 51.23821794941685 -73.397428705259799 0 0 0 0 1006.9280576736801 159.87802835815285 0 159.87802835815285 -527.78906258224879 0 0 0 0 495.30457950242271 -52.68693166072535 0 -52.68693166072535 -291.07965635498164 0 0 0 0 14.287837144078367 190.89735380379898 0 190.89735380379898 190.03403394351153 0 0 0 0 18.988889417501923 72.726061031598874 0 72.726061031598874 111.74169211427943 0 0 0 0 3.9539604124347534 41.875216319542233 0 41.875216319542233 26.380675608848833 0 0 0 0 2.6125152353397425 107.80563942738809 0 107.80563942738809 49.342218241610681 0 0 0 0 -85.041724196011273 55.096298326518081 0 55.096298326518081 105.43103952513047 0 0 0 0 37.754942169571223 80.007292842510651 0 80.007292842510651 -22.244517591025215 0 0 0 0 128.32982440345222 248.03280740881019 0 248.03280740881019 231.07504500792857 0 0 0 0 -8.0544306841329671 417.36314657205367 0 417.36314657205367 44.1812550467439 0 0 0 0 -1.0525686089549851 3.7062312541263651 0 3.7062312541263651 1.9567070394582373 0 0 0 0 -135.61579600906043 93.938906925603078 0 93.938906925603078 -146.61821583032724 0 0 0 0 352.26904259799994 588.91529817538321 0 588.91529817538321 303.97738996459157 0 0 0 0 432.32227457376939 135.54844799080274 0 135.54844799080274 -110.03725633232818 0 0 0 0 -82.500583451761941 88.958563190474251 0 88.958563190474251 540.77770298439646 0 0 0 0 2.6351980029524427 4.536451404928286 0 4.536451404928286 6.7086512714813722 0 0 0 0 -105.63959193600749 -124.77161697094198 0 -124.77161697094198 444.83755435834792 0 0 0 0 304.99010268366692 569.54741693922915 0 569.54741693922915 -114.76754278185035 0 0 0 0 495.09831143559632 -195.03284521396381 0 -195.03284521396381 -132.8809565971751 0 0 0 0 -39.31198516526274 51.430716701699566 0 51.430716701699566 -225.10337175592758 0 0 0 0 96.527251521587459 -119.4487461121189 0 -119.4487461121189 -188.13637649027078 0 0 0 0 -10.974151010683272 130.94592710630968 0 130.94592710630968 -166.09308794536628 0 0 0 0 93.7873515545798 -48.507972548035468 0 -48.507972548035468 -262.85749367847893 0 0 0 0 31.933735928407259 104.18656754199242 0 104.18656754199242 54.060454365369765 0 0 0 0 37.80147194598576 56.619855734584796 0 56.619855734584796 18.228434502455876 0 0 0 0 -25.352055635936267 -90.058007284045743 0 -90.058007284045743 -631.81865152038517 0 0 0 0 2.9081613258297878 4.3940034935090502 0 4.3940034935090502 4.8561173166081133 0 0 0 0 80.28382389269791 110.73939343636448 0 110.73939343636448 50.83676784163049 0 0 0 0 26.007329731935897 97.457262424747569 0 97.457262424747569 112.48734009259144 0 0 0 0 76.383304188158945 124.65902575467601 0 124.65902575467601 -3.6138305446443155 0 0 0 0 70.151708170816164 47.924757896184019 0 47.924757896184019 -25.514833721285413 0 0 0 0 26.615606603061678 -10.172212562045388 0 -10.172212562045388 -89.226577555202311 0 0 0 0 22.591399512965932 43.151254760777711 0 43.151254760777711 -35.922932635659478 0 0 0 0 325.2251097692515 365.93445280049855 0 365.93445280049855 -544.24622019212984 0 0 0 0 4.9851569261967725 0.22966520145804736 0 0.22966520145804736 -14.796792740093331 0 0 0 0 48.239917742157559 -47.853742833678552 0 -47.853742833678552 -26.372856501677234 0 0 0 0 193.53893268875936 168.02814157602552 0 168.02814157602552 -35.805875238169392 0 0 0 0 -2.4232910258615448 93.510937337621442 0 93.510937337621442 58.346681765402764 0 0 0 0 47.987527732206217 31.850392633339425 0 31.850392633339425 -57.088577211937377 0 0 0 0 52.24245234652517 66.309430694451294 0 66.309430694451294 -91.257916144895717 0 0 0 0 5.9869631116400726 47.898416689901516 0 47.898416689901516 -49.712344453380112 0 0 0 0 4.0663843707152409 154.03771416375457 0 154.03771416375457 69.697349435577053 0 0 0 0 -31.67794519630479 376.9117137781389 0 376.9117137781389 30.359055686803856 0 0 0 0 276.19121044389976 106.55800539398197 0 106.55800539398197 -83.23514432264929 0 0 0 0 571.94566950690387 578.59105368712233 0 578.59105368712233 -147.9737770874176 0 0 0 0 25.652984350539555 148.40873081821275 0 148.40873081821275 21.848056414935286 0 0 0 0 -9.7164089541820431 74.740013315953661 0 74.740013315953661 2.3282225615844538 0 0 0 0 20.557265647567874 85.126251792993372 0 85.126251792993372 140.93190856651609 0 0 0 0 126.65089884760528 107.23343504915101 0 107.23343504915101 41.280751814800823 0 0 0 0 99.292494195435211 3.3119047920652065 0 3.3119047920652065 -42.57300999411018 0 0 0 0 -86.009239528596936 221.77791672185973 0 221.77791672185973 160.45414021787667 0 0 0 0 -10.830810320982188 10.509221246180092 0 10.509221246180092 -8.7506493301917487 0 0 0 0 273.39524180725857 135.88088843064645 0 135.88088843064645 -9.7421379178330625 0 0 0 0 95.773768459979692 5.8542836412641464 0 5.8542836412641464 28.656679979394539 0 0 0 0 -21.476668474907811 18.480643898983036 0 18.480643898983036 -18.915130222165445 0 0 0 0 87.651547930179731 199.62023851068699 0 199.62023851068699 127.72590353724739 0 0 0 0 -45.169646976049989 -28.065718750731776 0 -28.065718750731776 110.58322060313401 0 0 0 0 44.790646828550962 220.06778076972023 0 220.06778076972023 -12.572600389602485 0 0 0 0 -383.74462715052505 -51.925675079655093 0 -51.925675079655093 27.705280485234653 0 0 0 0 -0.071557689335378427 0.29325321561647399 0 0.29325321561647399 -1.9963303532834047 0 0 0 0 -143.40369500751331 -42.465832518755406 0 -42.465832518755406 -45.552989013356182 0 0 0 0 -243.76748089133343 -69.153361778474846 0 -69.153361778474846 52.219402062868994 0 0 0 0 -117.88163761540818 66.65536485503435 0 66.65536485503435 28.135389201978342 0 0 0 0 0.27054517529234445 1.305938937135906 0 1.305938937135906 -5.6207966906465749 0 0 0 0 281.27578376691326 148.77844154899037 0 148.77844154899037 -17.506190179974965 0 0 0 0 186.12484237832359 65.021615826441803 0 65.021615826441803 23.909602846668804 0 0 0 0 148.19759325340601 124.85935128626488 0 124.85935128626488 75.218651964291439 0 0 0 0 1.1315724180058169 42.385701499922561 0 42.385701499922561 -10.657477233944519 0 0 0 0 88.310772850585636 77.258095524757891 0 77.258095524757891 -61.334737035442686 0 0 0 0 42.367804106950643 20.617263955416206 0 20.617263955416206 -110.79116831836473 0 0 0 0 108.88450794771597 41.882790482066582 0 41.882790482066582 -5.2774470688204929 0 0 0 0 78.062997584213008 138.21622826163821 0 138.21622826163821 6.6362436014915147 0 0 0 0 68.348062580804253 97.765659315272615 0 97.765659315272615 -18.549517065294367 0 0 0 0 17.870084899815993 156.33642879140098 0 156.33642879140098 26.835879998864129 0 0 0 0 28.218456652859459 143.14705608317763 0 143.14705608317763 -67.28688776244104 0 0 0 0 22.1630605900516 135.6985659699252 0 135.6985659699252 -35.739588062080657 0 0 0 0 -15.85313166611013 110.6006750269014 0 110.6006750269014 -19.245984116141699 0 0 0 0 648.58041413888714 -242.21773406486682 0 -242.21773406486682 464.943637672769 0 0 0 0 -41.795068548070049 -2.8575876456012566 0 -2.8575876456012566 -42.342506413378487 0 0 0 0 -1.8199160193131405 3.0291229422902024 0 3.0291229422902024 -3.469551459511937 0 0 0 0 -8.5546229173687607 -59.754109588254778 0 -59.754109588254778 -255.19327211190284 0 0 0 0 45.140016551518784 -11.726651276193934 0 -11.726651276193934 82.135101417376063 0 0 0 0 -34.194918288781992 90.388358582518947 0 90.388358582518947 169.39427833247646 0 0 0 0 133.97350131256462 125.58199565716632 0 125.58199565716632 -5.3093468467955063 0 0 0 0 -8.2728636787132928 40.623352992899072 0 40.623352992899072 -38.866697152272536 0 0 0 0 8.9911460567855102 -11.974491282771623 0 -11.974491282771623 -67.341770463025568 0 0 0 0 3.7352512327091425 9.8931126436510937 0 9.8931126436510937 6.2786100034973273 0 0 0 0 4.3415423383521556 48.99979591074316 0 48.99979591074316 -96.12791938200462 0 0 0 0 -51.168506643347428 -17.68495025869106 0 -17.68495025869106 -27.815288909011088 0 0 0 0 -155.46970457794305 78.369930855632447 0 78.369930855632447 -101.02330023971058 0 0 0 0 -9.7908447397530836 77.430013849092802 0 77.430013849092802 -57.039480760606722 0 0 0 0 0.70546679007566127 70.533629070027928 0 70.533629070027928 60.00832819539005 0 0 0 0 -63.880977874297969 129.67916590366417 0 129.67916590366417 6.7180153311975346 0 0 0 0 -23.097267577664752 8.0311800929609944 0 8.0311800929609944 58.204380427782326 0 0 0 0 32.615724199118176 187.97045422883127 0 187.97045422883127 128.41119568984391 0 0 0 0 730.691222681824 -713.72114001927912 0 -713.72114001927912 33.831773551071819 0 0 0 0 -4.8269369316519004 27.624080221045002 0 27.624080221045002 -31.096207275706604 0 0 0 0 -670.62909939036763 286.79064085450955 0 286.79064085450955 677.80760683811059 0 0 0 0 -36.95560160506102 223.83086464329608 0 223.83086464329608 -181.46712438763279 0 0 0 0 9.8518834989981272 30.845513403420142 0 30.845513403420142 -22.342570934018177 0 0 0 0 78.468538807056575 167.06628542005524 0 167.06628542005524 64.650454168739998 0 0 0 0 152.00295098935567 104.53894489653248 0 104.53894489653248 20.352820945957319 0 0 0 0 -7.9518459046429015 5.5803033181402384 0 5.5803033181402384 -1.8167718554616634 0 0 0 0 -39.051903105850215 22.919203634177848 0 22.919203634177848 178.31822231403589 0 0 0 0 46.235125934850288 61.065810813835064 0 61.065810813835064 45.987449003329225 0 0 0 0 4.4246381163629849 124.98320061396726 0 124.98320061396726 54.654183811617258 0 0 0 0 -72.058296933289967 111.64545679439004 0 111.64545679439004 78.829177925607269 0 0 0 0 -38.195775201362267 131.571893623253 0 131.571893623253 -21.096612095908711 0 0 0 0 -63.458683297882089 107.19631595472401 0 107.19631595472401 87.208632498770385 0 0 0 0 -51.713510445231805 97.85611398773267 0 97.85611398773267 79.989526678580887 0 0 0 0 -29.832562149473233 52.842629807839103 0 52.842629807839103 139.56960538315536 0 0 0 0 -33.926842188368028 126.46494759396671 0 126.46494759396671 83.243658646427548 0 0 0 0 -32.546031708685405 33.642309910963945 0 33.642309910963945 98.268794227025865 0 0 0 0 -58.017685589994926 19.13491659032081 0 19.13491659032081 11.826782591977356 0 0 0 0 -28.894896519668691 35.029981721368131 0 35.029981721368131 23.401321021181502 0 0 0 0 -32.639813838669397 87.591209625340667 0 87.591209625340667 91.325991767728738 0 0 0 0 -49.357896978114255 0.29454876167145017 0 0.29454876167145017 12.642469086356099 0 0 0 0 -28.554241895152614 63.035972070961364 0 63.035972070961364 43.549178741718606 0 0 0 0 -55.579020446828508 56.64847753670324 0 56.64847753670324 150.51962694871258 0 0 0 0 -2.6232381156593618 16.539985760674682 0 16.539985760674682 12.094006581880148 0 0 0 0 -451.95917481360448 -334.87175945238772 0 -334.87175945238772 463.20613947455729 0 0 0 0 9.3974061654119652 12.785174080923756 0 12.785174080923756 9.8679574772291083 0 0 0 0 35.978858711991052 93.784948277343574 0 93.784948277343574 -80.210452022663048 0 0 0 0 -727.10602884743275 285.46288240819513 0 285.46288240819513 -102.23578279949697 0 0 0 0 -352.17446945549455 643.63294469318112 0 643.63294469318112 -402.35506384616485 0 0 0 0 -452.05474987474736 381.50786679032103 0 381.50786679032103 -270.67597963615435 0 0 0 0 -118.98066182144976 547.0192295669433 0 547.0192295669433 -493.52015401720013 0 0 0 0 -397.21834500422119 713.47486095756221 0 713.47486095756221 -409.64077540555706 0 0 0 0 -1457.4661242435686 -209.05165642683392 0 -209.05165642683392 -568.49065378452383 0 0 0 0 -432.59670393153647 1080.5444002456261 0 1080.5444002456261 -840.80413499002975 0 0 0 0 333.81817529861291 138.55656996331777 0 138.55656996331777 -550.74589512046134 0 0 0 0 -4.4274806803668127 -0.14243836878178939 0 -0.14243836878178939 4.0629479833724504 0 0 0 0 -298.56952906324295 1099.845655049219 0 1099.845655049219 -122.69645525635178 0 0 0 0 -52.787656322128896 25.058126484396325 0 25.058126484396325 217.0207443394919 0 0 0 0 -45.789599611845915 44.305428323358001 0 44.305428323358001 162.37798649359058 0 0 0 0 -45.885483128869964 37.138714694151986 0 37.138714694151986 213.06295938858796 0 0 0 0 -58.623432052467251 22.831359043210341 0 22.831359043210341 221.77113693224328 0 0 0 0 -30.573555703604384 -2.8011332861221945 0 -2.8011332861221945 5.5887198741586159 0 0 0 0 -15.153172581249237 -33.332534504524105 0 -33.332534504524105 264.22851850601319 0 0 0 0 -89.073881738171622 81.805213650258793 0 81.805213650258793 206.88534971259861 0 0 0 0 -47.624294266097422 25.270191250635349 0 25.270191250635349 173.48239869112001 0 0 0 0 -115.9688377996099 48.375280461603523 0 48.375280461603523 221.93952556810109 0 0 0 0 -58.342196609824896 78.5049630790229 0 78.5049630790229 159.49645950557684 0 0 0 0 -65.265099338826985 106.90543181178623 0 106.90543181178623 90.994609200892455 0 0 0 0 -79.714340932900086 125.28312339752233 0 125.28312339752233 129.32652802334405 0 0 0 0 -85.155494217255182 77.124844815595623 0 77.124844815595623 196.27728103981235 0 0 0 0 32.847795416195368 64.054905905813769 0 64.054905905813769 28.898140253691736 0 0 0 0 -85.174075798477134 152.48582817167161 0 152.48582817167161 237.22773495241233 0 0 0 0 109.00678396981675 160.74316363608466 0 160.74316363608466 123.91940503188835 0 0 0 0 -6.7310124211174909 16.023054057368881 0 16.023054057368881 21.983929249884643 0 0 0 0 377.57298294983957 403.12705252018839 0 403.12705252018839 185.77438890042754 0 0 0 0 -70.899272749888041 131.77869048240046 0 131.77869048240046 147.88751829759894 0 0 0 0 -512.65053472721047 710.95948141747976 0 710.95948141747976 865.04810609065953 0 0 0 0 -566.66029947673087 -34.911961745859344 0 -34.911961745859344 414.14129908509085 0 0 0 0 -145.79719337412826 71.570581312804677 0 71.570581312804677 264.38303850974575 0 0 0 0 -103.88219776907499 177.18850356001411 0 177.18850356001411 509.99060422305445 0 0 0 0 -384.43601274185494 481.41462549249786 0 481.41462549249786 1357.7541233225529 0 0 0 0 1546.7340344567874 548.52287744957562 0 548.52287744957562 20.54329856735967 0 0 0 0 -722.02426662501966 -371.57493939653727 0 -371.57493939653727 169.9787021941201 0 0 0 0 -15.594586951450367 32.546321759989986 0 32.546321759989986 -38.987776364305404 0 0 0 0 847.67809699493228 -800.41527941083541 0 -800.41527941083541 -421.48742215360289 0 0 0 0 63.421824308294163 21.689713578442479 0 21.689713578442479 -374.07884457732365 0 0 0 0 -140.71220177589566 -971.40961647965923 0 -971.40961647965923 -312.90548205092614 0 0 0 0 -8.6438203310972597 13.690301936665293 0 13.690301936665293 -27.042837351834024 0 0 0 0 -142.57732467549067 -55.735170489619577 0 -55.735170489619577 64.415986040495227 0 0 0 0 174.07201850125966 378.19443953582271 0 378.19443953582271 -149.06889678905236 0 0 0 0 20.569759793579578 409.07300957931011 0 409.07300957931011 -762.70575709827426 0 0 0 0 216.98861509282142 7.240022985249766 0 7.240022985249766 -62.521342403810195 0 0 0 0 0.39188328477935386 3.4714014865393636 0 3.4714014865393636 -12.645666809675827 0 0 0 0 116.27983920316183 -287.14155993373879 0 -287.14155993373879 -635.00034801311767 0 0 0 0 450.42606049995811 848.84512755403034 0 848.84512755403034 -592.8367187091344 0 0 0 0 -156.2544080921507 -139.80867666809047 0 -139.80867666809047 381.56045540761534 0 0 0 0 432.65041522152023 703.87929673037354 0 703.87929673037354 -1118.7228181660241 0 0 0 0 -8.9072531032644804 -1.7702186796255894 0 -1.7702186796255894 -0.94004369280196931 0 0 0 0 -156.77986976829925 402.97686326271798 0 402.97686326271798 -689.96745907144827 0 0 0 0 -67.266091451296234 -44.857000870734737 0 -44.857000870734737 -94.568663752424982 0 0 0 0 2.8116573735082326 1.4315314663288206 0 1.4315314663288206 -4.6561254538191506 0 0 0 0 854.86842556688498 -719.76025879913959 0 -719.76025879913959 -875.98596491758678 0 0 0 0 -1440.6715899128176 -462.96600198454689 0 -462.96600198454689 -13.337956657986069 0 0 0 0 2.2648629151517525 380.43082156816581 0 380.43082156816581 371.7707301299447 0 0 0 0 180.39823519712081 701.47528601264901 0 701.47528601264901 133.40594319724204 0 0 0 0 198.71843319793697 691.83628973265536 0 691.83628973265536 -495.37486467194344 0 0 0 0 57.120546270249179 262.1072438054814 0 262.1072438054814 -161.16367371000865 0 0 0 0 -0.1580281528105445 -1.697740510888508 0 -1.697740510888508 -6.8321236045082685 0 0 0 0 586.41544781300763 7.434806237969724 0 7.434806237969724 -638.8069846163844 0 0 0 0 1010.4291597985757 -609.6537671996839 0 -609.6537671996839 -80.722229483067167 0 0 0 0 -731.11440191945439 963.66085019534557 0 963.66085019534557 -210.66776912304624 0 0 0 0 -754.66273690317666 527.87253969728283 0 527.87253969728283 -128.15842519836588 0 0 0 0 -556.47308195658115 784.46675999946319 0 784.46675999946319 -232.62773664561246 0 0 0 0 -307.50462633920324 502.47316497318093 0 502.47316497318093 -862.90925809853252 0 0 0 0 -232.43435118574416 -171.72756202523669 0 -171.72756202523669 -173.75146348208909 0 0 0 0 -425.3684269853984 174.96951399846785 0 174.96951399846785 -13.880553007480557 0 0 0 0 55.918969310470857 184.25205195136641 0 184.25205195136641 -458.21045016187418 0 0 0 0 285.91754018034408 -58.049471771009848 0 -58.049471771009848 -453.19385229914678 0 0 0 0 444.80702778320119 -162.09051921899118 0 -162.09051921899118 -806.6127823731922 0 0 0 0 521.60380849757348 71.051449846583637 0 71.051449846583637 -677.4558716264055 0 0 0 0 -0.99785765184483921 4.3312046342118862 0 4.3312046342118862 -11.469486552703962 0 0 0 0 -143.64810263459731 -38.738104757522592 0 -38.738104757522592 160.06464832341953 0 0 0 0 261.89035106723895 -18.178257400395523 0 -18.178257400395523 -209.63373657419106 0 0 0 0 462.13839336518868 339.978661853007 0 339.978661853007 206.34590002366167 0 0 0 0 -431.0401423001249 940.34238607513294 0 940.34238607513294 -84.361887474608011 0 0 0 0 253.83828489885491 71.055425226577427 0 71.055425226577427 2.7090962758502428 0 0 0 0 -1.3467170672676616 15.352539827260216 0 15.352539827260216 -18.767264677530648 0 0 0 0 10.888009480193432 -4.531059892120993 0 -4.531059892120993 9.2480093379654136 0 0 0 0 32.94642088529281 16.239015607747312 0 16.239015607747312 2.6612332790697248 0 0 0 0 154.93993996395147 -78.991116622786649 0 -78.991116622786649 38.402981528751752 0 0 0 0 41.488470664116903 83.712893369434823 0 83.712893369434823 195.69166297613992 0 0 0 0 5.6903340450662654 -162.31002299889587 0 -162.31002299889587 -23.868783575513589 0 0 0 0 110.18140472796222 -127.35340174027442 0 -127.35340174027442 -12.854081558979487 0 0 0 0 -61.701893126359209 433.58616304230236 0 433.58616304230236 112.12149763234811 0 0 0 0 -485.03565613958926 784.71862129157944 0 784.71862129157944 -172.04683930885949 0 0 0 0 368.96198432397796 -481.1333134466031 0 -481.1333134466031 -1045.9692181418432 0 0 0 0 -433.89290962539235 515.9349662094919 0 515.9349662094919 -924.64592903121229 0 0 0 0 272.98232360903057 320.64831632345158 0 320.64831632345158 -378.86223672412598 0 0 0 0 421.4577271659582 130.21468424914565 0 130.21468424914565 -173.28775515089001 0 0 0 0 114.75630302397622 -7.2695411077247627 0 -7.2695411077247627 7.4831442101312859 0 0 0 0 198.07321973393846 -110.08392244807419 0 -110.08392244807419 -131.20230868947783 0 0 0 0 -122.11037773999487 -76.517630570504025 0 -76.517630570504025 33.499158978600462 0 0 0 0 262.92103824770584 227.02029908087718 0 227.02029908087718 15.574079697238631 0 0 0 0 -7.4365937720249349 35.454406567696424 0 35.454406567696424 121.12029082651134 0 0 0 0 -40.153635089707677 121.61358820489841 0 121.61358820489841 101.5793668472943 0 0 0 0 -21.695754493979621 49.848958848171605 0 49.848958848171605 135.03899432032631 0 0 0 0 89.923924525704933 75.262313666546106 0 75.262313666546106 112.11144886456168 0 0 0 0 224.52155699490686 148.33949282040703 0 148.33949282040703 50.624170304756262 0 0 0 0 154.49063488360844 190.67220643629116 0 190.67220643629116 58.524465776739817 0 0 0 0 71.982080823276192 120.79545289226371 0 120.79545289226371 102.34410254249815 0 0 0 0 10.63195655553136 190.26835191302962 0 190.26835191302962 63.771603988887364 0 0 0 0 58.064263694395777 159.89705557965681 0 159.89705557965681 36.866379736216913 0 0 0 0 -89.053057881487348 129.13168861998327 0 129.13168861998327 52.639401920649107 0 0 0 0 103.7612698800076 306.54129799376187 0 306.54129799376187 55.226730827063875 0 0 0 0 -77.508518152540091 289.01102781631209 0 289.01102781631209 67.30718550191159 0 0 0 0 -24.734487076973892 113.74318179387501 0 113.74318179387501 -7.7800293371074076 0 0 0 0 -202.9058640733856 114.82523327855233 0 114.82523327855233 93.348711123388057 0 0 0 0 -147.85279257959337 -74.417982757111531 0 -74.417982757111531 92.184658720081643 0 0 0 0 -58.366409959053271 10.515389324873468 0 10.515389324873468 -59.205981178805814 0 0 0 0 -95.745932066834939 -62.163945759863964 0 -62.163945759863964 41.527331147630321 0 0 0 0 -72.330165069899522 10.26197448381572 0 10.26197448381572 243.93224239589472 0 0 0 0 99.412906392642071 5.3436096605551029 0 5.3436096605551029 64.864147050546308 0 0 0 0 -67.414270379216759 -14.999010471623478 0 -14.999010471623478 124.53671610841047 0 0 0 0 -98.871826746224542 -36.776552366593023 0 -36.776552366593023 207.90086918565794 0 0 0 0 -76.635230846775812 -52.498997716411395 0 -52.498997716411395 236.73336353078048 0 0 0 0 1.7797065603081137 -276.67080657726547 0 -276.67080657726547 -10.839841394299583 0 0 0 0 53.948780997580542 21.664925608435805 0 21.664925608435805 6.2354113969228955 0 0 0 0 156.24839326756774 -566.48433714547355 0 -566.48433714547355 -498.08419160057747 0 0 0 0 -24.255629915278405 119.98558195003716 0 119.98558195003716 -377.46588995430102 0 0 0 0 -229.92523940764659 90.685094889199718 0 90.685094889199718 -219.04134908413107 0 0 0 0 21.027114304364659 72.674389677946237 0 72.674389677946237 -336.018563216654 0 0 0 0 -83.251902110590891 125.65542915705373 0 125.65542915705373 -110.80515714634384 0 0 0 0 -16.582242571384995 7.2788837176249217 0 7.2788837176249217 -245.01291977591791 0 0 0 0 53.665498155285604 118.52623121883335 0 118.52623121883335 117.46376174177749 0 0 0 0 24.844808329857187 21.524510605896353 0 21.524510605896353 -73.800137622096372 0 0 0 0 51.494059619071777 220.94055296495117 0 220.94055296495117 -99.035630692516861 0 0 0 0 250.56246162141906 80.730961549052154 0 80.730961549052154 63.208423174190102 0 0 0 0 238.65297715863562 219.62227166562661 0 219.62227166562661 -41.788110797142508 0 0 0 0 116.97041437958251 172.46190032741106 0 172.46190032741106 -55.047410609011422 0 0 0 0 154.98328529681021 107.33039083277163 0 107.33039083277163 -75.340841334706056 0 0 0 0 202.6746111594839 93.001169644070615 0 93.001169644070615 -72.386245702156884 0 0 0 0 351.70161541452399 83.848607485469984 0 83.848607485469984 -162.76452962113399 0 0 0 0 133.94846767224954 -3.1378029413608601 0 -3.1378029413608601 -87.698860759584932 0 0 0 0 251.31632523774169 -30.932273112681287 0 -30.932273112681287 -204.86022928904276 0 0 0 0 65.258033421284182 33.365292159301234 0 33.365292159301234 -1.3890237088039221 0 0 0 0 187.59055569139309 -15.915154430578696 0 -15.915154430578696 150.06167234363966 0 0 0 0 27.364291962468997 -36.432645124601549 0 -36.432645124601549 195.15671948573436 0 0 0 0 160.1723210785749 37.465832154432064 0 37.465832154432064 122.71746045215696 0 0 0 0 129.48347433249 -3.7283611192233366 0 -3.7283611192233366 153.5285481447354 0 0 0 0 68.111852360932971 78.078416346260383 0 78.078416346260383 130.43512488011038 0 0 0 0 136.5473153500061 45.844726596653345 0 45.844726596653345 136.78004575877276 0 0 0 0 40.75222461764497 4.4419681559911623 0 4.4419681559911623 158.61445153134991 0 0 0 0 186.29218719697383 78.047177598396956 0 78.047177598396956 104.40924957041352 0 0 0 0 157.01607060806055 51.353309129233821 0 51.353309129233821 117.47916348795115 0 0 0 0 136.47719369439625 64.99405857831681 0 64.99405857831681 118.27077849213674 0 0 0 0 149.37706643750425 108.08007194211586 0 108.08007194211586 -52.053557485083729 0 0 0 0 106.41060632602239 102.06265837513911 0 102.06265837513911 -46.535490657934133 0 0 0 0 204.04706600910868 34.566324006162176 0 34.566324006162176 104.36267338159814 0 0 0 0 74.509035348065481 38.053332228650653 0 38.053332228650653 -19.983629135049341 0 0 0 0 141.59244257800128 37.240515128804077 0 37.240515128804077 -22.65928375112162 0 0 0 0 137.74702545179389 36.618133993731988 0 36.618133993731988 -11.748775994561129 0 0 0 0 49.845411579319901 25.30211737211933 0 25.30211737211933 -10.979419646568482 0 0 0 0 7.0646805688291643 3.1305517560196492 0 3.1305517560196492 -4.4433726813451369 0 0 0 0 5.1555814288804456 22.050234577484972 0 22.050234577484972 -42.498447652320763 0 0 0 0 171.14441495093342 13.439436551896449 0 13.439436551896449 -292.61371372517851 0 0 0 0 225.61220017986125 325.83067521679641 0 325.83067521679641 56.580579317749653 0 0 0 0 170.13708607056469 49.910772808508398 0 49.910772808508398 -73.171367191851118 0 0 0 0 -98.109612223881413 -187.33633709337164 0 -187.33633709337164 78.101222999504671 0 0 0 0 72.925807339130188 229.62716281346138 0 229.62716281346138 282.21951188769162 0 0 0 0 70.022239747297135 262.20809246197496 0 262.20809246197496 -79.8021495857829 0 0 0 0 58.576155739254318 119.37084103970091 0 119.37084103970091 -19.967993669683239 0 0 0 0 10.377430547829135 31.231123552586979 0 31.231123552586979 153.04415750713815 0 0 0 0 33.177783497449127 37.285647288305711 0 37.285647288305711 -248.96934328288313 0 0 0 0 35.292353094355349 10.508240454753718 0 10.508240454753718 -48.674036423085909 0 0 0 0 -48.220306527924549 36.005925967114678 0 36.005925967114678 -26.75920962375983 0 0 0 0 -86.424407490747399 130.51086520608544 0 130.51086520608544 11.884962323637183 0 0 0 0 83.970872508356479 52.177267369687208 0 52.177267369687208 -69.939931945907915 0 0 0 0 -56.545394280374239 135.76405491139161 0 135.76405491139161 103.91999692295212 0 0 0 0 6.0484320680770907 30.658464556172476 0 30.658464556172476 -24.310286894871751 0 0 0 0 -1.417833975989808 12.859775929970645 0 12.859775929970645 0.3631293988313633 0 0 0 0 -4.353134837139919 20.856826712835641 0 20.856826712835641 -32.840576043250117 0 0 0 0 -0.77205274274456315 32.083602970611537 0 32.083602970611537 -23.276877882045483 0 0 0 0 -462.1683400719121 188.59864093761416 0 188.59864093761416 22.231433254884905 0 0 0 0 -6.3260312975689885 21.513828113916134 0 21.513828113916134 -23.313119311445917 0 0 0 0 8.4329208846611436 22.687669420721249 0 22.687669420721249 -23.22432573759454 0 0 0 0 10.796031597022122 17.189710329531813 0 17.189710329531813 -14.473059103100049 0 0 0 0 -1556.6011732339698 -38.67980263082859 0 -38.67980263082859 21.240615679238545 0 0 0 0 -8.0146562905070766 13.928757051053292 0 13.928757051053292 -12.320331719893728 0 0 0 0 -34.709177666911273 -55.415062874009521 0 -55.415062874009521 -7.0423143200646336 0 0 0 0 -564.05703908768191 525.88596720221699 0 525.88596720221699 -629.77922601760429 0 0 0 0 87.255863746147952 447.78845984036275 0 447.78845984036275 -1100.9853552304494 0 0 0 0 155.63296252596774 155.31503722239836 0 155.31503722239836 -1003.9372724458248 0 0 0 0 -1083.9245119953357 131.53124593142735 0 131.53124593142735 820.71135131977849 0 0 0 0 199.11479725499157 666.33934271248995 0 666.33934271248995 -924.60427344259176 0 0 0 0 48.972307755575457 763.1762091997125 0 763.1762091997125 -305.71275515871457 0 0 0 0 200.86562635238079 679.35032732073739 0 679.35032732073739 -878.27134375464641 0 0 0 0 -34.635311122110579 415.62511842212018 0 415.62511842212018 -909.83338775356242 0 0 0 0 -339.78565798907948 1057.4586228097141 0 1057.4586228097141 -798.0535852014018 0 0 0 0 -143.17317318991991 748.40630062421451 0 748.40630062421451 -1835.7304653121223 0 0 0 0 286.67723910501081 -72.153433812425646 0 -72.153433812425646 -854.56833367252875 0 0 0 0 -11.872708292954485 390.44651291173295 0 390.44651291173295 -1194.271520055956 0 0 0 0 373.16513637871685 -136.24852753121422 0 -136.24852753121422 -504.67383548155021 0 0 0 0 185.84413950549788 -198.39182048096609 0 -198.39182048096609 -503.21444354708365 0 0 0 0 96.545980512586539 -22.564508069197473 0 -22.564508069197473 -3.0037741887063021 0 0 0 0 97.208317468010591 -36.305081939631805 0 -36.305081939631805 189.58566526095456 0 0 0 0 12.830505086712947 -51.261648468998374 0 -51.261648468998374 119.49185544925535 0 0 0 0 389.48535711923432 74.304264239209829 0 74.304264239209829 -172.76736933492839 0 0 0 0 0.34539472615595912 -0.79674127340957313 0 -0.79674127340957313 0.45818610220437606 0 0 0 0 -335.46344501621206 166.946364066738 0 166.946364066738 -11.145753317124218 0 0 0 0 -3.0798694518546625 4.2653880650719742 0 4.2653880650719742 -18.344124173848623 0 0 0 0 58.016392479461501 -129.71489170229358 0 -129.71489170229358 17.794360347313727 0 0 0 0 
</DataArray>
<DataArray type="Float64" Name="cross_section_updated" format="ascii">
1 1 0.0090558161905051129 1 1 1 1 1 1 0.0079926274740009864 1 1 1 1 1 1 1 1 1 1 1 1 0.0089361538083172244 1 1 1 1 0.010663881712751899 1 0.0098747852947668746 1 1 1 1 0.011185999033236659 1 1 0.010855642760650465 1 1 1 0.010117240697382228 1 1 1 0.010522543976021731 1 1 1 1 0.0088848059440960539 1 0.011926242619765492 1 1 1 1 0.012096784128520242 1 1 1 1 0.0092033600266058415 1 1 1 1 1 1 1 1 1 1 1 1 1 1 1 1 1 1 0.0094644283731480719 1 1 1 1 1 1 1 1 0.0098466567806687263 1 1 1 1 1 1 1 1 1 1 1 1 1 1 1 1 1 1 1 1 1 1 1 1 1 1 1 1 0.00088577966046000066 1 1 0.00048799244324727702 1 1 1 1 1 1 1 1 1 0.013530783028287058 1 1 1 0.016919096000191369 1 1 1 1 1 0.0088000883917932881 1 0.0086090635767586896 1 0.0072303585370210068 1 1 1 1 1 1 1 1 1 1 1 1.7679763902878065e-12 1 1 1 1 1 1 1 1 1 0.0096394486315517017 1 1 1 1 1 0.0096375802798550417 1 1 1 1 1 1 0.0089113509770230234 1 1 1 1 1 1 1 1 0.010435468726604311 1 1 1 1 1 1 0.010095096997422288 1 1 0.007918773302065198 1 1 1 0.010232272510167248 1 0.0075612146767231221 1 1 1 1 1 1 1 1 1 1 1 1 1 1 1 1 1 1 1 1 1 1 1 1 1 1 1 1 1 1 1 1 1 1 1 1 0.0093481023739994326 1 1 1 1 1 0.0095801730575726454 1 1 1 1 0.01033070350770042 1 1 1 1 1 1 1 1 1 1 1 1 1 0.0096486988402640604 1 1 1 1 1 1 1 1 1 1 1 1 1 1 1 1 1 1 1 1 0.010229553069301872 1 1 1 0.0092118871079438572 1 1 0.01188267406696028 0.0092784297937502577 1 1 1 1 1 1 1 1 1 1 1 1 1 1 1 1 1 1 1 0.010290416117758903 1 1 1 1 1 1 0.011199824778954086 1 1 1 1 1 1 1 1 1 1 1 1 0.0016658385277317726 1 1 1 1 0.01130092922625351 0.0085301007709694746 1 1 0.0084493887546260044 1 1 1 0.0098601189704499853 1 1 1 1 1 1 1 1 1 1 1 0.010579994001705166 1 1 0.0050832216826097801 1 1 1 1 1 1 1 1 1 1 1 1 1 1 1 1 0.0068476952622322784 1 1 1 1 1 1 0.0095939064839781433 1 1 1 1 1 1 1 1 1 1 1 1 1 1 1 1 1 1 1 1 1 1 1 1 1 1 1 1 1 1 1 1 1 1 1 1 1 1 1 1 1 1 1 1 1 1 1 1 1 1 1 1 1 1 0.0091742639449236066 0.0094916349997843218 1 1 1 1 1 0.012173033818124693 1 1 1 1 1 0.0099991054035913976 1 1 1 0.010293983848512928 0.0086122362155033605 0.010015841274593873 1 0.0088584547201929209 1 1 1 1 1 0.0079861209701640179 1 1 1 1 0.012839576010590902 1 1 1 1 1 1 1 1 1 0.014287479677898882 1 0.005901044224891256 1 1 1 1 1 1 1 1 1 1 1 1 0.010898445140283833 0.008823997588312274 1 1 1 1 1 1 1 1 0.011026269162843841 1 1 1 1 1 1 1 1 1 1 1 0.00091995861545867731 1 1 1 0.00099522303591724828 1 1 1 1 1 1 1 1 1 1 1 1 1 1 1 1 1 1 1 1 1 1 1 0.010612949421484753 1 1 1 1 0.010384867589590778 1 1 1 1 1 1 1 1 1 1 1 1 1 1 1 1 1 1 1 1 1 1 1 1 1 1 1 1 1 1 0.0068877019335145326 1 1 0.010017928920470452 1 1 1 1 1 1 1 1 1 1 0.0055358501962457021 1 1 1 1 1 0.0099712288895761319 0.010032149316344292 1 1 1 1 1 0.0010820400170965718 1 1 1 1 1 1 1 1 1 1 -2.762132883527002e-11 1 1 1 1 1 1 1 -2.8901318838148171e-11 1 1 1 1 1 1 1 1 1 1 0.0089229681528642732 1 1 1 0.0090989868735612371 1 1 1 1 0.0074246052485675024 1 1 1 1 1 1 1 1 1 1 0.0070371611278930782 0.010010871034836701 0.0070056760771048249 1 1 1 1 1 0.015695220303491866 1 0.012656946893305043 0.008045342542733494 1 0.01242327005627997 1 1 1 0.010002327719792918 1 1 0.01397310669570743 1 1 0.01240182684783327 1 0.011612141825246667 1 1 1 1 0.0099940167854045345 1 1 1 1 1 0.0032527252655839677 1 1 1 1 1 1 1 1 1 0.0072797507770005869 1 1 1 1 1 1 1 1 0.0070846625649283144 1 1 1 1 1 1 0.017161247587459898 1 1 1 1 1 1 0.0078069044587673426 1 0.010006731067041233 1 1 1 0.015038864077123936 1 1 1 1 1 1 0.021225540345916914 0.0038560828419910501 1 0.0097897865999625779 1 1 1 1 1 1 0.0093544913452622159 1 1 1 1 1 1 1 1 0.0094810118653954126 1 1 1 1 1 1 1 1 1 1 1 0.017135268834590663 1 1 0.010715062133402935 1 1 1 1 1 1 1 1 1 1 1 0.0029886184703844954 1 1 1 1 0.0087104600768145787 1 1 1 1 0.0089121054693276445 1 1 1 1 0.019876871037645932 1 1 1 1 1 1 1 1 1 1 0.017359833690221121 1 1 1 0.02021916212029342 1 1 0.012200983822340389 1 1 0.0038331542239059754 1 0.015782792004801729 1 1 1 1 1 1 1 0.015141078022289031 1 1 0.0090618717213622017 1 1 1 1 0.0084383035814279191 0.010520510378173925 1 1 0.011911504703016981 1 1 1 1 0.01642084202670107 1 1 1 1 1 0.016409117065970591 1 1 1 1 1 1 1 1 1 1 1 1 1 1 1 1 1 1 1 1 1 1 1 1 1 0.0096644856421479793 1 1 1 1 1 1 1 1 1 1 1 1 1 1 1 1 0.0092042545082104514 1 1 1 1 1 1 1 1 1 1 1 1 1 1 1 1 1 1 1 1 1 1 1 1 1 1 1 1 1 1 1 1 1 0.0031917155861220653 1 1 0.009710414348312893 1 1 1 1 1 0.0099882574163547896 1 1 0.0093537282883592518 1 1 1 0.0039980452707265458 1 1 1 0.0097467404957387125 1 1 1 1 1 1 1 0.005501921233658824 1 1 1 1 1 1 1 1 1 1 1 1 1 1 1 1 1 1 1 1 1 1 1 0.010867013485884017 1 1 1 1 1 1 1 1 1 0.012257097315367727 1 1 1 1 1 1 1 1 1 1 1 1 1 1 1 1 1 1 1 1 1 0.0098843484624725718 1 1 1 1 1 1 1 1 0.013457406416066705 1 1 0.015330830297159627 1 1 1 1 1 1 1 1 1 1 0.0098090205245649487 1 1 1 1 1 0.0074279664705850443 1 1 1 1 1 1 1 1 1 1 1 0.010029319617566545 1 0.011505192730953207 0.0078679298047815548 1 1 1 1 1 1 1 0.0088397631266490251 1 0.010199407046089234 1 1 0.0037424127592959478 1 1 1 1 1 0.010137929256763453 1 1 1 1 1 1 0.010048439438971636 1 0.0090068706411887516 1 1 0.010232034672635159 1 1 1 1 1 1 0.0083505493623382693 1 1 1 1 1 0.01006432473342421 0.0086855218765149803 1 0.0070587181064982914 1 1 1 7.0635465358737104e-10 1 1 0.0098610878618389901 1 1 1 1 0.0011807053729065986 1 1 1 0.0093181234996720635 1 1 1 9.9638099854137963e-11 1 1 1 0.0014585247334614609 1 1 1 1 1 1 1 1 1 1 1 0.009544277526939593 1 1 1 1 1 0.0033291009820827291 1 1 1 1 1 1 1 1 1 1 1 1 0.011614101169270575 1 0.012733293339563299 1 1 0.0097190134943018949 1 1 0.0098934188358842153 1 1 1 1 1 1 1 1 1 1 1 1 1 1 0.0099017518424216189 0.014469645796362516 1 1 1 1 1 1 1 1 0.0044897458360884795 1 1 1 1 1 1 1 1 1 1 1 0.0074582341233706074 1 1 0.010278579579781276 1 1 1 1 1 1 0.010812041621199798 1 1 1 1 1 1 1 0.0076187084943021219 1 0.0100645522260891 0.0099907205008519413 1 1 1 1 1 1 1 1 1 1 1 1 1 1 1 1 1 1 1 1 1 1 0.0075558785552673046 1 1 1 0.012237314896121369 1 1 1 1 1 1 0.0099503378703257421 1 1 1 1 1 1 1 1 1 1 1 1 1 1 1 1 1 1 1 1 1 1 1 1 1 1 1 1 0.0098504107555242026 1 0.010297217251806833 1 1 1 1 1 1 0.011105246930216344 1 1 1 1 0.0057543119643655022 1 1 1 1 1 0.0059736457079400968 1 0.012359772871444647 1 1 1 1 1 1 0.013073117221479422 1 1 1 1 1 1 -9.0544539747827724e-11 1 0.0047834815360536589 1 1 1 1 1 1 1 1 0.027061398531954696 1 1 0.0020960829730732773 1 1 1 1 0.0022308098638152418 0.010024026866068306 0.0077669150192646291 1 0.0036302542863036052 1 0.022087752689890626 1 1 0.010033816799880101 1 1 1 1 1 1 -2.7520131312686047e-10 1 1 0.012652225180712446 0.0088194177861151291 1 0.010669608974171567 0.0012734548966805747 1 1 1 0.012585613344663014 1 1 1 1 1 1 0.0099968856807464215 1 0.014371143739820201 1 0.0060683231085820102 1 1 0.0099598107887671206 0.0099881032253017026 1 1 1 1 1 0.0051254728841935038 1 1 1 1 1 1 1 1 1 1 1 0.010246902287270215 1 1 1 1 1 1 1 1 1 1 1 1 1 1 1 1 1 0.011357954217058012 1 1 1 1 1 1 1 1 0.01061739349408051 1 1 1 1 1 1 1 1 0.0097497720461917643 1 1 1 1 1 1 1 1 0.0089997670990328293 1 1 1 0.0086559417958669126 1 1 1 0.0098402913059106641 0.0079416399712059216 1 1 1 1 1 1 1 1 1 1 1 1 1 1 1 1 1 1 1 1 1 1 0.0094986477779879369 1 1 1 1 0.0089338165260719818 1 1 1 1 1 1 1 0.0082122277325754767 0.0098904303405477432 1 1 1 1 0.0094072067522883388 1 1 1 1 1 1 1 1 1 1 1 1 1 1 1 1 1 1 1 1 1 1 1 1 1 1 1 1 1 1 0.01592601556398722 1 1 1 0.012211892061663385 1 1 1 1 1 1 1 1 1 1 0.0089750017743642913 1 1 1 0.0069009159492694743 1 1 0.0097788603277656275 1 1 1 1 1 1 1 1 1 1 1 1 1 1 1 1 1 1 1 0.011843671199402835 1 1 1 1 1 1 1 1 1 1 0.0079528611584743641 1 1 1 1 1 0.010661125842915058 1 1 1 0.010795549340338538 1 1 1 1 1 1 1 1 0.010503457246643037 1 0.011277363218320614 1 1 1 1 1 1 1 1 1 1 1 1 1 1 1 1 1 1 1 1 1 1 1 1 1 1 1 1 1 1 1 1 1 1 1 0.014947640592646269 1 1 1 1 1 1 1 1 1 1 0.015756256607899234 1 1 1 1 1 1 1 1 1 1 1 0.0094025570667406379 1 1 1 1 1 1 1 1 1 1 1 1 1 1 1 1 1 1 1 1 1 1 1 1 1 1 0.0022289903042623802 1 1 1 1 1.4077354837382927e-09 1 1 1 1 0.0094315491767552155 1 1 1 1 1 1 1 1 0.00073189410966762077 1 1 0.0094271601751216155 1 1 1 1 1 0.0081855386991126818 1 1 1 1 1 1 1 1 1 1 1 1 1 1.6624643220213009e-09 1 1 1 0.008596439541534287 1 1 1 1 1 1 1 1 1 1 1 0.012389469926405789 1 0.0049027253445898368 1 1 1 1 1 1 1 1 0.0039495501996238656 1 0.014105016070133007 1 1 -6.1160774014745733e-10 1 1 0.010218716370251166 0.00012346062386712695 1 1 0.016027140155554325 1 1 1 0.010011943887806178 0.0017384146677613694 1 1 1 1 0.0038032004902992661 1 0.0032838990735855091 1 0.0032021854569703641 1 1 0.0079963103564340519 1 0.010168334613465316 1 0.0084136957697789772 1 1 0.00923364343287497 1 1 0.0088660868088736335 1 1 0.0059303511485607925 1 1 1 1 1 1 1 1 0.010389275831268431 1 1 1 1 1 1 0.0076282475996103192 1 0.011422631040743661 0.011222559143686752 1 0.00022843577186327894 1 0.0067085167816820761 0.003201963469551268 1 0.0099040339291725614 1 0.0072276060870642509 1 1 1 1 0.0029737347865319546 0.0064080645007229056 -5.4545082686652258e-10 1 1 1 0.0089025926652556465 1 0.0062526490744941703 1 1 1 1 1 1 1 1 1 1 1 1 1 1 1 1 1 1 1 0.0098654402938589247 1 1 0.0099386492973480896 0.010870030319553 1 0.011488302540557455 1 1 1 1 0.0085339295888695182 0.006669188370473365 1 1 0.0032976348265761138 1 1 1 1 1 1 1 1 1 1 1 1 1 0.0039626277969695978 1 1 1 1 0.0095131122419387214 0.010355912358737732 1 1 0.016090195638537468 1 1 1 1 0.014364110237466116 0.0037937158805202986 0.015900383378397671 1 1 1 1 0.01446154491447112 1 1 1 1 1 1 1 1 1 1 1 0.010108802905376642 1 0.010294353138189147 1 1 1 1 0.015476189706248845 1 1 1 1 1 0.014680202662870101 1 1 1 1 1 1 1 1 0.014834946906398798 2.4307836386100456e-09 1 0.013597257770021978 1 1 1 0.0015000876980687493 1 1 1 1 1 1 1 1 1 1 1 1 1 1 1 1 1 1 1 1 1 1 1 1 1 1 1 1 1 1 1 1 1 1 1 1 1 1 1 1 1 1 1 1 1 1 1 1 1 1 1 1 1 1 0.009953759073605668 1 0.010843444992973642 1 1 1 1 1 1 1 0.010487106787955176 1 1 1 1 1 1 1 1 1 1 1 1 1 1 1 1 1 1 0.0091840219077740787 0.0096881511974019254 1 1 1 0.0098989700979443974 1 1 1 1 0.009670765970511315 1 1 1 1 1 1 1 1 1 1 1 1 0.011645347012894776 1 0.0043978661234683816 0.0017539233115760021 1 1 1 1 0.0082899817423380592 1 1 1 0.0037240379232277143 1 0.0034202563469153419 1 1 1 1 1 0.014737721594624517 1 0.0079806671626507682 1 0.0041147115714903898 1 1 0.0054499557847372832 1 1 0.012254532807331941 0.0021336958718710299 1 0.0084588957888845316 1 1 1 0.0048634232415123227 1 1 1 1 1 1 1 1 1 1 1 1 1 1 1 1 1 1 1 1 1 1 1 1 0.0093677529780227357 0.0095673389175655946 1 1 1 0.0098843630538960961 1 1 1 1 1 1 1 1 0.011460006922419799 1 1 1 1 1 0.014345953109938567 1 0.0036155622887018134 1 1 1 1 1 1 1 1 1 1 1 1 0.0074268697330236045 1 1 1 1 1 0.0066600397904227962 1 1 1 0.0082108984931946044 1 1 1 1 1 1 0.0080429308219377646 1 1 0.00648149686753576 1 1 1 1 1 1 1 0.010004670926053116 0.012101972763003715 1 1 1 0.0041423126886606688 1 1 1 1 1 0.011773191469233307 1 1 1 1 0.010209206328924705 1 1 1 1 1 0.008931386533445794 1 1 1 1 1 1 1 1 1 0.0044782648539188168 1 1 1 1 1 1 1 0.005206931832044133 1 1 1 1 1 1 1 1 1 1 1 1 1 1 1 1 1 1 1 0.0086310535149729996 1 1 1 1 1 1 1 1 1 1 1 1 1 1 0.0097542896412612344 1 0.010620225187771403 1 1 1 1 1 1 1 1 1 1 1 1 0.011635710278359123 1 1 1 1 1 1 1 0.010247115605692407 1 1 1 0.010751407829762062 1 0.0083542986260836741 1 1 1 1 1 1 1 1 1 1 1 1 1 1 1 1 1 1 1 1 0.012282851281890887 1 1 1 1 1 1 1 1 1 1 1 1 1 1 1 0.01063027368464977 1 1 1 1 0.011784306166909873 1 1 1 1 1 1 1 1 1 1 1 1 1 1 1 1 1 1 1 1 1 1 1 1 1 1 1 1 1 1 1 1 1 1 1 1 1 0.011841318119652632 1 1 1 1 1 1 1 1 0.012850860597230101 1 1 1 1 0.010860272152434992 1 1 1 1 1 0.0087510659163174687 1 1 1 1 1 0.012922303404885753 1 0.0075471496345927772 1 1 0.0098592232716604999 1 1 1 1 0.011613594573937229 1 1 1 1 1 0.009177489963362373 1 1 1 1 1 1 1 1 1 1 1 1 1 1 1 0.010082091608709626 1 1 1 1 1 1 1 1 1 1 1 1 1 1 1 1 1 1 1 0.010693781005831633 1 1 1 1 1 1 1 1 1 1 1 0.011522262919975395 1 1 0.011349205343667098 1 1 1 1 1 1 1 1 1 1 1 1 1 1 1 1 0.010841482100141348 1 0.011267366191303162 1 1 1 1 1 1 1 1 1 1 1 1 1 1 1 1 1 1 1 1 1 1 1 1 1 1 1 1 1 1 1 1 1 1 1 1 0.010811032250614293 1 1 1 1 0.0099542831256712594 1 1 1 0.011515234322291958 0.010303309007088531 1 1 1 1 1 1 1 1 1 1 1 1 1 1 1 1 1 1 1 1 0.0099393989871733087 1 1 1 1 1 0.010772457700670389 1 1 1 1 1 1 1 1 1 1 1 1 1 1 1 1 0.010709291732336111 1 1 0.011080191986982202 1 0.010522581882598681 1 1 1 1 1 1 1 1 1 0.0095001336099575211 1 1 1 1 1 1 1 1 1 1 1 1 1 1 1 0.01086295072445846 1 0.010367043297356996 1 1 1 1 1 1 0.0099950620223552833 1 1 1 1 1 1 1 1 0.0093322328829748696 1 1 1 0.0097430266640595453 1 1 1 1 1 1 0.010764832203737792 1 1 0.0093560145872695968 1 1 1 1 1 1 1 1 1 0.0087789682633439975 1 1 1 1 1 1 0.0095485175818274953 1 1 1 1 0.010003948801960587 1 0.012630055578476636 1 1 0.0090650582744195227 1 0.012143646697435378 1 1 1 1 0.0099667158513145268 1 1 1 1 1 1 1 1 1 1 1 1 1 1 0.0099667056033919399 1 1 1 1 1 1 1 1 0.0094229536760743957 1 1 1 1 1 1 1 1 1 1 1 1 1 1 1 1 1 0.010093065552727022 1 1 1 1 1 1 1 1 1 1 1 1 1 1 1 1 0.011107193316677352 1 1 0.012958993666047094 1 1 1 1 1 1 1 1 0.0053995094483339501 1 1 1 0.0031630737384852788 1 1 0.011608092174986172 1 1 1 1 0.01597862992265095 1 1 1 1 1 1 1 1 0.017120094492952417 1 1 1 1 1 1 1 1 1 1 1 0.010589965470372831 1 1 1 1 1 1 1 1 1 1 1 1 1 1 1 1 1 1 1 1 1 1 0.010872907168748256 1 1 0.010293527924742675 1 1 1 1 1 1 1 1 1 1 1 1 1 1 1 1 1 1 1 1 1 1 1 1 1 1 0.01879320328541715 1 1 1 0.018115526551992979 1 1 1 1 1 1 1 1 1 1 0.0097366745789930244 1 1 1 0.0015967023123453564 1 1 1 1 0.00045162357878221482 1 1 1 1 1 1 1 1 1 1 0.011332334317464193 1 1 0.0089827344089246502 1 1 1 1 1 1 1 1 1 1 1 1 1 1 1 1 1 1 1 1 0.01195795046929567 1 1 1 1 1 1 1 1 1 1 0.009015419378318788 1 1 1 1 1 1 1 1 1 1 0.010599641014113332 1 0.014054345488715652 0.015346798212103777 0.0072576053227090143 1 1 1 1 1 1 1 0.015516683528424358 1 1 1 0.010241014056639961 1 1 1 1 1 1 1 1 1 1 0.01172501354035644 1 1 1 1 1 1 1 1 1 1 1 1 1 1 1 1 1 1 1 1 1 1 1 1 1 1 1 1 1 1 1 1 1 1 1 0.0076118260866878864 1 1 1 1 1 1 1 1 1 1 1 1 1 1 1 1 1 1 1 1 1 1 1 1 1 1 1 1 1 1 1 1 1 1 1 1 1 1 1 0.0092881808477107419 1 1 1 1 1 1 1 0.0084328047889648539 1 1 1 0.0091436271496008678 1 1 1 1 1 0.0089895490674528344 1 1 1 0.012739701131804417 0.011122095824880907 0.008936903680888085 1 1 1 1 1 1 1 1 0.010958960613217585 1 1 1 1 1 1 1 1 1 1 1 1 1 1 1 1 1 1 1 1 1 1 1 1 1 1 0.013485986399374207 1 1 1 1 1 1 1 1 1 1 1 1 1 1 1 1 1 1 1 1 1 1 1 1 1 1 1 1 1 1 1 1 1 1 1 1 1 1 0.010430608698079595 1 1 1 1 1 1 1 1 0.019893043323654477 1 1 0.018513034894723304 1 1 1 1 1 1 1 1 1 1 1 0.01852766761638857 1 1 1 1 1 1 1 0.021408661743472585 0.0099500013703213985 1 1 0.0089694285373196538 1 0.016458279826951014 1 1 1 1 1 1 1 1 1 1 1 1 1 1 1 1 1 1 1 1 0.0092292860477776462 1 1 1 0.0083705214151050533 1 1 1 1 1 1 1 1 1 1 1 1 0.0084635865248601574 1 1 1 1 1 1 0.0091412353673273952 1 0.019926268130009687 1 1 1 1 1 1 1 1 1 0.005830809128030065 1 1 1 1 1 0.0098667868474720741 1 0.013799505449335579 1 0.012815957020705985 0.0070221580570325598 1 0.0046484695648383728 1 0.010692385810799832 1 0.012639169751661206 1 1 1 1 1 1 1 1 1 1 0.010203483963564481 1 0.011489810551601721 1 1 1 1 1 1 1 1 1 1 1 1 1 1 1 1 1 1 1 1 1 1 1 1 1 1 1 1 1 1 1 1 1 1 1 0.010057135595087134 1 1 1 1 1 1 1 0.010037846218034784 1 1 1 1 1 0.0061167528000264648 1 1 1 0.010016264557207027 1 1 1 1 1 1 1 0.0098495955265716501 1 1 0.0099138638164546627 1 1 1 1 1 1 1 1 1 1 1 1 1 1 1 1 1 1 1 1 1 1 0.010373235884540977 1 1 0.010772455614480397 1 1 1 1 1 1 1 1 1 1 1 1 1 1 1 1 1 0.011457202566513502 1 1 1 1 1 1 1 1 1 1 0.014111063072399302 1 1 1 0.014102311658399255 1 1 1 1 1 0.01124595097299938 0.0072904792373576152 1 1 0.0062147527448186274 1 1 1 0.0030783233184425371 1 1 1 0.010496667480990984 0.0097518350768450029 1 0.0081044673197177182 1 1 1 0.010208463165501384 1 1 1 1 1 1 1 1 1 1 1 1 0.020070412835675545 1 1 1 1 1 1 1 1 1 1 0.010253336647371644 1 1 1 1 0.009986800432249995 1 1 0.011196836386449763 1 1 1 0.011065125513071157 1 1 1 1 1 1 0.012194621378688477 1 1 1 1 1 0.0070020784922156035 1 1 1 0.015451462416245329 1 1 1 1 1 0.0064498751520444958 1 1 1 1 1 1 0.0099237154549731595 0.014093497145209889 1 1 1 1 1 1 1 1 1 1 1 1 1 1 0.010664265924123992 1 1 1 1 1 1 1 1 0.010998495044949416 1 1 1 1 1 1 1 1 1 1 1 1 0.0099415784712912035 1 1 1 0.0098351676661141869 1 1 1 0.0096201386464294311 1 1 1 1 1 1 1 1 1 1 1 1 1 1 1 1 1 1 1 1 1 1 1 1 1 1 1 1 1 1 1 0.010010994954232542 0.0099434219754470227 1 1 0.0120154462450904 1 1 0.011765052332978292 1 1 0.011579753602361834 1 1 0.0099752707842120369 1 1 0.0099249286375378207 0.0099928961756209442 1 1 1 1 1 1 0.012939337289556383 1 1 1 1 1 1 1 1 1 1 0.011188398972027967 1 1 1 1 1 1 1 1 1 1 1 1 1 1 1 1 1 1 1 1 1 1 1 1 1 1 1 1 0.010250125603700276 1 1 1 1 1 1 1 1 1 1 1 1 1 1 1 1 1 1 0.010969565925966561 1 0.01070800743170657 1 1 1 1 1 1 1 1 1 1 1 1 1 1 1 1 0.0098261426445919037 1 1 1 1 1 1 0.0090380483449387719 1 0.015714326978685696 1 1 1 0.012904032078610706 0.0095395140503198722 1 1 1 1 1 1 0.012157704607668591 1 1 0.0099948918201946974 1 1 1 1 0.011928496965768717 1 1 1 1 1 1 0.011624494762051116 1 1 1 1 1 0.010781829791859446 1 1 1 1 1 1 1 1 1 1 1 1 1 1 1 1 0.0096624488632292751 1 1 1 1 0.011930181629628193 1 1 1 1 0.015583260019529479 1 0.0084961569002431486 1 1 1 0.0098302780373991927 1 1 1 1 1 1 1 1 0.0097368684779020817 1 1 1 1 1 1 1 1 1 0.0094234806956607631 1 1 1 1 1 1 1 1 1 1 1 0.011424399124265709 1 1 0.0068917499569074586 1 1 1 0.009299482967290388 0.0098544160994397736 1 1 1 1 1 1 1 0.01051839926544349 1 1 1 0.0087012145507354352 0.011287595883756309 1 1 1 1 0.0088141529793382481 1 1 0.0093165369578626228 0.0123222369130596 0.0097663989118145569 1 0.0096370900637529587 1 0.010062289208669178 1 0.010182799775480401 1 1 1 1 1 1 1 1 1 1 1 1 0.0072531333429276049 1 1 1 1 1 1 1 1 1 1 1 1 1 1 1 1 1 1 1 1 1 1 1 1 1 1 0.010785951141246308 1 1 1 1 1 1 1 1 1 1 1 1 1 1 1 1 0.0099923825289418428 1 0.0079179417635874896 0.01170877911506085 0.0089561847663365904 1 1 1 1 0.0098863671179628826 1 1 0.012936578413380879 1 1 1 1 0.013133894657935782 1 1 1 1 0.011744190949100992 1 1 1 1 1 1 1 1 0.02418428549601849 1 1 0.0087179199737162788 1 0.010427653296235788 1 1 1 1 1 1 1 1 1 1 1 1 1 1 1 1 1 1 1 1 1 1 1 1 1 1 1 1 1 1 1 1 1 1 1 1 1 1 1 1 1 1 1 1 1 1 1 1 1 1 1 1 1 1 1 1 1 1 1 1 1 1 1 1 1 1 1 1 1 1 1 1 1 1 1 1 1 1 1 1 1 1 1 1 1 1 1 1 1 1 1 1 1 1 0.010361113556810452 0.010332771755951415 1 1 1 1 1 1 1 1 1 1 1 1 1 1 1 1 1 1 1 1 1 1 1 1 1 1 1 1 1 1 1 1 1 1 1 1 1 1 0.016871711664545964 1 1 1 1 1 1 1 1 1 0.01422775414979986 1 1 1 1 1 0.0098213518156373032 1 1 1 1 1 1 1 1 1 1 1 1 1 1 0.010310761322413584 1 1 1 1 1 1 1 1 1 0.011407139953333143 1 1 1 1 1 1 0.014769197796577253 1 1 1 0.015828179960708733 1 1 1 1 1 1 0.017354921848111538 1 1 1 1 1 1 1 1 1 1 1 1 1 1 1 1 1 1 1 0.011318459605745143 1 1 1 1 0.0060934721659061872 1 1 0.01532952238984903 1 1 0.005347623723040474 1 0.01388212512995228 1 1 1 1 1 1 1 1 1 1 1 1 1 1 1 1 0.0074010741694842917 1 1 1 0.0090780444635021624 1 1 1 1 1 1 0.0099504319510184455 1 1 1 1 1 1 1 0.01623744084248253 1 9.5891666482272875e-10 1 1 1 1 1 1 1 1 0.0099204158837063391 1 1 0.014767633890367048 1 -6.6388848238285725e-10 1 1 1 1 1 1 1 1 1 0.010081033917074557 1 0.011685294521002218 1 1 1 1 1 1 1 1 0.011181415930249416 1 1 1 1 1 1 1 0.010309731669862234 1 1 0.00824333126065218 1 1 1 0.010946473936876954 1 1 0.016993987091294106 1 1 1 1 1 1 0.01937124020498486 1 1 1 1 1 1 1 1 1 1 0.0094031744653371094 1 1 1 1 1 1 1 1 1 1 1 1 0.0032357477934145187 1 0.013663369002196776 1 1 0.019694588988819491 1 1 0.0064759875002854302 0.0014614907747219699 1 0.0217943727929218 1 1 1 1 1 1 1 1 1 1 1 1 1 0.010424991989582732 1 1 0.021997220859862606 1 1 1 0.010035441385650289 1 1 1 1 1 1 1 1 1 1 1 1 1 1 1 1 1 1 1 1 1 1 1 1 1 1 1 1 1 1 1 1 1 0.010025659754911462 1 1 1 1 1 1 0.0086807022620052632 1 1 0.0098915651492002838 1 1 1 1 1 0.0088684398548738511 1 1 1 0.0098478676739344167 1 1 1 1 1 0.015385535882292307 1 1 0.024700927907130278 1 1 0.013609991708043853 1 1 0.0097242784164246684 1 1 1 1 1 0.010343496529574503 1 0.025425040069759149 0.0070130382632905362 1 1 0.0099057111099492643 1 1 0.009959829899144023 1 0.029476322740824464 1 1 1 1 1 1 1 1 1 1 1 1 1 1 1 1 1 1 1 0.0078503012312171518 1 1 0.0099939038806042269 1 1 1 1 1 1 1 1 1 1 1 1 1 1 1 0.01093063667340714 1 0.0098655376781961596 1 1 1 0.008730814823185374 1 1 0.0099733393233738792 1 1 0.011633730918582861 0.010389234746472187 1 1 1 1 1 1 1 1 1 1 1 1 0.010221732796102251 0.0097359356454537003 0.013304459600111083 1 1 1 1 1 1 1 1 1 1 1 1 0.0092458681475397486 0.0085983851553229265 1 1 1 1 1 1 1 1 1 1 1 1 1 1 1 1 1 1 1 1 1 1 1 1 1 1 1 0.0091204383885611917 1 1 1 1 1 1 1 1 1 1 1 0.010023080429208464 1 0.010083906745489389 1 1 0.0099406556609733555 0.0095217789952410665 1 1 1 0.0074909101236711045 0.0098818798573136503 1 1 1 1 1 1 0.015551075252056786 0.0095759006694179361 1 1 0.0092156275110340663 1 1 1 1 0.010058600415107286 0.010450804714322819 1 1 0.0085100974960839945 1 1 0.010169130979133122 1 1 1 1 1 1 1 1 1 1 1 1 1 1 1 1 1 1 1 1 1 1 1 1 1 1 1 1 1 1 1 1 1 1 1 1 1 1 1 1 0.0097609450583568506 1 1 0.0090900299697346323 1 1 1 1 1 0.019399518644979474 1 1 1 1 1 1 1 1 1 1 1 1 1 0.014378280042143267 1 1 0.011321509881243474 1 1 1 1 0.0095057605568350523 1 1 1 0.0096769821065057667 1 1 1 1 1 1 0.0060394943039508292 1 1 1 1 1 0.0085487316052150868 1 1 1 1 1 1 1 1 1 0.0098287784503292789 1 1 1 1 1 1 0.0087815361010852855 1 1 1 1 1 1 1 1 1 1 1 1 1 1 1 0.0027759054493359386 1 1 0.0091434635373780458 1 1 1 0.0089682671479929602 1 1 0.012085401211976609 1 1 1 1 1 1 1 0.010867908391590533 1 1 1 1 1 1 1 1 1 1 1 0.010216572926482186 1 1 1 1 1 1 1 1 1 1 1 1 1 1 1 1 1 1 1 1 1 1 1 1 1 1 1 0.01138178364245985 1 1 1 1 1 1 1 0.017734437024494877 1 1 1 1 1 1 1 0.019356389968782625 1 1 1 1 1 0.010463520661656615 1 1 1 0.016111085326832898 1 1 1 0.0061341613197926984 1 1 1 0.01198296728527453 1 1 1 0.0055844437049512863 1 0.0052683341502420544 1 0.014488743605139149 1 1 0.015631824763000256 1 1 0.0055625516695301455 1 0.012207645484599676 1 1 1 1 1 1 1 1 1 0.0029177225757758326 1 1 1 1 1 1 0.0062830568303176727 1 1 1 0.010193673915022572 1 1 0.0099064391411673447 1 1 1 -1.5658307740695765e-09 1 1 1 1 1 1 1 1 1 0.0098908815861082529 1 1 0.024140060617043602 1 1 0.0081840713050521444 1 0.015418845911971367 1 1 1 1 1 1 0.014231485884933028 1 1 1 0.0080046099721363777 1 1 1 1 1 1 0.010531468671749155 1 1 1 1 1 0.0067459030827022471 0.0054975226925139242 1 1 1 1 0.006989360419354761 1 1 1 1 1 1 1 0.0062458567143193998 1 0.0099924839487859386 1 1 1 1 1 1 0.0097620686929530652 0.00072326852976613634 1 1 1 0.00043241961596379372 1 1 0.0098681363890484857 1 1 1 1 1 1 1 1 1 1 1 1 1 1 1 0.011340651613747886 0.019666666973941236 1 0.0058054236708547508 1 1 1 1 1 1 0.0046070433555373564 1 1 1 1 1 1 1 1 1 1 1 1 1 1 1 0.01004024089250977 1 1 1 1 1 1 1 1 0.010632456415912246 1 1 1 0.010563696116176186 1 0.0095961910073486274 1 1 1 1 0.019949316865198956 1 1 0.0087693012849287492 1 1 1 1 1 1 1 0.011063088702141137 1 1 0.014348138256838264 1 1 0.010272479790860432 1 1 1 1 0.011362329099023698 1 1 1 1 1 1 1 1 1 1 1 1 1 1 1 1 1 1 1 1 0.0078235331878921087 1 1 1 1 1 1 1 1 1 1 1 1 1 1 1 1 1 1 1 1 1 0.0049400306828899761 1 1 1 0.00965183998195163 1 1 1 1 1 1 1 1 1 1 1 1 1 1 1 1 1 1 1 1 1 1 1 0.018339614779632543 1 1 0.00031376782894976946 1 1 1 1 1 1 1 1 0.011864243049314924 1 1 1 0.01533754944009807 1 1 0.001876810251918451 1 1 1 1 1 1 1 1 1 1 1 1 0.0097668820038697788 1 1 0.009235401489602231 1 1 1 1 1 0.012450605445350045 1 0.0095244504577136346 1 1 0.010145670338152474 1 1 0.013380920038875765 1 0.011223309641872264 1 1 1 1 1 1 0.0150357028323558 1 1 1 0.0035209832470966314 1 1 1 1 1 1 1 1 1 1 1 1 1 1 1 1 1 1 1 1 1 1 1 1 0.0080774281273334782 1 1 0.0039284637296769682 1 1 1 7.0931314858149741e-10 1 1 1 1 1 0.001707051140475379 1 1 1 1 1 1 1 1 1 1 0.0034125302208334678 1 1 0.0097197346073132906 1 1 0.0094655605459269092 1 1 1 1 1 1 1 1 1 1 1 1 1 1 1 0.009745825938613624 1 1 1 1 1 1 1 1 1 1 1 1 0.0099341836115612037 1 1 0.0092996551760231791 1 1 1 1 1 1 1 1 1 1 1 1 1 0.0080887602778431621 1 1 1 0.011466422761242741 1 0.01134868379434892 0.0077127197053994349 1 1 0.010218522561971911 1 1 1 1 1 0.01135425647046444 1 1 0.012666502667287253 1 1 1 1 1 1 1 1 0.0091173135073697852 1 1 1 1 1 1 1 1 0.0073264109901989543 1 1 0.0063021891548484983 1 1 1 1 1 1 1 1 1 1 0.012368831574457256 1 1 1 1 1 0.012547561995222651 1 1 1 0.0099262885876390868 0.010443059279279113 1 1 1 1 1 1 1 1 1 1 0.0088452705999040315 1 1 1 1 1 0.0087236005109078973 1 1 1 1 1 0.0087832792391686655 1 1 1 1 1 1 1 0.0074332261802975228 0.0096799682895235689 1 1 1 0.010502861006006246 1 1 1 1 1 1 1 1 1 1 0.0096031308614396883 1 1 1 1 1 1 1 0.008468093315731855 1 1 1 1 1 1 1 1 1 0.0067491489313087228 1 1 1 1 1 1 1 1 0.0093672523484618735 1 0.0097154123665102437 1 1 1 1 1 1 0.012378247557020661 1 1 1 1 0.011315158854879524 1 1 1 1 1 1 1 0.011345942173945467 1 1 1 1 1 1 1 1 0.0093069909714988651 1 0.010221556468486249 1 1 1 0.011509776208087874 1 1 1 1 1 1 1 1 1 1 1 1 1 1 0.010531869272893063 1 1 1 0.010277567445100831 1 1 1 1 1 1 1 0.01024334379361112 1 1 1 1 1 1 1 1 1 1 0.010331114816316416 1 1 1 1 1 1 1 1 1 1 1 1 0.013983158299868195 1 1 1 1 1 1 1 1 1 1 0.010376438148920315 1 1 1 0.009235805021090426 1 1 0.010780509865599006 1 1 0.0086799306181383276 1 1 1 1 0.016318352960129252 0.01111547234032364 0.009115285022962414 1 0.0086834695027043253 1 1 1 1 1 1 1 1 1 0.010066366292585904 1 0.010062988133951348 1 1 1 1 1 0.0090477106786965421 0.010146912230611135 1 1 1 1 1 1 1 1 1 1 1 1 1 1 1 1 1 1 1 1 1 0.0091799222054006254 1 1 1 1 1 1 1 1 1 1 1 1 1 1 1 1 1 1 1 1 0.010917439174332357 1 1 1 0.010874783776325534 1 1 1 1 1 1 0.010930123684534457 0.010881381006965901 1 0.0096346469332799257 0.0098317692942447455 1 0.010945148799355644 1 1 1 0.010769400988587301 0.0099748894154820158 1 1 0.008936334785022957 0.0074520055959585753 1 1 1 1 1 1 1 1 1 1 1 1 1 1 1 1 1 1 1 1 1 1 1 0.0096021480542431079 0.0079940112635549197 1 1 1 1 1 1 1 0.0097255074159204799 1 1 1 1 1 1 1 1 1 0.0091453606572556197 1 1 1 1 0.011697214709948427 0.010730057009919268 1 1 1 0.0093284008052314585 1 1 1 1 1 1 1 0.01059316384517202 0.01093229170359895 1 1 1 1 0.011018045396138933 1 0.011554630119255963 1 1 1 1 1 0.010220635226369214 0.009470187308287208 1 1 0.013228755609922607 1 1 1 0.0089480516476598514 1 1 1 1 1 1 1 1 1 1 1 1 1 1 1 0.015185250868171348 0.013133430511031977 1 1 1 0.013588885260126972 1 1 0.015859692608857095 0.0099994677798829375 1 1 1 1 0.015894353439422304 1 1 1 0.0091198104870374563 1 0.012159942264680246 1 1 1 0.0087574633693962393 1 1 0.010594140225077653 1 1 1 1 1 1 1 1 1 1 1 0.010150803247272461 1 1 1 1 1 1 1 1 1 1 1 1 1 1 1 1 8.5464634784982113e-05 1 1 1 3.6128860285422615e-09 1 1 1 1 0.011388215578126592 1 1 1 1 1 1 1 0.0096236049581346298 1 1 1 1 1 1 1 0.0014500983971790365 1 1 1 1 0.010002031059911359 1 1 1 1 1 0.0001849235833702148 1 0.012189297357171267 1 1 1 1 1 1 1 1 1 1 1 1 1 1 1 1 1 1 1 1 1 1 1 1 1 1 0.010511503911036238 1 1 1 1 1 0.0024668368312291428 0.0035547240761350991 1 0.01145864891876287 0.0019946697479390641 1 1 1 1 1 1 1 1 1 0.010449500900713428 1 1 1 1 0.011167191544744713 1 1 1 1 1 1 1 1 1 1 1 1 1 1 1 0.0099962993966154177 1 1 1 1 0.010915668840467898 1 0.0083110385578059436 1 1 1 1 1 1 1 1 1 1 1 1 1 1 1 1 1 1 1 1 0.0089166473738733609 1 1 1 1 1 1 1 0.010315497756340063 1 1 1 1 1 1 1 1 1 1 1 0.0099867528710935669 1 1 1 1 0.011037370581068053 1 1 1 1 1 1 1 1 0.010408383976126284 1 1 1 1 1 1 1 1 1 1 1 1 1 1 1 1 1 1 0.010043354887250819 1 0.010116470085356898 1 1 1 1 0.010159819605560484 1 1 1 1 1 1 1 1 1 1 1 1 1 0.012578527317273528 1 1 1 1 1 1 1 1 1 1 1 0.01719412948345693 1 1 1 1 1 1 1 1 1 0.01492048377670124 1 1 1 1 0.011792425563791845 1 1 1 1 1 1 1 1 1 1 1 1 1 0.013545280056070266 1 1 1 1 1 1 0.016876708847733707 1 0.011037769160654028 1 1 0.012753132965708285 0.015344846474839953 0.0099642053768349628 1 1 1 1 1 0.0099279668839417773 1 1 1 1 1 1 1 0.017162537113093755 1 1 0.0096907109118050255 1 1 1 0.014653996886235844 1 1 1 0.017167766491748098 0.016072292012800599 1 0.0091200448965002914 1 1 1 1 0.018473534561278801 1 1 1 1 0.015568826113924763 1 0.0058250719793874021 0.019108312946184383 0.0063025941006485241 1 0.0078572056986669515 1 1 1 0.0067900873069550727 1 1 1 0.0068289374847468227 1 0.010494476836299265 1 1 0.0095558394933915759 1 0.006745737650872918 1 1 1 1 1 1 1 1 1 1 1 1 1 1 1 1 0.013194123709101073 1 1 0.01121547452369329 0.014054733884996819 1 1 1 1 0.011081027171179642 1 1 1 1 1 1 1 1 1 1 0.012828551231474375 1 1 1 1 1 1 1 0.011374001414756269 1 1 1 1 1 1 1 1 1 1 1 1 1 1 1 1 1 0.015723830401653455 1 0.015607399906946495 0.0072488065452961607 1 1 1 1 1 0.0089126072877493776 1 1 1 1 1 1 1 1 1 0.0079525146436578639 0.011832403820357563 1 1 1 1 1 1 1 1 1 1 0.010376706290894275 1 1 1 1 1 1 0.0093936848441448922 1 1 1 1 1 1 1 1 1 1 1 1 1 1 1 1 1 1 1 1 1 1 1 1 0.010089994618529233 1 0.011157697865919709 1 1 1 1 0.0081768158341720461 1 1 1 0.010495531458515882 1 1 1 1 1 0.0079746953182940877 1 1 1 1 1 1 0.010220009162994292 1 1 1 1 1 1 1 1 1 1 1 1 0.010288233064121801 1 1 1 1 1 1 1 1 1 0.0092522927540762516 1 1 1 1 1 1 1 1 1 1 1 1 1 1 1 1 1 1 1 1 1 1 1 1 1 1 0.0099008780204050267 1 1 1 0.01060649065585248 0.0096391798779601919 1 1 1 1 1 1 1 0.0062206919486267036 0.0056742847161212889 1 1 0.010333914981456391 1 1 0.013147753286101536 1 0.010521119483004474 1 0.01463054923480814 1 0.011254403693911709 1 0.010124432287788048 1 1 0.01607004381356554 1 0.016303892907155615 1 0.024378992538647767 0.012255607042348784 0.0029680325695860777 1 0.014541413301220531 1 1 -1.2990666702072939e-11 1 1 1 1 1 1 1 0.0093951472229064723 1 1 1 0.011896069594858911 1 1 1 1 1 0.032011341977682642 1 1 1 1 0.010006906920800807 1 1 0.026839343062677854 1 0.012410481667626202 1 0.026322447121749606 1 1 1 0.0088861722732281323 0.021177922386465837 1 1 1 0.016587289350687418 1 1 0.010010539385181573 1 0.010776930491774146 1 1 1 1 0.0086716775147415506 1 1 1 1 1 1 1 1 1 1 1 1 1 1 1 1 1 1 1 1 1 0.015570219590793133 1 0.026707795428017322 0.019042649834177333 1 1 1 1 1 1 1 1 1 1 0.022426757549551569 1 1 1 0.0075657475501228477 0.02102123872954351 1 1 1 1 0.025422921067398893 0.01983781915596616 1 1 1 1 1 1 1 1 0.0099159265142356075 1 1 0.010273852403939555 1 1 1 0.0099878344555225634 1 1 1 1 1 1 1 1 1 1 1 0.009144025569474119 1 1 1 1 1 1 1 1 1 1 1 1 1 1 1 1 1 1 0.0087772571990377968 1 1 0.0097528589183771483 1 1 1 1 0.0098680615403346633 1 1 1 1 1 1 1 0.0094669444670822528 1 1 1 1 1 1 1 0.0084643335174123188 1 1 0.0099917964184536162 1 1 1 1 1 1 1 1 1 1 1 1 1 1 1 0.0094853158087923866 1 1 1 1 1 1 1 1 1 1 0.0081225878507348998 1 1 1 1 1 1 1 1 1 1 1 1 1 1 0.010482858173590508 1 1 1 0.0087487391148936191 1 1 1 1 1 1 1 1 0.010447099420287653 1 1 1 1 1 1 1 0.00094610034164874582 1 1 1 0.001999194358547068 1 1 1 0.010204840741187556 1 1 1 0.0098841668142184633 1 1 1 1 1 1 1 1 1 1 1 1 1 1 1 1 1 1 1 0.0095970186724664286 1 0.0027860024011306609 1 1 1 1 1 1 0.0078008516492382371 1 1 1 1 1 1 1 1 1 1 1 1 1 1 1 1 1 0.00992330327828575 1 0.0043664898546618789 1 1 0.0091249890332519359 1 1 1 1 1 1 1 1 1 0.0098554274670637348 1 1 1 1 1 1 1 0.0091605692576708295 1 1 1 0.0098841530827722471 1 1 1 1 1 1 1 1 1 1 1 0.0038507198730477581 1 1 0.0011521015450497163 1 1 1 1 1 1 1 1 1 1 1 1 1 1 1 1 1 0.010365412602091215 1 0.0095918488404094018 1 1 0.0096735356586058335 1 1 1 1 1 1 1 1 1 1 1 1 1 1 1 0.0089493242570514164 1 1 0.009565883967552577 0.0081606397316300247 1 1 1 0.0093279047782081209 1 1 1 1 1 1 1 1 1 1 1 -2.883527097652383e-10 1 1 1 1 1 1 1 1 1 1 1 0.010559053693404707 1 1 1 1 1 1 1 1 0.012301939462138776 1 1 1 -4.2069021183310795e-10 1 0.0049023894631389092 1 1 1 1 1 1 1 1 1 0.0098872332896607143 1 0.012064507177284908 1 1 1 1 1 1 1 0.0022966948524400076 0.0094479600454823766 1 0.0023809274550179726 1 1 1 1 1 1 1 0.016055582424752819 1 1 0.014056927583245726 1 1 1 0.0099608202980688686 1 1 1 0.01151519788565996 -3.520093938558233e-12 1 1 0.013215891795470417 1 1 0.0084913095154429824 1 1 0.012991555903890071 1 0.0036067091216386727 1 1 1 1 1 0.010415340011762191 1 1 0.0099380372363551683 1 0.0099586522942319462 1 0.013715229785796673 1 0.011036358858762058 1 0.011691254512592265 1 1 1 1 0.0092023880223931851 1 1 0.013580432033166813 1 1 0.013507215745671597 1 1 1 1 0.014092821778461696 1 1 1 0.009671901391751607 0.011243084277553904 0.01260618381591911 1 1 1 0.01298780269931863 1 1 0.0098672184992571951 1 1 1 0.01002300257735491 1 1 1 1 1 1 1 1 1 0.0060381545821657293 1 1 1 1 0.010321958708053969 0.0047013740148487276 1 1 0.010943260203642037 1 1 1 1 1 1 1 1 1 0.0098561298658125449 0.01031368318353023 1 1 1 1 1 1 1 1 1 1 0.010629303402196193 1 1 1 1 1 1 1 1 1 1 1 1 1 0.0056329131470421387 0.0087007301080708477 1 1 0.0094854444401494334 1 1 0.011441423256985182 1 1 1 7.1382072128201024e-11 1 1 1 1 1 1 1 1 1 1 1 1 1 0.011188640372261874 1 1 1 1 1 1 1 1 1 1 1 0.010277683639812692 1 1 1 1 1 1 1 1 1 1 1 0.010043167838930568 1 1 1 1 1 1 1 1 1 1 1 1 1 1 1 1 0.008194072250482751 1 1 1 0.013052247976165943 1 1 1 0.011970657648245508 1 1 1 1 1 1 1 1 1 1 1 0.009994449234926225 1 1 1 1 1 0.0099475476320165512 1 1 1 1 1 1 1 1 1 1 1 0.0075871402261612451 1 1 1 0.0092613649555124168 1 1 1 1 1 1 0.010007749255412726 0.0059968149120348639 1 0.0054672371393100824 1 0.010736423668972976 1 1 1 1 1 0.0061083453113492392 1 1 1 1 0.007361987066507614 1 0.010389425635856528 1 1 1 1 1 0.010057153491710005 1 1 1 1 0.0086321829565717892 1 0.0089991455180514403 1 1 1 1 1 0.0068994711463130562 1 1 0.0085462283858120762 1 1 1 0.0074082794161031522 1 1 1 1 1 0.0091418393398200806 1 1 1 1 1 1 0.011217510473726273 0.00044540993148963447 1 1 1 1 1 1 1 1 1 1 1 1 1 1 1 1 1 1 1 1 1 1 1 1 1 1 1 1 1 1 1 1 1 1 1 1 1 0.010461548075871907 0.011433980747559122 1 1 1 1 1 1 1 1 1 1 1 1 1 1 1 1 0.010384297439935804 1 1 0.010385298197324422 1 1 1 1 1 1 0.010690986892141152 1 1 1 1 0.011663066115682352 1 1 1 1 1 1 1 0.010038645153518343 1 1 1 1 1 1 1 1 0.01003858265424766 1 1 1 1 1 1 1 1 1 1 1 1 1 1 1 1 0.010240354901107959 1 1 1 1 1 1 1 1 1 1 1 0.010541353574087111 1 1 1 1 1 0.013828964003486056 1 1 1 1 1 0.017440684354078202 1 1 1 0.010130759499545526 0.010913711845997542 1 1 1 1 1 1 1 1 1 1 0.012446154791933136 1 1 1 1 1 1 1 1 1 1 1 1 1 1 1 1 1 1 1 1 1 0.01344497849744903 1 1 1 1 1 1 1 1 1 1 0.013033651134372531 1 1 1 1 1 1 1 0.0099974216590850672 1 1 0.009980071755462323 1 1 1 1 1 1 1 1 1 1 1 1 1 1 1 1 1 1 0.013405625358388854 0.014759888301287926 1 1 1 1 1 1 0.011746144919974772 1 1 1 0.012909824259472017 0.015964874033920891 1 1 1 1 1 1 0.010004144036319846 1 1 0.01121400561110807 1 1 1 0.013200101160623078 1 1 0.011777148670136415 1 0.011550513344575335 1 1 1 0.013305789219798241 1 1 1 1 0.011538306434759768 1 1 1 1 1 1 1 1 1 0.011165196343830936 1 1 1 1 1 1 1 1 1 1 1 1 1 1 1 1 1 0.010304738307234189 1 0.010760541810794888 1 1 1 1 1 1 1 1 1 1 1 1 1 1 1 1 1 1 1 1 1 0.010450165370808385 1 1 1 1 1 1 1 1 1 1 1 1 1 1 1 1 1 1 1 1 0.010064943487361405 1 1 0.01188850783846777 1 1 0.010210370550935603 1 1 1 1 1 1 1 1 1 0.013075082401500885 1 1 1 0.017465663765690038 1 1 1 1 0.012637075105702063 1 1 0.017194078592183352 1 1 0.012102772074062108 1 1 0.012283268979742796 1 1 1 1 1 1 1 1 1 0.012517809839958077 1 1 0.016308108993316282 1 0.00051266407766176008 1 1 1 0.010034992142348582 0.0099901632856482375 1 1 1 0.0093880868845028845 0.016730311712329339 1 0.010179786185219098 0.011826560682248336 1 1 1 0.015454532827151589 1 1 1 1 1 1 1 1 1 1 1 1 1 0.0096232391449229057 1 0.0081570278687164537 1 1 1 1 1 1 1 0.0092851439868051056 1 1 1 1 1 1 1 1 0.010621398234978287 1 1 1 1 0.010216453703287939 1 0.0099535236270237616 1 1 1 0.008526112925774822 1 1 1 1 0.010067567023355772 1 1 0.0068506515917377414 0.014231180409488186 1 0.0084997443559872432 1 1 0.010748181282130443 1 1 1 0.0099484137237958667 0.010578629404246516 0.015045898029471724 1 1 1 1 1 1 1 1 1 1 1 1 1 1 1 1 1 0.0099971681860682761 1 1 0.01228526478813053 1 1 1 0.013671594278087416 1 1 0.010610727720164078 1 1 0.010010708679574425 0.012804412070458619 0.014164064865943059 0.0096772909254740219 1 1 1 0.013699111802418062 1 1 1 1 0.012530865752864807 1 0.0099493826578055406 1 0.015254255333620138 1 1 1 1 0.0091881705619099915 1 1 1 1 1 0.0073836038762502346 0.013784456460833004 0.0061025957412115771 1 1 1 1 1 1 1 0.017226627453000729 1 0.013638757684804673 1 0.013018111814017845 0.0080926294914764208 1 0.0081651466936468308 1 1 0.013878729361337251 0.012423080652453698 1 1 1 1 1 0.013964493425333881 1 1 1 0.014156691583722202 1 1 0.0090489350720958997 1 1 1 1 1 1 1 1 1 1 1 1 1 1 1 1 1 1 0.0096754294518436451 1 1 1 0.012116575531389784 1 1 1 1 0.007375464661955853 1 0.010003340261239908 1 1 1 0.010375211311358587 1 1 1 1 1 1 1 1 1 1 0.01138077218665251 1 1 1 1 1 1 1 1 0.010473826553326855 1 1 1 1 1 0.0096613938423570217 1 0.0096579428431695091 1 1 0.010002090442079441 1 1 1 1 1 1 1 1 1 1 1 0.0097172041741905371 1 1 0.0087643424648705323 1 1 1 1 1 1 1 0.017035779353923065 1 0.018161673298845903 1 0.0073684169451919586 1 1 1 0.018247117583009662 1 0.0099873754381228155 1 1 0.017229382167810642 1 1 0.014935043746481842 0.010000252166517738 0.0085258100743526716 1 1 1 1 1 0.0079460351069228011 1 1 0.013122364271874236 1 1 1 0.014486942942022183 0.0099147257023944543 1 0.010001976113396545 1 0.012078230096579278 1 1 1 0.010119908446293253 0.0098801329827031339 0.014383619700777225 1 1 1 0.010315620218665958 1 1 1 1 1 0.0097477958401710908 1 1 1 1 0.010813190681869159 1 1 1 0.017552095724890387 1 0.017164820195083315 1 1 1 0.010245526801114561 1 1 1 1 1 1 1 1 1 1 1 1 1 1 1 1 1 1 1 1 1 1 1 1 1 1 1 1 1 1 0.0093335424905364381 1 1 1 1 1 1 1 1 1 1 1 1 1 1 1 1 1 1 1 0.0092743442369076379 1 1 1 1 1 1 1 1 1 1 1 1 1 1 1 1 1 0.0082927377355241985 0.010023667529755934 1 1 0.0080026530070003241 1 1 0.010243276204327939 1 1 1 0.0097844415873517901 1 0.0092924465760145514 1 0.010054298888225857 1 0.009701645675580732 1 1 1 1 1 1 1 1 1 1 1 1 1 1 1 1 1 0.010046901602909669 1 1 1 1 0.010659381512673823 1 1 1 1 1 1 0.0095043302057481582 1 1 1 0.0099994762217853958 1 1 0.011728287025166304 1 1 1 0.0099998450025875277 0.009726159543630597 0.0092600181599765425 1 0.012040005309983445 0.010030781121177978 1 0.010127083584556322 1 0.011592483318223629 1 0.012536233164904417 1 1 0.01048056691571533 1 0.0084158971252815545 1 1 1 1 1 1 1 1 1 1 1 1 1 1 0.0098310805563625592 1 1 1 1 1 1 1 1 1 1 1 1 1 1 0.010065707386320275 1 1 1 0.010178489106372139 1 1 1 0.010075251612282898 1 1 1 0.010074904694352472 1 1 1 1 1 1 1 1 1 0.011154153045447819 1 1 1 1 0.010397347032676127 1 1 0.01377435241710788 1 1 1 1 1 1 1 0.01243451079072398 1 1 1 1 1 1 1 1 1 1 0.011637951662309291 0.011221734743459395 1 1 1 1 1 1 1 0.0085188849856264875 0.013347628922113441 1 0.011901686425447476 0.012612976873825784 1 0.011253362919747566 1 0.013159394818038362 0.010076361066175467 1 1 0.0095734230735241566 1 1 1 1 1 1 1 1 1 1 0.012668321676946275 1 0.011264491215429696 1 0.010009183927765654 1 1 1 1 1 1 1 1 1 1 1 1 1 1 1 1 1 1 1 1 1 1 1 1 1 1 1 1 1 1 1 1 1 1 1 1 1 1 1 1 1 1 1 1 1 1 1 1 1 1 1 1 1 1 1 1 0.0098149317293445282 1 1 1 1 1 1 1 1 1 1 1 1 1 1 1 1 0.013357895053139127 0.018597019155757115 1 1 1 1 1 1 1 1 1 1 1 1 1 1 1 1 1 1 1 1 1 1 1 1 1 1 1 1 1 1 1 1 1 1 1 1 1 1 1 1 1 1 1 1 1 1 1 1 1 1 1 1 1 1 1 1 1 1 1 1 1 1 1 1 1 1 1 1 1 1 1 1 1 1 1 1 1 1 1 1 1 1 1 1 1 1 1 1 1 1 1 1 1 1 1 1 1 0.0077731055074220443 1 1 1 1 1 1 1 1 1 1 1 1 1 1 1 1 1 1 1 1 1 0.010852129538625355 1 1 1 1 1 1 0.010463926434356265 1 1 1 1 1 1 1 1 1 1 1 1 1 1 1 1 1 1 1 1 1 1 1 1 1 1 1 1 1 1 0.011479496077516556 1 1 0.010953365329849361 1 0.010346922730680063 1 1 1 1 1 1 1 1 1 0.01010067396080043 1 0.0098043696929915394 1 1 1 0.010286420957387051 1 1 1 1 1 1 1 1 1 1 1 1 1 1 1 1 1 0.01001005016322256 1 1 1 0.013965208731638734 1 1 0.010125122794185433 0.010005489516169405 1 0.011507772390854107 1 0.010943317997330351 1 0.0095737950422859139 1 1 0.010132392522733296 1 1 1 0.0065809029443829187 1 1 1 1 1 0.0080651313564658132 0.011658009565042673 1 1 0.0079689348688053944 1 0.010014494514174931 1 0.01305169817120817 1 1 1 1 1 0.0062353014397989025 0.0099976668161420035 0.0077474582260148757 0.0099966292509792928 1 1 1 0.0064119576543100552 1 0.011721134121065541 0.0085517314055846075 1 1 1 1 1 0.0072658324974189462 0.0080969505130294352 1 1 1 0.0099992825458542732 0.011076799374342586 1 1 1 1 1 1 1 1 1 1 1 0.0079893911610446101 1 1 1 1 0.012354754941363731 0.01912183990078653 1 1 1 1 1 0.014182825846665633 1 1 1 1 1 1 1 1 1 1 1 0.015596722889910299 1 1 1 0.011410759075461675 0.01764469890618486 1 1 1 1 1 1 1 1 1 1 0.020193492905872579 1 0.015717266625848179 1 1 1 1 0.01134204405943319 1 0.0071845849666603628 1 0.010263687844600161 1 1 0.012069987876850756 1 1 1 1 0.011729579856238338 1 0.0089977693663036984 0.011139703432338886 1 1 0.0090265038496173365 1 0.012940822594681895 0.010853646583350455 1 1 1 1 0.009610729995888502 1 0.0091911621697070879 1 1 1 0.011487207589397676 0.0024202138550755235 1 0.0074654892729401831 1 0.012633129654849723 1 1 1 1 1 1 1 1 1 0.013646359073833939 1 1 0.012596663808907 1 1 1 0.0099449978807315386 0.010573556670931804 1 1 1 1 0.0098342442291172675 1 0.010757498588786701 1 1 1 1 1 1 1 1 1 0.010217015020688419 1 1 1 1 1 1 1 1 1 1 1 1 1 1 1 0.01062122336660061 1 1 1 1 1 1 1 1 1 1 1 0.011673875506303673 1 1 1 1 1 1 1 1 1 1 1 1 1 1 0.010018213746087546 1 1 1 1 1 1 0.010420578320917202 1 1 1 1 0.010076264567561737 0.010998725027296196 1 1 1 1 0.010811055399532001 1 1 0.01000135793492167 0.012421193057840594 1 1 1 1 1 1 0.010860662667667491 1 1 1 1 1 1 0.010342548980160876 1 0.0045931323900352244 1 1 1 1 0.0024081789854629868 1 1 1 0.0090119283607630451 1 1 1 1 1 1 1 1 1 1 1 1 1 1 1 1 1 1 0.0062734389210030144 1 1 1 1 1 0.014837939741226564 3.0087042527521257e-09 0.0036789707372914156 1 1 1 1 1 1 1 1 1 0.012472881175518709 1 0.010467431496861412 1 1 1 1 1 1 1 1 1 1 1 1 1 0.00035560883601336996 0.0089784247471107002 1 1 1 1 1 1 1 0.0098934623502455049 1 1 1 1 0.006658386491739993 1 1 1 1 1 1 1 1 0.0085880396700576973 1 1 1 1 1 1 1 1 1 1 1 1 1 1 1 1 1 1 1 1 1 1 1 1 1 1 1 1 1 1 1 1 1 1 0.0096752900351688587 1 1 1 1 1 1 1 1 1 1 1 1 1 1 1 1 1 1 1 1 1 1 0.0097441208491439602 1 1 1 1 1 1 1 1 1 0.0072269444081137051 1 0.0093897044011447515 1 1 0.0064696819475222808 1 0.0079653029243928388 1 1 1 1 1 1 1 1 1 1 1 1 0.019537313390429592 1 1 1 1 1 0.018545515910066989 1 1 1 1 1 1 1 1 1 1 0.009567386330740486 1 1 0.0085442153436366877 1 1 1 1 1 1 1 1 1 1 1 0.016671769619715449 1 1 1 1 1 0.010716305013778932 1 1 1 0.014497925118707181 1 1 1 1 0.0083544392833492 0.014654730042512625 1 1 1 1 0.00996069612776764 1 0.010051456980956774 1 0.0053610794075878657 0.00022237442099419871 1 1 1 1 0.019806915395870206 1 1 0.0087931247718205634 1 1 0.01233478591606401 1 1 1 0.01012003993245582 1 1 1 1 1 1 1 0.0099418944441264437 0.0061694682502041031 1 0.016131002369297133 1 1 1 1 1 1 1 1 1 1 1 1 1 1 1 0.0093647543452875723 0.010769889462305803 1 0.0092797526525794198 1 1 1 1 0.012720351290498753 1 1 1 1 1 1 1 1 1 1 0.016266791232635008 1 1 1 0.018093028744158666 1 1 1 1 1 1 1 1 1 1 1 1 1 1 0.010104714034644354 1 0.0087543037709092147 1 1 1 1 1 1 1 1 1 1 1 1 1 1 1 1 1 1 0.0095255782302655703 1 1 1 1 1 1 1 1 1 1 1 1 1 1 1 1 1 1 1 0.014503652912602052 1 1 1 1 1 1 1 1 1 0.022000518279735207 1 1 1 0.022967964105451065 1 1 1 1 1 1 1 1 0.0039665685779691658 1 0.0035994545606212146 1 1 1 1 1 0.023046463484091648 1 1 1 1 1 1 1 1 1 1 0.010328253617541833 1 1 1 1 0.0094283942976765428 1 1 1 1 0.00045698340590186529 1 1 0.00050359947181930972 1 1 1 0.0099827519046797302 0.019647568518233668 1 1 1 1 0.009687665939739 0.010334170331547944 1 1 1 1 1 0.0069035354528933328 1 1 1 1 1 0.0083159612291698395 1 1 0.0056485803102670623 1 1 1 0.011965893535161217 1 1 0.010682964430677991 1 1 1 1 1 1 0.0044191613859954973 1 0.013354233089352357 1 1 1 0.0095841657366178661 0.012769109210600676 1 1 0.010500430517317423 1 1 0.011455978712544798 1 1 1 0.010554132858529018 1 1 1 1 1 1 1 1 1 0.0099887981877305257 0.010563658143782236 1 1 1 0.010977365784003289 1 1 0.010579767582826839 1 1 1 1 1 1 1 1 1 0.0051919590780641137 1 1 1 1 1 1 1 1 1 1 1 0.0071442248480615908 1 1 1 1 0.0090659621281655098 1 1 1 1 1 1 1 1 0.0098230129544454384 1 1 1 1 0.0093796821103179842 1 1 1 1 0.0088201542279654835 1 1 0.011174037412457885 1 1 0.003340900779797408 0.010935506402269377 1 1 0.010896840047909098 1 1 1 0.010172351066111937 0.0073797797467381743 1 0.010002513981124618 1 1 0.0099979773213508902 0.012305569180185308 0.0073507734618999329 1 0.012067109895002599 1 1 1 0.011153712695577619 1 1 0.010044944670646198 1 1 1 1 1 1 0.010005615351604893 1 1 1 1 1 1 0.0099114958006498999 1 1 0.0084706108703055116 0.0090928532651250588 1 1 0.011207284172746516 0.011520969473830748 1 1 1 0.010092190351314282 1 1 0.013500745850106211 0.010309576903308372 1 1 1 1 1 0.0071317931010018293 0.013127475355090117 0.010320024100792373 1 0.007187572615495165 1 1 0.0071125886222423232 1 0.0091774734056093779 1 1 1 0.0091465765300632745 1 0.010000812665536726 0.011583043978453177 1 1 0.010637518160065475 1 1 1 0.012251766031978563 1 0.0099544438115091276 1 1 0.0092365708813093375 1 1 0.01035615715998069 1 1 1 1 1 1 1 1 1 1 1 1 1 0.004645528948970426 1 1 1 0.013711777815223406 0.0043343457913500236 1 0.0028218011060791651 1 1 1 0.010003667981285365 1 0.0066352057634452392 1 1 1 1 1 1 1 0.0022726880899837723 1 1 1 1 1 1 1 1 1 1 1 1 1 1 0.010826487210133592 1 1 1 1 1 0.012497833145715471 1 1 1 0.020250366477895028 1 1 1 1 0.0060061144484802736 0.019349166390900729 0.014824329849942683 1 1 1 1 0.0064828322485394746 1 1 0.0080691198786085119 1 1 1 0.013895144033128019 1 1 0.0026344536632187318 1 0.009892234518263078 1 0.014217902787380967 1 1 1 1 1 1 1 1 1 1 1 1 1 1 0.013900730429640325 1 1 1 1 1 1 1 1 1 0.011329665166195864 1 1 1 1 1 0.012980862008768431 1 1 1 1 1 1 0.0098501276094078421 1 1 0.0096706466950387312 1 1 1 1 1 1 1 0.0095604994253538442 0.0093764012482671164 1 0.0040688761483071711 1 1 1 0.0030156681970779919 1 1 1 0.016929792096027935 1 1 1 1 1 0.0099699873794828059 1 0.013231272741541343 0.0063973244092530301 1 1 1 1 0.007548181377491428 1 1 1 1 1 0.010234253462441334 1 1 1 0.010319748990222269 1 0.020041406554717069 1 1 1 1 1 1 1 1 1 1 1 1 1 1 1 1 1 1 1 1 1 1 1 1 0.0075468624505308918 1 1 0.0099980876891139422 1 1 1 1 0.0089463320374079669 0.0077210505862846668 1 1 1 0.011152128326756187 1 1 1 1 1 1 1 1 0.010135010727165116 1 1 1 1 1 1 0.0086992038854250206 1 1 0.0056639007382188813 1 1 1 0.010156672530014184 1 1 1 0.0087119771984418316 1 0.0041260595526042346 0.0083463231738629823 1 1 0.010162617397347933 1 0.0076348646876206443 1 1 0.0058623397049152089 1 1 0.0076811575961779881 0.010020885443540274 1 1 0.0067299886206914159 1 1 1 1 1 1 1 1 0.0080953545297178537 0.0098652411083366837 1 1 1 0.010010807863892001 1 1 0.012437090444483268 1 0.0067734157553952425 0.0075336635788467807 1 1 0.011144399692733654 0.011781394527222397 1 1 0.010001653994964884 1 1 0.0091061097785978852 1 1 0.010559332692724452 0.0063442822234363525 1 1 1 1 0.011095855856687197 1 1 1 0.0081377900843998419 1 0.0099954049642239848 1 0.0077146112909267095 1 0.0082054399996344674 1 1 0.0099453876229316195 1 1 1 0.0070638709060270449 0.0058088207239297071 1 1 1 0.0099977905677258675 1 0.011162879130196129 1 0.0080746011350326177 0.010589868549770764 1 1 1 0.0088885571746014289 1 0.0093553496535035974 1 0.009082404172690621 1 0.010020411413457143 1 1 1 1 1 1 1 1 1 1 1 1 0.0097180862505278423 1 1 1 1 1 1 1 1 1 0.0091851074636279881 1 1 1 0.0089654359167410658 1 1 1 1 0.0092190460681682712 0.0092786150867630174 1 1 1 1 1 0.010457514771995861 1 1 0.0098182083131005179 0.0085531853140140904 0.011855474270345147 1 1 1 1 0.0098711163330014659 1 1 0.010032600133204363 1 1 1 0.010052609750331044 1 1 0.0099812575656847771 1 0.010533366988755287 1 1 1 1 1 1 0.010135975377252597 1 1 1 1 1 1 1 1 0.0098448697254956523 1 1 1 1 1 1 1 1 1 0.0093983013688718059 1 1 1 1 1 1 1 1 1 1 0.0097774464441078672 1 1 1 1 1 1 1 1 1 1 0.0093080229522386621 1 1 1 1 1 1 1 1 1 1 1 1 1 1 1 1 1 1 1 1 1 1 1 1 1 1 1 0.0095608384606716331 1 0.0098024383724590602 1 0.0087367124355774688 1 1 1 1 1 1 1 1 1 1 0.0048788093634409835 0.0041947348193780015 1 1 1 1 1 1 0.0043324242821697265 1 1 0.014064473455568847 0.012314553901954708 1 1 1 0.012744676243896509 1 1 1 0.01103872219742587 1 0.008972661666801926 1 1 1 1 1 0.011127166197827732 1 0.0084221682457240789 1 1 0.0086413682543061716 1 1 0.0090261878542805124 1 1 0.0088709821694738285 0.012095170648088413 1 0.010524225266913512 1 0.012725008872562166 1 1 1 0.0073906289655149109 1 0.0096283579439013396 0.0067498909371319984 1 1 1 0.012582733547506537 1 1 0.012090095922909836 1 1 1 1 1 0.0097710337451779178 1 1 0.010004728102424081 1 1 1 0.010302562515733762 1 1 1 1 0.011370514708681861 1 1 0.011334746844700469 1 1 0.0099667355310616434 1 0.0066939500914249177 1 1 1 0.0099879476713940242 0.0089641158406022717 1 1 1 1 1 1 0.0041815549408630798 1 1 1 1 1 1 1 1 1 1 1 1 1 1 1 1 1 1 1 1 0.0098699981823254408 1 1 1 0.010758621833972659 1 1 1 0.0096503753243539683 0.0099902024238886725 1 1 0.0098361866800902292 1 0.015735326969419039 1 0.011974501508094775 1 1 1 0.0089810540024544173 1 1 1 0.0099725827665391193 0.0083273167625095082 0.0085243940307146611 1 1 0.012262278386835482 1 1 1 0.010001887204816476 1 1 0.009374113415505635 1 0.0089616299883639953 1 1 1 0.011017266746039658 0.017646355348692393 1 0.017455302212687027 0.011885850322335707 1 1 1 1 1 1 0.014953751741196611 1 1 1 0.012109749817271667 0.0099885831200701939 1 1 1 1 1 1 1 1 1 0.01535959540608569 1 1 1 1 0.011799056093571762 1 1 1 1 1 1 1 1 1 1 1 1 1 1 1 1 1 0.0093781431635652224 1 1 1 1 1 1 1 1 1 1 1 1 1 1 1 1 1 1 1 1 1 1 1 1 1 1 0.0080478803922712228 1 1 1 1 1 1 0.0065691648764423707 0.010303883965295527 1 0.0099906589616590158 1 1 1 1 1 1 1 1 1 1 1 1 1 0.0074950566186033074 1 0.0096334133672123356 0.0073302898557672845 1 1 0.0080823394311383169 1 1 1 1 1 1 0.0091571309675443427 1 1 1 1 1 1 1 1 1 0.0098349254631635592 1 1 1 1 1 1 1 1 1 1 0.010699021080532469 1 1 0.0082738836289616424 1 0.012174660615432766 0.011547840807759472 1 1 1 1 1 1 1 1 0.0098051760053664977 1 1 1 1 1 1 0.0057102621060708715 1 1 1 1 0.0093541870901205724 1 0.011405974998728356 0.0083568306116295274 1 1 1 1 1 1 1 1 0.0079638171611533491 1 1 1 1 1 1 1 1 0.0098405533594633429 1 1 1 1 1 1 1 0.010213003472478048 1 0.0096105946411681673 1 1 0.0099786394779795805 0.0087250454538064653 1 0.0087081731311781201 0.010805460288410673 1 1 1 0.0099556226360523296 1 1 1 1 1 1 0.0084792672604685482 1 0.0055733970576240521 1 1 0.010068422285235662 1 1 1 1 1 1 0.0096564001766440109 1 0.0092798885178566395 1 0.0086709664155239716 1 0.011138489787018674 0.010858824210622788 1 1 1 1 0.011228103506217911 1 1 1 1 1 1 1 1 1 0.0071687593208001818 1 1 1 1 1 1 0.0087495243713161617 1 1 1 0.010042946568263048 1 1 0.0076369127412135862 1 0.0082693057498604283 1 1 1 1 0.010340873137602243 1 0.010011494642133488 1 1 1 1 1 0.010137204455810497 0.0061864028964757631 1 1 1 1 1 1 1 1 1 1 1 1 1 1 1 1 1 1 1 1 1 1 1 1 1 1 1 1 1 1 1 1 1 1 1 1 1 1 1 1 1 1 1 1 1 1 1 1 0.0098826740480838088 1 1 0.011735471359503757 0.0094903316936466378 1 1 1 1 0.010533771734379117 1 1 1 1 1 1 1 1 1 1 1 1 1 1 1 1 0.010999529519620251 1 1 0.009871486234241611 1 0.011319806420068572 1 1 1 1 1 1 1 1 1 1 1 1 1 1 1 1 0.012188856351217366 1 1 1 1 1 1 0.010036118497914921 1 1 1 1 1 1 1 1 1 1 1 1 0.010178462724830036 1 1 1 1 0.010142344226915109 1 1 1 1 1 1 1 1 1 0.010539353896277331 1 1 1 1 0.010506079764920746 1 1 1 1 1 1 1 1 1 1 0.0058488733059318572 1 1 0.00089510413582637454 0.0079579927576116892 1 1 1 1 1 1 1 1 1 1 1 1 1 1 1 1 0.0030782854173383462 1 1 1 1 1 0.010473393136541059 1 1 1 0.0099883380522606119 1 1 1 1 0.010183162046894113 1 0.013277169280936377 1 1 1 0.0099567533261991047 0.013913592671288291 1 1 1 1 1 0.011267393819998446 1 0.0037656875200101012 1 1 1 1 1 1 1 0.014543974495924084 1 1 1 1 1 0.0069276819610250076 0.0085551383614077808 1 1 0.01001724269415688 1 1 1 0.0042854836547352067 1 0.0080021577586440479 1 1 0.0027700821179956828 1 1 1 0.008743696902046667 1 1 1 1 1 1 0.014467289642881076 1 0.009365506453032111 1 1 1 0.0080761279690609224 1 1 1 1 1 1 1 1 1 1 1 1 1 1 1 1 1 1 1 1 0.0039569969592361314 1 1 0.0093561840198578949 0.011110870252628904 1 1 0.0028636939109194098 1 1 0.010128726310828291 1 1 1 1 1 1 1 1 1 1 1 1 1 1 1 1 1 1 1 1 1 1 1 1 1 1 1 1 0.0094339667142817954 1 1 1 0.0085391537630794979 1 1 1 1 1 1 1 1 1 0.0086844331422199928 1 1 1 0.0076005384912157213 1 0.0074726869647545073 1 1 1 1 0.0063282241599480048 1 1 1 1 0.014273155994938341 1 1 1 0.0049523226978642754 1 1 1 0.010335899184174737 1 1 1 0.0041891949127777529 1 1 1 1 1 1 0.0033590554401189601 1 1 1 1 1 1 1 1 1 1 1 0.0087882538225345069 1 1 1 1 1 1 1 1 1 1 1 1 1 1 1 1 1 0.0094961321237387319 1 1 0.010992080504112503 0.0086401781742035388 1 1 0.011517684685068095 1 0.0051928445077715612 0.0092520369113783061 1 1 1 1 1 1 0.0055796991904391163 0.0088564728258775111 1 1 0.0086278848755928055 0.0082160384850101069 1 1 0.013773715407585129 1 0.01046713985842837 1 0.0095668512191464123 1 1 1 1 1 1 1 1 1 0.0084602128855935481 1 1 1 1 0.0091715310711077396 1 1 1 1 1 1 1 0.0074879670135570356 0.0097105465823218926 1 1 1 1 1 1 1 1 1 1 1 0.011530767575665355 1 1 1 0.010529290252328365 1 1 1 1 1 1 0.0075657519035380767 1 1 1 0.0091906287513677503 1 1 0.0086125091623372139 0.014332530518269803 1 1 0.010081420382790853 1 1 1 0.0060020059048248309 1 0.010278518132168067 1 1 1 1 1 1 1 0.013290320386077161 1 1 1 0.0099839996450641639 1 0.011207916364440046 1 1 1 1 1 1 0.010740560722977504 1 1 1 1 1 1 1 1 1 1 1 1 1 1 1 1 1 1 1 1 1 0.0098478862097646676 1 1 1 1 1 1 1 1 1 1 1 1 1 0.010348807966678317 1 1 1 1 1 1 1 1 1 1 1 1 1 1 1 1 1 1 1 0.011508419557668308 1 1 0.011079272588521916 1 1 1 1 0.0091082422470239576 1 1 1 1 1 1 1 1 0.0096553954728841786 1 1 1 1 1 1 1 1 1 1 1 1 1 0.012638071610708852 1 1 1 1 0.014155083035419579 1 0.012479817949638561 1 1 1 1 1 1 0.0094450870792057058 1 1 1 1 0.010777954935824707 1 1 1 0.0068945410705761479 1 1 1 1 1 1 1 0.0088215154525903144 1 1 1 1 1 0.011454061516013088 1 1 1 1 1 1 1 0.0093963419626238599 1 1 1 0.0073375874716565086 1 1 1 1 1 0.0028361055656155295 1 1 1 1 1 1 1 1 1 1 1 1 1 1 1 1 1 0.0096786488219035727 1 1 0.0046366192798240526 1 1 0.014832652523975372 1 1 1 0.0140584363613546 1 1 1 8.8889328710151094e-10 1 1 1 1 1 1 1 1 1 1 0.010158214524445274 1 1 1 1 0.010930933333165905 1 1 1 1 1 1 1 1 0.01709249806043726 1 0.0099817969849358926 1 1 1 1 1 0.007729165424784093 1 0.010297723245256135 1 1 1 1 1 0.0057485486717853192 1 1 1 1 1 1 1 1 1 1 0.007981704485947573 1 1 0.0061679351301652859 1 1 1 1 0.0098012030098325702 1 1 1 0.0094167911785246541 1 1 1 1 1 1 1 1 1 1 1 1 1 1 1 0.0094667884690648012 1 1 1 1 1 1 0.009903295804883137 1 1 1 1 1 1 1 1 1 0.0065296576937984175 1 1 0.0075805608374466165 1 1 0.010128654298650265 1 0.020519860479489435 1 1 1 1 1 1 1 1 0.0042382194517556517 1 1 0.0065246227951755911 1 1 0.010927483477164886 1 0.011740866114614702 1 1 1 1 1 1 1 1 1 0.0097728463005099311 1 1 1 1 1 0.007161441650230178 1 1 1 1 1 1 1 1 1 1 1 0.012618989519190625 1 1 1 1 1 1 1 1 1 0.0038246077315370313 1 1 1 0.0065880645734256796 1 1 1 1 0.0088005277090492402 1 1 1 1 0.0090856887033581805 1 1 0.0095959100839254942 1 1 1 1 1 1 0.0092808901070903903 1 1 1 1 1 1 1 1 1 1 1 1 0.0088143907485376954 1 1 1 1 1 0.0072767361580630789 1 0.013998372612365112 1 1 1 1 1 1 1 1 1 1 1 1 1 1 1 1 1 1 1 1 1 1 1 1 1 1 1 1 1 1 1 1 1 1 1 1 1 0.016229627666656359 1 1 1 1 1 1 1 1 1 1 1 1 1 1 1 1 1 0.017908723804380137 1 1 1 1 1 1 1 1 1 1 1 1 1 0.018538396002654348 1 1 0.015715055668466784 0.0097327266920484417 0.004888745209554405 1 1 1 1 1 1 1 1 1 1 1 1 1 1 1 0.010314009376463604 0.0056841570983135678 1 1 1 1 0.010681422120599485 1 0.0076294597519923953 1 1 1 1 1 1 1 1 1 1 1 1 1 1 1 1 1 1 1 0.010023352371281966 1 0.0080873275715735368 1 
</DataArray>
</CellData>
</Piece>
</UnstructuredGrid>
</VTKFile>
